# vtk DataFile Version 2.0
               (MEGA VTK FILE)
ASCII
DATASET UNSTRUCTURED_GRID
POINTS       1950    double
  0.10378E-02  0.67292E-03 -0.15004E-01
  0.17452E-02  0.12308E-02 -0.14998E-01
  0.23177E-02  0.59151E-03 -0.14996E-01
  0.16698E-02 -0.33775E-03 -0.15009E-01
  0.10379E-02  0.67237E-03 -0.11750E-01
  0.17453E-02  0.12301E-02 -0.11750E-01
  0.23178E-02  0.59098E-03 -0.11750E-01
  0.16700E-02 -0.33851E-03 -0.11750E-01
  0.30377E-02  0.14882E-03 -0.14984E-01
  0.27791E-02 -0.67643E-03 -0.14999E-01
  0.30377E-02  0.14846E-03 -0.11750E-01
  0.27788E-02 -0.67692E-03 -0.11750E-01
  0.12850E-02  0.18412E-02 -0.14990E-01
  0.65139E-03  0.14576E-02 -0.15000E-01
  0.12851E-02  0.18410E-02 -0.11750E-01
  0.65164E-03  0.14566E-02 -0.11750E-01
  0.12757E-03  0.29933E-03 -0.15005E-01
 -0.12822E-03  0.11672E-02 -0.15007E-01
  0.12783E-03  0.29819E-03 -0.11750E-01
 -0.12804E-03  0.11655E-02 -0.11750E-01
  0.94500E-03  0.22748E-02 -0.14985E-01
  0.11327E-02  0.28286E-02 -0.14979E-01
  0.17490E-02  0.24238E-02 -0.14982E-01
  0.94533E-03  0.22746E-02 -0.11750E-01
  0.11330E-02  0.28291E-02 -0.11750E-01
  0.17494E-02  0.24236E-02 -0.11750E-01
  0.40588E-03  0.21685E-02 -0.14997E-01
  0.39779E-03  0.29366E-02 -0.14993E-01
  0.40594E-03  0.21684E-02 -0.11750E-01
  0.39781E-03  0.29369E-02 -0.11750E-01
 -0.76303E-03 -0.10033E-02 -0.15010E-01
 -0.86604E-03  0.78969E-04 -0.15013E-01
  0.46119E-03 -0.70318E-03 -0.15008E-01
 -0.76268E-03 -0.10032E-02 -0.11750E-01
 -0.86593E-03  0.78160E-04 -0.11750E-01
  0.46164E-03 -0.70391E-03 -0.11750E-01
 -0.18300E-02 -0.71196E-03 -0.14997E-01
 -0.18440E-02  0.82749E-04 -0.15010E-01
 -0.18297E-02 -0.71210E-03 -0.11750E-01
 -0.18441E-02  0.82626E-04 -0.11750E-01
 -0.27238E-02 -0.77865E-03 -0.14993E-01
 -0.28028E-02  0.40713E-04 -0.15004E-01
 -0.27238E-02 -0.77882E-03 -0.11750E-01
 -0.28031E-02  0.40439E-04 -0.11750E-01
 -0.25365E-02 -0.15195E-02 -0.14982E-01
 -0.19287E-02 -0.13230E-02 -0.14988E-01
 -0.25363E-02 -0.15195E-02 -0.11750E-01
 -0.19283E-02 -0.13231E-02 -0.11750E-01
 -0.99363E-03  0.98847E-03 -0.15014E-01
 -0.99377E-03  0.98712E-03 -0.11750E-01
 -0.14380E-02 -0.17325E-02 -0.14995E-01
 -0.14377E-02 -0.17325E-02 -0.11750E-01
 -0.31574E-03  0.20220E-02 -0.15009E-01
 -0.31594E-03  0.20217E-02 -0.11750E-01
 -0.11068E-02  0.18615E-02 -0.15014E-01
 -0.11071E-02  0.18616E-02 -0.11750E-01
 -0.18845E-02  0.17175E-02 -0.15002E-01
 -0.18713E-02  0.90940E-03 -0.15011E-01
 -0.18846E-02  0.17175E-02 -0.11750E-01
 -0.18714E-02  0.90916E-03 -0.11750E-01
 -0.15871E-03 -0.19800E-02 -0.15007E-01
 -0.94089E-03 -0.23489E-02 -0.14995E-01
 -0.15844E-03 -0.19800E-02 -0.11750E-01
 -0.94029E-03 -0.23489E-02 -0.11750E-01
  0.78856E-03 -0.17074E-02 -0.15006E-01
  0.78922E-03 -0.17074E-02 -0.11750E-01
  0.17211E-02 -0.14894E-02 -0.15001E-01
  0.17211E-02 -0.14892E-02 -0.11750E-01
  0.32050E-02  0.76036E-03 -0.14965E-01
  0.28046E-02  0.12477E-02 -0.14980E-01
  0.32047E-02  0.75936E-03 -0.11750E-01
  0.28047E-02  0.12473E-02 -0.11750E-01
  0.23059E-02  0.18665E-02 -0.14985E-01
  0.23060E-02  0.18664E-02 -0.11750E-01
 -0.40614E-03  0.29038E-02 -0.15001E-01
 -0.40627E-03  0.29049E-02 -0.11750E-01
 -0.12092E-02  0.27207E-02 -0.14999E-01
 -0.12092E-02  0.27212E-02 -0.11750E-01
 -0.19448E-02  0.24642E-02 -0.14986E-01
 -0.19448E-02  0.24645E-02 -0.11750E-01
 -0.25029E-02  0.22359E-02 -0.14970E-01
 -0.26371E-02  0.16503E-02 -0.14990E-01
 -0.25029E-02  0.22359E-02 -0.11750E-01
 -0.26372E-02  0.16503E-02 -0.11750E-01
 -0.27671E-02  0.87493E-03 -0.15006E-01
 -0.27674E-02  0.87466E-03 -0.11750E-01
 -0.21123E-02 -0.21373E-02 -0.14983E-01
 -0.21122E-02 -0.21373E-02 -0.11750E-01
 -0.16087E-02 -0.26931E-02 -0.14978E-01
 -0.16087E-02 -0.26931E-02 -0.11750E-01
 -0.11939E-02 -0.31291E-02 -0.14963E-01
 -0.58641E-03 -0.30382E-02 -0.14983E-01
 -0.11937E-02 -0.31291E-02 -0.11750E-01
 -0.58606E-03 -0.30382E-02 -0.11750E-01
  0.20912E-03 -0.28748E-02 -0.14996E-01
  0.20952E-03 -0.28748E-02 -0.11750E-01
  0.10586E-02 -0.26423E-02 -0.14994E-01
  0.10589E-02 -0.26420E-02 -0.11750E-01
  0.18413E-02 -0.23707E-02 -0.14984E-01
  0.18413E-02 -0.23705E-02 -0.11750E-01
  0.24544E-02 -0.21445E-02 -0.14969E-01
  0.26022E-02 -0.15105E-02 -0.14986E-01
  0.24543E-02 -0.21439E-02 -0.11750E-01
  0.26021E-02 -0.15106E-02 -0.11750E-01
  0.37964E-02  0.93572E-03 -0.14925E-01
  0.39100E-02  0.00000E+00 -0.14932E-01
  0.37964E-02  0.93572E-03 -0.11750E-01
  0.39100E-02  0.00000E+00 -0.11750E-01
  0.34621E-02  0.18171E-02 -0.14931E-01
  0.34621E-02  0.18171E-02 -0.11750E-01
  0.29267E-02  0.25928E-02 -0.14926E-01
  0.29267E-02  0.25928E-02 -0.11750E-01
  0.22211E-02  0.32179E-02 -0.14926E-01
  0.22211E-02  0.32179E-02 -0.11750E-01
  0.13865E-02  0.36559E-02 -0.14926E-01
  0.13865E-02  0.36559E-02 -0.11750E-01
  0.47130E-03  0.38815E-02 -0.14930E-01
  0.47130E-03  0.38815E-02 -0.11750E-01
 -0.47130E-03  0.38815E-02 -0.14931E-01
 -0.47130E-03  0.38815E-02 -0.11750E-01
 -0.13865E-02  0.36559E-02 -0.14930E-01
 -0.13865E-02  0.36559E-02 -0.11750E-01
 -0.22211E-02  0.32179E-02 -0.14929E-01
 -0.22211E-02  0.32179E-02 -0.11750E-01
 -0.29267E-02  0.25928E-02 -0.14923E-01
 -0.29267E-02  0.25928E-02 -0.11750E-01
 -0.34621E-02  0.18171E-02 -0.14931E-01
 -0.34621E-02  0.18171E-02 -0.11750E-01
 -0.37964E-02  0.93572E-03 -0.14934E-01
 -0.37964E-02  0.93572E-03 -0.11750E-01
 -0.39100E-02  0.22152E-17 -0.14933E-01
 -0.39100E-02 -0.47884E-18 -0.11750E-01
 -0.37964E-02 -0.93572E-03 -0.14930E-01
 -0.37964E-02 -0.93572E-03 -0.11750E-01
 -0.34621E-02 -0.18171E-02 -0.14927E-01
 -0.34621E-02 -0.18171E-02 -0.11750E-01
 -0.29267E-02 -0.25928E-02 -0.14925E-01
 -0.29267E-02 -0.25928E-02 -0.11750E-01
 -0.22211E-02 -0.32179E-02 -0.14930E-01
 -0.22211E-02 -0.32179E-02 -0.11750E-01
 -0.13865E-02 -0.36559E-02 -0.14926E-01
 -0.13865E-02 -0.36559E-02 -0.11750E-01
 -0.47130E-03 -0.38815E-02 -0.14933E-01
 -0.47130E-03 -0.38815E-02 -0.11750E-01
  0.47130E-03 -0.38815E-02 -0.14930E-01
  0.47130E-03 -0.38815E-02 -0.11750E-01
  0.13865E-02 -0.36559E-02 -0.14928E-01
  0.13865E-02 -0.36559E-02 -0.11750E-01
  0.22211E-02 -0.32179E-02 -0.14932E-01
  0.22211E-02 -0.32179E-02 -0.11750E-01
  0.29267E-02 -0.25928E-02 -0.14926E-01
  0.29267E-02 -0.25928E-02 -0.11750E-01
  0.34621E-02 -0.18171E-02 -0.14932E-01
  0.34621E-02 -0.18171E-02 -0.11750E-01
  0.37964E-02 -0.93572E-03 -0.14932E-01
  0.37964E-02 -0.93572E-03 -0.11750E-01
  0.10376E-02  0.67348E-03 -0.15759E-01
  0.17450E-02  0.12314E-02 -0.15757E-01
  0.23175E-02  0.59203E-03 -0.15757E-01
  0.16696E-02 -0.33700E-03 -0.15759E-01
  0.30377E-02  0.14918E-03 -0.15755E-01
  0.27795E-02 -0.67594E-03 -0.15758E-01
  0.12849E-02  0.18414E-02 -0.15756E-01
  0.65115E-03  0.14586E-02 -0.15758E-01
  0.12731E-03  0.30048E-03 -0.15759E-01
 -0.12841E-03  0.11690E-02 -0.15759E-01
  0.94467E-03  0.22749E-02 -0.15756E-01
  0.11323E-02  0.28282E-02 -0.15755E-01
  0.17487E-02  0.24239E-02 -0.15755E-01
  0.40583E-03  0.21685E-02 -0.15757E-01
  0.39777E-03  0.29364E-02 -0.15757E-01
 -0.76338E-03 -0.10035E-02 -0.15759E-01
 -0.86615E-03  0.79778E-04 -0.15760E-01
  0.46074E-03 -0.70245E-03 -0.15759E-01
 -0.18303E-02 -0.71182E-03 -0.15757E-01
 -0.18439E-02  0.82873E-04 -0.15760E-01
 -0.27238E-02 -0.77848E-03 -0.15757E-01
 -0.28025E-02  0.40986E-04 -0.15759E-01
 -0.25366E-02 -0.15194E-02 -0.15755E-01
 -0.19292E-02 -0.13228E-02 -0.15756E-01
 -0.99349E-03  0.98983E-03 -0.15760E-01
 -0.14384E-02 -0.17324E-02 -0.15757E-01
 -0.31554E-03  0.20223E-02 -0.15759E-01
 -0.11064E-02  0.18614E-02 -0.15760E-01
 -0.18845E-02  0.17175E-02 -0.15758E-01
 -0.18712E-02  0.90964E-03 -0.15760E-01
 -0.15899E-03 -0.19800E-02 -0.15759E-01
 -0.94149E-03 -0.23489E-02 -0.15757E-01
  0.78790E-03 -0.17074E-02 -0.15759E-01
  0.17210E-02 -0.14896E-02 -0.15758E-01
  0.32053E-02  0.76137E-03 -0.15753E-01
  0.28046E-02  0.12481E-02 -0.15755E-01
  0.23058E-02  0.18665E-02 -0.15755E-01
 -0.40600E-03  0.29027E-02 -0.15758E-01
 -0.12092E-02  0.27202E-02 -0.15758E-01
 -0.19447E-02  0.24640E-02 -0.15756E-01
 -0.25028E-02  0.22359E-02 -0.15753E-01
 -0.26370E-02  0.16503E-02 -0.15756E-01
 -0.27668E-02  0.87519E-03 -0.15759E-01
 -0.21125E-02 -0.21373E-02 -0.15755E-01
 -0.16088E-02 -0.26932E-02 -0.15754E-01
 -0.11940E-02 -0.31291E-02 -0.15753E-01
 -0.58676E-03 -0.30382E-02 -0.15755E-01
  0.20871E-03 -0.28748E-02 -0.15757E-01
  0.10583E-02 -0.26426E-02 -0.15757E-01
  0.18413E-02 -0.23709E-02 -0.15755E-01
  0.24545E-02 -0.21450E-02 -0.15753E-01
  0.26022E-02 -0.15104E-02 -0.15756E-01
  0.37964E-02  0.93572E-03 -0.15748E-01
  0.39100E-02  0.00000E+00 -0.15750E-01
  0.34621E-02  0.18171E-02 -0.15750E-01
  0.29267E-02  0.25928E-02 -0.15749E-01
  0.22211E-02  0.32179E-02 -0.15749E-01
  0.13865E-02  0.36559E-02 -0.15749E-01
  0.47130E-03  0.38815E-02 -0.15750E-01
 -0.47130E-03  0.38815E-02 -0.15750E-01
 -0.13865E-02  0.36559E-02 -0.15749E-01
 -0.22211E-02  0.32179E-02 -0.15749E-01
 -0.29267E-02  0.25928E-02 -0.15748E-01
 -0.34621E-02  0.18171E-02 -0.15749E-01
 -0.37964E-02  0.93572E-03 -0.15750E-01
 -0.39100E-02 -0.47884E-18 -0.15750E-01
 -0.37964E-02 -0.93572E-03 -0.15750E-01
 -0.34621E-02 -0.18171E-02 -0.15749E-01
 -0.29267E-02 -0.25928E-02 -0.15749E-01
 -0.22211E-02 -0.32179E-02 -0.15749E-01
 -0.13865E-02 -0.36559E-02 -0.15749E-01
 -0.47130E-03 -0.38815E-02 -0.15750E-01
  0.47130E-03 -0.38815E-02 -0.15750E-01
  0.13865E-02 -0.36559E-02 -0.15749E-01
  0.22211E-02 -0.32179E-02 -0.15750E-01
  0.29267E-02 -0.25928E-02 -0.15749E-01
  0.34621E-02 -0.18171E-02 -0.15750E-01
  0.37964E-02 -0.93572E-03 -0.15750E-01
  0.10375E-02  0.67403E-03 -0.14921E-01
  0.17448E-02  0.12321E-02 -0.14921E-01
  0.23174E-02  0.59255E-03 -0.14921E-01
  0.16694E-02 -0.33624E-03 -0.14921E-01
  0.30377E-02  0.14955E-03 -0.14921E-01
  0.27798E-02 -0.67544E-03 -0.14921E-01
  0.12848E-02  0.18415E-02 -0.14921E-01
  0.65090E-03  0.14596E-02 -0.14921E-01
  0.12705E-03  0.30163E-03 -0.14921E-01
 -0.12859E-03  0.11707E-02 -0.14921E-01
  0.94434E-03  0.22750E-02 -0.14921E-01
  0.11320E-02  0.28277E-02 -0.14921E-01
  0.17483E-02  0.24241E-02 -0.14921E-01
  0.40577E-03  0.21685E-02 -0.14921E-01
  0.39776E-03  0.29361E-02 -0.14921E-01
 -0.76374E-03 -0.10036E-02 -0.14921E-01
 -0.86626E-03  0.80588E-04 -0.14921E-01
  0.46029E-03 -0.70173E-03 -0.14921E-01
 -0.18306E-02 -0.71168E-03 -0.14921E-01
 -0.18438E-02  0.82996E-04 -0.14921E-01
 -0.27238E-02 -0.77831E-03 -0.14921E-01
 -0.28022E-02  0.41259E-04 -0.14921E-01
 -0.25368E-02 -0.15194E-02 -0.14921E-01
 -0.19296E-02 -0.13227E-02 -0.14921E-01
 -0.99334E-03  0.99119E-03 -0.14921E-01
 -0.14387E-02 -0.17324E-02 -0.14921E-01
 -0.31534E-03  0.20226E-02 -0.14921E-01
 -0.11061E-02  0.18613E-02 -0.14921E-01
 -0.18844E-02  0.17175E-02 -0.14921E-01
 -0.18710E-02  0.90988E-03 -0.14921E-01
 -0.15926E-03 -0.19801E-02 -0.14921E-01
 -0.94209E-03 -0.23490E-02 -0.14921E-01
  0.78724E-03 -0.17074E-02 -0.14921E-01
  0.17210E-02 -0.14899E-02 -0.14921E-01
  0.32056E-02  0.76237E-03 -0.14921E-01
  0.28046E-02  0.12485E-02 -0.14921E-01
  0.23057E-02  0.18666E-02 -0.14921E-01
 -0.40586E-03  0.29017E-02 -0.14921E-01
 -0.12092E-02  0.27198E-02 -0.14921E-01
 -0.19447E-02  0.24638E-02 -0.14921E-01
 -0.25028E-02  0.22359E-02 -0.14921E-01
 -0.26369E-02  0.16503E-02 -0.14921E-01
 -0.27665E-02  0.87545E-03 -0.14921E-01
 -0.21126E-02 -0.21374E-02 -0.14921E-01
 -0.16088E-02 -0.26932E-02 -0.14921E-01
 -0.11941E-02 -0.31291E-02 -0.14921E-01
 -0.58711E-03 -0.30382E-02 -0.14921E-01
  0.20830E-03 -0.28748E-02 -0.14921E-01
  0.10580E-02 -0.26428E-02 -0.14921E-01
  0.18414E-02 -0.23711E-02 -0.14921E-01
  0.24546E-02 -0.21456E-02 -0.14921E-01
  0.26023E-02 -0.15103E-02 -0.14921E-01
  0.37964E-02  0.93572E-03 -0.14921E-01
  0.39100E-02  0.00000E+00 -0.14921E-01
  0.34621E-02  0.18171E-02 -0.14921E-01
  0.29267E-02  0.25928E-02 -0.14921E-01
  0.22211E-02  0.32179E-02 -0.14921E-01
  0.13865E-02  0.36559E-02 -0.14921E-01
  0.47130E-03  0.38815E-02 -0.14921E-01
 -0.47130E-03  0.38815E-02 -0.14921E-01
 -0.13865E-02  0.36559E-02 -0.14921E-01
 -0.22211E-02  0.32179E-02 -0.14921E-01
 -0.29267E-02  0.25928E-02 -0.14921E-01
 -0.34621E-02  0.18171E-02 -0.14921E-01
 -0.37964E-02  0.93572E-03 -0.14921E-01
 -0.39100E-02  0.39516E-17 -0.14921E-01
 -0.37964E-02 -0.93572E-03 -0.14921E-01
 -0.34621E-02 -0.18171E-02 -0.14921E-01
 -0.29267E-02 -0.25928E-02 -0.14921E-01
 -0.22211E-02 -0.32179E-02 -0.14921E-01
 -0.13865E-02 -0.36559E-02 -0.14921E-01
 -0.47130E-03 -0.38815E-02 -0.14921E-01
  0.47130E-03 -0.38815E-02 -0.14921E-01
  0.13865E-02 -0.36559E-02 -0.14921E-01
  0.22211E-02 -0.32179E-02 -0.14921E-01
  0.29267E-02 -0.25928E-02 -0.14921E-01
  0.34621E-02 -0.18171E-02 -0.14921E-01
  0.37964E-02 -0.93572E-03 -0.14921E-01
  0.10374E-02  0.67459E-03 -0.13942E-01
  0.17446E-02  0.12328E-02 -0.13942E-01
  0.23173E-02  0.59308E-03 -0.13942E-01
  0.16692E-02 -0.33549E-03 -0.13942E-01
  0.30376E-02  0.14991E-03 -0.13942E-01
  0.27801E-02 -0.67495E-03 -0.13942E-01
  0.12847E-02  0.18417E-02 -0.13942E-01
  0.65065E-03  0.14606E-02 -0.13942E-01
  0.12678E-03  0.30278E-03 -0.13942E-01
 -0.12878E-03  0.11725E-02 -0.13942E-01
  0.94401E-03  0.22752E-02 -0.13942E-01
  0.11316E-02  0.28273E-02 -0.13942E-01
  0.17479E-02  0.24242E-02 -0.13942E-01
  0.40572E-03  0.21686E-02 -0.13942E-01
  0.39774E-03  0.29359E-02 -0.13942E-01
 -0.76409E-03 -0.10038E-02 -0.13942E-01
 -0.86637E-03  0.81397E-04 -0.13942E-01
  0.45985E-03 -0.70100E-03 -0.13942E-01
 -0.18309E-02 -0.71154E-03 -0.13942E-01
 -0.18437E-02  0.83120E-04 -0.13942E-01
 -0.27237E-02 -0.77814E-03 -0.13942E-01
 -0.28020E-02  0.41533E-04 -0.13942E-01
 -0.25369E-02 -0.15193E-02 -0.13942E-01
 -0.19300E-02 -0.13227E-02 -0.13942E-01
 -0.99320E-03  0.99254E-03 -0.13942E-01
 -0.14391E-02 -0.17324E-02 -0.13942E-01
 -0.31514E-03  0.20228E-02 -0.13942E-01
 -0.11057E-02  0.18611E-02 -0.13942E-01
 -0.18844E-02  0.17175E-02 -0.13942E-01
 -0.18709E-02  0.91012E-03 -0.13942E-01
 -0.15954E-03 -0.19801E-02 -0.13942E-01
 -0.94269E-03 -0.23490E-02 -0.13942E-01
  0.78658E-03 -0.17074E-02 -0.13942E-01
  0.17209E-02 -0.14901E-02 -0.13942E-01
  0.32060E-02  0.76338E-03 -0.13942E-01
  0.28046E-02  0.12490E-02 -0.13942E-01
  0.23056E-02  0.18666E-02 -0.13942E-01
 -0.40572E-03  0.29006E-02 -0.13942E-01
 -0.12092E-02  0.27193E-02 -0.13942E-01
 -0.19446E-02  0.24636E-02 -0.13942E-01
 -0.25028E-02  0.22359E-02 -0.13942E-01
 -0.26368E-02  0.16503E-02 -0.13942E-01
 -0.27662E-02  0.87571E-03 -0.13942E-01
 -0.21128E-02 -0.21374E-02 -0.13942E-01
 -0.16088E-02 -0.26932E-02 -0.13942E-01
 -0.11942E-02 -0.31291E-02 -0.13942E-01
 -0.58746E-03 -0.30382E-02 -0.13942E-01
  0.20790E-03 -0.28748E-02 -0.13942E-01
  0.10577E-02 -0.26431E-02 -0.13942E-01
  0.18414E-02 -0.23713E-02 -0.13942E-01
  0.24548E-02 -0.21461E-02 -0.13942E-01
  0.26024E-02 -0.15102E-02 -0.13942E-01
  0.37964E-02  0.93572E-03 -0.13942E-01
  0.39100E-02  0.00000E+00 -0.13942E-01
  0.34621E-02  0.18171E-02 -0.13942E-01
  0.29267E-02  0.25928E-02 -0.13942E-01
  0.22211E-02  0.32179E-02 -0.13942E-01
  0.13865E-02  0.36559E-02 -0.13942E-01
  0.47130E-03  0.38815E-02 -0.13942E-01
 -0.47130E-03  0.38815E-02 -0.13942E-01
 -0.13865E-02  0.36559E-02 -0.13942E-01
 -0.22211E-02  0.32179E-02 -0.13942E-01
 -0.29267E-02  0.25928E-02 -0.13942E-01
 -0.34621E-02  0.18171E-02 -0.13942E-01
 -0.37964E-02  0.93572E-03 -0.13942E-01
 -0.39100E-02 -0.47884E-18 -0.13942E-01
 -0.37964E-02 -0.93572E-03 -0.13942E-01
 -0.34621E-02 -0.18171E-02 -0.13942E-01
 -0.29267E-02 -0.25928E-02 -0.13942E-01
 -0.22211E-02 -0.32179E-02 -0.13942E-01
 -0.13865E-02 -0.36559E-02 -0.13942E-01
 -0.47130E-03 -0.38815E-02 -0.13942E-01
  0.47130E-03 -0.38815E-02 -0.13942E-01
  0.13865E-02 -0.36559E-02 -0.13942E-01
  0.22211E-02 -0.32179E-02 -0.13942E-01
  0.29267E-02 -0.25928E-02 -0.13942E-01
  0.34621E-02 -0.18171E-02 -0.13942E-01
  0.37964E-02 -0.93572E-03 -0.13942E-01
  0.10373E-02  0.67514E-03 -0.12963E-01
  0.17445E-02  0.12334E-02 -0.12963E-01
  0.23172E-02  0.59360E-03 -0.12963E-01
  0.16689E-02 -0.33474E-03 -0.12963E-01
  0.30376E-02  0.15027E-03 -0.12963E-01
  0.27805E-02 -0.67446E-03 -0.12963E-01
  0.12846E-02  0.18419E-02 -0.12963E-01
  0.65041E-03  0.14616E-02 -0.12963E-01
  0.12652E-03  0.30393E-03 -0.12963E-01
 -0.12896E-03  0.11742E-02 -0.12963E-01
  0.94367E-03  0.22753E-02 -0.12963E-01
  0.11313E-02  0.28269E-02 -0.12963E-01
  0.17475E-02  0.24244E-02 -0.12963E-01
  0.40566E-03  0.21686E-02 -0.12963E-01
  0.39772E-03  0.29356E-02 -0.12963E-01
 -0.76444E-03 -0.10039E-02 -0.12963E-01
 -0.86648E-03  0.82206E-04 -0.12963E-01
  0.45940E-03 -0.70028E-03 -0.12963E-01
 -0.18312E-02 -0.71140E-03 -0.12963E-01
 -0.18436E-02  0.83243E-04 -0.12963E-01
 -0.27237E-02 -0.77797E-03 -0.12963E-01
 -0.28017E-02  0.41806E-04 -0.12963E-01
 -0.25371E-02 -0.15193E-02 -0.12963E-01
 -0.19305E-02 -0.13226E-02 -0.12963E-01
 -0.99305E-03  0.99390E-03 -0.12963E-01
 -0.14394E-02 -0.17323E-02 -0.12963E-01
 -0.31494E-03  0.20231E-02 -0.12963E-01
 -0.11054E-02  0.18610E-02 -0.12963E-01
 -0.18843E-02  0.17175E-02 -0.12963E-01
 -0.18708E-02  0.91036E-03 -0.12963E-01
 -0.15981E-03 -0.19801E-02 -0.12963E-01
 -0.94328E-03 -0.23490E-02 -0.12963E-01
  0.78592E-03 -0.17074E-02 -0.12963E-01
  0.17209E-02 -0.14904E-02 -0.12963E-01
  0.32063E-02  0.76439E-03 -0.12963E-01
  0.28045E-02  0.12494E-02 -0.12963E-01
  0.23055E-02  0.18666E-02 -0.12963E-01
 -0.40558E-03  0.28995E-02 -0.12963E-01
 -0.12092E-02  0.27188E-02 -0.12963E-01
 -0.19446E-02  0.24633E-02 -0.12963E-01
 -0.25027E-02  0.22359E-02 -0.12963E-01
 -0.26367E-02  0.16503E-02 -0.12963E-01
 -0.27658E-02  0.87597E-03 -0.12963E-01
 -0.21129E-02 -0.21374E-02 -0.12963E-01
 -0.16089E-02 -0.26932E-02 -0.12963E-01
 -0.11943E-02 -0.31291E-02 -0.12963E-01
 -0.58781E-03 -0.30382E-02 -0.12963E-01
  0.20749E-03 -0.28748E-02 -0.12963E-01
  0.10574E-02 -0.26434E-02 -0.12963E-01
  0.18415E-02 -0.23715E-02 -0.12963E-01
  0.24549E-02 -0.21467E-02 -0.12963E-01
  0.26025E-02 -0.15101E-02 -0.12963E-01
  0.37964E-02  0.93572E-03 -0.12963E-01
  0.39100E-02  0.00000E+00 -0.12963E-01
  0.34621E-02  0.18171E-02 -0.12963E-01
  0.29267E-02  0.25928E-02 -0.12963E-01
  0.22211E-02  0.32179E-02 -0.12963E-01
  0.13865E-02  0.36559E-02 -0.12963E-01
  0.47130E-03  0.38815E-02 -0.12963E-01
 -0.47130E-03  0.38815E-02 -0.12963E-01
 -0.13865E-02  0.36559E-02 -0.12963E-01
 -0.22211E-02  0.32179E-02 -0.12963E-01
 -0.29267E-02  0.25928E-02 -0.12963E-01
 -0.34621E-02  0.18171E-02 -0.12963E-01
 -0.37964E-02  0.93572E-03 -0.12963E-01
 -0.39100E-02 -0.47884E-18 -0.12963E-01
 -0.37964E-02 -0.93572E-03 -0.12963E-01
 -0.34621E-02 -0.18171E-02 -0.12963E-01
 -0.29267E-02 -0.25928E-02 -0.12963E-01
 -0.22211E-02 -0.32179E-02 -0.12963E-01
 -0.13865E-02 -0.36559E-02 -0.12963E-01
 -0.47130E-03 -0.38815E-02 -0.12963E-01
  0.47130E-03 -0.38815E-02 -0.12963E-01
  0.13865E-02 -0.36559E-02 -0.12963E-01
  0.22211E-02 -0.32179E-02 -0.12963E-01
  0.29267E-02 -0.25928E-02 -0.12963E-01
  0.34621E-02 -0.18171E-02 -0.12963E-01
  0.37964E-02 -0.93572E-03 -0.12963E-01
  0.10372E-02  0.67570E-03 -0.11984E-01
  0.17443E-02  0.12341E-02 -0.11984E-01
  0.23171E-02  0.59412E-03 -0.11984E-01
  0.16687E-02 -0.33398E-03 -0.11984E-01
  0.30376E-02  0.15064E-03 -0.11984E-01
  0.27808E-02 -0.67396E-03 -0.11984E-01
  0.12845E-02  0.18421E-02 -0.11984E-01
  0.65016E-03  0.14626E-02 -0.11984E-01
  0.12626E-03  0.30507E-03 -0.11984E-01
 -0.12915E-03  0.11760E-02 -0.11984E-01
  0.94334E-03  0.22754E-02 -0.11984E-01
  0.11310E-02  0.28264E-02 -0.11984E-01
  0.17471E-02  0.24245E-02 -0.11984E-01
  0.40561E-03  0.21686E-02 -0.11984E-01
  0.39770E-03  0.29353E-02 -0.11984E-01
 -0.76480E-03 -0.10040E-02 -0.11984E-01
 -0.86659E-03  0.83015E-04 -0.11984E-01
  0.45895E-03 -0.69955E-03 -0.11984E-01
 -0.18315E-02 -0.71126E-03 -0.11984E-01
 -0.18435E-02  0.83367E-04 -0.11984E-01
 -0.27237E-02 -0.77780E-03 -0.11984E-01
 -0.28014E-02  0.42080E-04 -0.11984E-01
 -0.25372E-02 -0.15192E-02 -0.11984E-01
 -0.19309E-02 -0.13224E-02 -0.11984E-01
 -0.99291E-03  0.99526E-03 -0.11984E-01
 -0.14398E-02 -0.17323E-02 -0.11984E-01
 -0.31474E-03  0.20234E-02 -0.11984E-01
 -0.11051E-02  0.18609E-02 -0.11984E-01
 -0.18843E-02  0.17175E-02 -0.11984E-01
 -0.18706E-02  0.91060E-03 -0.11984E-01
 -0.16009E-03 -0.19801E-02 -0.11984E-01
 -0.94388E-03 -0.23490E-02 -0.11984E-01
  0.78526E-03 -0.17074E-02 -0.11984E-01
  0.17208E-02 -0.14906E-02 -0.11984E-01
  0.32066E-02  0.76539E-03 -0.11984E-01
  0.28045E-02  0.12498E-02 -0.11984E-01
  0.23053E-02  0.18667E-02 -0.11984E-01
 -0.40545E-03  0.28984E-02 -0.11984E-01
 -0.12092E-02  0.27184E-02 -0.11984E-01
 -0.19446E-02  0.24631E-02 -0.11984E-01
 -0.25027E-02  0.22359E-02 -0.11984E-01
 -0.26366E-02  0.16503E-02 -0.11984E-01
 -0.27655E-02  0.87623E-03 -0.11984E-01
 -0.21130E-02 -0.21374E-02 -0.11984E-01
 -0.16089E-02 -0.26932E-02 -0.11984E-01
 -0.11944E-02 -0.31291E-02 -0.11984E-01
 -0.58816E-03 -0.30382E-02 -0.11984E-01
  0.20709E-03 -0.28748E-02 -0.11984E-01
  0.10571E-02 -0.26436E-02 -0.11984E-01
  0.18415E-02 -0.23717E-02 -0.11984E-01
  0.24550E-02 -0.21472E-02 -0.11984E-01
  0.26025E-02 -0.15100E-02 -0.11984E-01
  0.37964E-02  0.93572E-03 -0.11984E-01
  0.39100E-02  0.00000E+00 -0.11984E-01
  0.34621E-02  0.18171E-02 -0.11984E-01
  0.29267E-02  0.25928E-02 -0.11984E-01
  0.22211E-02  0.32179E-02 -0.11984E-01
  0.13865E-02  0.36559E-02 -0.11984E-01
  0.47130E-03  0.38815E-02 -0.11984E-01
 -0.47130E-03  0.38815E-02 -0.11984E-01
 -0.13865E-02  0.36559E-02 -0.11984E-01
 -0.22211E-02  0.32179E-02 -0.11984E-01
 -0.29267E-02  0.25928E-02 -0.11984E-01
 -0.34621E-02  0.18171E-02 -0.11984E-01
 -0.37964E-02  0.93572E-03 -0.11984E-01
 -0.39100E-02 -0.47884E-18 -0.11984E-01
 -0.37964E-02 -0.93572E-03 -0.11984E-01
 -0.34621E-02 -0.18171E-02 -0.11984E-01
 -0.29267E-02 -0.25928E-02 -0.11984E-01
 -0.22211E-02 -0.32179E-02 -0.11984E-01
 -0.13865E-02 -0.36559E-02 -0.11984E-01
 -0.47130E-03 -0.38815E-02 -0.11984E-01
  0.47130E-03 -0.38815E-02 -0.11984E-01
  0.13865E-02 -0.36559E-02 -0.11984E-01
  0.22211E-02 -0.32179E-02 -0.11984E-01
  0.29267E-02 -0.25928E-02 -0.11984E-01
  0.34621E-02 -0.18171E-02 -0.11984E-01
  0.37964E-02 -0.93572E-03 -0.11984E-01
  0.10371E-02  0.67625E-03 -0.11005E-01
  0.17441E-02  0.12348E-02 -0.11005E-01
  0.23169E-02  0.59465E-03 -0.11005E-01
  0.16685E-02 -0.33323E-03 -0.11005E-01
  0.30376E-02  0.15100E-03 -0.11005E-01
  0.27812E-02 -0.67347E-03 -0.11005E-01
  0.12844E-02  0.18423E-02 -0.11005E-01
  0.64992E-03  0.14636E-02 -0.11005E-01
  0.12600E-03  0.30622E-03 -0.11005E-01
 -0.12933E-03  0.11777E-02 -0.11005E-01
  0.94301E-03  0.22755E-02 -0.11005E-01
  0.11306E-02  0.28260E-02 -0.11005E-01
  0.17467E-02  0.24247E-02 -0.11005E-01
  0.40556E-03  0.21687E-02 -0.11005E-01
  0.39769E-03  0.29351E-02 -0.11005E-01
 -0.76515E-03 -0.10042E-02 -0.11005E-01
 -0.86670E-03  0.83825E-04 -0.11005E-01
  0.45850E-03 -0.69882E-03 -0.11005E-01
 -0.18318E-02 -0.71112E-03 -0.11005E-01
 -0.18434E-02  0.83490E-04 -0.11005E-01
 -0.27236E-02 -0.77763E-03 -0.11005E-01
 -0.28011E-02  0.42353E-04 -0.11005E-01
 -0.25374E-02 -0.15192E-02 -0.11005E-01
 -0.19313E-02 -0.13223E-02 -0.11005E-01
 -0.99277E-03  0.99661E-03 -0.11005E-01
 -0.14401E-02 -0.17322E-02 -0.11005E-01
 -0.31454E-03  0.20237E-02 -0.11005E-01
 -0.11047E-02  0.18607E-02 -0.11005E-01
 -0.18842E-02  0.17175E-02 -0.11005E-01
 -0.18705E-02  0.91084E-03 -0.11005E-01
 -0.16036E-03 -0.19801E-02 -0.11005E-01
 -0.94448E-03 -0.23491E-02 -0.11005E-01
  0.78460E-03 -0.17074E-02 -0.11005E-01
  0.17208E-02 -0.14909E-02 -0.11005E-01
  0.32070E-02  0.76640E-03 -0.11005E-01
  0.28045E-02  0.12503E-02 -0.11005E-01
  0.23052E-02  0.18667E-02 -0.11005E-01
 -0.40531E-03  0.28974E-02 -0.11005E-01
 -0.12092E-02  0.27179E-02 -0.11005E-01
 -0.19445E-02  0.24629E-02 -0.11005E-01
 -0.25027E-02  0.22359E-02 -0.11005E-01
 -0.26366E-02  0.16503E-02 -0.11005E-01
 -0.27652E-02  0.87650E-03 -0.11005E-01
 -0.21132E-02 -0.21374E-02 -0.11005E-01
 -0.16090E-02 -0.26933E-02 -0.11005E-01
 -0.11946E-02 -0.31291E-02 -0.11005E-01
 -0.58851E-03 -0.30382E-02 -0.11005E-01
  0.20668E-03 -0.28749E-02 -0.11005E-01
  0.10567E-02 -0.26439E-02 -0.11005E-01
  0.18416E-02 -0.23719E-02 -0.11005E-01
  0.24551E-02 -0.21478E-02 -0.11005E-01
  0.26026E-02 -0.15099E-02 -0.11005E-01
  0.37964E-02  0.93572E-03 -0.11005E-01
  0.39100E-02  0.00000E+00 -0.11005E-01
  0.34621E-02  0.18171E-02 -0.11005E-01
  0.29267E-02  0.25928E-02 -0.11005E-01
  0.22211E-02  0.32179E-02 -0.11005E-01
  0.13865E-02  0.36559E-02 -0.11005E-01
  0.47130E-03  0.38815E-02 -0.11005E-01
 -0.47130E-03  0.38815E-02 -0.11005E-01
 -0.13865E-02  0.36559E-02 -0.11005E-01
 -0.22211E-02  0.32179E-02 -0.11005E-01
 -0.29267E-02  0.25928E-02 -0.11005E-01
 -0.34621E-02  0.18171E-02 -0.11005E-01
 -0.37964E-02  0.93572E-03 -0.11005E-01
 -0.39100E-02 -0.47884E-18 -0.11005E-01
 -0.37964E-02 -0.93572E-03 -0.11005E-01
 -0.34621E-02 -0.18171E-02 -0.11005E-01
 -0.29267E-02 -0.25928E-02 -0.11005E-01
 -0.22211E-02 -0.32179E-02 -0.11005E-01
 -0.13865E-02 -0.36559E-02 -0.11005E-01
 -0.47130E-03 -0.38815E-02 -0.11005E-01
  0.47130E-03 -0.38815E-02 -0.11005E-01
  0.13865E-02 -0.36559E-02 -0.11005E-01
  0.22211E-02 -0.32179E-02 -0.11005E-01
  0.29267E-02 -0.25928E-02 -0.11005E-01
  0.34621E-02 -0.18171E-02 -0.11005E-01
  0.37964E-02 -0.93572E-03 -0.11005E-01
  0.10370E-02  0.67680E-03 -0.10026E-01
  0.17439E-02  0.12354E-02 -0.10026E-01
  0.23168E-02  0.59517E-03 -0.10026E-01
  0.16683E-02 -0.33247E-03 -0.10026E-01
  0.30375E-02  0.15136E-03 -0.10026E-01
  0.27815E-02 -0.67298E-03 -0.10026E-01
  0.12843E-02  0.18425E-02 -0.10026E-01
  0.64967E-03  0.14646E-02 -0.10026E-01
  0.12573E-03  0.30737E-03 -0.10026E-01
 -0.12952E-03  0.11795E-02 -0.10026E-01
  0.94268E-03  0.22757E-02 -0.10026E-01
  0.11303E-02  0.28255E-02 -0.10026E-01
  0.17463E-02  0.24248E-02 -0.10026E-01
  0.40550E-03  0.21687E-02 -0.10026E-01
  0.39767E-03  0.29348E-02 -0.10026E-01
 -0.76551E-03 -0.10043E-02 -0.10026E-01
 -0.86680E-03  0.84634E-04 -0.10026E-01
  0.45806E-03 -0.69810E-03 -0.10026E-01
 -0.18321E-02 -0.71098E-03 -0.10026E-01
 -0.18433E-02  0.83614E-04 -0.10026E-01
 -0.27236E-02 -0.77746E-03 -0.10026E-01
 -0.28009E-02  0.42626E-04 -0.10026E-01
 -0.25375E-02 -0.15191E-02 -0.10026E-01
 -0.19317E-02 -0.13223E-02 -0.10026E-01
 -0.99262E-03  0.99797E-03 -0.10026E-01
 -0.14405E-02 -0.17322E-02 -0.10026E-01
 -0.31434E-03  0.20240E-02 -0.10026E-01
 -0.11044E-02  0.18606E-02 -0.10026E-01
 -0.18842E-02  0.17175E-02 -0.10026E-01
 -0.18704E-02  0.91108E-03 -0.10026E-01
 -0.16064E-03 -0.19802E-02 -0.10026E-01
 -0.94508E-03 -0.23491E-02 -0.10026E-01
  0.78394E-03 -0.17074E-02 -0.10026E-01
  0.17208E-02 -0.14911E-02 -0.10026E-01
  0.32073E-02  0.76740E-03 -0.10026E-01
  0.28045E-02  0.12507E-02 -0.10026E-01
  0.23051E-02  0.18668E-02 -0.10026E-01
 -0.40517E-03  0.28963E-02 -0.10026E-01
 -0.12092E-02  0.27174E-02 -0.10026E-01
 -0.19445E-02  0.24627E-02 -0.10026E-01
 -0.25026E-02  0.22358E-02 -0.10026E-01
 -0.26365E-02  0.16503E-02 -0.10026E-01
 -0.27649E-02  0.87676E-03 -0.10026E-01
 -0.21133E-02 -0.21374E-02 -0.10026E-01
 -0.16090E-02 -0.26933E-02 -0.10026E-01
 -0.11947E-02 -0.31291E-02 -0.10026E-01
 -0.58886E-03 -0.30382E-02 -0.10026E-01
  0.20627E-03 -0.28749E-02 -0.10026E-01
  0.10564E-02 -0.26442E-02 -0.10026E-01
  0.18416E-02 -0.23721E-02 -0.10026E-01
  0.24553E-02 -0.21483E-02 -0.10026E-01
  0.26027E-02 -0.15097E-02 -0.10026E-01
  0.37964E-02  0.93572E-03 -0.10026E-01
  0.39100E-02  0.00000E+00 -0.10026E-01
  0.34621E-02  0.18171E-02 -0.10026E-01
  0.29267E-02  0.25928E-02 -0.10026E-01
  0.22211E-02  0.32179E-02 -0.10026E-01
  0.13865E-02  0.36559E-02 -0.10026E-01
  0.47130E-03  0.38815E-02 -0.10026E-01
 -0.47130E-03  0.38815E-02 -0.10026E-01
 -0.13865E-02  0.36559E-02 -0.10026E-01
 -0.22211E-02  0.32179E-02 -0.10026E-01
 -0.29267E-02  0.25928E-02 -0.10026E-01
 -0.34621E-02  0.18171E-02 -0.10026E-01
 -0.37964E-02  0.93572E-03 -0.10026E-01
 -0.39100E-02 -0.47884E-18 -0.10026E-01
 -0.37964E-02 -0.93572E-03 -0.10026E-01
 -0.34621E-02 -0.18171E-02 -0.10026E-01
 -0.29267E-02 -0.25928E-02 -0.10026E-01
 -0.22211E-02 -0.32179E-02 -0.10026E-01
 -0.13865E-02 -0.36559E-02 -0.10026E-01
 -0.47130E-03 -0.38815E-02 -0.10026E-01
  0.47130E-03 -0.38815E-02 -0.10026E-01
  0.13865E-02 -0.36559E-02 -0.10026E-01
  0.22211E-02 -0.32179E-02 -0.10026E-01
  0.29267E-02 -0.25928E-02 -0.10026E-01
  0.34621E-02 -0.18171E-02 -0.10026E-01
  0.37964E-02 -0.93572E-03 -0.10026E-01
  0.10368E-02  0.67736E-03 -0.90464E-02
  0.17438E-02  0.12361E-02 -0.90464E-02
  0.23167E-02  0.59570E-03 -0.90464E-02
  0.16681E-02 -0.33172E-03 -0.90464E-02
  0.30375E-02  0.15173E-03 -0.90464E-02
  0.27819E-02 -0.67248E-03 -0.90464E-02
  0.12842E-02  0.18427E-02 -0.90464E-02
  0.64943E-03  0.14656E-02 -0.90464E-02
  0.12547E-03  0.30852E-03 -0.90464E-02
 -0.12970E-03  0.11812E-02 -0.90464E-02
  0.94235E-03  0.22758E-02 -0.90464E-02
  0.11300E-02  0.28251E-02 -0.90464E-02
  0.17459E-02  0.24249E-02 -0.90464E-02
  0.40545E-03  0.21688E-02 -0.90464E-02
  0.39766E-03  0.29345E-02 -0.90464E-02
 -0.76586E-03 -0.10044E-02 -0.90464E-02
 -0.86691E-03  0.85443E-04 -0.90464E-02
  0.45761E-03 -0.69737E-03 -0.90464E-02
 -0.18324E-02 -0.71084E-03 -0.90464E-02
 -0.18432E-02  0.83737E-04 -0.90464E-02
 -0.27236E-02 -0.77729E-03 -0.90464E-02
 -0.28006E-02  0.42899E-04 -0.90464E-02
 -0.25377E-02 -0.15191E-02 -0.90464E-02
 -0.19322E-02 -0.13222E-02 -0.90464E-02
 -0.99248E-03  0.99932E-03 -0.90464E-02
 -0.14408E-02 -0.17322E-02 -0.90464E-02
 -0.31414E-03  0.20243E-02 -0.90464E-02
 -0.11040E-02  0.18605E-02 -0.90464E-02
 -0.18841E-02  0.17175E-02 -0.90464E-02
 -0.18703E-02  0.91132E-03 -0.90464E-02
 -0.16091E-03 -0.19802E-02 -0.90464E-02
 -0.94568E-03 -0.23491E-02 -0.90464E-02
  0.78328E-03 -0.17074E-02 -0.90464E-02
  0.17207E-02 -0.14914E-02 -0.90464E-02
  0.32076E-02  0.76841E-03 -0.90464E-02
  0.28044E-02  0.12511E-02 -0.90464E-02
  0.23050E-02  0.18668E-02 -0.90464E-02
 -0.40503E-03  0.28952E-02 -0.90464E-02
 -0.12092E-02  0.27170E-02 -0.90464E-02
 -0.19445E-02  0.24624E-02 -0.90464E-02
 -0.25026E-02  0.22358E-02 -0.90464E-02
 -0.26364E-02  0.16503E-02 -0.90464E-02
 -0.27646E-02  0.87702E-03 -0.90464E-02
 -0.21134E-02 -0.21374E-02 -0.90464E-02
 -0.16091E-02 -0.26933E-02 -0.90464E-02
 -0.11948E-02 -0.31291E-02 -0.90464E-02
 -0.58921E-03 -0.30382E-02 -0.90464E-02
  0.20587E-03 -0.28749E-02 -0.90464E-02
  0.10561E-02 -0.26444E-02 -0.90464E-02
  0.18416E-02 -0.23723E-02 -0.90464E-02
  0.24554E-02 -0.21489E-02 -0.90464E-02
  0.26027E-02 -0.15096E-02 -0.90464E-02
  0.37964E-02  0.93572E-03 -0.90464E-02
  0.39100E-02  0.00000E+00 -0.90464E-02
  0.34621E-02  0.18171E-02 -0.90464E-02
  0.29267E-02  0.25928E-02 -0.90464E-02
  0.22211E-02  0.32179E-02 -0.90464E-02
  0.13865E-02  0.36559E-02 -0.90464E-02
  0.47130E-03  0.38815E-02 -0.90464E-02
 -0.47130E-03  0.38815E-02 -0.90464E-02
 -0.13865E-02  0.36559E-02 -0.90464E-02
 -0.22211E-02  0.32179E-02 -0.90464E-02
 -0.29267E-02  0.25928E-02 -0.90464E-02
 -0.34621E-02  0.18171E-02 -0.90464E-02
 -0.37964E-02  0.93572E-03 -0.90464E-02
 -0.39100E-02 -0.47884E-18 -0.90464E-02
 -0.37964E-02 -0.93572E-03 -0.90464E-02
 -0.34621E-02 -0.18171E-02 -0.90464E-02
 -0.29267E-02 -0.25928E-02 -0.90464E-02
 -0.22211E-02 -0.32179E-02 -0.90464E-02
 -0.13865E-02 -0.36559E-02 -0.90464E-02
 -0.47130E-03 -0.38815E-02 -0.90464E-02
  0.47130E-03 -0.38815E-02 -0.90464E-02
  0.13865E-02 -0.36559E-02 -0.90464E-02
  0.22211E-02 -0.32179E-02 -0.90464E-02
  0.29267E-02 -0.25928E-02 -0.90464E-02
  0.34621E-02 -0.18171E-02 -0.90464E-02
  0.37964E-02 -0.93572E-03 -0.90464E-02
  0.10367E-02  0.67791E-03 -0.80673E-02
  0.17436E-02  0.12368E-02 -0.80673E-02
  0.23166E-02  0.59622E-03 -0.80673E-02
  0.16679E-02 -0.33096E-03 -0.80673E-02
  0.30375E-02  0.15209E-03 -0.80673E-02
  0.27822E-02 -0.67199E-03 -0.80673E-02
  0.12841E-02  0.18429E-02 -0.80673E-02
  0.64918E-03  0.14666E-02 -0.80673E-02
  0.12521E-03  0.30967E-03 -0.80673E-02
 -0.12989E-03  0.11830E-02 -0.80673E-02
  0.94202E-03  0.22759E-02 -0.80673E-02
  0.11296E-02  0.28247E-02 -0.80673E-02
  0.17455E-02  0.24251E-02 -0.80673E-02
  0.40539E-03  0.21688E-02 -0.80673E-02
  0.39764E-03  0.29343E-02 -0.80673E-02
 -0.76621E-03 -0.10046E-02 -0.80673E-02
 -0.86702E-03  0.86253E-04 -0.80673E-02
  0.45716E-03 -0.69665E-03 -0.80673E-02
 -0.18326E-02 -0.71070E-03 -0.80673E-02
 -0.18431E-02  0.83861E-04 -0.80673E-02
 -0.27235E-02 -0.77712E-03 -0.80673E-02
 -0.28003E-02  0.43173E-04 -0.80673E-02
 -0.25379E-02 -0.15190E-02 -0.80673E-02
 -0.19326E-02 -0.13220E-02 -0.80673E-02
 -0.99233E-03  0.10007E-02 -0.80673E-02
 -0.14412E-02 -0.17321E-02 -0.80673E-02
 -0.31394E-03  0.20245E-02 -0.80673E-02
 -0.11037E-02  0.18603E-02 -0.80673E-02
 -0.18841E-02  0.17175E-02 -0.80673E-02
 -0.18701E-02  0.91156E-03 -0.80673E-02
 -0.16119E-03 -0.19802E-02 -0.80673E-02
 -0.94628E-03 -0.23491E-02 -0.80673E-02
  0.78262E-03 -0.17074E-02 -0.80673E-02
  0.17207E-02 -0.14916E-02 -0.80673E-02
  0.32079E-02  0.76941E-03 -0.80673E-02
  0.28044E-02  0.12515E-02 -0.80673E-02
  0.23049E-02  0.18668E-02 -0.80673E-02
 -0.40490E-03  0.28942E-02 -0.80673E-02
 -0.12093E-02  0.27165E-02 -0.80673E-02
 -0.19444E-02  0.24622E-02 -0.80673E-02
 -0.25026E-02  0.22358E-02 -0.80673E-02
 -0.26363E-02  0.16503E-02 -0.80673E-02
 -0.27643E-02  0.87728E-03 -0.80673E-02
 -0.21136E-02 -0.21374E-02 -0.80673E-02
 -0.16091E-02 -0.26933E-02 -0.80673E-02
 -0.11949E-02 -0.31291E-02 -0.80673E-02
 -0.58956E-03 -0.30382E-02 -0.80673E-02
  0.20546E-03 -0.28749E-02 -0.80673E-02
  0.10558E-02 -0.26447E-02 -0.80673E-02
  0.18417E-02 -0.23725E-02 -0.80673E-02
  0.24555E-02 -0.21494E-02 -0.80673E-02
  0.26028E-02 -0.15095E-02 -0.80673E-02
  0.37964E-02  0.93572E-03 -0.80673E-02
  0.39100E-02  0.00000E+00 -0.80673E-02
  0.34621E-02  0.18171E-02 -0.80673E-02
  0.29267E-02  0.25928E-02 -0.80673E-02
  0.22211E-02  0.32179E-02 -0.80673E-02
  0.13865E-02  0.36559E-02 -0.80673E-02
  0.47130E-03  0.38815E-02 -0.80673E-02
 -0.47130E-03  0.38815E-02 -0.80673E-02
 -0.13865E-02  0.36559E-02 -0.80673E-02
 -0.22211E-02  0.32179E-02 -0.80673E-02
 -0.29267E-02  0.25928E-02 -0.80673E-02
 -0.34621E-02  0.18171E-02 -0.80673E-02
 -0.37964E-02  0.93572E-03 -0.80673E-02
 -0.39100E-02 -0.47884E-18 -0.80673E-02
 -0.37964E-02 -0.93572E-03 -0.80673E-02
 -0.34621E-02 -0.18171E-02 -0.80673E-02
 -0.29267E-02 -0.25928E-02 -0.80673E-02
 -0.22211E-02 -0.32179E-02 -0.80673E-02
 -0.13865E-02 -0.36559E-02 -0.80673E-02
 -0.47130E-03 -0.38815E-02 -0.80673E-02
  0.47130E-03 -0.38815E-02 -0.80673E-02
  0.13865E-02 -0.36559E-02 -0.80673E-02
  0.22211E-02 -0.32179E-02 -0.80673E-02
  0.29267E-02 -0.25928E-02 -0.80673E-02
  0.34621E-02 -0.18171E-02 -0.80673E-02
  0.37964E-02 -0.93572E-03 -0.80673E-02
  0.10366E-02  0.67847E-03 -0.70881E-02
  0.17434E-02  0.12374E-02 -0.70881E-02
  0.23164E-02  0.59674E-03 -0.70881E-02
  0.16677E-02 -0.33021E-03 -0.70881E-02
  0.30375E-02  0.15245E-03 -0.70881E-02
  0.27825E-02 -0.67150E-03 -0.70881E-02
  0.12840E-02  0.18430E-02 -0.70881E-02
  0.64894E-03  0.14676E-02 -0.70881E-02
  0.12495E-03  0.31081E-03 -0.70881E-02
 -0.13007E-03  0.11847E-02 -0.70881E-02
  0.94169E-03  0.22761E-02 -0.70881E-02
  0.11293E-02  0.28242E-02 -0.70881E-02
  0.17451E-02  0.24252E-02 -0.70881E-02
  0.40534E-03  0.21688E-02 -0.70881E-02
  0.39762E-03  0.29340E-02 -0.70881E-02
 -0.76657E-03 -0.10047E-02 -0.70881E-02
 -0.86713E-03  0.87062E-04 -0.70881E-02
  0.45671E-03 -0.69592E-03 -0.70881E-02
 -0.18329E-02 -0.71056E-03 -0.70881E-02
 -0.18430E-02  0.83985E-04 -0.70881E-02
 -0.27235E-02 -0.77695E-03 -0.70881E-02
 -0.28001E-02  0.43446E-04 -0.70881E-02
 -0.25380E-02 -0.15190E-02 -0.70881E-02
 -0.19330E-02 -0.13219E-02 -0.70881E-02
 -0.99219E-03  0.10020E-02 -0.70881E-02
 -0.14415E-02 -0.17321E-02 -0.70881E-02
 -0.31374E-03  0.20248E-02 -0.70881E-02
 -0.11033E-02  0.18602E-02 -0.70881E-02
 -0.18840E-02  0.17175E-02 -0.70881E-02
 -0.18700E-02  0.91180E-03 -0.70881E-02
 -0.16146E-03 -0.19803E-02 -0.70881E-02
 -0.94687E-03 -0.23491E-02 -0.70881E-02
  0.78195E-03 -0.17073E-02 -0.70881E-02
  0.17207E-02 -0.14919E-02 -0.70881E-02
  0.32083E-02  0.77042E-03 -0.70881E-02
  0.28044E-02  0.12520E-02 -0.70881E-02
  0.23048E-02  0.18669E-02 -0.70881E-02
 -0.40476E-03  0.28931E-02 -0.70881E-02
 -0.12093E-02  0.27160E-02 -0.70881E-02
 -0.19444E-02  0.24620E-02 -0.70881E-02
 -0.25026E-02  0.22358E-02 -0.70881E-02
 -0.26362E-02  0.16503E-02 -0.70881E-02
 -0.27640E-02  0.87754E-03 -0.70881E-02
 -0.21137E-02 -0.21374E-02 -0.70881E-02
 -0.16091E-02 -0.26933E-02 -0.70881E-02
 -0.11950E-02 -0.31291E-02 -0.70881E-02
 -0.58991E-03 -0.30382E-02 -0.70881E-02
  0.20505E-03 -0.28749E-02 -0.70881E-02
  0.10555E-02 -0.26450E-02 -0.70881E-02
  0.18417E-02 -0.23727E-02 -0.70881E-02
  0.24556E-02 -0.21500E-02 -0.70881E-02
  0.26029E-02 -0.15094E-02 -0.70881E-02
  0.37964E-02  0.93572E-03 -0.70881E-02
  0.39100E-02  0.00000E+00 -0.70881E-02
  0.34621E-02  0.18171E-02 -0.70881E-02
  0.29267E-02  0.25928E-02 -0.70881E-02
  0.22211E-02  0.32179E-02 -0.70881E-02
  0.13865E-02  0.36559E-02 -0.70881E-02
  0.47130E-03  0.38815E-02 -0.70881E-02
 -0.47130E-03  0.38815E-02 -0.70881E-02
 -0.13865E-02  0.36559E-02 -0.70881E-02
 -0.22211E-02  0.32179E-02 -0.70881E-02
 -0.29267E-02  0.25928E-02 -0.70881E-02
 -0.34621E-02  0.18171E-02 -0.70881E-02
 -0.37964E-02  0.93572E-03 -0.70881E-02
 -0.39100E-02  0.39516E-17 -0.70881E-02
 -0.37964E-02 -0.93572E-03 -0.70881E-02
 -0.34621E-02 -0.18171E-02 -0.70881E-02
 -0.29267E-02 -0.25928E-02 -0.70881E-02
 -0.22211E-02 -0.32179E-02 -0.70881E-02
 -0.13865E-02 -0.36559E-02 -0.70881E-02
 -0.47130E-03 -0.38815E-02 -0.70881E-02
  0.47130E-03 -0.38815E-02 -0.70881E-02
  0.13865E-02 -0.36559E-02 -0.70881E-02
  0.22211E-02 -0.32179E-02 -0.70881E-02
  0.29267E-02 -0.25928E-02 -0.70881E-02
  0.34621E-02 -0.18171E-02 -0.70881E-02
  0.37964E-02 -0.93572E-03 -0.70881E-02
  0.10365E-02  0.67902E-03 -0.61089E-02
  0.17432E-02  0.12381E-02 -0.61089E-02
  0.23163E-02  0.59727E-03 -0.61089E-02
  0.16675E-02 -0.32945E-03 -0.61089E-02
  0.30374E-02  0.15282E-03 -0.61089E-02
  0.27829E-02 -0.67100E-03 -0.61089E-02
  0.12839E-02  0.18432E-02 -0.61089E-02
  0.64869E-03  0.14686E-02 -0.61089E-02
  0.12468E-03  0.31196E-03 -0.61089E-02
 -0.13026E-03  0.11865E-02 -0.61089E-02
  0.94135E-03  0.22762E-02 -0.61089E-02
  0.11289E-02  0.28238E-02 -0.61089E-02
  0.17447E-02  0.24254E-02 -0.61089E-02
  0.40528E-03  0.21688E-02 -0.61089E-02
  0.39760E-03  0.29337E-02 -0.61089E-02
 -0.76692E-03 -0.10049E-02 -0.61089E-02
 -0.86724E-03  0.87871E-04 -0.61089E-02
  0.45626E-03 -0.69519E-03 -0.61089E-02
 -0.18332E-02 -0.71042E-03 -0.61089E-02
 -0.18430E-02  0.84108E-04 -0.61089E-02
 -0.27235E-02 -0.77678E-03 -0.61089E-02
 -0.27998E-02  0.43720E-04 -0.61089E-02
 -0.25382E-02 -0.15189E-02 -0.61089E-02
 -0.19334E-02 -0.13219E-02 -0.61089E-02
 -0.99205E-03  0.10034E-02 -0.61089E-02
 -0.14419E-02 -0.17320E-02 -0.61089E-02
 -0.31354E-03  0.20251E-02 -0.61089E-02
 -0.11030E-02  0.18601E-02 -0.61089E-02
 -0.18840E-02  0.17175E-02 -0.61089E-02
 -0.18699E-02  0.91204E-03 -0.61089E-02
 -0.16174E-03 -0.19803E-02 -0.61089E-02
 -0.94747E-03 -0.23492E-02 -0.61089E-02
  0.78129E-03 -0.17073E-02 -0.61089E-02
  0.17206E-02 -0.14921E-02 -0.61089E-02
  0.32086E-02  0.77142E-03 -0.61089E-02
  0.28044E-02  0.12524E-02 -0.61089E-02
  0.23047E-02  0.18669E-02 -0.61089E-02
 -0.40462E-03  0.28920E-02 -0.61089E-02
 -0.12093E-02  0.27155E-02 -0.61089E-02
 -0.19444E-02  0.24618E-02 -0.61089E-02
 -0.25025E-02  0.22358E-02 -0.61089E-02
 -0.26361E-02  0.16503E-02 -0.61089E-02
 -0.27637E-02  0.87781E-03 -0.61089E-02
 -0.21139E-02 -0.21374E-02 -0.61089E-02
 -0.16092E-02 -0.26934E-02 -0.61089E-02
 -0.11951E-02 -0.31291E-02 -0.61089E-02
 -0.59025E-03 -0.30382E-02 -0.61089E-02
  0.20465E-03 -0.28749E-02 -0.61089E-02
  0.10552E-02 -0.26452E-02 -0.61089E-02
  0.18418E-02 -0.23729E-02 -0.61089E-02
  0.24558E-02 -0.21505E-02 -0.61089E-02
  0.26030E-02 -0.15093E-02 -0.61089E-02
  0.37964E-02  0.93572E-03 -0.61089E-02
  0.39100E-02  0.00000E+00 -0.61089E-02
  0.34621E-02  0.18171E-02 -0.61089E-02
  0.29267E-02  0.25928E-02 -0.61089E-02
  0.22211E-02  0.32179E-02 -0.61089E-02
  0.13865E-02  0.36559E-02 -0.61089E-02
  0.47130E-03  0.38815E-02 -0.61089E-02
 -0.47130E-03  0.38815E-02 -0.61089E-02
 -0.13865E-02  0.36559E-02 -0.61089E-02
 -0.22211E-02  0.32179E-02 -0.61089E-02
 -0.29267E-02  0.25928E-02 -0.61089E-02
 -0.34621E-02  0.18171E-02 -0.61089E-02
 -0.37964E-02  0.93572E-03 -0.61089E-02
 -0.39100E-02 -0.47884E-18 -0.61089E-02
 -0.37964E-02 -0.93572E-03 -0.61089E-02
 -0.34621E-02 -0.18171E-02 -0.61089E-02
 -0.29267E-02 -0.25928E-02 -0.61089E-02
 -0.22211E-02 -0.32179E-02 -0.61089E-02
 -0.13865E-02 -0.36559E-02 -0.61089E-02
 -0.47130E-03 -0.38815E-02 -0.61089E-02
  0.47130E-03 -0.38815E-02 -0.61089E-02
  0.13865E-02 -0.36559E-02 -0.61089E-02
  0.22211E-02 -0.32179E-02 -0.61089E-02
  0.29267E-02 -0.25928E-02 -0.61089E-02
  0.34621E-02 -0.18171E-02 -0.61089E-02
  0.37964E-02 -0.93572E-03 -0.61089E-02
  0.10364E-02  0.67958E-03 -0.51298E-02
  0.17430E-02  0.12387E-02 -0.51298E-02
  0.23162E-02  0.59779E-03 -0.51298E-02
  0.16672E-02 -0.32870E-03 -0.51298E-02
  0.30374E-02  0.15318E-03 -0.51298E-02
  0.27832E-02 -0.67051E-03 -0.51298E-02
  0.12838E-02  0.18434E-02 -0.51298E-02
  0.64845E-03  0.14696E-02 -0.51298E-02
  0.12442E-03  0.31311E-03 -0.51298E-02
 -0.13044E-03  0.11882E-02 -0.51298E-02
  0.94102E-03  0.22763E-02 -0.51298E-02
  0.11286E-02  0.28233E-02 -0.51298E-02
  0.17443E-02  0.24255E-02 -0.51298E-02
  0.40523E-03  0.21689E-02 -0.51298E-02
  0.39759E-03  0.29335E-02 -0.51298E-02
 -0.76727E-03 -0.10050E-02 -0.51298E-02
 -0.86735E-03  0.88681E-04 -0.51298E-02
  0.45582E-03 -0.69447E-03 -0.51298E-02
 -0.18335E-02 -0.71028E-03 -0.51298E-02
 -0.18429E-02  0.84232E-04 -0.51298E-02
 -0.27235E-02 -0.77661E-03 -0.51298E-02
 -0.27995E-02  0.43993E-04 -0.51298E-02
 -0.25383E-02 -0.15189E-02 -0.51298E-02
 -0.19339E-02 -0.13218E-02 -0.51298E-02
 -0.99190E-03  0.10048E-02 -0.51298E-02
 -0.14422E-02 -0.17320E-02 -0.51298E-02
 -0.31334E-03  0.20254E-02 -0.51298E-02
 -0.11026E-02  0.18599E-02 -0.51298E-02
 -0.18839E-02  0.17175E-02 -0.51298E-02
 -0.18697E-02  0.91228E-03 -0.51298E-02
 -0.16201E-03 -0.19803E-02 -0.51298E-02
 -0.94807E-03 -0.23492E-02 -0.51298E-02
  0.78063E-03 -0.17073E-02 -0.51298E-02
  0.17206E-02 -0.14923E-02 -0.51298E-02
  0.32089E-02  0.77243E-03 -0.51298E-02
  0.28043E-02  0.12528E-02 -0.51298E-02
  0.23046E-02  0.18670E-02 -0.51298E-02
 -0.40448E-03  0.28910E-02 -0.51298E-02
 -0.12093E-02  0.27151E-02 -0.51298E-02
 -0.19443E-02  0.24615E-02 -0.51298E-02
 -0.25025E-02  0.22358E-02 -0.51298E-02
 -0.26360E-02  0.16503E-02 -0.51298E-02
 -0.27633E-02  0.87807E-03 -0.51298E-02
 -0.21140E-02 -0.21374E-02 -0.51298E-02
 -0.16092E-02 -0.26934E-02 -0.51298E-02
 -0.11953E-02 -0.31291E-02 -0.51298E-02
 -0.59060E-03 -0.30382E-02 -0.51298E-02
  0.20424E-03 -0.28749E-02 -0.51298E-02
  0.10549E-02 -0.26455E-02 -0.51298E-02
  0.18418E-02 -0.23732E-02 -0.51298E-02
  0.24559E-02 -0.21511E-02 -0.51298E-02
  0.26030E-02 -0.15092E-02 -0.51298E-02
  0.37964E-02  0.93572E-03 -0.51298E-02
  0.39100E-02  0.00000E+00 -0.51298E-02
  0.34621E-02  0.18171E-02 -0.51298E-02
  0.29267E-02  0.25928E-02 -0.51298E-02
  0.22211E-02  0.32179E-02 -0.51298E-02
  0.13865E-02  0.36559E-02 -0.51298E-02
  0.47130E-03  0.38815E-02 -0.51298E-02
 -0.47130E-03  0.38815E-02 -0.51298E-02
 -0.13865E-02  0.36559E-02 -0.51298E-02
 -0.22211E-02  0.32179E-02 -0.51298E-02
 -0.29267E-02  0.25928E-02 -0.51298E-02
 -0.34621E-02  0.18171E-02 -0.51298E-02
 -0.37964E-02  0.93572E-03 -0.51298E-02
 -0.39100E-02  0.22152E-17 -0.51298E-02
 -0.37964E-02 -0.93572E-03 -0.51298E-02
 -0.34621E-02 -0.18171E-02 -0.51298E-02
 -0.29267E-02 -0.25928E-02 -0.51298E-02
 -0.22211E-02 -0.32179E-02 -0.51298E-02
 -0.13865E-02 -0.36559E-02 -0.51298E-02
 -0.47130E-03 -0.38815E-02 -0.51298E-02
  0.47130E-03 -0.38815E-02 -0.51298E-02
  0.13865E-02 -0.36559E-02 -0.51298E-02
  0.22211E-02 -0.32179E-02 -0.51298E-02
  0.29267E-02 -0.25928E-02 -0.51298E-02
  0.34621E-02 -0.18171E-02 -0.51298E-02
  0.37964E-02 -0.93572E-03 -0.51298E-02
  0.10363E-02  0.68013E-03 -0.41506E-02
  0.17429E-02  0.12394E-02 -0.41506E-02
  0.23161E-02  0.59831E-03 -0.41506E-02
  0.16670E-02 -0.32794E-03 -0.41506E-02
  0.30374E-02  0.15354E-03 -0.41506E-02
  0.27836E-02 -0.67002E-03 -0.41506E-02
  0.12837E-02  0.18436E-02 -0.41506E-02
  0.64820E-03  0.14706E-02 -0.41506E-02
  0.12416E-03  0.31426E-03 -0.41506E-02
 -0.13063E-03  0.11900E-02 -0.41506E-02
  0.94069E-03  0.22765E-02 -0.41506E-02
  0.11282E-02  0.28229E-02 -0.41506E-02
  0.17439E-02  0.24257E-02 -0.41506E-02
  0.40518E-03  0.21689E-02 -0.41506E-02
  0.39757E-03  0.29332E-02 -0.41506E-02
 -0.76763E-03 -0.10051E-02 -0.41506E-02
 -0.86746E-03  0.89490E-04 -0.41506E-02
  0.45537E-03 -0.69374E-03 -0.41506E-02
 -0.18338E-02 -0.71013E-03 -0.41506E-02
 -0.18428E-02  0.84355E-04 -0.41506E-02
 -0.27234E-02 -0.77644E-03 -0.41506E-02
 -0.27992E-02  0.44266E-04 -0.41506E-02
 -0.25385E-02 -0.15188E-02 -0.41506E-02
 -0.19343E-02 -0.13216E-02 -0.41506E-02
 -0.99176E-03  0.10061E-02 -0.41506E-02
 -0.14425E-02 -0.17320E-02 -0.41506E-02
 -0.31314E-03  0.20257E-02 -0.41506E-02
 -0.11023E-02  0.18598E-02 -0.41506E-02
 -0.18839E-02  0.17175E-02 -0.41506E-02
 -0.18696E-02  0.91252E-03 -0.41506E-02
 -0.16229E-03 -0.19803E-02 -0.41506E-02
 -0.94867E-03 -0.23492E-02 -0.41506E-02
  0.77997E-03 -0.17073E-02 -0.41506E-02
  0.17205E-02 -0.14926E-02 -0.41506E-02
  0.32092E-02  0.77343E-03 -0.41506E-02
  0.28043E-02  0.12533E-02 -0.41506E-02
  0.23044E-02  0.18670E-02 -0.41506E-02
 -0.40434E-03  0.28899E-02 -0.41506E-02
 -0.12093E-02  0.27146E-02 -0.41506E-02
 -0.19443E-02  0.24613E-02 -0.41506E-02
 -0.25025E-02  0.22358E-02 -0.41506E-02
 -0.26359E-02  0.16503E-02 -0.41506E-02
 -0.27630E-02  0.87833E-03 -0.41506E-02
 -0.21141E-02 -0.21374E-02 -0.41506E-02
 -0.16093E-02 -0.26934E-02 -0.41506E-02
 -0.11954E-02 -0.31291E-02 -0.41506E-02
 -0.59095E-03 -0.30382E-02 -0.41506E-02
  0.20384E-03 -0.28750E-02 -0.41506E-02
  0.10546E-02 -0.26458E-02 -0.41506E-02
  0.18419E-02 -0.23734E-02 -0.41506E-02
  0.24560E-02 -0.21516E-02 -0.41506E-02
  0.26031E-02 -0.15091E-02 -0.41506E-02
  0.37964E-02  0.93572E-03 -0.41506E-02
  0.39100E-02  0.00000E+00 -0.41506E-02
  0.34621E-02  0.18171E-02 -0.41506E-02
  0.29267E-02  0.25928E-02 -0.41506E-02
  0.22211E-02  0.32179E-02 -0.41506E-02
  0.13865E-02  0.36559E-02 -0.41506E-02
  0.47130E-03  0.38815E-02 -0.41506E-02
 -0.47130E-03  0.38815E-02 -0.41506E-02
 -0.13865E-02  0.36559E-02 -0.41506E-02
 -0.22211E-02  0.32179E-02 -0.41506E-02
 -0.29267E-02  0.25928E-02 -0.41506E-02
 -0.34621E-02  0.18171E-02 -0.41506E-02
 -0.37964E-02  0.93572E-03 -0.41506E-02
 -0.39100E-02 -0.47884E-18 -0.41506E-02
 -0.37964E-02 -0.93572E-03 -0.41506E-02
 -0.34621E-02 -0.18171E-02 -0.41506E-02
 -0.29267E-02 -0.25928E-02 -0.41506E-02
 -0.22211E-02 -0.32179E-02 -0.41506E-02
 -0.13865E-02 -0.36559E-02 -0.41506E-02
 -0.47130E-03 -0.38815E-02 -0.41506E-02
  0.47130E-03 -0.38815E-02 -0.41506E-02
  0.13865E-02 -0.36559E-02 -0.41506E-02
  0.22211E-02 -0.32179E-02 -0.41506E-02
  0.29267E-02 -0.25928E-02 -0.41506E-02
  0.34621E-02 -0.18171E-02 -0.41506E-02
  0.37964E-02 -0.93572E-03 -0.41506E-02
  0.10362E-02  0.68068E-03 -0.31714E-02
  0.17427E-02  0.12401E-02 -0.31714E-02
  0.23160E-02  0.59884E-03 -0.31714E-02
  0.16668E-02 -0.32719E-03 -0.31714E-02
  0.30373E-02  0.15391E-03 -0.31714E-02
  0.27839E-02 -0.66953E-03 -0.31714E-02
  0.12836E-02  0.18438E-02 -0.31714E-02
  0.64796E-03  0.14716E-02 -0.31714E-02
  0.12390E-03  0.31541E-03 -0.31714E-02
 -0.13082E-03  0.11917E-02 -0.31714E-02
  0.94036E-03  0.22766E-02 -0.31714E-02
  0.11279E-02  0.28225E-02 -0.31714E-02
  0.17435E-02  0.24258E-02 -0.31714E-02
  0.40512E-03  0.21690E-02 -0.31714E-02
  0.39755E-03  0.29330E-02 -0.31714E-02
 -0.76798E-03 -0.10053E-02 -0.31714E-02
 -0.86756E-03  0.90299E-04 -0.31714E-02
  0.45492E-03 -0.69302E-03 -0.31714E-02
 -0.18341E-02 -0.70999E-03 -0.31714E-02
 -0.18427E-02  0.84479E-04 -0.31714E-02
 -0.27234E-02 -0.77627E-03 -0.31714E-02
 -0.27990E-02  0.44540E-04 -0.31714E-02
 -0.25386E-02 -0.15188E-02 -0.31714E-02
 -0.19347E-02 -0.13215E-02 -0.31714E-02
 -0.99161E-03  0.10075E-02 -0.31714E-02
 -0.14429E-02 -0.17319E-02 -0.31714E-02
 -0.31294E-03  0.20260E-02 -0.31714E-02
 -0.11019E-02  0.18597E-02 -0.31714E-02
 -0.18838E-02  0.17175E-02 -0.31714E-02
 -0.18695E-02  0.91276E-03 -0.31714E-02
 -0.16256E-03 -0.19804E-02 -0.31714E-02
 -0.94927E-03 -0.23493E-02 -0.31714E-02
  0.77931E-03 -0.17073E-02 -0.31714E-02
  0.17205E-02 -0.14928E-02 -0.31714E-02
  0.32096E-02  0.77444E-03 -0.31714E-02
  0.28043E-02  0.12537E-02 -0.31714E-02
  0.23043E-02  0.18670E-02 -0.31714E-02
 -0.40420E-03  0.28888E-02 -0.31714E-02
 -0.12093E-02  0.27141E-02 -0.31714E-02
 -0.19443E-02  0.24611E-02 -0.31714E-02
 -0.25024E-02  0.22358E-02 -0.31714E-02
 -0.26358E-02  0.16503E-02 -0.31714E-02
 -0.27627E-02  0.87859E-03 -0.31714E-02
 -0.21143E-02 -0.21374E-02 -0.31714E-02
 -0.16093E-02 -0.26934E-02 -0.31714E-02
 -0.11955E-02 -0.31291E-02 -0.31714E-02
 -0.59130E-03 -0.30382E-02 -0.31714E-02
  0.20343E-03 -0.28750E-02 -0.31714E-02
  0.10543E-02 -0.26460E-02 -0.31714E-02
  0.18419E-02 -0.23736E-02 -0.31714E-02
  0.24561E-02 -0.21521E-02 -0.31714E-02
  0.26032E-02 -0.15090E-02 -0.31714E-02
  0.37964E-02  0.93572E-03 -0.31714E-02
  0.39100E-02  0.00000E+00 -0.31714E-02
  0.34621E-02  0.18171E-02 -0.31714E-02
  0.29267E-02  0.25928E-02 -0.31714E-02
  0.22211E-02  0.32179E-02 -0.31714E-02
  0.13865E-02  0.36559E-02 -0.31714E-02
  0.47130E-03  0.38815E-02 -0.31714E-02
 -0.47130E-03  0.38815E-02 -0.31714E-02
 -0.13865E-02  0.36559E-02 -0.31714E-02
 -0.22211E-02  0.32179E-02 -0.31714E-02
 -0.29267E-02  0.25928E-02 -0.31714E-02
 -0.34621E-02  0.18171E-02 -0.31714E-02
 -0.37964E-02  0.93572E-03 -0.31714E-02
 -0.39100E-02  0.22152E-17 -0.31714E-02
 -0.37964E-02 -0.93572E-03 -0.31714E-02
 -0.34621E-02 -0.18171E-02 -0.31714E-02
 -0.29267E-02 -0.25928E-02 -0.31714E-02
 -0.22211E-02 -0.32179E-02 -0.31714E-02
 -0.13865E-02 -0.36559E-02 -0.31714E-02
 -0.47130E-03 -0.38815E-02 -0.31714E-02
  0.47130E-03 -0.38815E-02 -0.31714E-02
  0.13865E-02 -0.36559E-02 -0.31714E-02
  0.22211E-02 -0.32179E-02 -0.31714E-02
  0.29267E-02 -0.25928E-02 -0.31714E-02
  0.34621E-02 -0.18171E-02 -0.31714E-02
  0.37964E-02 -0.93572E-03 -0.31714E-02
  0.10360E-02  0.68124E-03 -0.21923E-02
  0.17425E-02  0.12407E-02 -0.21923E-02
  0.23158E-02  0.59936E-03 -0.21923E-02
  0.16666E-02 -0.32643E-03 -0.21923E-02
  0.30373E-02  0.15427E-03 -0.21923E-02
  0.27842E-02 -0.66903E-03 -0.21923E-02
  0.12835E-02  0.18440E-02 -0.21923E-02
  0.64771E-03  0.14727E-02 -0.21923E-02
  0.12363E-03  0.31656E-03 -0.21923E-02
 -0.13100E-03  0.11935E-02 -0.21923E-02
  0.94003E-03  0.22767E-02 -0.21923E-02
  0.11276E-02  0.28220E-02 -0.21923E-02
  0.17432E-02  0.24260E-02 -0.21923E-02
  0.40507E-03  0.21690E-02 -0.21923E-02
  0.39754E-03  0.29327E-02 -0.21923E-02
 -0.76834E-03 -0.10054E-02 -0.21923E-02
 -0.86767E-03  0.91108E-04 -0.21923E-02
  0.45447E-03 -0.69229E-03 -0.21923E-02
 -0.18344E-02 -0.70985E-03 -0.21923E-02
 -0.18426E-02  0.84602E-04 -0.21923E-02
 -0.27234E-02 -0.77610E-03 -0.21923E-02
 -0.27987E-02  0.44813E-04 -0.21923E-02
 -0.25388E-02 -0.15187E-02 -0.21923E-02
 -0.19352E-02 -0.13215E-02 -0.21923E-02
 -0.99147E-03  0.10088E-02 -0.21923E-02
 -0.14433E-02 -0.17319E-02 -0.21923E-02
 -0.31274E-03  0.20262E-02 -0.21923E-02
 -0.11016E-02  0.18595E-02 -0.21923E-02
 -0.18838E-02  0.17175E-02 -0.21923E-02
 -0.18694E-02  0.91300E-03 -0.21923E-02
 -0.16284E-03 -0.19804E-02 -0.21923E-02
 -0.94986E-03 -0.23493E-02 -0.21923E-02
  0.77865E-03 -0.17073E-02 -0.21923E-02
  0.17205E-02 -0.14931E-02 -0.21923E-02
  0.32099E-02  0.77544E-03 -0.21923E-02
  0.28042E-02  0.12541E-02 -0.21923E-02
  0.23042E-02  0.18671E-02 -0.21923E-02
 -0.40407E-03  0.28877E-02 -0.21923E-02
 -0.12093E-02  0.27137E-02 -0.21923E-02
 -0.19442E-02  0.24609E-02 -0.21923E-02
 -0.25024E-02  0.22358E-02 -0.21923E-02
 -0.26358E-02  0.16503E-02 -0.21923E-02
 -0.27624E-02  0.87885E-03 -0.21923E-02
 -0.21144E-02 -0.21374E-02 -0.21923E-02
 -0.16094E-02 -0.26934E-02 -0.21923E-02
 -0.11956E-02 -0.31291E-02 -0.21923E-02
 -0.59165E-03 -0.30382E-02 -0.21923E-02
  0.20302E-03 -0.28750E-02 -0.21923E-02
  0.10540E-02 -0.26463E-02 -0.21923E-02
  0.18419E-02 -0.23738E-02 -0.21923E-02
  0.24563E-02 -0.21527E-02 -0.21923E-02
  0.26033E-02 -0.15088E-02 -0.21923E-02
  0.37964E-02  0.93572E-03 -0.21923E-02
  0.39100E-02  0.00000E+00 -0.21923E-02
  0.34621E-02  0.18171E-02 -0.21923E-02
  0.29267E-02  0.25928E-02 -0.21923E-02
  0.22211E-02  0.32179E-02 -0.21923E-02
  0.13865E-02  0.36559E-02 -0.21923E-02
  0.47130E-03  0.38815E-02 -0.21923E-02
 -0.47130E-03  0.38815E-02 -0.21923E-02
 -0.13865E-02  0.36559E-02 -0.21923E-02
 -0.22211E-02  0.32179E-02 -0.21923E-02
 -0.29267E-02  0.25928E-02 -0.21923E-02
 -0.34621E-02  0.18171E-02 -0.21923E-02
 -0.37964E-02  0.93572E-03 -0.21923E-02
 -0.39100E-02 -0.47884E-18 -0.21923E-02
 -0.37964E-02 -0.93572E-03 -0.21923E-02
 -0.34621E-02 -0.18171E-02 -0.21923E-02
 -0.29267E-02 -0.25928E-02 -0.21923E-02
 -0.22211E-02 -0.32179E-02 -0.21923E-02
 -0.13865E-02 -0.36559E-02 -0.21923E-02
 -0.47130E-03 -0.38815E-02 -0.21923E-02
  0.47130E-03 -0.38815E-02 -0.21923E-02
  0.13865E-02 -0.36559E-02 -0.21923E-02
  0.22211E-02 -0.32179E-02 -0.21923E-02
  0.29267E-02 -0.25928E-02 -0.21923E-02
  0.34621E-02 -0.18171E-02 -0.21923E-02
  0.37964E-02 -0.93572E-03 -0.21923E-02
  0.10359E-02  0.68179E-03 -0.12131E-02
  0.17423E-02  0.12414E-02 -0.12131E-02
  0.23157E-02  0.59988E-03 -0.12131E-02
  0.16664E-02 -0.32568E-03 -0.12131E-02
  0.30373E-02  0.15463E-03 -0.12131E-02
  0.27846E-02 -0.66854E-03 -0.12131E-02
  0.12834E-02  0.18442E-02 -0.12131E-02
  0.64747E-03  0.14736E-02 -0.12131E-02
  0.12337E-03  0.31770E-03 -0.12131E-02
 -0.13118E-03  0.11952E-02 -0.12131E-02
  0.93970E-03  0.22768E-02 -0.12131E-02
  0.11272E-02  0.28216E-02 -0.12131E-02
  0.17428E-02  0.24261E-02 -0.12131E-02
  0.40501E-03  0.21690E-02 -0.12131E-02
  0.39752E-03  0.29324E-02 -0.12131E-02
 -0.76869E-03 -0.10056E-02 -0.12131E-02
 -0.86778E-03  0.91918E-04 -0.12131E-02
  0.45402E-03 -0.69156E-03 -0.12131E-02
 -0.18347E-02 -0.70971E-03 -0.12131E-02
 -0.18425E-02  0.84726E-04 -0.12131E-02
 -0.27234E-02 -0.77593E-03 -0.12131E-02
 -0.27984E-02  0.45086E-04 -0.12131E-02
 -0.25389E-02 -0.15187E-02 -0.12131E-02
 -0.19356E-02 -0.13213E-02 -0.12131E-02
 -0.99133E-03  0.10102E-02 -0.12131E-02
 -0.14436E-02 -0.17318E-02 -0.12131E-02
 -0.31254E-03  0.20265E-02 -0.12131E-02
 -0.11013E-02  0.18594E-02 -0.12131E-02
 -0.18837E-02  0.17175E-02 -0.12131E-02
 -0.18692E-02  0.91324E-03 -0.12131E-02
 -0.16311E-03 -0.19804E-02 -0.12131E-02
 -0.95046E-03 -0.23493E-02 -0.12131E-02
  0.77799E-03 -0.17073E-02 -0.12131E-02
  0.17204E-02 -0.14933E-02 -0.12131E-02
  0.32102E-02  0.77645E-03 -0.12131E-02
  0.28042E-02  0.12545E-02 -0.12131E-02
  0.23041E-02  0.18671E-02 -0.12131E-02
 -0.40393E-03  0.28867E-02 -0.12131E-02
 -0.12093E-02  0.27132E-02 -0.12131E-02
 -0.19442E-02  0.24606E-02 -0.12131E-02
 -0.25024E-02  0.22358E-02 -0.12131E-02
 -0.26357E-02  0.16503E-02 -0.12131E-02
 -0.27621E-02  0.87912E-03 -0.12131E-02
 -0.21146E-02 -0.21374E-02 -0.12131E-02
 -0.16094E-02 -0.26935E-02 -0.12131E-02
 -0.11957E-02 -0.31291E-02 -0.12131E-02
 -0.59200E-03 -0.30381E-02 -0.12131E-02
  0.20262E-03 -0.28750E-02 -0.12131E-02
  0.10536E-02 -0.26466E-02 -0.12131E-02
  0.18420E-02 -0.23740E-02 -0.12131E-02
  0.24564E-02 -0.21533E-02 -0.12131E-02
  0.26033E-02 -0.15087E-02 -0.12131E-02
  0.37964E-02  0.93572E-03 -0.12131E-02
  0.39100E-02  0.00000E+00 -0.12131E-02
  0.34621E-02  0.18171E-02 -0.12131E-02
  0.29267E-02  0.25928E-02 -0.12131E-02
  0.22211E-02  0.32179E-02 -0.12131E-02
  0.13865E-02  0.36559E-02 -0.12131E-02
  0.47130E-03  0.38815E-02 -0.12131E-02
 -0.47130E-03  0.38815E-02 -0.12131E-02
 -0.13865E-02  0.36559E-02 -0.12131E-02
 -0.22211E-02  0.32179E-02 -0.12131E-02
 -0.29267E-02  0.25928E-02 -0.12131E-02
 -0.34621E-02  0.18171E-02 -0.12131E-02
 -0.37964E-02  0.93572E-03 -0.12131E-02
 -0.39100E-02 -0.47884E-18 -0.12131E-02
 -0.37964E-02 -0.93572E-03 -0.12131E-02
 -0.34621E-02 -0.18171E-02 -0.12131E-02
 -0.29267E-02 -0.25928E-02 -0.12131E-02
 -0.22211E-02 -0.32179E-02 -0.12131E-02
 -0.13865E-02 -0.36559E-02 -0.12131E-02
 -0.47130E-03 -0.38815E-02 -0.12131E-02
  0.47130E-03 -0.38815E-02 -0.12131E-02
  0.13865E-02 -0.36559E-02 -0.12131E-02
  0.22211E-02 -0.32179E-02 -0.12131E-02
  0.29267E-02 -0.25928E-02 -0.12131E-02
  0.34621E-02 -0.18171E-02 -0.12131E-02
  0.37964E-02 -0.93572E-03 -0.12131E-02
  0.10358E-02  0.68235E-03 -0.23394E-03
  0.17422E-02  0.12421E-02 -0.23394E-03
  0.23156E-02  0.60041E-03 -0.23394E-03
  0.16662E-02 -0.32493E-03 -0.23394E-03
  0.30373E-02  0.15500E-03 -0.23394E-03
  0.27849E-02 -0.66805E-03 -0.23394E-03
  0.12833E-02  0.18444E-02 -0.23394E-03
  0.64722E-03  0.14747E-02 -0.23394E-03
  0.12311E-03  0.31885E-03 -0.23394E-03
 -0.13137E-03  0.11970E-02 -0.23394E-03
  0.93937E-03  0.22770E-02 -0.23394E-03
  0.11269E-02  0.28211E-02 -0.23394E-03
  0.17424E-02  0.24262E-02 -0.23394E-03
  0.40496E-03  0.21691E-02 -0.23394E-03
  0.39750E-03  0.29322E-02 -0.23394E-03
 -0.76904E-03 -0.10057E-02 -0.23394E-03
 -0.86789E-03  0.92727E-04 -0.23394E-03
  0.45358E-03 -0.69084E-03 -0.23394E-03
 -0.18350E-02 -0.70957E-03 -0.23394E-03
 -0.18424E-02  0.84849E-04 -0.23394E-03
 -0.27233E-02 -0.77576E-03 -0.23394E-03
 -0.27981E-02  0.45359E-04 -0.23394E-03
 -0.25391E-02 -0.15186E-02 -0.23394E-03
 -0.19360E-02 -0.13212E-02 -0.23394E-03
 -0.99118E-03  0.10115E-02 -0.23394E-03
 -0.14440E-02 -0.17318E-02 -0.23394E-03
 -0.31234E-03  0.20268E-02 -0.23394E-03
 -0.11009E-02  0.18593E-02 -0.23394E-03
 -0.18836E-02  0.17175E-02 -0.23394E-03
 -0.18691E-02  0.91347E-03 -0.23394E-03
 -0.16339E-03 -0.19804E-02 -0.23394E-03
 -0.95106E-03 -0.23493E-02 -0.23394E-03
  0.77733E-03 -0.17073E-02 -0.23394E-03
  0.17204E-02 -0.14936E-02 -0.23394E-03
  0.32105E-02  0.77745E-03 -0.23394E-03
  0.28042E-02  0.12550E-02 -0.23394E-03
  0.23040E-02  0.18671E-02 -0.23394E-03
 -0.40379E-03  0.28856E-02 -0.23394E-03
 -0.12093E-02  0.27127E-02 -0.23394E-03
 -0.19441E-02  0.24604E-02 -0.23394E-03
 -0.25023E-02  0.22358E-02 -0.23394E-03
 -0.26356E-02  0.16503E-02 -0.23394E-03
 -0.27618E-02  0.87938E-03 -0.23394E-03
 -0.21147E-02 -0.21374E-02 -0.23394E-03
 -0.16094E-02 -0.26935E-02 -0.23394E-03
 -0.11958E-02 -0.31291E-02 -0.23394E-03
 -0.59235E-03 -0.30381E-02 -0.23394E-03
  0.20221E-03 -0.28750E-02 -0.23394E-03
  0.10533E-02 -0.26468E-02 -0.23394E-03
  0.18420E-02 -0.23742E-02 -0.23394E-03
  0.24565E-02 -0.21538E-02 -0.23394E-03
  0.26034E-02 -0.15086E-02 -0.23394E-03
  0.37964E-02  0.93572E-03 -0.23394E-03
  0.39100E-02  0.00000E+00 -0.23394E-03
  0.34621E-02  0.18171E-02 -0.23394E-03
  0.29267E-02  0.25928E-02 -0.23394E-03
  0.22211E-02  0.32179E-02 -0.23394E-03
  0.13865E-02  0.36559E-02 -0.23394E-03
  0.47130E-03  0.38815E-02 -0.23394E-03
 -0.47130E-03  0.38815E-02 -0.23394E-03
 -0.13865E-02  0.36559E-02 -0.23394E-03
 -0.22211E-02  0.32179E-02 -0.23394E-03
 -0.29267E-02  0.25928E-02 -0.23394E-03
 -0.34621E-02  0.18171E-02 -0.23394E-03
 -0.37964E-02  0.93572E-03 -0.23394E-03
 -0.39100E-02 -0.47884E-18 -0.23394E-03
 -0.37964E-02 -0.93572E-03 -0.23394E-03
 -0.34621E-02 -0.18171E-02 -0.23394E-03
 -0.29267E-02 -0.25928E-02 -0.23394E-03
 -0.22211E-02 -0.32179E-02 -0.23394E-03
 -0.13865E-02 -0.36559E-02 -0.23394E-03
 -0.47130E-03 -0.38815E-02 -0.23394E-03
  0.47130E-03 -0.38815E-02 -0.23394E-03
  0.13865E-02 -0.36559E-02 -0.23394E-03
  0.22211E-02 -0.32179E-02 -0.23394E-03
  0.29267E-02 -0.25928E-02 -0.23394E-03
  0.34621E-02 -0.18171E-02 -0.23394E-03
  0.37964E-02 -0.93572E-03 -0.23394E-03
  0.10357E-02  0.68290E-03  0.74523E-03
  0.17420E-02  0.12427E-02  0.74523E-03
  0.23155E-02  0.60093E-03  0.74523E-03
  0.16660E-02 -0.32417E-03  0.74523E-03
  0.30372E-02  0.15536E-03  0.74523E-03
  0.27853E-02 -0.66755E-03  0.74523E-03
  0.12832E-02  0.18445E-02  0.74523E-03
  0.64698E-03  0.14757E-02  0.74523E-03
  0.12285E-03  0.32000E-03  0.74523E-03
 -0.13155E-03  0.11987E-02  0.74523E-03
  0.93903E-03  0.22771E-02  0.74523E-03
  0.11266E-02  0.28207E-02  0.74523E-03
  0.17420E-02  0.24264E-02  0.74523E-03
  0.40490E-03  0.21691E-02  0.74523E-03
  0.39749E-03  0.29319E-02  0.74523E-03
 -0.76940E-03 -0.10058E-02  0.74523E-03
 -0.86800E-03  0.93536E-04  0.74523E-03
  0.45313E-03 -0.69011E-03  0.74523E-03
 -0.18353E-02 -0.70943E-03  0.74523E-03
 -0.18423E-02  0.84973E-04  0.74523E-03
 -0.27233E-02 -0.77559E-03  0.74523E-03
 -0.27979E-02  0.45633E-04  0.74523E-03
 -0.25393E-02 -0.15186E-02  0.74523E-03
 -0.19365E-02 -0.13212E-02  0.74523E-03
 -0.99104E-03  0.10129E-02  0.74523E-03
 -0.14443E-02 -0.17318E-02  0.74523E-03
 -0.31214E-03  0.20271E-02  0.74523E-03
 -0.11006E-02  0.18592E-02  0.74523E-03
 -0.18836E-02  0.17175E-02  0.74523E-03
 -0.18690E-02  0.91371E-03  0.74523E-03
 -0.16366E-03 -0.19805E-02  0.74523E-03
 -0.95166E-03 -0.23493E-02  0.74523E-03
  0.77667E-03 -0.17073E-02  0.74523E-03
  0.17203E-02 -0.14938E-02  0.74523E-03
  0.32109E-02  0.77846E-03  0.74523E-03
  0.28042E-02  0.12554E-02  0.74523E-03
  0.23039E-02  0.18672E-02  0.74523E-03
 -0.40365E-03  0.28845E-02  0.74523E-03
 -0.12093E-02  0.27122E-02  0.74523E-03
 -0.19441E-02  0.24602E-02  0.74523E-03
 -0.25023E-02  0.22358E-02  0.74523E-03
 -0.26355E-02  0.16502E-02  0.74523E-03
 -0.27615E-02  0.87964E-03  0.74523E-03
 -0.21148E-02 -0.21374E-02  0.74523E-03
 -0.16095E-02 -0.26935E-02  0.74523E-03
 -0.11960E-02 -0.31291E-02  0.74523E-03
 -0.59270E-03 -0.30381E-02  0.74523E-03
  0.20180E-03 -0.28750E-02  0.74523E-03
  0.10530E-02 -0.26471E-02  0.74523E-03
  0.18421E-02 -0.23744E-02  0.74523E-03
  0.24566E-02 -0.21543E-02  0.74523E-03
  0.26035E-02 -0.15085E-02  0.74523E-03
  0.37964E-02  0.93572E-03  0.74523E-03
  0.39100E-02  0.00000E+00  0.74523E-03
  0.34621E-02  0.18171E-02  0.74523E-03
  0.29267E-02  0.25928E-02  0.74523E-03
  0.22211E-02  0.32179E-02  0.74523E-03
  0.13865E-02  0.36559E-02  0.74523E-03
  0.47130E-03  0.38815E-02  0.74523E-03
 -0.47130E-03  0.38815E-02  0.74523E-03
 -0.13865E-02  0.36559E-02  0.74523E-03
 -0.22211E-02  0.32179E-02  0.74523E-03
 -0.29267E-02  0.25928E-02  0.74523E-03
 -0.34621E-02  0.18171E-02  0.74523E-03
 -0.37964E-02  0.93572E-03  0.74523E-03
 -0.39100E-02 -0.47884E-18  0.74523E-03
 -0.37964E-02 -0.93572E-03  0.74523E-03
 -0.34621E-02 -0.18171E-02  0.74523E-03
 -0.29267E-02 -0.25928E-02  0.74523E-03
 -0.22211E-02 -0.32179E-02  0.74523E-03
 -0.13865E-02 -0.36559E-02  0.74523E-03
 -0.47130E-03 -0.38815E-02  0.74523E-03
  0.47130E-03 -0.38815E-02  0.74523E-03
  0.13865E-02 -0.36559E-02  0.74523E-03
  0.22211E-02 -0.32179E-02  0.74523E-03
  0.29267E-02 -0.25928E-02  0.74523E-03
  0.34621E-02 -0.18171E-02  0.74523E-03
  0.37964E-02 -0.93572E-03  0.74523E-03
  0.10356E-02  0.68346E-03  0.17244E-02
  0.17418E-02  0.12434E-02  0.17244E-02
  0.23153E-02  0.60145E-03  0.17244E-02
  0.16657E-02 -0.32342E-03  0.17244E-02
  0.30372E-02  0.15572E-03  0.17244E-02
  0.27856E-02 -0.66706E-03  0.17244E-02
  0.12830E-02  0.18447E-02  0.17244E-02
  0.64673E-03  0.14767E-02  0.17244E-02
  0.12259E-03  0.32115E-03  0.17244E-02
 -0.13174E-03  0.12005E-02  0.17244E-02
  0.93870E-03  0.22772E-02  0.17244E-02
  0.11262E-02  0.28203E-02  0.17244E-02
  0.17416E-02  0.24265E-02  0.17244E-02
  0.40485E-03  0.21691E-02  0.17244E-02
  0.39747E-03  0.29316E-02  0.17244E-02
 -0.76975E-03 -0.10060E-02  0.17244E-02
 -0.86811E-03  0.94345E-04  0.17244E-02
  0.45268E-03 -0.68939E-03  0.17244E-02
 -0.18356E-02 -0.70929E-03  0.17244E-02
 -0.18422E-02  0.85096E-04  0.17244E-02
 -0.27233E-02 -0.77542E-03  0.17244E-02
 -0.27976E-02  0.45906E-04  0.17244E-02
 -0.25394E-02 -0.15185E-02  0.17244E-02
 -0.19369E-02 -0.13211E-02  0.17244E-02
 -0.99090E-03  0.10142E-02  0.17244E-02
 -0.14446E-02 -0.17317E-02  0.17244E-02
 -0.31194E-03  0.20274E-02  0.17244E-02
 -0.11002E-02  0.18590E-02  0.17244E-02
 -0.18835E-02  0.17175E-02  0.17244E-02
 -0.18689E-02  0.91395E-03  0.17244E-02
 -0.16394E-03 -0.19805E-02  0.17244E-02
 -0.95226E-03 -0.23494E-02  0.17244E-02
  0.77601E-03 -0.17073E-02  0.17244E-02
  0.17203E-02 -0.14941E-02  0.17244E-02
  0.32112E-02  0.77946E-03  0.17244E-02
  0.28042E-02  0.12558E-02  0.17244E-02
  0.23038E-02  0.18672E-02  0.17244E-02
 -0.40352E-03  0.28835E-02  0.17244E-02
 -0.12093E-02  0.27118E-02  0.17244E-02
 -0.19441E-02  0.24600E-02  0.17244E-02
 -0.25023E-02  0.22358E-02  0.17244E-02
 -0.26354E-02  0.16502E-02  0.17244E-02
 -0.27612E-02  0.87990E-03  0.17244E-02
 -0.21150E-02 -0.21374E-02  0.17244E-02
 -0.16095E-02 -0.26935E-02  0.17244E-02
 -0.11961E-02 -0.31291E-02  0.17244E-02
 -0.59305E-03 -0.30381E-02  0.17244E-02
  0.20140E-03 -0.28750E-02  0.17244E-02
  0.10527E-02 -0.26474E-02  0.17244E-02
  0.18421E-02 -0.23746E-02  0.17244E-02
  0.24568E-02 -0.21549E-02  0.17244E-02
  0.26036E-02 -0.15084E-02  0.17244E-02
  0.37964E-02  0.93572E-03  0.17244E-02
  0.39100E-02  0.00000E+00  0.17244E-02
  0.34621E-02  0.18171E-02  0.17244E-02
  0.29267E-02  0.25928E-02  0.17244E-02
  0.22211E-02  0.32179E-02  0.17244E-02
  0.13865E-02  0.36559E-02  0.17244E-02
  0.47130E-03  0.38815E-02  0.17244E-02
 -0.47130E-03  0.38815E-02  0.17244E-02
 -0.13865E-02  0.36559E-02  0.17244E-02
 -0.22211E-02  0.32179E-02  0.17244E-02
 -0.29267E-02  0.25928E-02  0.17244E-02
 -0.34621E-02  0.18171E-02  0.17244E-02
 -0.37964E-02  0.93572E-03  0.17244E-02
 -0.39100E-02  0.22152E-17  0.17244E-02
 -0.37964E-02 -0.93572E-03  0.17244E-02
 -0.34621E-02 -0.18171E-02  0.17244E-02
 -0.29267E-02 -0.25928E-02  0.17244E-02
 -0.22211E-02 -0.32179E-02  0.17244E-02
 -0.13865E-02 -0.36559E-02  0.17244E-02
 -0.47130E-03 -0.38815E-02  0.17244E-02
  0.47130E-03 -0.38815E-02  0.17244E-02
  0.13865E-02 -0.36559E-02  0.17244E-02
  0.22211E-02 -0.32179E-02  0.17244E-02
  0.29267E-02 -0.25928E-02  0.17244E-02
  0.34621E-02 -0.18171E-02  0.17244E-02
  0.37964E-02 -0.93572E-03  0.17244E-02
  0.10355E-02  0.68401E-03  0.27036E-02
  0.17416E-02  0.12440E-02  0.27036E-02
  0.23152E-02  0.60198E-03  0.27036E-02
  0.16655E-02 -0.32266E-03  0.27036E-02
  0.30372E-02  0.15609E-03  0.27036E-02
  0.27860E-02 -0.66657E-03  0.27036E-02
  0.12829E-02  0.18449E-02  0.27036E-02
  0.64649E-03  0.14777E-02  0.27036E-02
  0.12232E-03  0.32230E-03  0.27036E-02
 -0.13193E-03  0.12022E-02  0.27036E-02
  0.93837E-03  0.22774E-02  0.27036E-02
  0.11259E-02  0.28198E-02  0.27036E-02
  0.17412E-02  0.24267E-02  0.27036E-02
  0.40480E-03  0.21692E-02  0.27036E-02
  0.39745E-03  0.29314E-02  0.27036E-02
 -0.77011E-03 -0.10061E-02  0.27036E-02
 -0.86822E-03  0.95155E-04  0.27036E-02
  0.45223E-03 -0.68866E-03  0.27036E-02
 -0.18359E-02 -0.70915E-03  0.27036E-02
 -0.18421E-02  0.85220E-04  0.27036E-02
 -0.27232E-02 -0.77525E-03  0.27036E-02
 -0.27973E-02  0.46180E-04  0.27036E-02
 -0.25396E-02 -0.15185E-02  0.27036E-02
 -0.19373E-02 -0.13210E-02  0.27036E-02
 -0.99075E-03  0.10156E-02  0.27036E-02
 -0.14450E-02 -0.17317E-02  0.27036E-02
 -0.31173E-03  0.20277E-02  0.27036E-02
 -0.10999E-02  0.18589E-02  0.27036E-02
 -0.18835E-02  0.17175E-02  0.27036E-02
 -0.18687E-02  0.91419E-03  0.27036E-02
 -0.16421E-03 -0.19805E-02  0.27036E-02
 -0.95285E-03 -0.23494E-02  0.27036E-02
  0.77535E-03 -0.17073E-02  0.27036E-02
  0.17202E-02 -0.14943E-02  0.27036E-02
  0.32115E-02  0.78047E-03  0.27036E-02
  0.28041E-02  0.12563E-02  0.27036E-02
  0.23037E-02  0.18672E-02  0.27036E-02
 -0.40338E-03  0.28824E-02  0.27036E-02
 -0.12093E-02  0.27113E-02  0.27036E-02
 -0.19440E-02  0.24597E-02  0.27036E-02
 -0.25023E-02  0.22358E-02  0.27036E-02
 -0.26353E-02  0.16502E-02  0.27036E-02
 -0.27609E-02  0.88016E-03  0.27036E-02
 -0.21151E-02 -0.21374E-02  0.27036E-02
 -0.16096E-02 -0.26935E-02  0.27036E-02
 -0.11962E-02 -0.31291E-02  0.27036E-02
 -0.59340E-03 -0.30381E-02  0.27036E-02
  0.20099E-03 -0.28751E-02  0.27036E-02
  0.10524E-02 -0.26476E-02  0.27036E-02
  0.18422E-02 -0.23748E-02  0.27036E-02
  0.24569E-02 -0.21554E-02  0.27036E-02
  0.26036E-02 -0.15083E-02  0.27036E-02
  0.37964E-02  0.93572E-03  0.27036E-02
  0.39100E-02  0.00000E+00  0.27036E-02
  0.34621E-02  0.18171E-02  0.27036E-02
  0.29267E-02  0.25928E-02  0.27036E-02
  0.22211E-02  0.32179E-02  0.27036E-02
  0.13865E-02  0.36559E-02  0.27036E-02
  0.47130E-03  0.38815E-02  0.27036E-02
 -0.47130E-03  0.38815E-02  0.27036E-02
 -0.13865E-02  0.36559E-02  0.27036E-02
 -0.22211E-02  0.32179E-02  0.27036E-02
 -0.29267E-02  0.25928E-02  0.27036E-02
 -0.34621E-02  0.18171E-02  0.27036E-02
 -0.37964E-02  0.93572E-03  0.27036E-02
 -0.39100E-02 -0.47884E-18  0.27036E-02
 -0.37964E-02 -0.93572E-03  0.27036E-02
 -0.34621E-02 -0.18171E-02  0.27036E-02
 -0.29267E-02 -0.25928E-02  0.27036E-02
 -0.22211E-02 -0.32179E-02  0.27036E-02
 -0.13865E-02 -0.36559E-02  0.27036E-02
 -0.47130E-03 -0.38815E-02  0.27036E-02
  0.47130E-03 -0.38815E-02  0.27036E-02
  0.13865E-02 -0.36559E-02  0.27036E-02
  0.22211E-02 -0.32179E-02  0.27036E-02
  0.29267E-02 -0.25928E-02  0.27036E-02
  0.34621E-02 -0.18171E-02  0.27036E-02
  0.37964E-02 -0.93572E-03  0.27036E-02
  0.10354E-02  0.68457E-03  0.36827E-02
  0.17414E-02  0.12447E-02  0.36827E-02
  0.23151E-02  0.60250E-03  0.36827E-02
  0.16653E-02 -0.32191E-03  0.36827E-02
  0.30372E-02  0.15645E-03  0.36827E-02
  0.27863E-02 -0.66607E-03  0.36827E-02
  0.12829E-02  0.18451E-02  0.36827E-02
  0.64624E-03  0.14787E-02  0.36827E-02
  0.12206E-03  0.32345E-03  0.36827E-02
 -0.13211E-03  0.12040E-02  0.36827E-02
  0.93804E-03  0.22775E-02  0.36827E-02
  0.11255E-02  0.28194E-02  0.36827E-02
  0.17408E-02  0.24268E-02  0.36827E-02
  0.40474E-03  0.21692E-02  0.36827E-02
  0.39744E-03  0.29311E-02  0.36827E-02
 -0.77046E-03 -0.10062E-02  0.36827E-02
 -0.86832E-03  0.95964E-04  0.36827E-02
  0.45179E-03 -0.68793E-03  0.36827E-02
 -0.18362E-02 -0.70901E-03  0.36827E-02
 -0.18420E-02  0.85343E-04  0.36827E-02
 -0.27232E-02 -0.77507E-03  0.36827E-02
 -0.27970E-02  0.46453E-04  0.36827E-02
 -0.25397E-02 -0.15184E-02  0.36827E-02
 -0.19377E-02 -0.13209E-02  0.36827E-02
 -0.99061E-03  0.10169E-02  0.36827E-02
 -0.14453E-02 -0.17316E-02  0.36827E-02
 -0.31153E-03  0.20280E-02  0.36827E-02
 -0.10995E-02  0.18588E-02  0.36827E-02
 -0.18834E-02  0.17175E-02  0.36827E-02
 -0.18686E-02  0.91443E-03  0.36827E-02
 -0.16449E-03 -0.19806E-02  0.36827E-02
 -0.95345E-03 -0.23494E-02  0.36827E-02
  0.77469E-03 -0.17073E-02  0.36827E-02
  0.17202E-02 -0.14945E-02  0.36827E-02
  0.32119E-02  0.78148E-03  0.36827E-02
  0.28041E-02  0.12567E-02  0.36827E-02
  0.23036E-02  0.18673E-02  0.36827E-02
 -0.40324E-03  0.28813E-02  0.36827E-02
 -0.12093E-02  0.27108E-02  0.36827E-02
 -0.19440E-02  0.24595E-02  0.36827E-02
 -0.25022E-02  0.22358E-02  0.36827E-02
 -0.26352E-02  0.16502E-02  0.36827E-02
 -0.27606E-02  0.88043E-03  0.36827E-02
 -0.21152E-02 -0.21374E-02  0.36827E-02
 -0.16096E-02 -0.26936E-02  0.36827E-02
 -0.11963E-02 -0.31291E-02  0.36827E-02
 -0.59375E-03 -0.30381E-02  0.36827E-02
  0.20059E-03 -0.28751E-02  0.36827E-02
  0.10521E-02 -0.26479E-02  0.36827E-02
  0.18422E-02 -0.23750E-02  0.36827E-02
  0.24570E-02 -0.21560E-02  0.36827E-02
  0.26037E-02 -0.15082E-02  0.36827E-02
  0.37964E-02  0.93572E-03  0.36827E-02
  0.39100E-02  0.00000E+00  0.36827E-02
  0.34621E-02  0.18171E-02  0.36827E-02
  0.29267E-02  0.25928E-02  0.36827E-02
  0.22211E-02  0.32179E-02  0.36827E-02
  0.13865E-02  0.36559E-02  0.36827E-02
  0.47130E-03  0.38815E-02  0.36827E-02
 -0.47130E-03  0.38815E-02  0.36827E-02
 -0.13865E-02  0.36559E-02  0.36827E-02
 -0.22211E-02  0.32179E-02  0.36827E-02
 -0.29267E-02  0.25928E-02  0.36827E-02
 -0.34621E-02  0.18171E-02  0.36827E-02
 -0.37964E-02  0.93572E-03  0.36827E-02
 -0.39100E-02 -0.47884E-18  0.36827E-02
 -0.37964E-02 -0.93572E-03  0.36827E-02
 -0.34621E-02 -0.18171E-02  0.36827E-02
 -0.29267E-02 -0.25928E-02  0.36827E-02
 -0.22211E-02 -0.32179E-02  0.36827E-02
 -0.13865E-02 -0.36559E-02  0.36827E-02
 -0.47130E-03 -0.38815E-02  0.36827E-02
  0.47130E-03 -0.38815E-02  0.36827E-02
  0.13865E-02 -0.36559E-02  0.36827E-02
  0.22211E-02 -0.32179E-02  0.36827E-02
  0.29267E-02 -0.25928E-02  0.36827E-02
  0.34621E-02 -0.18171E-02  0.36827E-02
  0.37964E-02 -0.93572E-03  0.36827E-02
  0.10352E-02  0.68512E-03  0.46619E-02
  0.17413E-02  0.12454E-02  0.46619E-02
  0.23150E-02  0.60302E-03  0.46619E-02
  0.16651E-02 -0.32115E-03  0.46619E-02
  0.30371E-02  0.15681E-03  0.46619E-02
  0.27866E-02 -0.66558E-03  0.46619E-02
  0.12827E-02  0.18453E-02  0.46619E-02
  0.64600E-03  0.14797E-02  0.46619E-02
  0.12180E-03  0.32459E-03  0.46619E-02
 -0.13230E-03  0.12058E-02  0.46619E-02
  0.93771E-03  0.22776E-02  0.46619E-02
  0.11252E-02  0.28189E-02  0.46619E-02
  0.17404E-02  0.24270E-02  0.46619E-02
  0.40469E-03  0.21693E-02  0.46619E-02
  0.39742E-03  0.29308E-02  0.46619E-02
 -0.77081E-03 -0.10064E-02  0.46619E-02
 -0.86843E-03  0.96773E-04  0.46619E-02
  0.45134E-03 -0.68721E-03  0.46619E-02
 -0.18365E-02 -0.70887E-03  0.46619E-02
 -0.18419E-02  0.85467E-04  0.46619E-02
 -0.27232E-02 -0.77490E-03  0.46619E-02
 -0.27968E-02  0.46726E-04  0.46619E-02
 -0.25399E-02 -0.15184E-02  0.46619E-02
 -0.19382E-02 -0.13208E-02  0.46619E-02
 -0.99046E-03  0.10183E-02  0.46619E-02
 -0.14457E-02 -0.17316E-02  0.46619E-02
 -0.31133E-03  0.20283E-02  0.46619E-02
 -0.10992E-02  0.18586E-02  0.46619E-02
 -0.18834E-02  0.17175E-02  0.46619E-02
 -0.18685E-02  0.91467E-03  0.46619E-02
 -0.16476E-03 -0.19806E-02  0.46619E-02
 -0.95405E-03 -0.23494E-02  0.46619E-02
  0.77402E-03 -0.17073E-02  0.46619E-02
  0.17202E-02 -0.14948E-02  0.46619E-02
  0.32122E-02  0.78248E-03  0.46619E-02
  0.28041E-02  0.12571E-02  0.46619E-02
  0.23034E-02  0.18673E-02  0.46619E-02
 -0.40310E-03  0.28802E-02  0.46619E-02
 -0.12093E-02  0.27103E-02  0.46619E-02
 -0.19440E-02  0.24593E-02  0.46619E-02
 -0.25022E-02  0.22358E-02  0.46619E-02
 -0.26351E-02  0.16502E-02  0.46619E-02
 -0.27602E-02  0.88069E-03  0.46619E-02
 -0.21154E-02 -0.21374E-02  0.46619E-02
 -0.16097E-02 -0.26936E-02  0.46619E-02
 -0.11964E-02 -0.31291E-02  0.46619E-02
 -0.59409E-03 -0.30381E-02  0.46619E-02
  0.20018E-03 -0.28751E-02  0.46619E-02
  0.10518E-02 -0.26482E-02  0.46619E-02
  0.18422E-02 -0.23752E-02  0.46619E-02
  0.24571E-02 -0.21565E-02  0.46619E-02
  0.26038E-02 -0.15081E-02  0.46619E-02
  0.37964E-02  0.93572E-03  0.46619E-02
  0.39100E-02  0.00000E+00  0.46619E-02
  0.34621E-02  0.18171E-02  0.46619E-02
  0.29267E-02  0.25928E-02  0.46619E-02
  0.22211E-02  0.32179E-02  0.46619E-02
  0.13865E-02  0.36559E-02  0.46619E-02
  0.47130E-03  0.38815E-02  0.46619E-02
 -0.47130E-03  0.38815E-02  0.46619E-02
 -0.13865E-02  0.36559E-02  0.46619E-02
 -0.22211E-02  0.32179E-02  0.46619E-02
 -0.29267E-02  0.25928E-02  0.46619E-02
 -0.34621E-02  0.18171E-02  0.46619E-02
 -0.37964E-02  0.93572E-03  0.46619E-02
 -0.39100E-02 -0.47884E-18  0.46619E-02
 -0.37964E-02 -0.93572E-03  0.46619E-02
 -0.34621E-02 -0.18171E-02  0.46619E-02
 -0.29267E-02 -0.25928E-02  0.46619E-02
 -0.22211E-02 -0.32179E-02  0.46619E-02
 -0.13865E-02 -0.36559E-02  0.46619E-02
 -0.47130E-03 -0.38815E-02  0.46619E-02
  0.47130E-03 -0.38815E-02  0.46619E-02
  0.13865E-02 -0.36559E-02  0.46619E-02
  0.22211E-02 -0.32179E-02  0.46619E-02
  0.29267E-02 -0.25928E-02  0.46619E-02
  0.34621E-02 -0.18171E-02  0.46619E-02
  0.37964E-02 -0.93572E-03  0.46619E-02
  0.10351E-02  0.68567E-03  0.56411E-02
  0.17411E-02  0.12460E-02  0.56411E-02
  0.23149E-02  0.60355E-03  0.56411E-02
  0.16649E-02 -0.32040E-03  0.56411E-02
  0.30371E-02  0.15718E-03  0.56411E-02
  0.27870E-02 -0.66509E-03  0.56411E-02
  0.12826E-02  0.18455E-02  0.56411E-02
  0.64575E-03  0.14807E-02  0.56411E-02
  0.12154E-03  0.32574E-03  0.56411E-02
 -0.13248E-03  0.12075E-02  0.56411E-02
  0.93738E-03  0.22777E-02  0.56411E-02
  0.11249E-02  0.28185E-02  0.56411E-02
  0.17400E-02  0.24271E-02  0.56411E-02
  0.40463E-03  0.21693E-02  0.56411E-02
  0.39740E-03  0.29306E-02  0.56411E-02
 -0.77117E-03 -0.10065E-02  0.56411E-02
 -0.86854E-03  0.97583E-04  0.56411E-02
  0.45089E-03 -0.68648E-03  0.56411E-02
 -0.18368E-02 -0.70873E-03  0.56411E-02
 -0.18418E-02  0.85591E-04  0.56411E-02
 -0.27232E-02 -0.77474E-03  0.56411E-02
 -0.27965E-02  0.47000E-04  0.56411E-02
 -0.25400E-02 -0.15183E-02  0.56411E-02
 -0.19386E-02 -0.13207E-02  0.56411E-02
 -0.99032E-03  0.10197E-02  0.56411E-02
 -0.14460E-02 -0.17316E-02  0.56411E-02
 -0.31113E-03  0.20285E-02  0.56411E-02
 -0.10988E-02  0.18585E-02  0.56411E-02
 -0.18833E-02  0.17175E-02  0.56411E-02
 -0.18683E-02  0.91491E-03  0.56411E-02
 -0.16504E-03 -0.19806E-02  0.56411E-02
 -0.95465E-03 -0.23495E-02  0.56411E-02
  0.77336E-03 -0.17073E-02  0.56411E-02
  0.17201E-02 -0.14950E-02  0.56411E-02
  0.32125E-02  0.78348E-03  0.56411E-02
  0.28041E-02  0.12576E-02  0.56411E-02
  0.23033E-02  0.18674E-02  0.56411E-02
 -0.40296E-03  0.28792E-02  0.56411E-02
 -0.12093E-02  0.27099E-02  0.56411E-02
 -0.19439E-02  0.24591E-02  0.56411E-02
 -0.25022E-02  0.22358E-02  0.56411E-02
 -0.26350E-02  0.16502E-02  0.56411E-02
 -0.27599E-02  0.88095E-03  0.56411E-02
 -0.21155E-02 -0.21374E-02  0.56411E-02
 -0.16097E-02 -0.26936E-02  0.56411E-02
 -0.11965E-02 -0.31290E-02  0.56411E-02
 -0.59444E-03 -0.30381E-02  0.56411E-02
  0.19977E-03 -0.28751E-02  0.56411E-02
  0.10515E-02 -0.26484E-02  0.56411E-02
  0.18423E-02 -0.23754E-02  0.56411E-02
  0.24573E-02 -0.21571E-02  0.56411E-02
  0.26039E-02 -0.15080E-02  0.56411E-02
  0.37964E-02  0.93572E-03  0.56411E-02
  0.39100E-02  0.00000E+00  0.56411E-02
  0.34621E-02  0.18171E-02  0.56411E-02
  0.29267E-02  0.25928E-02  0.56411E-02
  0.22211E-02  0.32179E-02  0.56411E-02
  0.13865E-02  0.36559E-02  0.56411E-02
  0.47130E-03  0.38815E-02  0.56411E-02
 -0.47130E-03  0.38815E-02  0.56411E-02
 -0.13865E-02  0.36559E-02  0.56411E-02
 -0.22211E-02  0.32179E-02  0.56411E-02
 -0.29267E-02  0.25928E-02  0.56411E-02
 -0.34621E-02  0.18171E-02  0.56411E-02
 -0.37964E-02  0.93572E-03  0.56411E-02
 -0.39100E-02  0.47884E-18  0.56411E-02
 -0.37964E-02 -0.93572E-03  0.56411E-02
 -0.34621E-02 -0.18171E-02  0.56411E-02
 -0.29267E-02 -0.25928E-02  0.56411E-02
 -0.22211E-02 -0.32179E-02  0.56411E-02
 -0.13865E-02 -0.36559E-02  0.56411E-02
 -0.47130E-03 -0.38815E-02  0.56411E-02
  0.47130E-03 -0.38815E-02  0.56411E-02
  0.13865E-02 -0.36559E-02  0.56411E-02
  0.22211E-02 -0.32179E-02  0.56411E-02
  0.29267E-02 -0.25928E-02  0.56411E-02
  0.34621E-02 -0.18171E-02  0.56411E-02
  0.37964E-02 -0.93572E-03  0.56411E-02
  
CELLS       3486               17724
       1       0
       1       1
       1       2
       1       3
       1       4
       1       5
       1       6
       1       7
       1       8
       1       9
       1      10
       1      11
       1      12
       1      13
       1      14
       1      15
       1      16
       1      17
       1      18
       1      19
       1      20
       1      21
       1      22
       1      23
       1      24
       1      25
       1      26
       1      27
       1      28
       1      29
       1      30
       1      31
       1      32
       1      33
       1      34
       1      35
       1      36
       1      37
       1      38
       1      39
       1      40
       1      41
       1      42
       1      43
       1      44
       1      45
       1      46
       1      47
       1      48
       1      49
       1      50
       1      51
       1      52
       1      53
       1      54
       1      55
       1      56
       1      57
       1      58
       1      59
       1      60
       1      61
       1      62
       1      63
       1      64
       1      65
       1      66
       1      67
       1      68
       1      69
       1      70
       1      71
       1      72
       1      73
       1      74
       1      75
       1      76
       1      77
       1      78
       1      79
       1      80
       1      81
       1      82
       1      83
       1      84
       1      85
       1      86
       1      87
       1      88
       1      89
       1      90
       1      91
       1      92
       1      93
       1      94
       1      95
       1      96
       1      97
       1      98
       1      99
       1     100
       1     101
       1     102
       1     103
       1     104
       1     105
       1     106
       1     107
       1     108
       1     109
       1     110
       1     111
       1     112
       1     113
       1     114
       1     115
       1     116
       1     117
       1     118
       1     119
       1     120
       1     121
       1     122
       1     123
       1     124
       1     125
       1     126
       1     127
       1     128
       1     129
       1     130
       1     131
       1     132
       1     133
       1     134
       1     135
       1     136
       1     137
       1     138
       1     139
       1     140
       1     141
       1     142
       1     143
       1     144
       1     145
       1     146
       1     147
       1     148
       1     149
       1     150
       1     151
       1     152
       1     153
       1     154
       1     155
       1     156
       1     157
       1     158
       1     159
       1     160
       1     161
       1     162
       1     163
       1     164
       1     165
       1     166
       1     167
       1     168
       1     169
       1     170
       1     171
       1     172
       1     173
       1     174
       1     175
       1     176
       1     177
       1     178
       1     179
       1     180
       1     181
       1     182
       1     183
       1     184
       1     185
       1     186
       1     187
       1     188
       1     189
       1     190
       1     191
       1     192
       1     193
       1     194
       1     195
       1     196
       1     197
       1     198
       1     199
       1     200
       1     201
       1     202
       1     203
       1     204
       1     205
       1     206
       1     207
       1     208
       1     209
       1     210
       1     211
       1     212
       1     213
       1     214
       1     215
       1     216
       1     217
       1     218
       1     219
       1     220
       1     221
       1     222
       1     223
       1     224
       1     225
       1     226
       1     227
       1     228
       1     229
       1     230
       1     231
       1     232
       1     233
       1     234
       1     235
       1     236
       1     237
       1     238
       1     239
       1     240
       1     241
       1     242
       1     243
       1     244
       1     245
       1     246
       1     247
       1     248
       1     249
       1     250
       1     251
       1     252
       1     253
       1     254
       1     255
       1     256
       1     257
       1     258
       1     259
       1     260
       1     261
       1     262
       1     263
       1     264
       1     265
       1     266
       1     267
       1     268
       1     269
       1     270
       1     271
       1     272
       1     273
       1     274
       1     275
       1     276
       1     277
       1     278
       1     279
       1     280
       1     281
       1     282
       1     283
       1     284
       1     285
       1     286
       1     287
       1     288
       1     289
       1     290
       1     291
       1     292
       1     293
       1     294
       1     295
       1     296
       1     297
       1     298
       1     299
       1     300
       1     301
       1     302
       1     303
       1     304
       1     305
       1     306
       1     307
       1     308
       1     309
       1     310
       1     311
       1     312
       1     313
       1     314
       1     315
       1     316
       1     317
       1     318
       1     319
       1     320
       1     321
       1     322
       1     323
       1     324
       1     325
       1     326
       1     327
       1     328
       1     329
       1     330
       1     331
       1     332
       1     333
       1     334
       1     335
       1     336
       1     337
       1     338
       1     339
       1     340
       1     341
       1     342
       1     343
       1     344
       1     345
       1     346
       1     347
       1     348
       1     349
       1     350
       1     351
       1     352
       1     353
       1     354
       1     355
       1     356
       1     357
       1     358
       1     359
       1     360
       1     361
       1     362
       1     363
       1     364
       1     365
       1     366
       1     367
       1     368
       1     369
       1     370
       1     371
       1     372
       1     373
       1     374
       1     375
       1     376
       1     377
       1     378
       1     379
       1     380
       1     381
       1     382
       1     383
       1     384
       1     385
       1     386
       1     387
       1     388
       1     389
       1     390
       1     391
       1     392
       1     393
       1     394
       1     395
       1     396
       1     397
       1     398
       1     399
       1     400
       1     401
       1     402
       1     403
       1     404
       1     405
       1     406
       1     407
       1     408
       1     409
       1     410
       1     411
       1     412
       1     413
       1     414
       1     415
       1     416
       1     417
       1     418
       1     419
       1     420
       1     421
       1     422
       1     423
       1     424
       1     425
       1     426
       1     427
       1     428
       1     429
       1     430
       1     431
       1     432
       1     433
       1     434
       1     435
       1     436
       1     437
       1     438
       1     439
       1     440
       1     441
       1     442
       1     443
       1     444
       1     445
       1     446
       1     447
       1     448
       1     449
       1     450
       1     451
       1     452
       1     453
       1     454
       1     455
       1     456
       1     457
       1     458
       1     459
       1     460
       1     461
       1     462
       1     463
       1     464
       1     465
       1     466
       1     467
       1     468
       1     469
       1     470
       1     471
       1     472
       1     473
       1     474
       1     475
       1     476
       1     477
       1     478
       1     479
       1     480
       1     481
       1     482
       1     483
       1     484
       1     485
       1     486
       1     487
       1     488
       1     489
       1     490
       1     491
       1     492
       1     493
       1     494
       1     495
       1     496
       1     497
       1     498
       1     499
       1     500
       1     501
       1     502
       1     503
       1     504
       1     505
       1     506
       1     507
       1     508
       1     509
       1     510
       1     511
       1     512
       1     513
       1     514
       1     515
       1     516
       1     517
       1     518
       1     519
       1     520
       1     521
       1     522
       1     523
       1     524
       1     525
       1     526
       1     527
       1     528
       1     529
       1     530
       1     531
       1     532
       1     533
       1     534
       1     535
       1     536
       1     537
       1     538
       1     539
       1     540
       1     541
       1     542
       1     543
       1     544
       1     545
       1     546
       1     547
       1     548
       1     549
       1     550
       1     551
       1     552
       1     553
       1     554
       1     555
       1     556
       1     557
       1     558
       1     559
       1     560
       1     561
       1     562
       1     563
       1     564
       1     565
       1     566
       1     567
       1     568
       1     569
       1     570
       1     571
       1     572
       1     573
       1     574
       1     575
       1     576
       1     577
       1     578
       1     579
       1     580
       1     581
       1     582
       1     583
       1     584
       1     585
       1     586
       1     587
       1     588
       1     589
       1     590
       1     591
       1     592
       1     593
       1     594
       1     595
       1     596
       1     597
       1     598
       1     599
       1     600
       1     601
       1     602
       1     603
       1     604
       1     605
       1     606
       1     607
       1     608
       1     609
       1     610
       1     611
       1     612
       1     613
       1     614
       1     615
       1     616
       1     617
       1     618
       1     619
       1     620
       1     621
       1     622
       1     623
       1     624
       1     625
       1     626
       1     627
       1     628
       1     629
       1     630
       1     631
       1     632
       1     633
       1     634
       1     635
       1     636
       1     637
       1     638
       1     639
       1     640
       1     641
       1     642
       1     643
       1     644
       1     645
       1     646
       1     647
       1     648
       1     649
       1     650
       1     651
       1     652
       1     653
       1     654
       1     655
       1     656
       1     657
       1     658
       1     659
       1     660
       1     661
       1     662
       1     663
       1     664
       1     665
       1     666
       1     667
       1     668
       1     669
       1     670
       1     671
       1     672
       1     673
       1     674
       1     675
       1     676
       1     677
       1     678
       1     679
       1     680
       1     681
       1     682
       1     683
       1     684
       1     685
       1     686
       1     687
       1     688
       1     689
       1     690
       1     691
       1     692
       1     693
       1     694
       1     695
       1     696
       1     697
       1     698
       1     699
       1     700
       1     701
       1     702
       1     703
       1     704
       1     705
       1     706
       1     707
       1     708
       1     709
       1     710
       1     711
       1     712
       1     713
       1     714
       1     715
       1     716
       1     717
       1     718
       1     719
       1     720
       1     721
       1     722
       1     723
       1     724
       1     725
       1     726
       1     727
       1     728
       1     729
       1     730
       1     731
       1     732
       1     733
       1     734
       1     735
       1     736
       1     737
       1     738
       1     739
       1     740
       1     741
       1     742
       1     743
       1     744
       1     745
       1     746
       1     747
       1     748
       1     749
       1     750
       1     751
       1     752
       1     753
       1     754
       1     755
       1     756
       1     757
       1     758
       1     759
       1     760
       1     761
       1     762
       1     763
       1     764
       1     765
       1     766
       1     767
       1     768
       1     769
       1     770
       1     771
       1     772
       1     773
       1     774
       1     775
       1     776
       1     777
       1     778
       1     779
       1     780
       1     781
       1     782
       1     783
       1     784
       1     785
       1     786
       1     787
       1     788
       1     789
       1     790
       1     791
       1     792
       1     793
       1     794
       1     795
       1     796
       1     797
       1     798
       1     799
       1     800
       1     801
       1     802
       1     803
       1     804
       1     805
       1     806
       1     807
       1     808
       1     809
       1     810
       1     811
       1     812
       1     813
       1     814
       1     815
       1     816
       1     817
       1     818
       1     819
       1     820
       1     821
       1     822
       1     823
       1     824
       1     825
       1     826
       1     827
       1     828
       1     829
       1     830
       1     831
       1     832
       1     833
       1     834
       1     835
       1     836
       1     837
       1     838
       1     839
       1     840
       1     841
       1     842
       1     843
       1     844
       1     845
       1     846
       1     847
       1     848
       1     849
       1     850
       1     851
       1     852
       1     853
       1     854
       1     855
       1     856
       1     857
       1     858
       1     859
       1     860
       1     861
       1     862
       1     863
       1     864
       1     865
       1     866
       1     867
       1     868
       1     869
       1     870
       1     871
       1     872
       1     873
       1     874
       1     875
       1     876
       1     877
       1     878
       1     879
       1     880
       1     881
       1     882
       1     883
       1     884
       1     885
       1     886
       1     887
       1     888
       1     889
       1     890
       1     891
       1     892
       1     893
       1     894
       1     895
       1     896
       1     897
       1     898
       1     899
       1     900
       1     901
       1     902
       1     903
       1     904
       1     905
       1     906
       1     907
       1     908
       1     909
       1     910
       1     911
       1     912
       1     913
       1     914
       1     915
       1     916
       1     917
       1     918
       1     919
       1     920
       1     921
       1     922
       1     923
       1     924
       1     925
       1     926
       1     927
       1     928
       1     929
       1     930
       1     931
       1     932
       1     933
       1     934
       1     935
       1     936
       1     937
       1     938
       1     939
       1     940
       1     941
       1     942
       1     943
       1     944
       1     945
       1     946
       1     947
       1     948
       1     949
       1     950
       1     951
       1     952
       1     953
       1     954
       1     955
       1     956
       1     957
       1     958
       1     959
       1     960
       1     961
       1     962
       1     963
       1     964
       1     965
       1     966
       1     967
       1     968
       1     969
       1     970
       1     971
       1     972
       1     973
       1     974
       1     975
       1     976
       1     977
       1     978
       1     979
       1     980
       1     981
       1     982
       1     983
       1     984
       1     985
       1     986
       1     987
       1     988
       1     989
       1     990
       1     991
       1     992
       1     993
       1     994
       1     995
       1     996
       1     997
       1     998
       1     999
       1    1000
       1    1001
       1    1002
       1    1003
       1    1004
       1    1005
       1    1006
       1    1007
       1    1008
       1    1009
       1    1010
       1    1011
       1    1012
       1    1013
       1    1014
       1    1015
       1    1016
       1    1017
       1    1018
       1    1019
       1    1020
       1    1021
       1    1022
       1    1023
       1    1024
       1    1025
       1    1026
       1    1027
       1    1028
       1    1029
       1    1030
       1    1031
       1    1032
       1    1033
       1    1034
       1    1035
       1    1036
       1    1037
       1    1038
       1    1039
       1    1040
       1    1041
       1    1042
       1    1043
       1    1044
       1    1045
       1    1046
       1    1047
       1    1048
       1    1049
       1    1050
       1    1051
       1    1052
       1    1053
       1    1054
       1    1055
       1    1056
       1    1057
       1    1058
       1    1059
       1    1060
       1    1061
       1    1062
       1    1063
       1    1064
       1    1065
       1    1066
       1    1067
       1    1068
       1    1069
       1    1070
       1    1071
       1    1072
       1    1073
       1    1074
       1    1075
       1    1076
       1    1077
       1    1078
       1    1079
       1    1080
       1    1081
       1    1082
       1    1083
       1    1084
       1    1085
       1    1086
       1    1087
       1    1088
       1    1089
       1    1090
       1    1091
       1    1092
       1    1093
       1    1094
       1    1095
       1    1096
       1    1097
       1    1098
       1    1099
       1    1100
       1    1101
       1    1102
       1    1103
       1    1104
       1    1105
       1    1106
       1    1107
       1    1108
       1    1109
       1    1110
       1    1111
       1    1112
       1    1113
       1    1114
       1    1115
       1    1116
       1    1117
       1    1118
       1    1119
       1    1120
       1    1121
       1    1122
       1    1123
       1    1124
       1    1125
       1    1126
       1    1127
       1    1128
       1    1129
       1    1130
       1    1131
       1    1132
       1    1133
       1    1134
       1    1135
       1    1136
       1    1137
       1    1138
       1    1139
       1    1140
       1    1141
       1    1142
       1    1143
       1    1144
       1    1145
       1    1146
       1    1147
       1    1148
       1    1149
       1    1150
       1    1151
       1    1152
       1    1153
       1    1154
       1    1155
       1    1156
       1    1157
       1    1158
       1    1159
       1    1160
       1    1161
       1    1162
       1    1163
       1    1164
       1    1165
       1    1166
       1    1167
       1    1168
       1    1169
       1    1170
       1    1171
       1    1172
       1    1173
       1    1174
       1    1175
       1    1176
       1    1177
       1    1178
       1    1179
       1    1180
       1    1181
       1    1182
       1    1183
       1    1184
       1    1185
       1    1186
       1    1187
       1    1188
       1    1189
       1    1190
       1    1191
       1    1192
       1    1193
       1    1194
       1    1195
       1    1196
       1    1197
       1    1198
       1    1199
       1    1200
       1    1201
       1    1202
       1    1203
       1    1204
       1    1205
       1    1206
       1    1207
       1    1208
       1    1209
       1    1210
       1    1211
       1    1212
       1    1213
       1    1214
       1    1215
       1    1216
       1    1217
       1    1218
       1    1219
       1    1220
       1    1221
       1    1222
       1    1223
       1    1224
       1    1225
       1    1226
       1    1227
       1    1228
       1    1229
       1    1230
       1    1231
       1    1232
       1    1233
       1    1234
       1    1235
       1    1236
       1    1237
       1    1238
       1    1239
       1    1240
       1    1241
       1    1242
       1    1243
       1    1244
       1    1245
       1    1246
       1    1247
       1    1248
       1    1249
       1    1250
       1    1251
       1    1252
       1    1253
       1    1254
       1    1255
       1    1256
       1    1257
       1    1258
       1    1259
       1    1260
       1    1261
       1    1262
       1    1263
       1    1264
       1    1265
       1    1266
       1    1267
       1    1268
       1    1269
       1    1270
       1    1271
       1    1272
       1    1273
       1    1274
       1    1275
       1    1276
       1    1277
       1    1278
       1    1279
       1    1280
       1    1281
       1    1282
       1    1283
       1    1284
       1    1285
       1    1286
       1    1287
       1    1288
       1    1289
       1    1290
       1    1291
       1    1292
       1    1293
       1    1294
       1    1295
       1    1296
       1    1297
       1    1298
       1    1299
       1    1300
       1    1301
       1    1302
       1    1303
       1    1304
       1    1305
       1    1306
       1    1307
       1    1308
       1    1309
       1    1310
       1    1311
       1    1312
       1    1313
       1    1314
       1    1315
       1    1316
       1    1317
       1    1318
       1    1319
       1    1320
       1    1321
       1    1322
       1    1323
       1    1324
       1    1325
       1    1326
       1    1327
       1    1328
       1    1329
       1    1330
       1    1331
       1    1332
       1    1333
       1    1334
       1    1335
       1    1336
       1    1337
       1    1338
       1    1339
       1    1340
       1    1341
       1    1342
       1    1343
       1    1344
       1    1345
       1    1346
       1    1347
       1    1348
       1    1349
       1    1350
       1    1351
       1    1352
       1    1353
       1    1354
       1    1355
       1    1356
       1    1357
       1    1358
       1    1359
       1    1360
       1    1361
       1    1362
       1    1363
       1    1364
       1    1365
       1    1366
       1    1367
       1    1368
       1    1369
       1    1370
       1    1371
       1    1372
       1    1373
       1    1374
       1    1375
       1    1376
       1    1377
       1    1378
       1    1379
       1    1380
       1    1381
       1    1382
       1    1383
       1    1384
       1    1385
       1    1386
       1    1387
       1    1388
       1    1389
       1    1390
       1    1391
       1    1392
       1    1393
       1    1394
       1    1395
       1    1396
       1    1397
       1    1398
       1    1399
       1    1400
       1    1401
       1    1402
       1    1403
       1    1404
       1    1405
       1    1406
       1    1407
       1    1408
       1    1409
       1    1410
       1    1411
       1    1412
       1    1413
       1    1414
       1    1415
       1    1416
       1    1417
       1    1418
       1    1419
       1    1420
       1    1421
       1    1422
       1    1423
       1    1424
       1    1425
       1    1426
       1    1427
       1    1428
       1    1429
       1    1430
       1    1431
       1    1432
       1    1433
       1    1434
       1    1435
       1    1436
       1    1437
       1    1438
       1    1439
       1    1440
       1    1441
       1    1442
       1    1443
       1    1444
       1    1445
       1    1446
       1    1447
       1    1448
       1    1449
       1    1450
       1    1451
       1    1452
       1    1453
       1    1454
       1    1455
       1    1456
       1    1457
       1    1458
       1    1459
       1    1460
       1    1461
       1    1462
       1    1463
       1    1464
       1    1465
       1    1466
       1    1467
       1    1468
       1    1469
       1    1470
       1    1471
       1    1472
       1    1473
       1    1474
       1    1475
       1    1476
       1    1477
       1    1478
       1    1479
       1    1480
       1    1481
       1    1482
       1    1483
       1    1484
       1    1485
       1    1486
       1    1487
       1    1488
       1    1489
       1    1490
       1    1491
       1    1492
       1    1493
       1    1494
       1    1495
       1    1496
       1    1497
       1    1498
       1    1499
       1    1500
       1    1501
       1    1502
       1    1503
       1    1504
       1    1505
       1    1506
       1    1507
       1    1508
       1    1509
       1    1510
       1    1511
       1    1512
       1    1513
       1    1514
       1    1515
       1    1516
       1    1517
       1    1518
       1    1519
       1    1520
       1    1521
       1    1522
       1    1523
       1    1524
       1    1525
       1    1526
       1    1527
       1    1528
       1    1529
       1    1530
       1    1531
       1    1532
       1    1533
       1    1534
       1    1535
       1    1536
       1    1537
       1    1538
       1    1539
       1    1540
       1    1541
       1    1542
       1    1543
       1    1544
       1    1545
       1    1546
       1    1547
       1    1548
       1    1549
       1    1550
       1    1551
       1    1552
       1    1553
       1    1554
       1    1555
       1    1556
       1    1557
       1    1558
       1    1559
       1    1560
       1    1561
       1    1562
       1    1563
       1    1564
       1    1565
       1    1566
       1    1567
       1    1568
       1    1569
       1    1570
       1    1571
       1    1572
       1    1573
       1    1574
       1    1575
       1    1576
       1    1577
       1    1578
       1    1579
       1    1580
       1    1581
       1    1582
       1    1583
       1    1584
       1    1585
       1    1586
       1    1587
       1    1588
       1    1589
       1    1590
       1    1591
       1    1592
       1    1593
       1    1594
       1    1595
       1    1596
       1    1597
       1    1598
       1    1599
       1    1600
       1    1601
       1    1602
       1    1603
       1    1604
       1    1605
       1    1606
       1    1607
       1    1608
       1    1609
       1    1610
       1    1611
       1    1612
       1    1613
       1    1614
       1    1615
       1    1616
       1    1617
       1    1618
       1    1619
       1    1620
       1    1621
       1    1622
       1    1623
       1    1624
       1    1625
       1    1626
       1    1627
       1    1628
       1    1629
       1    1630
       1    1631
       1    1632
       1    1633
       1    1634
       1    1635
       1    1636
       1    1637
       1    1638
       1    1639
       1    1640
       1    1641
       1    1642
       1    1643
       1    1644
       1    1645
       1    1646
       1    1647
       1    1648
       1    1649
       1    1650
       1    1651
       1    1652
       1    1653
       1    1654
       1    1655
       1    1656
       1    1657
       1    1658
       1    1659
       1    1660
       1    1661
       1    1662
       1    1663
       1    1664
       1    1665
       1    1666
       1    1667
       1    1668
       1    1669
       1    1670
       1    1671
       1    1672
       1    1673
       1    1674
       1    1675
       1    1676
       1    1677
       1    1678
       1    1679
       1    1680
       1    1681
       1    1682
       1    1683
       1    1684
       1    1685
       1    1686
       1    1687
       1    1688
       1    1689
       1    1690
       1    1691
       1    1692
       1    1693
       1    1694
       1    1695
       1    1696
       1    1697
       1    1698
       1    1699
       1    1700
       1    1701
       1    1702
       1    1703
       1    1704
       1    1705
       1    1706
       1    1707
       1    1708
       1    1709
       1    1710
       1    1711
       1    1712
       1    1713
       1    1714
       1    1715
       1    1716
       1    1717
       1    1718
       1    1719
       1    1720
       1    1721
       1    1722
       1    1723
       1    1724
       1    1725
       1    1726
       1    1727
       1    1728
       1    1729
       1    1730
       1    1731
       1    1732
       1    1733
       1    1734
       1    1735
       1    1736
       1    1737
       1    1738
       1    1739
       1    1740
       1    1741
       1    1742
       1    1743
       1    1744
       1    1745
       1    1746
       1    1747
       1    1748
       1    1749
       1    1750
       1    1751
       1    1752
       1    1753
       1    1754
       1    1755
       1    1756
       1    1757
       1    1758
       1    1759
       1    1760
       1    1761
       1    1762
       1    1763
       1    1764
       1    1765
       1    1766
       1    1767
       1    1768
       1    1769
       1    1770
       1    1771
       1    1772
       1    1773
       1    1774
       1    1775
       1    1776
       1    1777
       1    1778
       1    1779
       1    1780
       1    1781
       1    1782
       1    1783
       1    1784
       1    1785
       1    1786
       1    1787
       1    1788
       1    1789
       1    1790
       1    1791
       1    1792
       1    1793
       1    1794
       1    1795
       1    1796
       1    1797
       1    1798
       1    1799
       1    1800
       1    1801
       1    1802
       1    1803
       1    1804
       1    1805
       1    1806
       1    1807
       1    1808
       1    1809
       1    1810
       1    1811
       1    1812
       1    1813
       1    1814
       1    1815
       1    1816
       1    1817
       1    1818
       1    1819
       1    1820
       1    1821
       1    1822
       1    1823
       1    1824
       1    1825
       1    1826
       1    1827
       1    1828
       1    1829
       1    1830
       1    1831
       1    1832
       1    1833
       1    1834
       1    1835
       1    1836
       1    1837
       1    1838
       1    1839
       1    1840
       1    1841
       1    1842
       1    1843
       1    1844
       1    1845
       1    1846
       1    1847
       1    1848
       1    1849
       1    1850
       1    1851
       1    1852
       1    1853
       1    1854
       1    1855
       1    1856
       1    1857
       1    1858
       1    1859
       1    1860
       1    1861
       1    1862
       1    1863
       1    1864
       1    1865
       1    1866
       1    1867
       1    1868
       1    1869
       1    1870
       1    1871
       1    1872
       1    1873
       1    1874
       1    1875
       1    1876
       1    1877
       1    1878
       1    1879
       1    1880
       1    1881
       1    1882
       1    1883
       1    1884
       1    1885
       1    1886
       1    1887
       1    1888
       1    1889
       1    1890
       1    1891
       1    1892
       1    1893
       1    1894
       1    1895
       1    1896
       1    1897
       1    1898
       1    1899
       1    1900
       1    1901
       1    1902
       1    1903
       1    1904
       1    1905
       1    1906
       1    1907
       1    1908
       1    1909
       1    1910
       1    1911
       1    1912
       1    1913
       1    1914
       1    1915
       1    1916
       1    1917
       1    1918
       1    1919
       1    1920
       1    1921
       1    1922
       1    1923
       1    1924
       1    1925
       1    1926
       1    1927
       1    1928
       1    1929
       1    1930
       1    1931
       1    1932
       1    1933
       1    1934
       1    1935
       1    1936
       1    1937
       1    1938
       1    1939
       1    1940
       1    1941
       1    1942
       1    1943
       1    1944
       1    1945
       1    1946
       1    1947
       1    1948
       1    1949
       8       0       1       2       3       4       5       6       7
       8       2       8       9       3       6      10      11       7
       8      12       1       0      13      14       5       4      15
       8       0      16      17      13       4      18      19      15
       8      20      21      22      12      23      24      25      14
       8      26      27      21      20      28      29      24      23
       8      13      26      20      12      15      28      23      14
       8      30      31      16      32      33      34      18      35
       8      36      37      31      30      38      39      34      33
       8      40      41      37      36      42      43      39      38
       8      44      40      36      45      46      42      38      47
       8      48      17      16      31      49      19      18      34
       8      30      50      45      36      33      51      47      38
       8       0       3      32      16       4       7      35      18
       8      52      26      13      17      53      28      15      19
       8      54      52      17      48      55      53      19      49
       8      56      54      48      57      58      55      49      59
       8      37      57      48      31      39      59      49      34
       8      60      61      50      30      62      63      51      33
       8      64      60      30      32      65      62      33      35
       8      66      64      32       3      67      65      35       7
       8      68       8       2      69      70      10       6      71
       8      72      69       2       1      73      71       6       5
       8      22      72       1      12      25      73       5      14
       8      74      27      26      52      75      29      28      53
       8      76      74      52      54      77      75      53      55
       8      78      76      54      56      79      77      55      58
       8      80      78      56      81      82      79      58      83
       8      84      81      56      57      85      83      58      59
       8      41      84      57      37      43      85      59      39
       8      86      44      45      50      87      46      47      51
       8      88      86      50      61      89      87      51      63
       8      90      88      61      91      92      89      63      93
       8      94      91      61      60      95      93      63      62
       8      96      94      60      64      97      95      62      65
       8      98      96      64      66      99      97      65      67
       8     100      98      66     101     102      99      67     103
       8       9     101      66       3      11     103      67       7
       8     104     105       8      68     106     107      10      70
       8     108     104      68      69     109     106      70      71
       8     110     108      69      72     111     109      71      73
       8     112     110      72      22     113     111      73      25
       8     114     112      22      21     115     113      25      24
       8     116     114      21      27     117     115      24      29
       8     118     116      27      74     119     117      29      75
       8     120     118      74      76     121     119      75      77
       8     122     120      76      78     123     121      77      79
       8     124     122      78      80     125     123      79      82
       8     126     124      80      81     127     125      82      83
       8     128     126      81      84     129     127      83      85
       8     130     128      84      41     131     129      85      43
       8     132     130      41      40     133     131      43      42
       8     134     132      40      44     135     133      42      46
       8     136     134      44      86     137     135      46      87
       8     138     136      86      88     139     137      87      89
       8     140     138      88      90     141     139      89      92
       8     142     140      90      91     143     141      92      93
       8     144     142      91      94     145     143      93      95
       8     146     144      94      96     147     145      95      97
       8     148     146      96      98     149     147      97      99
       8     150     148      98     100     151     149      99     102
       8     152     150     100     101     153     151     102     103
       8     154     152     101       9     155     153     103      11
       8     105     154       9       8     107     155      11      10
       8     156     157     158     159       0       1       2       3
       8     158     160     161     159       2       8       9       3
       8     162     157     156     163      12       1       0      13
       8     156     164     165     163       0      16      17      13
       8     166     167     168     162      20      21      22      12
       8     169     170     167     166      26      27      21      20
       8     163     169     166     162      13      26      20      12
       8     171     172     164     173      30      31      16      32
       8     174     175     172     171      36      37      31      30
       8     176     177     175     174      40      41      37      36
       8     178     176     174     179      44      40      36      45
       8     180     165     164     172      48      17      16      31
       8     171     181     179     174      30      50      45      36
       8     156     159     173     164       0       3      32      16
       8     182     169     163     165      52      26      13      17
       8     183     182     165     180      54      52      17      48
       8     184     183     180     185      56      54      48      57
       8     175     185     180     172      37      57      48      31
       8     186     187     181     171      60      61      50      30
       8     188     186     171     173      64      60      30      32
       8     189     188     173     159      66      64      32       3
       8     190     160     158     191      68       8       2      69
       8     192     191     158     157      72      69       2       1
       8     168     192     157     162      22      72       1      12
       8     193     170     169     182      74      27      26      52
       8     194     193     182     183      76      74      52      54
       8     195     194     183     184      78      76      54      56
       8     196     195     184     197      80      78      56      81
       8     198     197     184     185      84      81      56      57
       8     177     198     185     175      41      84      57      37
       8     199     178     179     181      86      44      45      50
       8     200     199     181     187      88      86      50      61
       8     201     200     187     202      90      88      61      91
       8     203     202     187     186      94      91      61      60
       8     204     203     186     188      96      94      60      64
       8     205     204     188     189      98      96      64      66
       8     206     205     189     207     100      98      66     101
       8     161     207     189     159       9     101      66       3
       8     208     209     160     190     104     105       8      68
       8     210     208     190     191     108     104      68      69
       8     211     210     191     192     110     108      69      72
       8     212     211     192     168     112     110      72      22
       8     213     212     168     167     114     112      22      21
       8     214     213     167     170     116     114      21      27
       8     215     214     170     193     118     116      27      74
       8     216     215     193     194     120     118      74      76
       8     217     216     194     195     122     120      76      78
       8     218     217     195     196     124     122      78      80
       8     219     218     196     197     126     124      80      81
       8     220     219     197     198     128     126      81      84
       8     221     220     198     177     130     128      84      41
       8     222     221     177     176     132     130      41      40
       8     223     222     176     178     134     132      40      44
       8     224     223     178     199     136     134      44      86
       8     225     224     199     200     138     136      86      88
       8     226     225     200     201     140     138      88      90
       8     227     226     201     202     142     140      90      91
       8     228     227     202     203     144     142      91      94
       8     229     228     203     204     146     144      94      96
       8     230     229     204     205     148     146      96      98
       8     231     230     205     206     150     148      98     100
       8     232     231     206     207     152     150     100     101
       8     233     232     207     161     154     152     101       9
       8     209     233     161     160     105     154       9       8
       8     234     235     236     237     156     157     158     159
       8     236     238     239     237     158     160     161     159
       8     240     235     234     241     162     157     156     163
       8     234     242     243     241     156     164     165     163
       8     244     245     246     240     166     167     168     162
       8     247     248     245     244     169     170     167     166
       8     241     247     244     240     163     169     166     162
       8     249     250     242     251     171     172     164     173
       8     252     253     250     249     174     175     172     171
       8     254     255     253     252     176     177     175     174
       8     256     254     252     257     178     176     174     179
       8     258     243     242     250     180     165     164     172
       8     249     259     257     252     171     181     179     174
       8     234     237     251     242     156     159     173     164
       8     260     247     241     243     182     169     163     165
       8     261     260     243     258     183     182     165     180
       8     262     261     258     263     184     183     180     185
       8     253     263     258     250     175     185     180     172
       8     264     265     259     249     186     187     181     171
       8     266     264     249     251     188     186     171     173
       8     267     266     251     237     189     188     173     159
       8     268     238     236     269     190     160     158     191
       8     270     269     236     235     192     191     158     157
       8     246     270     235     240     168     192     157     162
       8     271     248     247     260     193     170     169     182
       8     272     271     260     261     194     193     182     183
       8     273     272     261     262     195     194     183     184
       8     274     273     262     275     196     195     184     197
       8     276     275     262     263     198     197     184     185
       8     255     276     263     253     177     198     185     175
       8     277     256     257     259     199     178     179     181
       8     278     277     259     265     200     199     181     187
       8     279     278     265     280     201     200     187     202
       8     281     280     265     264     203     202     187     186
       8     282     281     264     266     204     203     186     188
       8     283     282     266     267     205     204     188     189
       8     284     283     267     285     206     205     189     207
       8     239     285     267     237     161     207     189     159
       8     286     287     238     268     208     209     160     190
       8     288     286     268     269     210     208     190     191
       8     289     288     269     270     211     210     191     192
       8     290     289     270     246     212     211     192     168
       8     291     290     246     245     213     212     168     167
       8     292     291     245     248     214     213     167     170
       8     293     292     248     271     215     214     170     193
       8     294     293     271     272     216     215     193     194
       8     295     294     272     273     217     216     194     195
       8     296     295     273     274     218     217     195     196
       8     297     296     274     275     219     218     196     197
       8     298     297     275     276     220     219     197     198
       8     299     298     276     255     221     220     198     177
       8     300     299     255     254     222     221     177     176
       8     301     300     254     256     223     222     176     178
       8     302     301     256     277     224     223     178     199
       8     303     302     277     278     225     224     199     200
       8     304     303     278     279     226     225     200     201
       8     305     304     279     280     227     226     201     202
       8     306     305     280     281     228     227     202     203
       8     307     306     281     282     229     228     203     204
       8     308     307     282     283     230     229     204     205
       8     309     308     283     284     231     230     205     206
       8     310     309     284     285     232     231     206     207
       8     311     310     285     239     233     232     207     161
       8     287     311     239     238     209     233     161     160
       8     312     313     314     315     234     235     236     237
       8     314     316     317     315     236     238     239     237
       8     318     313     312     319     240     235     234     241
       8     312     320     321     319     234     242     243     241
       8     322     323     324     318     244     245     246     240
       8     325     326     323     322     247     248     245     244
       8     319     325     322     318     241     247     244     240
       8     327     328     320     329     249     250     242     251
       8     330     331     328     327     252     253     250     249
       8     332     333     331     330     254     255     253     252
       8     334     332     330     335     256     254     252     257
       8     336     321     320     328     258     243     242     250
       8     327     337     335     330     249     259     257     252
       8     312     315     329     320     234     237     251     242
       8     338     325     319     321     260     247     241     243
       8     339     338     321     336     261     260     243     258
       8     340     339     336     341     262     261     258     263
       8     331     341     336     328     253     263     258     250
       8     342     343     337     327     264     265     259     249
       8     344     342     327     329     266     264     249     251
       8     345     344     329     315     267     266     251     237
       8     346     316     314     347     268     238     236     269
       8     348     347     314     313     270     269     236     235
       8     324     348     313     318     246     270     235     240
       8     349     326     325     338     271     248     247     260
       8     350     349     338     339     272     271     260     261
       8     351     350     339     340     273     272     261     262
       8     352     351     340     353     274     273     262     275
       8     354     353     340     341     276     275     262     263
       8     333     354     341     331     255     276     263     253
       8     355     334     335     337     277     256     257     259
       8     356     355     337     343     278     277     259     265
       8     357     356     343     358     279     278     265     280
       8     359     358     343     342     281     280     265     264
       8     360     359     342     344     282     281     264     266
       8     361     360     344     345     283     282     266     267
       8     362     361     345     363     284     283     267     285
       8     317     363     345     315     239     285     267     237
       8     364     365     316     346     286     287     238     268
       8     366     364     346     347     288     286     268     269
       8     367     366     347     348     289     288     269     270
       8     368     367     348     324     290     289     270     246
       8     369     368     324     323     291     290     246     245
       8     370     369     323     326     292     291     245     248
       8     371     370     326     349     293     292     248     271
       8     372     371     349     350     294     293     271     272
       8     373     372     350     351     295     294     272     273
       8     374     373     351     352     296     295     273     274
       8     375     374     352     353     297     296     274     275
       8     376     375     353     354     298     297     275     276
       8     377     376     354     333     299     298     276     255
       8     378     377     333     332     300     299     255     254
       8     379     378     332     334     301     300     254     256
       8     380     379     334     355     302     301     256     277
       8     381     380     355     356     303     302     277     278
       8     382     381     356     357     304     303     278     279
       8     383     382     357     358     305     304     279     280
       8     384     383     358     359     306     305     280     281
       8     385     384     359     360     307     306     281     282
       8     386     385     360     361     308     307     282     283
       8     387     386     361     362     309     308     283     284
       8     388     387     362     363     310     309     284     285
       8     389     388     363     317     311     310     285     239
       8     365     389     317     316     287     311     239     238
       8     390     391     392     393     312     313     314     315
       8     392     394     395     393     314     316     317     315
       8     396     391     390     397     318     313     312     319
       8     390     398     399     397     312     320     321     319
       8     400     401     402     396     322     323     324     318
       8     403     404     401     400     325     326     323     322
       8     397     403     400     396     319     325     322     318
       8     405     406     398     407     327     328     320     329
       8     408     409     406     405     330     331     328     327
       8     410     411     409     408     332     333     331     330
       8     412     410     408     413     334     332     330     335
       8     414     399     398     406     336     321     320     328
       8     405     415     413     408     327     337     335     330
       8     390     393     407     398     312     315     329     320
       8     416     403     397     399     338     325     319     321
       8     417     416     399     414     339     338     321     336
       8     418     417     414     419     340     339     336     341
       8     409     419     414     406     331     341     336     328
       8     420     421     415     405     342     343     337     327
       8     422     420     405     407     344     342     327     329
       8     423     422     407     393     345     344     329     315
       8     424     394     392     425     346     316     314     347
       8     426     425     392     391     348     347     314     313
       8     402     426     391     396     324     348     313     318
       8     427     404     403     416     349     326     325     338
       8     428     427     416     417     350     349     338     339
       8     429     428     417     418     351     350     339     340
       8     430     429     418     431     352     351     340     353
       8     432     431     418     419     354     353     340     341
       8     411     432     419     409     333     354     341     331
       8     433     412     413     415     355     334     335     337
       8     434     433     415     421     356     355     337     343
       8     435     434     421     436     357     356     343     358
       8     437     436     421     420     359     358     343     342
       8     438     437     420     422     360     359     342     344
       8     439     438     422     423     361     360     344     345
       8     440     439     423     441     362     361     345     363
       8     395     441     423     393     317     363     345     315
       8     442     443     394     424     364     365     316     346
       8     444     442     424     425     366     364     346     347
       8     445     444     425     426     367     366     347     348
       8     446     445     426     402     368     367     348     324
       8     447     446     402     401     369     368     324     323
       8     448     447     401     404     370     369     323     326
       8     449     448     404     427     371     370     326     349
       8     450     449     427     428     372     371     349     350
       8     451     450     428     429     373     372     350     351
       8     452     451     429     430     374     373     351     352
       8     453     452     430     431     375     374     352     353
       8     454     453     431     432     376     375     353     354
       8     455     454     432     411     377     376     354     333
       8     456     455     411     410     378     377     333     332
       8     457     456     410     412     379     378     332     334
       8     458     457     412     433     380     379     334     355
       8     459     458     433     434     381     380     355     356
       8     460     459     434     435     382     381     356     357
       8     461     460     435     436     383     382     357     358
       8     462     461     436     437     384     383     358     359
       8     463     462     437     438     385     384     359     360
       8     464     463     438     439     386     385     360     361
       8     465     464     439     440     387     386     361     362
       8     466     465     440     441     388     387     362     363
       8     467     466     441     395     389     388     363     317
       8     443     467     395     394     365     389     317     316
       8     468     469     470     471     390     391     392     393
       8     470     472     473     471     392     394     395     393
       8     474     469     468     475     396     391     390     397
       8     468     476     477     475     390     398     399     397
       8     478     479     480     474     400     401     402     396
       8     481     482     479     478     403     404     401     400
       8     475     481     478     474     397     403     400     396
       8     483     484     476     485     405     406     398     407
       8     486     487     484     483     408     409     406     405
       8     488     489     487     486     410     411     409     408
       8     490     488     486     491     412     410     408     413
       8     492     477     476     484     414     399     398     406
       8     483     493     491     486     405     415     413     408
       8     468     471     485     476     390     393     407     398
       8     494     481     475     477     416     403     397     399
       8     495     494     477     492     417     416     399     414
       8     496     495     492     497     418     417     414     419
       8     487     497     492     484     409     419     414     406
       8     498     499     493     483     420     421     415     405
       8     500     498     483     485     422     420     405     407
       8     501     500     485     471     423     422     407     393
       8     502     472     470     503     424     394     392     425
       8     504     503     470     469     426     425     392     391
       8     480     504     469     474     402     426     391     396
       8     505     482     481     494     427     404     403     416
       8     506     505     494     495     428     427     416     417
       8     507     506     495     496     429     428     417     418
       8     508     507     496     509     430     429     418     431
       8     510     509     496     497     432     431     418     419
       8     489     510     497     487     411     432     419     409
       8     511     490     491     493     433     412     413     415
       8     512     511     493     499     434     433     415     421
       8     513     512     499     514     435     434     421     436
       8     515     514     499     498     437     436     421     420
       8     516     515     498     500     438     437     420     422
       8     517     516     500     501     439     438     422     423
       8     518     517     501     519     440     439     423     441
       8     473     519     501     471     395     441     423     393
       8     520     521     472     502     442     443     394     424
       8     522     520     502     503     444     442     424     425
       8     523     522     503     504     445     444     425     426
       8     524     523     504     480     446     445     426     402
       8     525     524     480     479     447     446     402     401
       8     526     525     479     482     448     447     401     404
       8     527     526     482     505     449     448     404     427
       8     528     527     505     506     450     449     427     428
       8     529     528     506     507     451     450     428     429
       8     530     529     507     508     452     451     429     430
       8     531     530     508     509     453     452     430     431
       8     532     531     509     510     454     453     431     432
       8     533     532     510     489     455     454     432     411
       8     534     533     489     488     456     455     411     410
       8     535     534     488     490     457     456     410     412
       8     536     535     490     511     458     457     412     433
       8     537     536     511     512     459     458     433     434
       8     538     537     512     513     460     459     434     435
       8     539     538     513     514     461     460     435     436
       8     540     539     514     515     462     461     436     437
       8     541     540     515     516     463     462     437     438
       8     542     541     516     517     464     463     438     439
       8     543     542     517     518     465     464     439     440
       8     544     543     518     519     466     465     440     441
       8     545     544     519     473     467     466     441     395
       8     521     545     473     472     443     467     395     394
       8     546     547     548     549     468     469     470     471
       8     548     550     551     549     470     472     473     471
       8     552     547     546     553     474     469     468     475
       8     546     554     555     553     468     476     477     475
       8     556     557     558     552     478     479     480     474
       8     559     560     557     556     481     482     479     478
       8     553     559     556     552     475     481     478     474
       8     561     562     554     563     483     484     476     485
       8     564     565     562     561     486     487     484     483
       8     566     567     565     564     488     489     487     486
       8     568     566     564     569     490     488     486     491
       8     570     555     554     562     492     477     476     484
       8     561     571     569     564     483     493     491     486
       8     546     549     563     554     468     471     485     476
       8     572     559     553     555     494     481     475     477
       8     573     572     555     570     495     494     477     492
       8     574     573     570     575     496     495     492     497
       8     565     575     570     562     487     497     492     484
       8     576     577     571     561     498     499     493     483
       8     578     576     561     563     500     498     483     485
       8     579     578     563     549     501     500     485     471
       8     580     550     548     581     502     472     470     503
       8     582     581     548     547     504     503     470     469
       8     558     582     547     552     480     504     469     474
       8     583     560     559     572     505     482     481     494
       8     584     583     572     573     506     505     494     495
       8     585     584     573     574     507     506     495     496
       8     586     585     574     587     508     507     496     509
       8     588     587     574     575     510     509     496     497
       8     567     588     575     565     489     510     497     487
       8     589     568     569     571     511     490     491     493
       8     590     589     571     577     512     511     493     499
       8     591     590     577     592     513     512     499     514
       8     593     592     577     576     515     514     499     498
       8     594     593     576     578     516     515     498     500
       8     595     594     578     579     517     516     500     501
       8     596     595     579     597     518     517     501     519
       8     551     597     579     549     473     519     501     471
       8     598     599     550     580     520     521     472     502
       8     600     598     580     581     522     520     502     503
       8     601     600     581     582     523     522     503     504
       8     602     601     582     558     524     523     504     480
       8     603     602     558     557     525     524     480     479
       8     604     603     557     560     526     525     479     482
       8     605     604     560     583     527     526     482     505
       8     606     605     583     584     528     527     505     506
       8     607     606     584     585     529     528     506     507
       8     608     607     585     586     530     529     507     508
       8     609     608     586     587     531     530     508     509
       8     610     609     587     588     532     531     509     510
       8     611     610     588     567     533     532     510     489
       8     612     611     567     566     534     533     489     488
       8     613     612     566     568     535     534     488     490
       8     614     613     568     589     536     535     490     511
       8     615     614     589     590     537     536     511     512
       8     616     615     590     591     538     537     512     513
       8     617     616     591     592     539     538     513     514
       8     618     617     592     593     540     539     514     515
       8     619     618     593     594     541     540     515     516
       8     620     619     594     595     542     541     516     517
       8     621     620     595     596     543     542     517     518
       8     622     621     596     597     544     543     518     519
       8     623     622     597     551     545     544     519     473
       8     599     623     551     550     521     545     473     472
       8     624     625     626     627     546     547     548     549
       8     626     628     629     627     548     550     551     549
       8     630     625     624     631     552     547     546     553
       8     624     632     633     631     546     554     555     553
       8     634     635     636     630     556     557     558     552
       8     637     638     635     634     559     560     557     556
       8     631     637     634     630     553     559     556     552
       8     639     640     632     641     561     562     554     563
       8     642     643     640     639     564     565     562     561
       8     644     645     643     642     566     567     565     564
       8     646     644     642     647     568     566     564     569
       8     648     633     632     640     570     555     554     562
       8     639     649     647     642     561     571     569     564
       8     624     627     641     632     546     549     563     554
       8     650     637     631     633     572     559     553     555
       8     651     650     633     648     573     572     555     570
       8     652     651     648     653     574     573     570     575
       8     643     653     648     640     565     575     570     562
       8     654     655     649     639     576     577     571     561
       8     656     654     639     641     578     576     561     563
       8     657     656     641     627     579     578     563     549
       8     658     628     626     659     580     550     548     581
       8     660     659     626     625     582     581     548     547
       8     636     660     625     630     558     582     547     552
       8     661     638     637     650     583     560     559     572
       8     662     661     650     651     584     583     572     573
       8     663     662     651     652     585     584     573     574
       8     664     663     652     665     586     585     574     587
       8     666     665     652     653     588     587     574     575
       8     645     666     653     643     567     588     575     565
       8     667     646     647     649     589     568     569     571
       8     668     667     649     655     590     589     571     577
       8     669     668     655     670     591     590     577     592
       8     671     670     655     654     593     592     577     576
       8     672     671     654     656     594     593     576     578
       8     673     672     656     657     595     594     578     579
       8     674     673     657     675     596     595     579     597
       8     629     675     657     627     551     597     579     549
       8     676     677     628     658     598     599     550     580
       8     678     676     658     659     600     598     580     581
       8     679     678     659     660     601     600     581     582
       8     680     679     660     636     602     601     582     558
       8     681     680     636     635     603     602     558     557
       8     682     681     635     638     604     603     557     560
       8     683     682     638     661     605     604     560     583
       8     684     683     661     662     606     605     583     584
       8     685     684     662     663     607     606     584     585
       8     686     685     663     664     608     607     585     586
       8     687     686     664     665     609     608     586     587
       8     688     687     665     666     610     609     587     588
       8     689     688     666     645     611     610     588     567
       8     690     689     645     644     612     611     567     566
       8     691     690     644     646     613     612     566     568
       8     692     691     646     667     614     613     568     589
       8     693     692     667     668     615     614     589     590
       8     694     693     668     669     616     615     590     591
       8     695     694     669     670     617     616     591     592
       8     696     695     670     671     618     617     592     593
       8     697     696     671     672     619     618     593     594
       8     698     697     672     673     620     619     594     595
       8     699     698     673     674     621     620     595     596
       8     700     699     674     675     622     621     596     597
       8     701     700     675     629     623     622     597     551
       8     677     701     629     628     599     623     551     550
       8     702     703     704     705     624     625     626     627
       8     704     706     707     705     626     628     629     627
       8     708     703     702     709     630     625     624     631
       8     702     710     711     709     624     632     633     631
       8     712     713     714     708     634     635     636     630
       8     715     716     713     712     637     638     635     634
       8     709     715     712     708     631     637     634     630
       8     717     718     710     719     639     640     632     641
       8     720     721     718     717     642     643     640     639
       8     722     723     721     720     644     645     643     642
       8     724     722     720     725     646     644     642     647
       8     726     711     710     718     648     633     632     640
       8     717     727     725     720     639     649     647     642
       8     702     705     719     710     624     627     641     632
       8     728     715     709     711     650     637     631     633
       8     729     728     711     726     651     650     633     648
       8     730     729     726     731     652     651     648     653
       8     721     731     726     718     643     653     648     640
       8     732     733     727     717     654     655     649     639
       8     734     732     717     719     656     654     639     641
       8     735     734     719     705     657     656     641     627
       8     736     706     704     737     658     628     626     659
       8     738     737     704     703     660     659     626     625
       8     714     738     703     708     636     660     625     630
       8     739     716     715     728     661     638     637     650
       8     740     739     728     729     662     661     650     651
       8     741     740     729     730     663     662     651     652
       8     742     741     730     743     664     663     652     665
       8     744     743     730     731     666     665     652     653
       8     723     744     731     721     645     666     653     643
       8     745     724     725     727     667     646     647     649
       8     746     745     727     733     668     667     649     655
       8     747     746     733     748     669     668     655     670
       8     749     748     733     732     671     670     655     654
       8     750     749     732     734     672     671     654     656
       8     751     750     734     735     673     672     656     657
       8     752     751     735     753     674     673     657     675
       8     707     753     735     705     629     675     657     627
       8     754     755     706     736     676     677     628     658
       8     756     754     736     737     678     676     658     659
       8     757     756     737     738     679     678     659     660
       8     758     757     738     714     680     679     660     636
       8     759     758     714     713     681     680     636     635
       8     760     759     713     716     682     681     635     638
       8     761     760     716     739     683     682     638     661
       8     762     761     739     740     684     683     661     662
       8     763     762     740     741     685     684     662     663
       8     764     763     741     742     686     685     663     664
       8     765     764     742     743     687     686     664     665
       8     766     765     743     744     688     687     665     666
       8     767     766     744     723     689     688     666     645
       8     768     767     723     722     690     689     645     644
       8     769     768     722     724     691     690     644     646
       8     770     769     724     745     692     691     646     667
       8     771     770     745     746     693     692     667     668
       8     772     771     746     747     694     693     668     669
       8     773     772     747     748     695     694     669     670
       8     774     773     748     749     696     695     670     671
       8     775     774     749     750     697     696     671     672
       8     776     775     750     751     698     697     672     673
       8     777     776     751     752     699     698     673     674
       8     778     777     752     753     700     699     674     675
       8     779     778     753     707     701     700     675     629
       8     755     779     707     706     677     701     629     628
       8     780     781     782     783     702     703     704     705
       8     782     784     785     783     704     706     707     705
       8     786     781     780     787     708     703     702     709
       8     780     788     789     787     702     710     711     709
       8     790     791     792     786     712     713     714     708
       8     793     794     791     790     715     716     713     712
       8     787     793     790     786     709     715     712     708
       8     795     796     788     797     717     718     710     719
       8     798     799     796     795     720     721     718     717
       8     800     801     799     798     722     723     721     720
       8     802     800     798     803     724     722     720     725
       8     804     789     788     796     726     711     710     718
       8     795     805     803     798     717     727     725     720
       8     780     783     797     788     702     705     719     710
       8     806     793     787     789     728     715     709     711
       8     807     806     789     804     729     728     711     726
       8     808     807     804     809     730     729     726     731
       8     799     809     804     796     721     731     726     718
       8     810     811     805     795     732     733     727     717
       8     812     810     795     797     734     732     717     719
       8     813     812     797     783     735     734     719     705
       8     814     784     782     815     736     706     704     737
       8     816     815     782     781     738     737     704     703
       8     792     816     781     786     714     738     703     708
       8     817     794     793     806     739     716     715     728
       8     818     817     806     807     740     739     728     729
       8     819     818     807     808     741     740     729     730
       8     820     819     808     821     742     741     730     743
       8     822     821     808     809     744     743     730     731
       8     801     822     809     799     723     744     731     721
       8     823     802     803     805     745     724     725     727
       8     824     823     805     811     746     745     727     733
       8     825     824     811     826     747     746     733     748
       8     827     826     811     810     749     748     733     732
       8     828     827     810     812     750     749     732     734
       8     829     828     812     813     751     750     734     735
       8     830     829     813     831     752     751     735     753
       8     785     831     813     783     707     753     735     705
       8     832     833     784     814     754     755     706     736
       8     834     832     814     815     756     754     736     737
       8     835     834     815     816     757     756     737     738
       8     836     835     816     792     758     757     738     714
       8     837     836     792     791     759     758     714     713
       8     838     837     791     794     760     759     713     716
       8     839     838     794     817     761     760     716     739
       8     840     839     817     818     762     761     739     740
       8     841     840     818     819     763     762     740     741
       8     842     841     819     820     764     763     741     742
       8     843     842     820     821     765     764     742     743
       8     844     843     821     822     766     765     743     744
       8     845     844     822     801     767     766     744     723
       8     846     845     801     800     768     767     723     722
       8     847     846     800     802     769     768     722     724
       8     848     847     802     823     770     769     724     745
       8     849     848     823     824     771     770     745     746
       8     850     849     824     825     772     771     746     747
       8     851     850     825     826     773     772     747     748
       8     852     851     826     827     774     773     748     749
       8     853     852     827     828     775     774     749     750
       8     854     853     828     829     776     775     750     751
       8     855     854     829     830     777     776     751     752
       8     856     855     830     831     778     777     752     753
       8     857     856     831     785     779     778     753     707
       8     833     857     785     784     755     779     707     706
       8     858     859     860     861     780     781     782     783
       8     860     862     863     861     782     784     785     783
       8     864     859     858     865     786     781     780     787
       8     858     866     867     865     780     788     789     787
       8     868     869     870     864     790     791     792     786
       8     871     872     869     868     793     794     791     790
       8     865     871     868     864     787     793     790     786
       8     873     874     866     875     795     796     788     797
       8     876     877     874     873     798     799     796     795
       8     878     879     877     876     800     801     799     798
       8     880     878     876     881     802     800     798     803
       8     882     867     866     874     804     789     788     796
       8     873     883     881     876     795     805     803     798
       8     858     861     875     866     780     783     797     788
       8     884     871     865     867     806     793     787     789
       8     885     884     867     882     807     806     789     804
       8     886     885     882     887     808     807     804     809
       8     877     887     882     874     799     809     804     796
       8     888     889     883     873     810     811     805     795
       8     890     888     873     875     812     810     795     797
       8     891     890     875     861     813     812     797     783
       8     892     862     860     893     814     784     782     815
       8     894     893     860     859     816     815     782     781
       8     870     894     859     864     792     816     781     786
       8     895     872     871     884     817     794     793     806
       8     896     895     884     885     818     817     806     807
       8     897     896     885     886     819     818     807     808
       8     898     897     886     899     820     819     808     821
       8     900     899     886     887     822     821     808     809
       8     879     900     887     877     801     822     809     799
       8     901     880     881     883     823     802     803     805
       8     902     901     883     889     824     823     805     811
       8     903     902     889     904     825     824     811     826
       8     905     904     889     888     827     826     811     810
       8     906     905     888     890     828     827     810     812
       8     907     906     890     891     829     828     812     813
       8     908     907     891     909     830     829     813     831
       8     863     909     891     861     785     831     813     783
       8     910     911     862     892     832     833     784     814
       8     912     910     892     893     834     832     814     815
       8     913     912     893     894     835     834     815     816
       8     914     913     894     870     836     835     816     792
       8     915     914     870     869     837     836     792     791
       8     916     915     869     872     838     837     791     794
       8     917     916     872     895     839     838     794     817
       8     918     917     895     896     840     839     817     818
       8     919     918     896     897     841     840     818     819
       8     920     919     897     898     842     841     819     820
       8     921     920     898     899     843     842     820     821
       8     922     921     899     900     844     843     821     822
       8     923     922     900     879     845     844     822     801
       8     924     923     879     878     846     845     801     800
       8     925     924     878     880     847     846     800     802
       8     926     925     880     901     848     847     802     823
       8     927     926     901     902     849     848     823     824
       8     928     927     902     903     850     849     824     825
       8     929     928     903     904     851     850     825     826
       8     930     929     904     905     852     851     826     827
       8     931     930     905     906     853     852     827     828
       8     932     931     906     907     854     853     828     829
       8     933     932     907     908     855     854     829     830
       8     934     933     908     909     856     855     830     831
       8     935     934     909     863     857     856     831     785
       8     911     935     863     862     833     857     785     784
       8     936     937     938     939     858     859     860     861
       8     938     940     941     939     860     862     863     861
       8     942     937     936     943     864     859     858     865
       8     936     944     945     943     858     866     867     865
       8     946     947     948     942     868     869     870     864
       8     949     950     947     946     871     872     869     868
       8     943     949     946     942     865     871     868     864
       8     951     952     944     953     873     874     866     875
       8     954     955     952     951     876     877     874     873
       8     956     957     955     954     878     879     877     876
       8     958     956     954     959     880     878     876     881
       8     960     945     944     952     882     867     866     874
       8     951     961     959     954     873     883     881     876
       8     936     939     953     944     858     861     875     866
       8     962     949     943     945     884     871     865     867
       8     963     962     945     960     885     884     867     882
       8     964     963     960     965     886     885     882     887
       8     955     965     960     952     877     887     882     874
       8     966     967     961     951     888     889     883     873
       8     968     966     951     953     890     888     873     875
       8     969     968     953     939     891     890     875     861
       8     970     940     938     971     892     862     860     893
       8     972     971     938     937     894     893     860     859
       8     948     972     937     942     870     894     859     864
       8     973     950     949     962     895     872     871     884
       8     974     973     962     963     896     895     884     885
       8     975     974     963     964     897     896     885     886
       8     976     975     964     977     898     897     886     899
       8     978     977     964     965     900     899     886     887
       8     957     978     965     955     879     900     887     877
       8     979     958     959     961     901     880     881     883
       8     980     979     961     967     902     901     883     889
       8     981     980     967     982     903     902     889     904
       8     983     982     967     966     905     904     889     888
       8     984     983     966     968     906     905     888     890
       8     985     984     968     969     907     906     890     891
       8     986     985     969     987     908     907     891     909
       8     941     987     969     939     863     909     891     861
       8     988     989     940     970     910     911     862     892
       8     990     988     970     971     912     910     892     893
       8     991     990     971     972     913     912     893     894
       8     992     991     972     948     914     913     894     870
       8     993     992     948     947     915     914     870     869
       8     994     993     947     950     916     915     869     872
       8     995     994     950     973     917     916     872     895
       8     996     995     973     974     918     917     895     896
       8     997     996     974     975     919     918     896     897
       8     998     997     975     976     920     919     897     898
       8     999     998     976     977     921     920     898     899
       8    1000     999     977     978     922     921     899     900
       8    1001    1000     978     957     923     922     900     879
       8    1002    1001     957     956     924     923     879     878
       8    1003    1002     956     958     925     924     878     880
       8    1004    1003     958     979     926     925     880     901
       8    1005    1004     979     980     927     926     901     902
       8    1006    1005     980     981     928     927     902     903
       8    1007    1006     981     982     929     928     903     904
       8    1008    1007     982     983     930     929     904     905
       8    1009    1008     983     984     931     930     905     906
       8    1010    1009     984     985     932     931     906     907
       8    1011    1010     985     986     933     932     907     908
       8    1012    1011     986     987     934     933     908     909
       8    1013    1012     987     941     935     934     909     863
       8     989    1013     941     940     911     935     863     862
       8    1014    1015    1016    1017     936     937     938     939
       8    1016    1018    1019    1017     938     940     941     939
       8    1020    1015    1014    1021     942     937     936     943
       8    1014    1022    1023    1021     936     944     945     943
       8    1024    1025    1026    1020     946     947     948     942
       8    1027    1028    1025    1024     949     950     947     946
       8    1021    1027    1024    1020     943     949     946     942
       8    1029    1030    1022    1031     951     952     944     953
       8    1032    1033    1030    1029     954     955     952     951
       8    1034    1035    1033    1032     956     957     955     954
       8    1036    1034    1032    1037     958     956     954     959
       8    1038    1023    1022    1030     960     945     944     952
       8    1029    1039    1037    1032     951     961     959     954
       8    1014    1017    1031    1022     936     939     953     944
       8    1040    1027    1021    1023     962     949     943     945
       8    1041    1040    1023    1038     963     962     945     960
       8    1042    1041    1038    1043     964     963     960     965
       8    1033    1043    1038    1030     955     965     960     952
       8    1044    1045    1039    1029     966     967     961     951
       8    1046    1044    1029    1031     968     966     951     953
       8    1047    1046    1031    1017     969     968     953     939
       8    1048    1018    1016    1049     970     940     938     971
       8    1050    1049    1016    1015     972     971     938     937
       8    1026    1050    1015    1020     948     972     937     942
       8    1051    1028    1027    1040     973     950     949     962
       8    1052    1051    1040    1041     974     973     962     963
       8    1053    1052    1041    1042     975     974     963     964
       8    1054    1053    1042    1055     976     975     964     977
       8    1056    1055    1042    1043     978     977     964     965
       8    1035    1056    1043    1033     957     978     965     955
       8    1057    1036    1037    1039     979     958     959     961
       8    1058    1057    1039    1045     980     979     961     967
       8    1059    1058    1045    1060     981     980     967     982
       8    1061    1060    1045    1044     983     982     967     966
       8    1062    1061    1044    1046     984     983     966     968
       8    1063    1062    1046    1047     985     984     968     969
       8    1064    1063    1047    1065     986     985     969     987
       8    1019    1065    1047    1017     941     987     969     939
       8    1066    1067    1018    1048     988     989     940     970
       8    1068    1066    1048    1049     990     988     970     971
       8    1069    1068    1049    1050     991     990     971     972
       8    1070    1069    1050    1026     992     991     972     948
       8    1071    1070    1026    1025     993     992     948     947
       8    1072    1071    1025    1028     994     993     947     950
       8    1073    1072    1028    1051     995     994     950     973
       8    1074    1073    1051    1052     996     995     973     974
       8    1075    1074    1052    1053     997     996     974     975
       8    1076    1075    1053    1054     998     997     975     976
       8    1077    1076    1054    1055     999     998     976     977
       8    1078    1077    1055    1056    1000     999     977     978
       8    1079    1078    1056    1035    1001    1000     978     957
       8    1080    1079    1035    1034    1002    1001     957     956
       8    1081    1080    1034    1036    1003    1002     956     958
       8    1082    1081    1036    1057    1004    1003     958     979
       8    1083    1082    1057    1058    1005    1004     979     980
       8    1084    1083    1058    1059    1006    1005     980     981
       8    1085    1084    1059    1060    1007    1006     981     982
       8    1086    1085    1060    1061    1008    1007     982     983
       8    1087    1086    1061    1062    1009    1008     983     984
       8    1088    1087    1062    1063    1010    1009     984     985
       8    1089    1088    1063    1064    1011    1010     985     986
       8    1090    1089    1064    1065    1012    1011     986     987
       8    1091    1090    1065    1019    1013    1012     987     941
       8    1067    1091    1019    1018     989    1013     941     940
       8    1092    1093    1094    1095    1014    1015    1016    1017
       8    1094    1096    1097    1095    1016    1018    1019    1017
       8    1098    1093    1092    1099    1020    1015    1014    1021
       8    1092    1100    1101    1099    1014    1022    1023    1021
       8    1102    1103    1104    1098    1024    1025    1026    1020
       8    1105    1106    1103    1102    1027    1028    1025    1024
       8    1099    1105    1102    1098    1021    1027    1024    1020
       8    1107    1108    1100    1109    1029    1030    1022    1031
       8    1110    1111    1108    1107    1032    1033    1030    1029
       8    1112    1113    1111    1110    1034    1035    1033    1032
       8    1114    1112    1110    1115    1036    1034    1032    1037
       8    1116    1101    1100    1108    1038    1023    1022    1030
       8    1107    1117    1115    1110    1029    1039    1037    1032
       8    1092    1095    1109    1100    1014    1017    1031    1022
       8    1118    1105    1099    1101    1040    1027    1021    1023
       8    1119    1118    1101    1116    1041    1040    1023    1038
       8    1120    1119    1116    1121    1042    1041    1038    1043
       8    1111    1121    1116    1108    1033    1043    1038    1030
       8    1122    1123    1117    1107    1044    1045    1039    1029
       8    1124    1122    1107    1109    1046    1044    1029    1031
       8    1125    1124    1109    1095    1047    1046    1031    1017
       8    1126    1096    1094    1127    1048    1018    1016    1049
       8    1128    1127    1094    1093    1050    1049    1016    1015
       8    1104    1128    1093    1098    1026    1050    1015    1020
       8    1129    1106    1105    1118    1051    1028    1027    1040
       8    1130    1129    1118    1119    1052    1051    1040    1041
       8    1131    1130    1119    1120    1053    1052    1041    1042
       8    1132    1131    1120    1133    1054    1053    1042    1055
       8    1134    1133    1120    1121    1056    1055    1042    1043
       8    1113    1134    1121    1111    1035    1056    1043    1033
       8    1135    1114    1115    1117    1057    1036    1037    1039
       8    1136    1135    1117    1123    1058    1057    1039    1045
       8    1137    1136    1123    1138    1059    1058    1045    1060
       8    1139    1138    1123    1122    1061    1060    1045    1044
       8    1140    1139    1122    1124    1062    1061    1044    1046
       8    1141    1140    1124    1125    1063    1062    1046    1047
       8    1142    1141    1125    1143    1064    1063    1047    1065
       8    1097    1143    1125    1095    1019    1065    1047    1017
       8    1144    1145    1096    1126    1066    1067    1018    1048
       8    1146    1144    1126    1127    1068    1066    1048    1049
       8    1147    1146    1127    1128    1069    1068    1049    1050
       8    1148    1147    1128    1104    1070    1069    1050    1026
       8    1149    1148    1104    1103    1071    1070    1026    1025
       8    1150    1149    1103    1106    1072    1071    1025    1028
       8    1151    1150    1106    1129    1073    1072    1028    1051
       8    1152    1151    1129    1130    1074    1073    1051    1052
       8    1153    1152    1130    1131    1075    1074    1052    1053
       8    1154    1153    1131    1132    1076    1075    1053    1054
       8    1155    1154    1132    1133    1077    1076    1054    1055
       8    1156    1155    1133    1134    1078    1077    1055    1056
       8    1157    1156    1134    1113    1079    1078    1056    1035
       8    1158    1157    1113    1112    1080    1079    1035    1034
       8    1159    1158    1112    1114    1081    1080    1034    1036
       8    1160    1159    1114    1135    1082    1081    1036    1057
       8    1161    1160    1135    1136    1083    1082    1057    1058
       8    1162    1161    1136    1137    1084    1083    1058    1059
       8    1163    1162    1137    1138    1085    1084    1059    1060
       8    1164    1163    1138    1139    1086    1085    1060    1061
       8    1165    1164    1139    1140    1087    1086    1061    1062
       8    1166    1165    1140    1141    1088    1087    1062    1063
       8    1167    1166    1141    1142    1089    1088    1063    1064
       8    1168    1167    1142    1143    1090    1089    1064    1065
       8    1169    1168    1143    1097    1091    1090    1065    1019
       8    1145    1169    1097    1096    1067    1091    1019    1018
       8    1170    1171    1172    1173    1092    1093    1094    1095
       8    1172    1174    1175    1173    1094    1096    1097    1095
       8    1176    1171    1170    1177    1098    1093    1092    1099
       8    1170    1178    1179    1177    1092    1100    1101    1099
       8    1180    1181    1182    1176    1102    1103    1104    1098
       8    1183    1184    1181    1180    1105    1106    1103    1102
       8    1177    1183    1180    1176    1099    1105    1102    1098
       8    1185    1186    1178    1187    1107    1108    1100    1109
       8    1188    1189    1186    1185    1110    1111    1108    1107
       8    1190    1191    1189    1188    1112    1113    1111    1110
       8    1192    1190    1188    1193    1114    1112    1110    1115
       8    1194    1179    1178    1186    1116    1101    1100    1108
       8    1185    1195    1193    1188    1107    1117    1115    1110
       8    1170    1173    1187    1178    1092    1095    1109    1100
       8    1196    1183    1177    1179    1118    1105    1099    1101
       8    1197    1196    1179    1194    1119    1118    1101    1116
       8    1198    1197    1194    1199    1120    1119    1116    1121
       8    1189    1199    1194    1186    1111    1121    1116    1108
       8    1200    1201    1195    1185    1122    1123    1117    1107
       8    1202    1200    1185    1187    1124    1122    1107    1109
       8    1203    1202    1187    1173    1125    1124    1109    1095
       8    1204    1174    1172    1205    1126    1096    1094    1127
       8    1206    1205    1172    1171    1128    1127    1094    1093
       8    1182    1206    1171    1176    1104    1128    1093    1098
       8    1207    1184    1183    1196    1129    1106    1105    1118
       8    1208    1207    1196    1197    1130    1129    1118    1119
       8    1209    1208    1197    1198    1131    1130    1119    1120
       8    1210    1209    1198    1211    1132    1131    1120    1133
       8    1212    1211    1198    1199    1134    1133    1120    1121
       8    1191    1212    1199    1189    1113    1134    1121    1111
       8    1213    1192    1193    1195    1135    1114    1115    1117
       8    1214    1213    1195    1201    1136    1135    1117    1123
       8    1215    1214    1201    1216    1137    1136    1123    1138
       8    1217    1216    1201    1200    1139    1138    1123    1122
       8    1218    1217    1200    1202    1140    1139    1122    1124
       8    1219    1218    1202    1203    1141    1140    1124    1125
       8    1220    1219    1203    1221    1142    1141    1125    1143
       8    1175    1221    1203    1173    1097    1143    1125    1095
       8    1222    1223    1174    1204    1144    1145    1096    1126
       8    1224    1222    1204    1205    1146    1144    1126    1127
       8    1225    1224    1205    1206    1147    1146    1127    1128
       8    1226    1225    1206    1182    1148    1147    1128    1104
       8    1227    1226    1182    1181    1149    1148    1104    1103
       8    1228    1227    1181    1184    1150    1149    1103    1106
       8    1229    1228    1184    1207    1151    1150    1106    1129
       8    1230    1229    1207    1208    1152    1151    1129    1130
       8    1231    1230    1208    1209    1153    1152    1130    1131
       8    1232    1231    1209    1210    1154    1153    1131    1132
       8    1233    1232    1210    1211    1155    1154    1132    1133
       8    1234    1233    1211    1212    1156    1155    1133    1134
       8    1235    1234    1212    1191    1157    1156    1134    1113
       8    1236    1235    1191    1190    1158    1157    1113    1112
       8    1237    1236    1190    1192    1159    1158    1112    1114
       8    1238    1237    1192    1213    1160    1159    1114    1135
       8    1239    1238    1213    1214    1161    1160    1135    1136
       8    1240    1239    1214    1215    1162    1161    1136    1137
       8    1241    1240    1215    1216    1163    1162    1137    1138
       8    1242    1241    1216    1217    1164    1163    1138    1139
       8    1243    1242    1217    1218    1165    1164    1139    1140
       8    1244    1243    1218    1219    1166    1165    1140    1141
       8    1245    1244    1219    1220    1167    1166    1141    1142
       8    1246    1245    1220    1221    1168    1167    1142    1143
       8    1247    1246    1221    1175    1169    1168    1143    1097
       8    1223    1247    1175    1174    1145    1169    1097    1096
       8    1248    1249    1250    1251    1170    1171    1172    1173
       8    1250    1252    1253    1251    1172    1174    1175    1173
       8    1254    1249    1248    1255    1176    1171    1170    1177
       8    1248    1256    1257    1255    1170    1178    1179    1177
       8    1258    1259    1260    1254    1180    1181    1182    1176
       8    1261    1262    1259    1258    1183    1184    1181    1180
       8    1255    1261    1258    1254    1177    1183    1180    1176
       8    1263    1264    1256    1265    1185    1186    1178    1187
       8    1266    1267    1264    1263    1188    1189    1186    1185
       8    1268    1269    1267    1266    1190    1191    1189    1188
       8    1270    1268    1266    1271    1192    1190    1188    1193
       8    1272    1257    1256    1264    1194    1179    1178    1186
       8    1263    1273    1271    1266    1185    1195    1193    1188
       8    1248    1251    1265    1256    1170    1173    1187    1178
       8    1274    1261    1255    1257    1196    1183    1177    1179
       8    1275    1274    1257    1272    1197    1196    1179    1194
       8    1276    1275    1272    1277    1198    1197    1194    1199
       8    1267    1277    1272    1264    1189    1199    1194    1186
       8    1278    1279    1273    1263    1200    1201    1195    1185
       8    1280    1278    1263    1265    1202    1200    1185    1187
       8    1281    1280    1265    1251    1203    1202    1187    1173
       8    1282    1252    1250    1283    1204    1174    1172    1205
       8    1284    1283    1250    1249    1206    1205    1172    1171
       8    1260    1284    1249    1254    1182    1206    1171    1176
       8    1285    1262    1261    1274    1207    1184    1183    1196
       8    1286    1285    1274    1275    1208    1207    1196    1197
       8    1287    1286    1275    1276    1209    1208    1197    1198
       8    1288    1287    1276    1289    1210    1209    1198    1211
       8    1290    1289    1276    1277    1212    1211    1198    1199
       8    1269    1290    1277    1267    1191    1212    1199    1189
       8    1291    1270    1271    1273    1213    1192    1193    1195
       8    1292    1291    1273    1279    1214    1213    1195    1201
       8    1293    1292    1279    1294    1215    1214    1201    1216
       8    1295    1294    1279    1278    1217    1216    1201    1200
       8    1296    1295    1278    1280    1218    1217    1200    1202
       8    1297    1296    1280    1281    1219    1218    1202    1203
       8    1298    1297    1281    1299    1220    1219    1203    1221
       8    1253    1299    1281    1251    1175    1221    1203    1173
       8    1300    1301    1252    1282    1222    1223    1174    1204
       8    1302    1300    1282    1283    1224    1222    1204    1205
       8    1303    1302    1283    1284    1225    1224    1205    1206
       8    1304    1303    1284    1260    1226    1225    1206    1182
       8    1305    1304    1260    1259    1227    1226    1182    1181
       8    1306    1305    1259    1262    1228    1227    1181    1184
       8    1307    1306    1262    1285    1229    1228    1184    1207
       8    1308    1307    1285    1286    1230    1229    1207    1208
       8    1309    1308    1286    1287    1231    1230    1208    1209
       8    1310    1309    1287    1288    1232    1231    1209    1210
       8    1311    1310    1288    1289    1233    1232    1210    1211
       8    1312    1311    1289    1290    1234    1233    1211    1212
       8    1313    1312    1290    1269    1235    1234    1212    1191
       8    1314    1313    1269    1268    1236    1235    1191    1190
       8    1315    1314    1268    1270    1237    1236    1190    1192
       8    1316    1315    1270    1291    1238    1237    1192    1213
       8    1317    1316    1291    1292    1239    1238    1213    1214
       8    1318    1317    1292    1293    1240    1239    1214    1215
       8    1319    1318    1293    1294    1241    1240    1215    1216
       8    1320    1319    1294    1295    1242    1241    1216    1217
       8    1321    1320    1295    1296    1243    1242    1217    1218
       8    1322    1321    1296    1297    1244    1243    1218    1219
       8    1323    1322    1297    1298    1245    1244    1219    1220
       8    1324    1323    1298    1299    1246    1245    1220    1221
       8    1325    1324    1299    1253    1247    1246    1221    1175
       8    1301    1325    1253    1252    1223    1247    1175    1174
       8    1326    1327    1328    1329    1248    1249    1250    1251
       8    1328    1330    1331    1329    1250    1252    1253    1251
       8    1332    1327    1326    1333    1254    1249    1248    1255
       8    1326    1334    1335    1333    1248    1256    1257    1255
       8    1336    1337    1338    1332    1258    1259    1260    1254
       8    1339    1340    1337    1336    1261    1262    1259    1258
       8    1333    1339    1336    1332    1255    1261    1258    1254
       8    1341    1342    1334    1343    1263    1264    1256    1265
       8    1344    1345    1342    1341    1266    1267    1264    1263
       8    1346    1347    1345    1344    1268    1269    1267    1266
       8    1348    1346    1344    1349    1270    1268    1266    1271
       8    1350    1335    1334    1342    1272    1257    1256    1264
       8    1341    1351    1349    1344    1263    1273    1271    1266
       8    1326    1329    1343    1334    1248    1251    1265    1256
       8    1352    1339    1333    1335    1274    1261    1255    1257
       8    1353    1352    1335    1350    1275    1274    1257    1272
       8    1354    1353    1350    1355    1276    1275    1272    1277
       8    1345    1355    1350    1342    1267    1277    1272    1264
       8    1356    1357    1351    1341    1278    1279    1273    1263
       8    1358    1356    1341    1343    1280    1278    1263    1265
       8    1359    1358    1343    1329    1281    1280    1265    1251
       8    1360    1330    1328    1361    1282    1252    1250    1283
       8    1362    1361    1328    1327    1284    1283    1250    1249
       8    1338    1362    1327    1332    1260    1284    1249    1254
       8    1363    1340    1339    1352    1285    1262    1261    1274
       8    1364    1363    1352    1353    1286    1285    1274    1275
       8    1365    1364    1353    1354    1287    1286    1275    1276
       8    1366    1365    1354    1367    1288    1287    1276    1289
       8    1368    1367    1354    1355    1290    1289    1276    1277
       8    1347    1368    1355    1345    1269    1290    1277    1267
       8    1369    1348    1349    1351    1291    1270    1271    1273
       8    1370    1369    1351    1357    1292    1291    1273    1279
       8    1371    1370    1357    1372    1293    1292    1279    1294
       8    1373    1372    1357    1356    1295    1294    1279    1278
       8    1374    1373    1356    1358    1296    1295    1278    1280
       8    1375    1374    1358    1359    1297    1296    1280    1281
       8    1376    1375    1359    1377    1298    1297    1281    1299
       8    1331    1377    1359    1329    1253    1299    1281    1251
       8    1378    1379    1330    1360    1300    1301    1252    1282
       8    1380    1378    1360    1361    1302    1300    1282    1283
       8    1381    1380    1361    1362    1303    1302    1283    1284
       8    1382    1381    1362    1338    1304    1303    1284    1260
       8    1383    1382    1338    1337    1305    1304    1260    1259
       8    1384    1383    1337    1340    1306    1305    1259    1262
       8    1385    1384    1340    1363    1307    1306    1262    1285
       8    1386    1385    1363    1364    1308    1307    1285    1286
       8    1387    1386    1364    1365    1309    1308    1286    1287
       8    1388    1387    1365    1366    1310    1309    1287    1288
       8    1389    1388    1366    1367    1311    1310    1288    1289
       8    1390    1389    1367    1368    1312    1311    1289    1290
       8    1391    1390    1368    1347    1313    1312    1290    1269
       8    1392    1391    1347    1346    1314    1313    1269    1268
       8    1393    1392    1346    1348    1315    1314    1268    1270
       8    1394    1393    1348    1369    1316    1315    1270    1291
       8    1395    1394    1369    1370    1317    1316    1291    1292
       8    1396    1395    1370    1371    1318    1317    1292    1293
       8    1397    1396    1371    1372    1319    1318    1293    1294
       8    1398    1397    1372    1373    1320    1319    1294    1295
       8    1399    1398    1373    1374    1321    1320    1295    1296
       8    1400    1399    1374    1375    1322    1321    1296    1297
       8    1401    1400    1375    1376    1323    1322    1297    1298
       8    1402    1401    1376    1377    1324    1323    1298    1299
       8    1403    1402    1377    1331    1325    1324    1299    1253
       8    1379    1403    1331    1330    1301    1325    1253    1252
       8    1404    1405    1406    1407    1326    1327    1328    1329
       8    1406    1408    1409    1407    1328    1330    1331    1329
       8    1410    1405    1404    1411    1332    1327    1326    1333
       8    1404    1412    1413    1411    1326    1334    1335    1333
       8    1414    1415    1416    1410    1336    1337    1338    1332
       8    1417    1418    1415    1414    1339    1340    1337    1336
       8    1411    1417    1414    1410    1333    1339    1336    1332
       8    1419    1420    1412    1421    1341    1342    1334    1343
       8    1422    1423    1420    1419    1344    1345    1342    1341
       8    1424    1425    1423    1422    1346    1347    1345    1344
       8    1426    1424    1422    1427    1348    1346    1344    1349
       8    1428    1413    1412    1420    1350    1335    1334    1342
       8    1419    1429    1427    1422    1341    1351    1349    1344
       8    1404    1407    1421    1412    1326    1329    1343    1334
       8    1430    1417    1411    1413    1352    1339    1333    1335
       8    1431    1430    1413    1428    1353    1352    1335    1350
       8    1432    1431    1428    1433    1354    1353    1350    1355
       8    1423    1433    1428    1420    1345    1355    1350    1342
       8    1434    1435    1429    1419    1356    1357    1351    1341
       8    1436    1434    1419    1421    1358    1356    1341    1343
       8    1437    1436    1421    1407    1359    1358    1343    1329
       8    1438    1408    1406    1439    1360    1330    1328    1361
       8    1440    1439    1406    1405    1362    1361    1328    1327
       8    1416    1440    1405    1410    1338    1362    1327    1332
       8    1441    1418    1417    1430    1363    1340    1339    1352
       8    1442    1441    1430    1431    1364    1363    1352    1353
       8    1443    1442    1431    1432    1365    1364    1353    1354
       8    1444    1443    1432    1445    1366    1365    1354    1367
       8    1446    1445    1432    1433    1368    1367    1354    1355
       8    1425    1446    1433    1423    1347    1368    1355    1345
       8    1447    1426    1427    1429    1369    1348    1349    1351
       8    1448    1447    1429    1435    1370    1369    1351    1357
       8    1449    1448    1435    1450    1371    1370    1357    1372
       8    1451    1450    1435    1434    1373    1372    1357    1356
       8    1452    1451    1434    1436    1374    1373    1356    1358
       8    1453    1452    1436    1437    1375    1374    1358    1359
       8    1454    1453    1437    1455    1376    1375    1359    1377
       8    1409    1455    1437    1407    1331    1377    1359    1329
       8    1456    1457    1408    1438    1378    1379    1330    1360
       8    1458    1456    1438    1439    1380    1378    1360    1361
       8    1459    1458    1439    1440    1381    1380    1361    1362
       8    1460    1459    1440    1416    1382    1381    1362    1338
       8    1461    1460    1416    1415    1383    1382    1338    1337
       8    1462    1461    1415    1418    1384    1383    1337    1340
       8    1463    1462    1418    1441    1385    1384    1340    1363
       8    1464    1463    1441    1442    1386    1385    1363    1364
       8    1465    1464    1442    1443    1387    1386    1364    1365
       8    1466    1465    1443    1444    1388    1387    1365    1366
       8    1467    1466    1444    1445    1389    1388    1366    1367
       8    1468    1467    1445    1446    1390    1389    1367    1368
       8    1469    1468    1446    1425    1391    1390    1368    1347
       8    1470    1469    1425    1424    1392    1391    1347    1346
       8    1471    1470    1424    1426    1393    1392    1346    1348
       8    1472    1471    1426    1447    1394    1393    1348    1369
       8    1473    1472    1447    1448    1395    1394    1369    1370
       8    1474    1473    1448    1449    1396    1395    1370    1371
       8    1475    1474    1449    1450    1397    1396    1371    1372
       8    1476    1475    1450    1451    1398    1397    1372    1373
       8    1477    1476    1451    1452    1399    1398    1373    1374
       8    1478    1477    1452    1453    1400    1399    1374    1375
       8    1479    1478    1453    1454    1401    1400    1375    1376
       8    1480    1479    1454    1455    1402    1401    1376    1377
       8    1481    1480    1455    1409    1403    1402    1377    1331
       8    1457    1481    1409    1408    1379    1403    1331    1330
       8    1482    1483    1484    1485    1404    1405    1406    1407
       8    1484    1486    1487    1485    1406    1408    1409    1407
       8    1488    1483    1482    1489    1410    1405    1404    1411
       8    1482    1490    1491    1489    1404    1412    1413    1411
       8    1492    1493    1494    1488    1414    1415    1416    1410
       8    1495    1496    1493    1492    1417    1418    1415    1414
       8    1489    1495    1492    1488    1411    1417    1414    1410
       8    1497    1498    1490    1499    1419    1420    1412    1421
       8    1500    1501    1498    1497    1422    1423    1420    1419
       8    1502    1503    1501    1500    1424    1425    1423    1422
       8    1504    1502    1500    1505    1426    1424    1422    1427
       8    1506    1491    1490    1498    1428    1413    1412    1420
       8    1497    1507    1505    1500    1419    1429    1427    1422
       8    1482    1485    1499    1490    1404    1407    1421    1412
       8    1508    1495    1489    1491    1430    1417    1411    1413
       8    1509    1508    1491    1506    1431    1430    1413    1428
       8    1510    1509    1506    1511    1432    1431    1428    1433
       8    1501    1511    1506    1498    1423    1433    1428    1420
       8    1512    1513    1507    1497    1434    1435    1429    1419
       8    1514    1512    1497    1499    1436    1434    1419    1421
       8    1515    1514    1499    1485    1437    1436    1421    1407
       8    1516    1486    1484    1517    1438    1408    1406    1439
       8    1518    1517    1484    1483    1440    1439    1406    1405
       8    1494    1518    1483    1488    1416    1440    1405    1410
       8    1519    1496    1495    1508    1441    1418    1417    1430
       8    1520    1519    1508    1509    1442    1441    1430    1431
       8    1521    1520    1509    1510    1443    1442    1431    1432
       8    1522    1521    1510    1523    1444    1443    1432    1445
       8    1524    1523    1510    1511    1446    1445    1432    1433
       8    1503    1524    1511    1501    1425    1446    1433    1423
       8    1525    1504    1505    1507    1447    1426    1427    1429
       8    1526    1525    1507    1513    1448    1447    1429    1435
       8    1527    1526    1513    1528    1449    1448    1435    1450
       8    1529    1528    1513    1512    1451    1450    1435    1434
       8    1530    1529    1512    1514    1452    1451    1434    1436
       8    1531    1530    1514    1515    1453    1452    1436    1437
       8    1532    1531    1515    1533    1454    1453    1437    1455
       8    1487    1533    1515    1485    1409    1455    1437    1407
       8    1534    1535    1486    1516    1456    1457    1408    1438
       8    1536    1534    1516    1517    1458    1456    1438    1439
       8    1537    1536    1517    1518    1459    1458    1439    1440
       8    1538    1537    1518    1494    1460    1459    1440    1416
       8    1539    1538    1494    1493    1461    1460    1416    1415
       8    1540    1539    1493    1496    1462    1461    1415    1418
       8    1541    1540    1496    1519    1463    1462    1418    1441
       8    1542    1541    1519    1520    1464    1463    1441    1442
       8    1543    1542    1520    1521    1465    1464    1442    1443
       8    1544    1543    1521    1522    1466    1465    1443    1444
       8    1545    1544    1522    1523    1467    1466    1444    1445
       8    1546    1545    1523    1524    1468    1467    1445    1446
       8    1547    1546    1524    1503    1469    1468    1446    1425
       8    1548    1547    1503    1502    1470    1469    1425    1424
       8    1549    1548    1502    1504    1471    1470    1424    1426
       8    1550    1549    1504    1525    1472    1471    1426    1447
       8    1551    1550    1525    1526    1473    1472    1447    1448
       8    1552    1551    1526    1527    1474    1473    1448    1449
       8    1553    1552    1527    1528    1475    1474    1449    1450
       8    1554    1553    1528    1529    1476    1475    1450    1451
       8    1555    1554    1529    1530    1477    1476    1451    1452
       8    1556    1555    1530    1531    1478    1477    1452    1453
       8    1557    1556    1531    1532    1479    1478    1453    1454
       8    1558    1557    1532    1533    1480    1479    1454    1455
       8    1559    1558    1533    1487    1481    1480    1455    1409
       8    1535    1559    1487    1486    1457    1481    1409    1408
       8    1560    1561    1562    1563    1482    1483    1484    1485
       8    1562    1564    1565    1563    1484    1486    1487    1485
       8    1566    1561    1560    1567    1488    1483    1482    1489
       8    1560    1568    1569    1567    1482    1490    1491    1489
       8    1570    1571    1572    1566    1492    1493    1494    1488
       8    1573    1574    1571    1570    1495    1496    1493    1492
       8    1567    1573    1570    1566    1489    1495    1492    1488
       8    1575    1576    1568    1577    1497    1498    1490    1499
       8    1578    1579    1576    1575    1500    1501    1498    1497
       8    1580    1581    1579    1578    1502    1503    1501    1500
       8    1582    1580    1578    1583    1504    1502    1500    1505
       8    1584    1569    1568    1576    1506    1491    1490    1498
       8    1575    1585    1583    1578    1497    1507    1505    1500
       8    1560    1563    1577    1568    1482    1485    1499    1490
       8    1586    1573    1567    1569    1508    1495    1489    1491
       8    1587    1586    1569    1584    1509    1508    1491    1506
       8    1588    1587    1584    1589    1510    1509    1506    1511
       8    1579    1589    1584    1576    1501    1511    1506    1498
       8    1590    1591    1585    1575    1512    1513    1507    1497
       8    1592    1590    1575    1577    1514    1512    1497    1499
       8    1593    1592    1577    1563    1515    1514    1499    1485
       8    1594    1564    1562    1595    1516    1486    1484    1517
       8    1596    1595    1562    1561    1518    1517    1484    1483
       8    1572    1596    1561    1566    1494    1518    1483    1488
       8    1597    1574    1573    1586    1519    1496    1495    1508
       8    1598    1597    1586    1587    1520    1519    1508    1509
       8    1599    1598    1587    1588    1521    1520    1509    1510
       8    1600    1599    1588    1601    1522    1521    1510    1523
       8    1602    1601    1588    1589    1524    1523    1510    1511
       8    1581    1602    1589    1579    1503    1524    1511    1501
       8    1603    1582    1583    1585    1525    1504    1505    1507
       8    1604    1603    1585    1591    1526    1525    1507    1513
       8    1605    1604    1591    1606    1527    1526    1513    1528
       8    1607    1606    1591    1590    1529    1528    1513    1512
       8    1608    1607    1590    1592    1530    1529    1512    1514
       8    1609    1608    1592    1593    1531    1530    1514    1515
       8    1610    1609    1593    1611    1532    1531    1515    1533
       8    1565    1611    1593    1563    1487    1533    1515    1485
       8    1612    1613    1564    1594    1534    1535    1486    1516
       8    1614    1612    1594    1595    1536    1534    1516    1517
       8    1615    1614    1595    1596    1537    1536    1517    1518
       8    1616    1615    1596    1572    1538    1537    1518    1494
       8    1617    1616    1572    1571    1539    1538    1494    1493
       8    1618    1617    1571    1574    1540    1539    1493    1496
       8    1619    1618    1574    1597    1541    1540    1496    1519
       8    1620    1619    1597    1598    1542    1541    1519    1520
       8    1621    1620    1598    1599    1543    1542    1520    1521
       8    1622    1621    1599    1600    1544    1543    1521    1522
       8    1623    1622    1600    1601    1545    1544    1522    1523
       8    1624    1623    1601    1602    1546    1545    1523    1524
       8    1625    1624    1602    1581    1547    1546    1524    1503
       8    1626    1625    1581    1580    1548    1547    1503    1502
       8    1627    1626    1580    1582    1549    1548    1502    1504
       8    1628    1627    1582    1603    1550    1549    1504    1525
       8    1629    1628    1603    1604    1551    1550    1525    1526
       8    1630    1629    1604    1605    1552    1551    1526    1527
       8    1631    1630    1605    1606    1553    1552    1527    1528
       8    1632    1631    1606    1607    1554    1553    1528    1529
       8    1633    1632    1607    1608    1555    1554    1529    1530
       8    1634    1633    1608    1609    1556    1555    1530    1531
       8    1635    1634    1609    1610    1557    1556    1531    1532
       8    1636    1635    1610    1611    1558    1557    1532    1533
       8    1637    1636    1611    1565    1559    1558    1533    1487
       8    1613    1637    1565    1564    1535    1559    1487    1486
       8    1638    1639    1640    1641    1560    1561    1562    1563
       8    1640    1642    1643    1641    1562    1564    1565    1563
       8    1644    1639    1638    1645    1566    1561    1560    1567
       8    1638    1646    1647    1645    1560    1568    1569    1567
       8    1648    1649    1650    1644    1570    1571    1572    1566
       8    1651    1652    1649    1648    1573    1574    1571    1570
       8    1645    1651    1648    1644    1567    1573    1570    1566
       8    1653    1654    1646    1655    1575    1576    1568    1577
       8    1656    1657    1654    1653    1578    1579    1576    1575
       8    1658    1659    1657    1656    1580    1581    1579    1578
       8    1660    1658    1656    1661    1582    1580    1578    1583
       8    1662    1647    1646    1654    1584    1569    1568    1576
       8    1653    1663    1661    1656    1575    1585    1583    1578
       8    1638    1641    1655    1646    1560    1563    1577    1568
       8    1664    1651    1645    1647    1586    1573    1567    1569
       8    1665    1664    1647    1662    1587    1586    1569    1584
       8    1666    1665    1662    1667    1588    1587    1584    1589
       8    1657    1667    1662    1654    1579    1589    1584    1576
       8    1668    1669    1663    1653    1590    1591    1585    1575
       8    1670    1668    1653    1655    1592    1590    1575    1577
       8    1671    1670    1655    1641    1593    1592    1577    1563
       8    1672    1642    1640    1673    1594    1564    1562    1595
       8    1674    1673    1640    1639    1596    1595    1562    1561
       8    1650    1674    1639    1644    1572    1596    1561    1566
       8    1675    1652    1651    1664    1597    1574    1573    1586
       8    1676    1675    1664    1665    1598    1597    1586    1587
       8    1677    1676    1665    1666    1599    1598    1587    1588
       8    1678    1677    1666    1679    1600    1599    1588    1601
       8    1680    1679    1666    1667    1602    1601    1588    1589
       8    1659    1680    1667    1657    1581    1602    1589    1579
       8    1681    1660    1661    1663    1603    1582    1583    1585
       8    1682    1681    1663    1669    1604    1603    1585    1591
       8    1683    1682    1669    1684    1605    1604    1591    1606
       8    1685    1684    1669    1668    1607    1606    1591    1590
       8    1686    1685    1668    1670    1608    1607    1590    1592
       8    1687    1686    1670    1671    1609    1608    1592    1593
       8    1688    1687    1671    1689    1610    1609    1593    1611
       8    1643    1689    1671    1641    1565    1611    1593    1563
       8    1690    1691    1642    1672    1612    1613    1564    1594
       8    1692    1690    1672    1673    1614    1612    1594    1595
       8    1693    1692    1673    1674    1615    1614    1595    1596
       8    1694    1693    1674    1650    1616    1615    1596    1572
       8    1695    1694    1650    1649    1617    1616    1572    1571
       8    1696    1695    1649    1652    1618    1617    1571    1574
       8    1697    1696    1652    1675    1619    1618    1574    1597
       8    1698    1697    1675    1676    1620    1619    1597    1598
       8    1699    1698    1676    1677    1621    1620    1598    1599
       8    1700    1699    1677    1678    1622    1621    1599    1600
       8    1701    1700    1678    1679    1623    1622    1600    1601
       8    1702    1701    1679    1680    1624    1623    1601    1602
       8    1703    1702    1680    1659    1625    1624    1602    1581
       8    1704    1703    1659    1658    1626    1625    1581    1580
       8    1705    1704    1658    1660    1627    1626    1580    1582
       8    1706    1705    1660    1681    1628    1627    1582    1603
       8    1707    1706    1681    1682    1629    1628    1603    1604
       8    1708    1707    1682    1683    1630    1629    1604    1605
       8    1709    1708    1683    1684    1631    1630    1605    1606
       8    1710    1709    1684    1685    1632    1631    1606    1607
       8    1711    1710    1685    1686    1633    1632    1607    1608
       8    1712    1711    1686    1687    1634    1633    1608    1609
       8    1713    1712    1687    1688    1635    1634    1609    1610
       8    1714    1713    1688    1689    1636    1635    1610    1611
       8    1715    1714    1689    1643    1637    1636    1611    1565
       8    1691    1715    1643    1642    1613    1637    1565    1564
       8    1716    1717    1718    1719    1638    1639    1640    1641
       8    1718    1720    1721    1719    1640    1642    1643    1641
       8    1722    1717    1716    1723    1644    1639    1638    1645
       8    1716    1724    1725    1723    1638    1646    1647    1645
       8    1726    1727    1728    1722    1648    1649    1650    1644
       8    1729    1730    1727    1726    1651    1652    1649    1648
       8    1723    1729    1726    1722    1645    1651    1648    1644
       8    1731    1732    1724    1733    1653    1654    1646    1655
       8    1734    1735    1732    1731    1656    1657    1654    1653
       8    1736    1737    1735    1734    1658    1659    1657    1656
       8    1738    1736    1734    1739    1660    1658    1656    1661
       8    1740    1725    1724    1732    1662    1647    1646    1654
       8    1731    1741    1739    1734    1653    1663    1661    1656
       8    1716    1719    1733    1724    1638    1641    1655    1646
       8    1742    1729    1723    1725    1664    1651    1645    1647
       8    1743    1742    1725    1740    1665    1664    1647    1662
       8    1744    1743    1740    1745    1666    1665    1662    1667
       8    1735    1745    1740    1732    1657    1667    1662    1654
       8    1746    1747    1741    1731    1668    1669    1663    1653
       8    1748    1746    1731    1733    1670    1668    1653    1655
       8    1749    1748    1733    1719    1671    1670    1655    1641
       8    1750    1720    1718    1751    1672    1642    1640    1673
       8    1752    1751    1718    1717    1674    1673    1640    1639
       8    1728    1752    1717    1722    1650    1674    1639    1644
       8    1753    1730    1729    1742    1675    1652    1651    1664
       8    1754    1753    1742    1743    1676    1675    1664    1665
       8    1755    1754    1743    1744    1677    1676    1665    1666
       8    1756    1755    1744    1757    1678    1677    1666    1679
       8    1758    1757    1744    1745    1680    1679    1666    1667
       8    1737    1758    1745    1735    1659    1680    1667    1657
       8    1759    1738    1739    1741    1681    1660    1661    1663
       8    1760    1759    1741    1747    1682    1681    1663    1669
       8    1761    1760    1747    1762    1683    1682    1669    1684
       8    1763    1762    1747    1746    1685    1684    1669    1668
       8    1764    1763    1746    1748    1686    1685    1668    1670
       8    1765    1764    1748    1749    1687    1686    1670    1671
       8    1766    1765    1749    1767    1688    1687    1671    1689
       8    1721    1767    1749    1719    1643    1689    1671    1641
       8    1768    1769    1720    1750    1690    1691    1642    1672
       8    1770    1768    1750    1751    1692    1690    1672    1673
       8    1771    1770    1751    1752    1693    1692    1673    1674
       8    1772    1771    1752    1728    1694    1693    1674    1650
       8    1773    1772    1728    1727    1695    1694    1650    1649
       8    1774    1773    1727    1730    1696    1695    1649    1652
       8    1775    1774    1730    1753    1697    1696    1652    1675
       8    1776    1775    1753    1754    1698    1697    1675    1676
       8    1777    1776    1754    1755    1699    1698    1676    1677
       8    1778    1777    1755    1756    1700    1699    1677    1678
       8    1779    1778    1756    1757    1701    1700    1678    1679
       8    1780    1779    1757    1758    1702    1701    1679    1680
       8    1781    1780    1758    1737    1703    1702    1680    1659
       8    1782    1781    1737    1736    1704    1703    1659    1658
       8    1783    1782    1736    1738    1705    1704    1658    1660
       8    1784    1783    1738    1759    1706    1705    1660    1681
       8    1785    1784    1759    1760    1707    1706    1681    1682
       8    1786    1785    1760    1761    1708    1707    1682    1683
       8    1787    1786    1761    1762    1709    1708    1683    1684
       8    1788    1787    1762    1763    1710    1709    1684    1685
       8    1789    1788    1763    1764    1711    1710    1685    1686
       8    1790    1789    1764    1765    1712    1711    1686    1687
       8    1791    1790    1765    1766    1713    1712    1687    1688
       8    1792    1791    1766    1767    1714    1713    1688    1689
       8    1793    1792    1767    1721    1715    1714    1689    1643
       8    1769    1793    1721    1720    1691    1715    1643    1642
       8    1794    1795    1796    1797    1716    1717    1718    1719
       8    1796    1798    1799    1797    1718    1720    1721    1719
       8    1800    1795    1794    1801    1722    1717    1716    1723
       8    1794    1802    1803    1801    1716    1724    1725    1723
       8    1804    1805    1806    1800    1726    1727    1728    1722
       8    1807    1808    1805    1804    1729    1730    1727    1726
       8    1801    1807    1804    1800    1723    1729    1726    1722
       8    1809    1810    1802    1811    1731    1732    1724    1733
       8    1812    1813    1810    1809    1734    1735    1732    1731
       8    1814    1815    1813    1812    1736    1737    1735    1734
       8    1816    1814    1812    1817    1738    1736    1734    1739
       8    1818    1803    1802    1810    1740    1725    1724    1732
       8    1809    1819    1817    1812    1731    1741    1739    1734
       8    1794    1797    1811    1802    1716    1719    1733    1724
       8    1820    1807    1801    1803    1742    1729    1723    1725
       8    1821    1820    1803    1818    1743    1742    1725    1740
       8    1822    1821    1818    1823    1744    1743    1740    1745
       8    1813    1823    1818    1810    1735    1745    1740    1732
       8    1824    1825    1819    1809    1746    1747    1741    1731
       8    1826    1824    1809    1811    1748    1746    1731    1733
       8    1827    1826    1811    1797    1749    1748    1733    1719
       8    1828    1798    1796    1829    1750    1720    1718    1751
       8    1830    1829    1796    1795    1752    1751    1718    1717
       8    1806    1830    1795    1800    1728    1752    1717    1722
       8    1831    1808    1807    1820    1753    1730    1729    1742
       8    1832    1831    1820    1821    1754    1753    1742    1743
       8    1833    1832    1821    1822    1755    1754    1743    1744
       8    1834    1833    1822    1835    1756    1755    1744    1757
       8    1836    1835    1822    1823    1758    1757    1744    1745
       8    1815    1836    1823    1813    1737    1758    1745    1735
       8    1837    1816    1817    1819    1759    1738    1739    1741
       8    1838    1837    1819    1825    1760    1759    1741    1747
       8    1839    1838    1825    1840    1761    1760    1747    1762
       8    1841    1840    1825    1824    1763    1762    1747    1746
       8    1842    1841    1824    1826    1764    1763    1746    1748
       8    1843    1842    1826    1827    1765    1764    1748    1749
       8    1844    1843    1827    1845    1766    1765    1749    1767
       8    1799    1845    1827    1797    1721    1767    1749    1719
       8    1846    1847    1798    1828    1768    1769    1720    1750
       8    1848    1846    1828    1829    1770    1768    1750    1751
       8    1849    1848    1829    1830    1771    1770    1751    1752
       8    1850    1849    1830    1806    1772    1771    1752    1728
       8    1851    1850    1806    1805    1773    1772    1728    1727
       8    1852    1851    1805    1808    1774    1773    1727    1730
       8    1853    1852    1808    1831    1775    1774    1730    1753
       8    1854    1853    1831    1832    1776    1775    1753    1754
       8    1855    1854    1832    1833    1777    1776    1754    1755
       8    1856    1855    1833    1834    1778    1777    1755    1756
       8    1857    1856    1834    1835    1779    1778    1756    1757
       8    1858    1857    1835    1836    1780    1779    1757    1758
       8    1859    1858    1836    1815    1781    1780    1758    1737
       8    1860    1859    1815    1814    1782    1781    1737    1736
       8    1861    1860    1814    1816    1783    1782    1736    1738
       8    1862    1861    1816    1837    1784    1783    1738    1759
       8    1863    1862    1837    1838    1785    1784    1759    1760
       8    1864    1863    1838    1839    1786    1785    1760    1761
       8    1865    1864    1839    1840    1787    1786    1761    1762
       8    1866    1865    1840    1841    1788    1787    1762    1763
       8    1867    1866    1841    1842    1789    1788    1763    1764
       8    1868    1867    1842    1843    1790    1789    1764    1765
       8    1869    1868    1843    1844    1791    1790    1765    1766
       8    1870    1869    1844    1845    1792    1791    1766    1767
       8    1871    1870    1845    1799    1793    1792    1767    1721
       8    1847    1871    1799    1798    1769    1793    1721    1720
       8    1872    1873    1874    1875    1794    1795    1796    1797
       8    1874    1876    1877    1875    1796    1798    1799    1797
       8    1878    1873    1872    1879    1800    1795    1794    1801
       8    1872    1880    1881    1879    1794    1802    1803    1801
       8    1882    1883    1884    1878    1804    1805    1806    1800
       8    1885    1886    1883    1882    1807    1808    1805    1804
       8    1879    1885    1882    1878    1801    1807    1804    1800
       8    1887    1888    1880    1889    1809    1810    1802    1811
       8    1890    1891    1888    1887    1812    1813    1810    1809
       8    1892    1893    1891    1890    1814    1815    1813    1812
       8    1894    1892    1890    1895    1816    1814    1812    1817
       8    1896    1881    1880    1888    1818    1803    1802    1810
       8    1887    1897    1895    1890    1809    1819    1817    1812
       8    1872    1875    1889    1880    1794    1797    1811    1802
       8    1898    1885    1879    1881    1820    1807    1801    1803
       8    1899    1898    1881    1896    1821    1820    1803    1818
       8    1900    1899    1896    1901    1822    1821    1818    1823
       8    1891    1901    1896    1888    1813    1823    1818    1810
       8    1902    1903    1897    1887    1824    1825    1819    1809
       8    1904    1902    1887    1889    1826    1824    1809    1811
       8    1905    1904    1889    1875    1827    1826    1811    1797
       8    1906    1876    1874    1907    1828    1798    1796    1829
       8    1908    1907    1874    1873    1830    1829    1796    1795
       8    1884    1908    1873    1878    1806    1830    1795    1800
       8    1909    1886    1885    1898    1831    1808    1807    1820
       8    1910    1909    1898    1899    1832    1831    1820    1821
       8    1911    1910    1899    1900    1833    1832    1821    1822
       8    1912    1911    1900    1913    1834    1833    1822    1835
       8    1914    1913    1900    1901    1836    1835    1822    1823
       8    1893    1914    1901    1891    1815    1836    1823    1813
       8    1915    1894    1895    1897    1837    1816    1817    1819
       8    1916    1915    1897    1903    1838    1837    1819    1825
       8    1917    1916    1903    1918    1839    1838    1825    1840
       8    1919    1918    1903    1902    1841    1840    1825    1824
       8    1920    1919    1902    1904    1842    1841    1824    1826
       8    1921    1920    1904    1905    1843    1842    1826    1827
       8    1922    1921    1905    1923    1844    1843    1827    1845
       8    1877    1923    1905    1875    1799    1845    1827    1797
       8    1924    1925    1876    1906    1846    1847    1798    1828
       8    1926    1924    1906    1907    1848    1846    1828    1829
       8    1927    1926    1907    1908    1849    1848    1829    1830
       8    1928    1927    1908    1884    1850    1849    1830    1806
       8    1929    1928    1884    1883    1851    1850    1806    1805
       8    1930    1929    1883    1886    1852    1851    1805    1808
       8    1931    1930    1886    1909    1853    1852    1808    1831
       8    1932    1931    1909    1910    1854    1853    1831    1832
       8    1933    1932    1910    1911    1855    1854    1832    1833
       8    1934    1933    1911    1912    1856    1855    1833    1834
       8    1935    1934    1912    1913    1857    1856    1834    1835
       8    1936    1935    1913    1914    1858    1857    1835    1836
       8    1937    1936    1914    1893    1859    1858    1836    1815
       8    1938    1937    1893    1892    1860    1859    1815    1814
       8    1939    1938    1892    1894    1861    1860    1814    1816
       8    1940    1939    1894    1915    1862    1861    1816    1837
       8    1941    1940    1915    1916    1863    1862    1837    1838
       8    1942    1941    1916    1917    1864    1863    1838    1839
       8    1943    1942    1917    1918    1865    1864    1839    1840
       8    1944    1943    1918    1919    1866    1865    1840    1841
       8    1945    1944    1919    1920    1867    1866    1841    1842
       8    1946    1945    1920    1921    1868    1867    1842    1843
       8    1947    1946    1921    1922    1869    1868    1843    1844
       8    1948    1947    1922    1923    1870    1869    1844    1845
       8    1949    1948    1923    1877    1871    1870    1845    1799
       8    1925    1949    1877    1876    1847    1871    1799    1798
  
CELL_TYPES    3486
       1
       1
       1
       1
       1
       1
       1
       1
       1
       1
       1
       1
       1
       1
       1
       1
       1
       1
       1
       1
       1
       1
       1
       1
       1
       1
       1
       1
       1
       1
       1
       1
       1
       1
       1
       1
       1
       1
       1
       1
       1
       1
       1
       1
       1
       1
       1
       1
       1
       1
       1
       1
       1
       1
       1
       1
       1
       1
       1
       1
       1
       1
       1
       1
       1
       1
       1
       1
       1
       1
       1
       1
       1
       1
       1
       1
       1
       1
       1
       1
       1
       1
       1
       1
       1
       1
       1
       1
       1
       1
       1
       1
       1
       1
       1
       1
       1
       1
       1
       1
       1
       1
       1
       1
       1
       1
       1
       1
       1
       1
       1
       1
       1
       1
       1
       1
       1
       1
       1
       1
       1
       1
       1
       1
       1
       1
       1
       1
       1
       1
       1
       1
       1
       1
       1
       1
       1
       1
       1
       1
       1
       1
       1
       1
       1
       1
       1
       1
       1
       1
       1
       1
       1
       1
       1
       1
       1
       1
       1
       1
       1
       1
       1
       1
       1
       1
       1
       1
       1
       1
       1
       1
       1
       1
       1
       1
       1
       1
       1
       1
       1
       1
       1
       1
       1
       1
       1
       1
       1
       1
       1
       1
       1
       1
       1
       1
       1
       1
       1
       1
       1
       1
       1
       1
       1
       1
       1
       1
       1
       1
       1
       1
       1
       1
       1
       1
       1
       1
       1
       1
       1
       1
       1
       1
       1
       1
       1
       1
       1
       1
       1
       1
       1
       1
       1
       1
       1
       1
       1
       1
       1
       1
       1
       1
       1
       1
       1
       1
       1
       1
       1
       1
       1
       1
       1
       1
       1
       1
       1
       1
       1
       1
       1
       1
       1
       1
       1
       1
       1
       1
       1
       1
       1
       1
       1
       1
       1
       1
       1
       1
       1
       1
       1
       1
       1
       1
       1
       1
       1
       1
       1
       1
       1
       1
       1
       1
       1
       1
       1
       1
       1
       1
       1
       1
       1
       1
       1
       1
       1
       1
       1
       1
       1
       1
       1
       1
       1
       1
       1
       1
       1
       1
       1
       1
       1
       1
       1
       1
       1
       1
       1
       1
       1
       1
       1
       1
       1
       1
       1
       1
       1
       1
       1
       1
       1
       1
       1
       1
       1
       1
       1
       1
       1
       1
       1
       1
       1
       1
       1
       1
       1
       1
       1
       1
       1
       1
       1
       1
       1
       1
       1
       1
       1
       1
       1
       1
       1
       1
       1
       1
       1
       1
       1
       1
       1
       1
       1
       1
       1
       1
       1
       1
       1
       1
       1
       1
       1
       1
       1
       1
       1
       1
       1
       1
       1
       1
       1
       1
       1
       1
       1
       1
       1
       1
       1
       1
       1
       1
       1
       1
       1
       1
       1
       1
       1
       1
       1
       1
       1
       1
       1
       1
       1
       1
       1
       1
       1
       1
       1
       1
       1
       1
       1
       1
       1
       1
       1
       1
       1
       1
       1
       1
       1
       1
       1
       1
       1
       1
       1
       1
       1
       1
       1
       1
       1
       1
       1
       1
       1
       1
       1
       1
       1
       1
       1
       1
       1
       1
       1
       1
       1
       1
       1
       1
       1
       1
       1
       1
       1
       1
       1
       1
       1
       1
       1
       1
       1
       1
       1
       1
       1
       1
       1
       1
       1
       1
       1
       1
       1
       1
       1
       1
       1
       1
       1
       1
       1
       1
       1
       1
       1
       1
       1
       1
       1
       1
       1
       1
       1
       1
       1
       1
       1
       1
       1
       1
       1
       1
       1
       1
       1
       1
       1
       1
       1
       1
       1
       1
       1
       1
       1
       1
       1
       1
       1
       1
       1
       1
       1
       1
       1
       1
       1
       1
       1
       1
       1
       1
       1
       1
       1
       1
       1
       1
       1
       1
       1
       1
       1
       1
       1
       1
       1
       1
       1
       1
       1
       1
       1
       1
       1
       1
       1
       1
       1
       1
       1
       1
       1
       1
       1
       1
       1
       1
       1
       1
       1
       1
       1
       1
       1
       1
       1
       1
       1
       1
       1
       1
       1
       1
       1
       1
       1
       1
       1
       1
       1
       1
       1
       1
       1
       1
       1
       1
       1
       1
       1
       1
       1
       1
       1
       1
       1
       1
       1
       1
       1
       1
       1
       1
       1
       1
       1
       1
       1
       1
       1
       1
       1
       1
       1
       1
       1
       1
       1
       1
       1
       1
       1
       1
       1
       1
       1
       1
       1
       1
       1
       1
       1
       1
       1
       1
       1
       1
       1
       1
       1
       1
       1
       1
       1
       1
       1
       1
       1
       1
       1
       1
       1
       1
       1
       1
       1
       1
       1
       1
       1
       1
       1
       1
       1
       1
       1
       1
       1
       1
       1
       1
       1
       1
       1
       1
       1
       1
       1
       1
       1
       1
       1
       1
       1
       1
       1
       1
       1
       1
       1
       1
       1
       1
       1
       1
       1
       1
       1
       1
       1
       1
       1
       1
       1
       1
       1
       1
       1
       1
       1
       1
       1
       1
       1
       1
       1
       1
       1
       1
       1
       1
       1
       1
       1
       1
       1
       1
       1
       1
       1
       1
       1
       1
       1
       1
       1
       1
       1
       1
       1
       1
       1
       1
       1
       1
       1
       1
       1
       1
       1
       1
       1
       1
       1
       1
       1
       1
       1
       1
       1
       1
       1
       1
       1
       1
       1
       1
       1
       1
       1
       1
       1
       1
       1
       1
       1
       1
       1
       1
       1
       1
       1
       1
       1
       1
       1
       1
       1
       1
       1
       1
       1
       1
       1
       1
       1
       1
       1
       1
       1
       1
       1
       1
       1
       1
       1
       1
       1
       1
       1
       1
       1
       1
       1
       1
       1
       1
       1
       1
       1
       1
       1
       1
       1
       1
       1
       1
       1
       1
       1
       1
       1
       1
       1
       1
       1
       1
       1
       1
       1
       1
       1
       1
       1
       1
       1
       1
       1
       1
       1
       1
       1
       1
       1
       1
       1
       1
       1
       1
       1
       1
       1
       1
       1
       1
       1
       1
       1
       1
       1
       1
       1
       1
       1
       1
       1
       1
       1
       1
       1
       1
       1
       1
       1
       1
       1
       1
       1
       1
       1
       1
       1
       1
       1
       1
       1
       1
       1
       1
       1
       1
       1
       1
       1
       1
       1
       1
       1
       1
       1
       1
       1
       1
       1
       1
       1
       1
       1
       1
       1
       1
       1
       1
       1
       1
       1
       1
       1
       1
       1
       1
       1
       1
       1
       1
       1
       1
       1
       1
       1
       1
       1
       1
       1
       1
       1
       1
       1
       1
       1
       1
       1
       1
       1
       1
       1
       1
       1
       1
       1
       1
       1
       1
       1
       1
       1
       1
       1
       1
       1
       1
       1
       1
       1
       1
       1
       1
       1
       1
       1
       1
       1
       1
       1
       1
       1
       1
       1
       1
       1
       1
       1
       1
       1
       1
       1
       1
       1
       1
       1
       1
       1
       1
       1
       1
       1
       1
       1
       1
       1
       1
       1
       1
       1
       1
       1
       1
       1
       1
       1
       1
       1
       1
       1
       1
       1
       1
       1
       1
       1
       1
       1
       1
       1
       1
       1
       1
       1
       1
       1
       1
       1
       1
       1
       1
       1
       1
       1
       1
       1
       1
       1
       1
       1
       1
       1
       1
       1
       1
       1
       1
       1
       1
       1
       1
       1
       1
       1
       1
       1
       1
       1
       1
       1
       1
       1
       1
       1
       1
       1
       1
       1
       1
       1
       1
       1
       1
       1
       1
       1
       1
       1
       1
       1
       1
       1
       1
       1
       1
       1
       1
       1
       1
       1
       1
       1
       1
       1
       1
       1
       1
       1
       1
       1
       1
       1
       1
       1
       1
       1
       1
       1
       1
       1
       1
       1
       1
       1
       1
       1
       1
       1
       1
       1
       1
       1
       1
       1
       1
       1
       1
       1
       1
       1
       1
       1
       1
       1
       1
       1
       1
       1
       1
       1
       1
       1
       1
       1
       1
       1
       1
       1
       1
       1
       1
       1
       1
       1
       1
       1
       1
       1
       1
       1
       1
       1
       1
       1
       1
       1
       1
       1
       1
       1
       1
       1
       1
       1
       1
       1
       1
       1
       1
       1
       1
       1
       1
       1
       1
       1
       1
       1
       1
       1
       1
       1
       1
       1
       1
       1
       1
       1
       1
       1
       1
       1
       1
       1
       1
       1
       1
       1
       1
       1
       1
       1
       1
       1
       1
       1
       1
       1
       1
       1
       1
       1
       1
       1
       1
       1
       1
       1
       1
       1
       1
       1
       1
       1
       1
       1
       1
       1
       1
       1
       1
       1
       1
       1
       1
       1
       1
       1
       1
       1
       1
       1
       1
       1
       1
       1
       1
       1
       1
       1
       1
       1
       1
       1
       1
       1
       1
       1
       1
       1
       1
       1
       1
       1
       1
       1
       1
       1
       1
       1
       1
       1
       1
       1
       1
       1
       1
       1
       1
       1
       1
       1
       1
       1
       1
       1
       1
       1
       1
       1
       1
       1
       1
       1
       1
       1
       1
       1
       1
       1
       1
       1
       1
       1
       1
       1
       1
       1
       1
       1
       1
       1
       1
       1
       1
       1
       1
       1
       1
       1
       1
       1
       1
       1
       1
       1
       1
       1
       1
       1
       1
       1
       1
       1
       1
       1
       1
       1
       1
       1
       1
       1
       1
       1
       1
       1
       1
       1
       1
       1
       1
       1
       1
       1
       1
       1
       1
       1
       1
       1
       1
       1
       1
       1
       1
       1
       1
       1
       1
       1
       1
       1
       1
       1
       1
       1
       1
       1
       1
       1
       1
       1
       1
       1
       1
       1
       1
       1
       1
       1
       1
       1
       1
       1
       1
       1
       1
       1
       1
       1
       1
       1
       1
       1
       1
       1
       1
       1
       1
       1
       1
       1
       1
       1
       1
       1
       1
       1
       1
       1
       1
       1
       1
       1
       1
       1
       1
       1
       1
       1
       1
       1
       1
       1
       1
       1
       1
       1
       1
       1
       1
       1
       1
       1
       1
       1
       1
       1
       1
       1
       1
       1
       1
       1
       1
       1
       1
       1
       1
       1
       1
       1
       1
       1
       1
       1
       1
       1
       1
       1
       1
       1
       1
       1
       1
       1
       1
       1
       1
       1
       1
       1
       1
       1
       1
       1
       1
       1
       1
       1
       1
       1
       1
       1
       1
       1
       1
       1
       1
       1
       1
       1
       1
       1
       1
       1
       1
       1
       1
       1
       1
       1
       1
       1
       1
       1
       1
       1
       1
       1
       1
       1
       1
       1
       1
       1
       1
       1
       1
       1
       1
       1
       1
       1
       1
       1
       1
       1
       1
       1
       1
       1
       1
       1
       1
       1
       1
       1
       1
       1
       1
       1
       1
       1
       1
       1
       1
       1
       1
       1
       1
       1
       1
       1
       1
       1
       1
       1
       1
       1
       1
       1
       1
       1
       1
       1
       1
       1
       1
       1
       1
       1
       1
       1
       1
       1
       1
       1
       1
       1
       1
       1
       1
       1
       1
       1
       1
       1
       1
       1
       1
       1
       1
       1
       1
       1
       1
       1
       1
       1
       1
       1
       1
       1
       1
       1
       1
       1
       1
       1
       1
       1
       1
       1
       1
       1
       1
       1
       1
       1
       1
       1
       1
       1
       1
       1
       1
       1
       1
       1
       1
       1
       1
       1
       1
       1
       1
       1
       1
       1
       1
       1
       1
       1
       1
       1
       1
       1
       1
       1
       1
       1
       1
       1
       1
       1
       1
       1
       1
       1
       1
       1
       1
       1
       1
       1
       1
       1
       1
       1
       1
       1
       1
       1
       1
       1
       1
       1
       1
       1
       1
       1
       1
       1
       1
       1
       1
       1
       1
       1
       1
       1
       1
       1
       1
       1
       1
       1
       1
       1
       1
       1
       1
       1
       1
       1
       1
       1
       1
       1
       1
       1
       1
       1
       1
       1
       1
       1
       1
       1
       1
       1
       1
       1
       1
       1
       1
       1
       1
       1
       1
       1
       1
       1
       1
       1
       1
       1
       1
       1
       1
       1
       1
       1
       1
       1
       1
       1
       1
       1
       1
       1
       1
       1
       1
       1
       1
       1
       1
       1
       1
       1
       1
       1
       1
       1
       1
       1
       1
       1
       1
       1
       1
       1
       1
       1
       1
       1
       1
       1
       1
       1
       1
       1
       1
       1
       1
       1
       1
       1
       1
       1
       1
       1
       1
       1
       1
       1
       1
       1
       1
       1
       1
       1
       1
       1
       1
       1
       1
       1
       1
       1
       1
       1
       1
       1
       1
       1
       1
       1
       1
       1
       1
       1
       1
       1
       1
       1
       1
       1
       1
       1
       1
       1
       1
       1
       1
       1
       1
       1
       1
       1
       1
       1
       1
       1
       1
       1
       1
       1
       1
       1
       1
       1
       1
       1
       1
       1
       1
       1
       1
       1
       1
       1
       1
       1
       1
       1
       1
      12
      12
      12
      12
      12
      12
      12
      12
      12
      12
      12
      12
      12
      12
      12
      12
      12
      12
      12
      12
      12
      12
      12
      12
      12
      12
      12
      12
      12
      12
      12
      12
      12
      12
      12
      12
      12
      12
      12
      12
      12
      12
      12
      12
      12
      12
      12
      12
      12
      12
      12
      12
      12
      12
      12
      12
      12
      12
      12
      12
      12
      12
      12
      12
      12
      12
      12
      12
      12
      12
      12
      12
      12
      12
      12
      12
      12
      12
      12
      12
      12
      12
      12
      12
      12
      12
      12
      12
      12
      12
      12
      12
      12
      12
      12
      12
      12
      12
      12
      12
      12
      12
      12
      12
      12
      12
      12
      12
      12
      12
      12
      12
      12
      12
      12
      12
      12
      12
      12
      12
      12
      12
      12
      12
      12
      12
      12
      12
      12
      12
      12
      12
      12
      12
      12
      12
      12
      12
      12
      12
      12
      12
      12
      12
      12
      12
      12
      12
      12
      12
      12
      12
      12
      12
      12
      12
      12
      12
      12
      12
      12
      12
      12
      12
      12
      12
      12
      12
      12
      12
      12
      12
      12
      12
      12
      12
      12
      12
      12
      12
      12
      12
      12
      12
      12
      12
      12
      12
      12
      12
      12
      12
      12
      12
      12
      12
      12
      12
      12
      12
      12
      12
      12
      12
      12
      12
      12
      12
      12
      12
      12
      12
      12
      12
      12
      12
      12
      12
      12
      12
      12
      12
      12
      12
      12
      12
      12
      12
      12
      12
      12
      12
      12
      12
      12
      12
      12
      12
      12
      12
      12
      12
      12
      12
      12
      12
      12
      12
      12
      12
      12
      12
      12
      12
      12
      12
      12
      12
      12
      12
      12
      12
      12
      12
      12
      12
      12
      12
      12
      12
      12
      12
      12
      12
      12
      12
      12
      12
      12
      12
      12
      12
      12
      12
      12
      12
      12
      12
      12
      12
      12
      12
      12
      12
      12
      12
      12
      12
      12
      12
      12
      12
      12
      12
      12
      12
      12
      12
      12
      12
      12
      12
      12
      12
      12
      12
      12
      12
      12
      12
      12
      12
      12
      12
      12
      12
      12
      12
      12
      12
      12
      12
      12
      12
      12
      12
      12
      12
      12
      12
      12
      12
      12
      12
      12
      12
      12
      12
      12
      12
      12
      12
      12
      12
      12
      12
      12
      12
      12
      12
      12
      12
      12
      12
      12
      12
      12
      12
      12
      12
      12
      12
      12
      12
      12
      12
      12
      12
      12
      12
      12
      12
      12
      12
      12
      12
      12
      12
      12
      12
      12
      12
      12
      12
      12
      12
      12
      12
      12
      12
      12
      12
      12
      12
      12
      12
      12
      12
      12
      12
      12
      12
      12
      12
      12
      12
      12
      12
      12
      12
      12
      12
      12
      12
      12
      12
      12
      12
      12
      12
      12
      12
      12
      12
      12
      12
      12
      12
      12
      12
      12
      12
      12
      12
      12
      12
      12
      12
      12
      12
      12
      12
      12
      12
      12
      12
      12
      12
      12
      12
      12
      12
      12
      12
      12
      12
      12
      12
      12
      12
      12
      12
      12
      12
      12
      12
      12
      12
      12
      12
      12
      12
      12
      12
      12
      12
      12
      12
      12
      12
      12
      12
      12
      12
      12
      12
      12
      12
      12
      12
      12
      12
      12
      12
      12
      12
      12
      12
      12
      12
      12
      12
      12
      12
      12
      12
      12
      12
      12
      12
      12
      12
      12
      12
      12
      12
      12
      12
      12
      12
      12
      12
      12
      12
      12
      12
      12
      12
      12
      12
      12
      12
      12
      12
      12
      12
      12
      12
      12
      12
      12
      12
      12
      12
      12
      12
      12
      12
      12
      12
      12
      12
      12
      12
      12
      12
      12
      12
      12
      12
      12
      12
      12
      12
      12
      12
      12
      12
      12
      12
      12
      12
      12
      12
      12
      12
      12
      12
      12
      12
      12
      12
      12
      12
      12
      12
      12
      12
      12
      12
      12
      12
      12
      12
      12
      12
      12
      12
      12
      12
      12
      12
      12
      12
      12
      12
      12
      12
      12
      12
      12
      12
      12
      12
      12
      12
      12
      12
      12
      12
      12
      12
      12
      12
      12
      12
      12
      12
      12
      12
      12
      12
      12
      12
      12
      12
      12
      12
      12
      12
      12
      12
      12
      12
      12
      12
      12
      12
      12
      12
      12
      12
      12
      12
      12
      12
      12
      12
      12
      12
      12
      12
      12
      12
      12
      12
      12
      12
      12
      12
      12
      12
      12
      12
      12
      12
      12
      12
      12
      12
      12
      12
      12
      12
      12
      12
      12
      12
      12
      12
      12
      12
      12
      12
      12
      12
      12
      12
      12
      12
      12
      12
      12
      12
      12
      12
      12
      12
      12
      12
      12
      12
      12
      12
      12
      12
      12
      12
      12
      12
      12
      12
      12
      12
      12
      12
      12
      12
      12
      12
      12
      12
      12
      12
      12
      12
      12
      12
      12
      12
      12
      12
      12
      12
      12
      12
      12
      12
      12
      12
      12
      12
      12
      12
      12
      12
      12
      12
      12
      12
      12
      12
      12
      12
      12
      12
      12
      12
      12
      12
      12
      12
      12
      12
      12
      12
      12
      12
      12
      12
      12
      12
      12
      12
      12
      12
      12
      12
      12
      12
      12
      12
      12
      12
      12
      12
      12
      12
      12
      12
      12
      12
      12
      12
      12
      12
      12
      12
      12
      12
      12
      12
      12
      12
      12
      12
      12
      12
      12
      12
      12
      12
      12
      12
      12
      12
      12
      12
      12
      12
      12
      12
      12
      12
      12
      12
      12
      12
      12
      12
      12
      12
      12
      12
      12
      12
      12
      12
      12
      12
      12
      12
      12
      12
      12
      12
      12
      12
      12
      12
      12
      12
      12
      12
      12
      12
      12
      12
      12
      12
      12
      12
      12
      12
      12
      12
      12
      12
      12
      12
      12
      12
      12
      12
      12
      12
      12
      12
      12
      12
      12
      12
      12
      12
      12
      12
      12
      12
      12
      12
      12
      12
      12
      12
      12
      12
      12
      12
      12
      12
      12
      12
      12
      12
      12
      12
      12
      12
      12
      12
      12
      12
      12
      12
      12
      12
      12
      12
      12
      12
      12
      12
      12
      12
      12
      12
      12
      12
      12
      12
      12
      12
      12
      12
      12
      12
      12
      12
      12
      12
      12
      12
      12
      12
      12
      12
      12
      12
      12
      12
      12
      12
      12
      12
      12
      12
      12
      12
      12
      12
      12
      12
      12
      12
      12
      12
      12
      12
      12
      12
      12
      12
      12
      12
      12
      12
      12
      12
      12
      12
      12
      12
      12
      12
      12
      12
      12
      12
      12
      12
      12
      12
      12
      12
      12
      12
      12
      12
      12
      12
      12
      12
      12
      12
      12
      12
      12
      12
      12
      12
      12
      12
      12
      12
      12
      12
      12
      12
      12
      12
      12
      12
      12
      12
      12
      12
      12
      12
      12
      12
      12
      12
      12
      12
      12
      12
      12
      12
      12
      12
      12
      12
      12
      12
      12
      12
      12
      12
      12
      12
      12
      12
      12
      12
      12
      12
      12
      12
      12
      12
      12
      12
      12
      12
      12
      12
      12
      12
      12
      12
      12
      12
      12
      12
      12
      12
      12
      12
      12
      12
      12
      12
      12
      12
      12
      12
      12
      12
      12
      12
      12
      12
      12
      12
      12
      12
      12
      12
      12
      12
      12
      12
      12
      12
      12
      12
      12
      12
      12
      12
      12
      12
      12
      12
      12
      12
      12
      12
      12
      12
      12
      12
      12
      12
      12
      12
      12
      12
      12
      12
      12
      12
      12
      12
      12
      12
      12
      12
      12
      12
      12
      12
      12
      12
      12
      12
      12
      12
      12
      12
      12
      12
      12
      12
      12
      12
      12
      12
      12
      12
      12
      12
      12
      12
      12
      12
      12
      12
      12
      12
      12
      12
      12
      12
      12
      12
      12
      12
      12
      12
      12
      12
      12
      12
      12
      12
      12
      12
      12
      12
      12
      12
      12
      12
      12
      12
      12
      12
      12
      12
      12
      12
      12
      12
      12
      12
      12
      12
      12
      12
      12
      12
      12
      12
      12
      12
      12
      12
      12
      12
      12
      12
      12
      12
      12
      12
      12
      12
      12
      12
      12
      12
      12
      12
      12
      12
      12
      12
      12
      12
      12
      12
      12
      12
      12
      12
      12
      12
      12
      12
      12
      12
      12
      12
      12
      12
      12
      12
      12
      12
      12
      12
      12
      12
      12
      12
      12
      12
      12
      12
      12
      12
      12
      12
      12
      12
      12
      12
      12
      12
      12
      12
      12
      12
      12
      12
      12
      12
      12
      12
      12
      12
      12
      12
      12
      12
      12
      12
      12
      12
      12
      12
      12
      12
      12
      12
      12
      12
      12
      12
      12
      12
      12
      12
      12
      12
      12
      12
      12
      12
      12
      12
      12
      12
      12
      12
      12
      12
      12
      12
      12
      12
      12
      12
      12
      12
      12
      12
      12
      12
      12
      12
      12
      12
      12
      12
      12
      12
      12
      12
      12
      12
      12
      12
      12
      12
      12
      12
      12
      12
      12
      12
      12
      12
      12
      12
      12
      12
      12
      12
      12
      12
      12
      12
      12
      12
      12
      12
      12
      12
      12
      12
      12
      12
      12
      12
      12
      12
      12
      12
      12
      12
      12
      12
      12
      12
      12
      12
      12
      12
      12
      12
      12
      12
      12
      12
      12
      12
      12
      12
      12
      12
      12
      12
      12
      12
      12
      12
      12
      12
      12
      12
      12
      12
      12
      12
      12
      12
      12
      12
      12
      12
      12
      12
      12
      12
      12
      12
      12
      12
      12
      12
      12
      12
      12
      12
      12
      12
      12
      12
      12
      12
      12
      12
      12
      12
      12
      12
      12
      12
      12
      12
      12
      12
      12
      12
      12
      12
      12
      12
      12
      12
      12
      12
      12
      12
      12
      12
      12
      12
      12
      12
      12
      12
      12
      12
      12
      12
      12
      12
      12
      12
      12
      12
      12
      12
      12
      12
      12
      12
      12
      12
      12
      12
      12
      12
      12
      12
      12
      12
      12
      12
      12
      12
      12
      12
  
  
POINT_DATA       1950
  
SCALARS                  material_type  double 1
LOOKUP_TABLE default
                   2
                   2
                   2
                   2
                   2
                   2
                   2
                   2
                   2
                   2
                   2
                   2
                   2
                   2
                   2
                   2
                   2
                   2
                   2
                   2
                   2
                   2
                   2
                   2
                   2
                   2
                   2
                   2
                   2
                   2
                   2
                   2
                   2
                   2
                   2
                   2
                   2
                   2
                   2
                   2
                   2
                   2
                   2
                   2
                   2
                   2
                   2
                   2
                   2
                   2
                   2
                   2
                   2
                   2
                   2
                   2
                   2
                   2
                   2
                   2
                   2
                   2
                   2
                   2
                   2
                   2
                   2
                   2
                   2
                   2
                   2
                   2
                   2
                   2
                   2
                   2
                   2
                   2
                   2
                   2
                   2
                   2
                   2
                   2
                   2
                   2
                   2
                   2
                   2
                   2
                   2
                   2
                   2
                   2
                   2
                   2
                   2
                   2
                   2
                   2
                   2
                   2
                   2
                   2
                   2
                   2
                   2
                   2
                   2
                   2
                   2
                   2
                   2
                   2
                   2
                   2
                   2
                   2
                   2
                   2
                   2
                   2
                   2
                   2
                   2
                   2
                   2
                   2
                   2
                   2
                   2
                   2
                   2
                   2
                   2
                   2
                   2
                   2
                   2
                   2
                   2
                   2
                   2
                   2
                   2
                   2
                   2
                   2
                   2
                   2
                   2
                   2
                   2
                   2
                   2
                   2
                   2
                   2
                   2
                   2
                   2
                   2
                   2
                   2
                   2
                   2
                   2
                   2
                   2
                   2
                   2
                   2
                   2
                   2
                   2
                   2
                   2
                   2
                   2
                   2
                   2
                   2
                   2
                   2
                   2
                   2
                   2
                   2
                   2
                   2
                   2
                   2
                   2
                   2
                   2
                   2
                   2
                   2
                   2
                   2
                   2
                   2
                   2
                   2
                   2
                   2
                   2
                   2
                   2
                   2
                   2
                   2
                   2
                   2
                   2
                   2
                   2
                   2
                   2
                   2
                   2
                   2
                   2
                   2
                   2
                   2
                   2
                   2
                   2
                   2
                   2
                   2
                   2
                   2
                   2
                   2
                   2
                   2
                   2
                   2
                   2
                   2
                   2
                   2
                   2
                   2
                   2
                   2
                   2
                   2
                   2
                   2
                   2
                   2
                   2
                   2
                   2
                   2
                   2
                   2
                   2
                   2
                   2
                   2
                   2
                   2
                   2
                   2
                   2
                   2
                   2
                   2
                   2
                   2
                   2
                   2
                   2
                   2
                   2
                   2
                   2
                   2
                   2
                   2
                   2
                   2
                   2
                   2
                   2
                   2
                   2
                   2
                   2
                   2
                   2
                   2
                   2
                   2
                   2
                   2
                   2
                   2
                   2
                   2
                   2
                   2
                   2
                   2
                   2
                   2
                   2
                   2
                   2
                   2
                   2
                   2
                   2
                   2
                   2
                   2
                   2
                   2
                   2
                   2
                   2
                   2
                   2
                   2
                   2
                   2
                   2
                   2
                   2
                   2
                   2
                   2
                   2
                   2
                   2
                   2
                   2
                   2
                   2
                   2
                   2
                   2
                   2
                   2
                   2
                   2
                   2
                   2
                   2
                   2
                   2
                   2
                   2
                   2
                   2
                   2
                   2
                   2
                   2
                   2
                   2
                   2
                   2
                   2
                   2
                   2
                   2
                   2
                   2
                   2
                   2
                   2
                   2
                   2
                   2
                   2
                   2
                   2
                   2
                   2
                   2
                   2
                   2
                   2
                   2
                   2
                   2
                   2
                   2
                   2
                   2
                   2
                   2
                   2
                   2
                   2
                   2
                   2
                   2
                   2
                   2
                   2
                   2
                   2
                   2
                   2
                   2
                   2
                   2
                   2
                   2
                   2
                   2
                   2
                   2
                   2
                   2
                   2
                   2
                   2
                   2
                   2
                   2
                   2
                   2
                   2
                   2
                   2
                   2
                   2
                   2
                   2
                   2
                   2
                   2
                   2
                   2
                   2
                   2
                   2
                   2
                   2
                   2
                   2
                   2
                   2
                   2
                   2
                   2
                   2
                   2
                   2
                   2
                   2
                   2
                   2
                   2
                   2
                   2
                   2
                   2
                   2
                   2
                   2
                   2
                   2
                   2
                   2
                   2
                   2
                   2
                   2
                   2
                   2
                   2
                   2
                   2
                   2
                   2
                   2
                   2
                   2
                   2
                   2
                   2
                   2
                   2
                   2
                   2
                   2
                   2
                   2
                   2
                   2
                   2
                   2
                   2
                   2
                   2
                   2
                   2
                   2
                   2
                   2
                   2
                   2
                   2
                   2
                   2
                   2
                   2
                   2
                   2
                   2
                   2
                   2
                   2
                   2
                   2
                   2
                   2
                   2
                   2
                   2
                   2
                   2
                   2
                   2
                   2
                   2
                   2
                   2
                   2
                   2
                   2
                   2
                   2
                   2
                   2
                   2
                   2
                   2
                   2
                   2
                   2
                   2
                   2
                   2
                   2
                   2
                   2
                   2
                   2
                   2
                   2
                   2
                   2
                   2
                   2
                   2
                   2
                   2
                   2
                   2
                   2
                   2
                   2
                   2
                   2
                   2
                   2
                   2
                   2
                   2
                   2
                   2
                   2
                   2
                   2
                   2
                   2
                   2
                   2
                   2
                   2
                   2
                   2
                   2
                   2
                   2
                   2
                   2
                   2
                   2
                   2
                   2
                   2
                   2
                   2
                   2
                   2
                   2
                   2
                   2
                   2
                   2
                   2
                   2
                   2
                   2
                   2
                   2
                   2
                   2
                   2
                   2
                   2
                   2
                   2
                   2
                   2
                   2
                   2
                   2
                   2
                   2
                   2
                   2
                   2
                   2
                   2
                   2
                   2
                   2
                   2
                   2
                   2
                   2
                   2
                   2
                   2
                   2
                   2
                   2
                   2
                   2
                   2
                   2
                   2
                   2
                   2
                   2
                   2
                   2
                   2
                   2
                   2
                   2
                   2
                   2
                   2
                   2
                   2
                   2
                   2
                   2
                   2
                   2
                   2
                   2
                   2
                   2
                   2
                   2
                   2
                   2
                   2
                   2
                   2
                   2
                   2
                   2
                   2
                   2
                   2
                   2
                   2
                   2
                   2
                   2
                   2
                   2
                   2
                   2
                   2
                   2
                   2
                   2
                   2
                   2
                   2
                   2
                   2
                   2
                   2
                   2
                   2
                   2
                   2
                   2
                   2
                   2
                   2
                   2
                   2
                   2
                   2
                   2
                   2
                   2
                   2
                   2
                   2
                   2
                   2
                   2
                   2
                   2
                   2
                   2
                   2
                   2
                   2
                   2
                   2
                   2
                   2
                   2
                   2
                   2
                   2
                   2
                   2
                   2
                   2
                   2
                   2
                   2
                   2
                   2
                   2
                   2
                   2
                   2
                   2
                   2
                   2
                   2
                   2
                   2
                   2
                   2
                   2
                   2
                   2
                   2
                   2
                   2
                   2
                   2
                   2
                   2
                   2
                   2
                   2
                   2
                   2
                   2
                   2
                   2
                   2
                   2
                   2
                   2
                   2
                   2
                   2
                   2
                   2
                   2
                   2
                   2
                   2
                   2
                   2
                   2
                   2
                   2
                   2
                   2
                   2
                   2
                   2
                   2
                   2
                   2
                   2
                   2
                   2
                   2
                   2
                   2
                   2
                   2
                   2
                   2
                   2
                   2
                   2
                   2
                   2
                   2
                   2
                   2
                   2
                   2
                   2
                   2
                   2
                   2
                   2
                   2
                   2
                   2
                   2
                   2
                   2
                   2
                   2
                   2
                   2
                   2
                   2
                   2
                   2
                   2
                   2
                   2
                   2
                   2
                   2
                   2
                   2
                   2
                   2
                   2
                   2
                   2
                   2
                   2
                   2
                   2
                   2
                   2
                   2
                   2
                   2
                   2
                   2
                   2
                   2
                   2
                   2
                   2
                   2
                   2
                   2
                   2
                   2
                   2
                   2
                   2
                   2
                   2
                   2
                   2
                   2
                   2
                   2
                   2
                   2
                   2
                   2
                   2
                   2
                   2
                   2
                   2
                   2
                   2
                   2
                   2
                   2
                   2
                   2
                   2
                   2
                   2
                   2
                   2
                   2
                   2
                   2
                   2
                   2
                   2
                   2
                   2
                   2
                   2
                   2
                   2
                   2
                   2
                   2
                   2
                   2
                   2
                   2
                   2
                   2
                   2
                   2
                   2
                   2
                   2
                   2
                   2
                   2
                   2
                   2
                   2
                   2
                   2
                   2
                   2
                   2
                   2
                   2
                   2
                   2
                   2
                   2
                   2
                   2
                   2
                   2
                   2
                   2
                   2
                   2
                   2
                   2
                   2
                   2
                   2
                   2
                   2
                   2
                   2
                   2
                   2
                   2
                   2
                   2
                   2
                   2
                   2
                   2
                   2
                   2
                   2
                   2
                   2
                   2
                   2
                   2
                   2
                   2
                   2
                   2
                   2
                   2
                   2
                   2
                   2
                   2
                   2
                   2
                   2
                   2
                   2
                   2
                   2
                   2
                   2
                   2
                   2
                   2
                   2
                   2
                   2
                   2
                   2
                   2
                   2
                   2
                   2
                   2
                   2
                   2
                   2
                   2
                   2
                   2
                   2
                   2
                   2
                   2
                   2
                   2
                   2
                   2
                   2
                   2
                   2
                   2
                   2
                   2
                   2
                   2
                   2
                   2
                   2
                   2
                   2
                   2
                   2
                   2
                   2
                   2
                   2
                   2
                   2
                   2
                   2
                   2
                   2
                   2
                   2
                   2
                   2
                   2
                   2
                   2
                   2
                   2
                   2
                   2
                   2
                   2
                   2
                   2
                   2
                   2
                   2
                   2
                   2
                   2
                   2
                   2
                   2
                   2
                   2
                   2
                   2
                   2
                   2
                   2
                   2
                   2
                   2
                   2
                   2
                   2
                   2
                   2
                   2
                   2
                   2
                   2
                   2
                   2
                   2
                   2
                   2
                   2
                   2
                   2
                   2
                   2
                   2
                   2
                   2
                   2
                   2
                   2
                   2
                   2
                   2
                   2
                   2
                   2
                   2
                   2
                   2
                   2
                   2
                   2
                   2
                   2
                   2
                   2
                   2
                   2
                   2
                   2
                   2
                   2
                   2
                   2
                   2
                   2
                   2
                   2
                   2
                   2
                   2
                   2
                   2
                   2
                   2
                   2
                   2
                   2
                   2
                   2
                   2
                   2
                   2
                   2
                   2
                   2
                   2
                   2
                   2
                   2
                   2
                   2
                   2
                   2
                   2
                   2
                   2
                   2
                   2
                   2
                   2
                   2
                   2
                   2
                   2
                   2
                   2
                   2
                   2
                   2
                   2
                   2
                   2
                   2
                   2
                   2
                   2
                   2
                   2
                   2
                   2
                   2
                   2
                   2
                   2
                   2
                   2
                   2
                   2
                   2
                   2
                   2
                   2
                   2
                   2
                   2
                   2
                   2
                   2
                   2
                   2
                   2
                   2
                   2
                   2
                   2
                   2
                   2
                   2
                   2
                   2
                   2
                   2
                   2
                   2
                   2
                   2
                   2
                   2
                   2
                   2
                   2
                   2
                   2
                   2
                   2
                   2
                   2
                   2
                   2
                   2
                   2
                   2
                   2
                   2
                   2
                   2
                   2
                   2
                   2
                   2
                   2
                   2
                   2
                   2
                   2
                   2
                   2
                   2
                   2
                   2
                   2
                   2
                   2
                   2
                   2
                   2
                   2
                   2
                   2
                   2
                   2
                   2
                   2
                   2
                   2
                   2
                   2
                   2
                   2
                   2
                   2
                   2
                   2
                   2
                   2
                   2
                   2
                   2
                   2
                   2
                   2
                   2
                   2
                   2
                   2
                   2
                   2
                   2
                   2
                   2
                   2
                   2
                   2
                   2
                   2
                   2
                   2
                   2
                   2
                   2
                   2
                   2
                   2
                   2
                   2
                   2
                   2
                   2
                   2
                   2
                   2
                   2
                   2
                   2
                   2
                   2
                   2
                   2
                   2
                   2
                   2
                   2
                   2
                   2
                   2
                   2
                   2
                   2
                   2
                   2
                   2
                   2
                   2
                   2
                   2
                   2
                   2
                   2
                   2
                   2
                   2
                   2
                   2
                   2
                   2
                   2
                   2
                   2
                   2
                   2
                   2
                   2
                   2
                   2
                   2
                   2
                   2
                   2
                   2
                   2
                   2
                   2
                   2
                   2
                   2
                   2
                   2
                   2
                   2
                   2
                   2
                   2
                   2
                   2
                   2
                   2
                   2
                   2
                   2
                   2
                   2
                   2
                   2
                   2
                   2
                   2
                   2
                   2
                   2
                   2
                   2
                   2
                   2
                   2
                   2
                   2
                   2
                   2
                   2
                   2
                   2
                   2
                   2
                   2
                   2
                   2
                   2
                   2
                   2
                   2
                   2
                   2
                   2
                   2
                   2
                   2
                   2
                   2
                   2
                   2
                   2
                   2
                   2
                   2
                   2
                   2
                   2
                   2
                   2
                   2
                   2
                   2
                   2
                   2
                   2
                   2
                   2
                   2
                   2
                   2
                   2
                   2
                   2
                   2
                   2
                   2
                   2
                   2
                   2
                   2
                   2
                   2
                   2
                   2
                   2
                   2
                   2
                   2
                   2
                   2
                   2
                   2
                   2
                   2
                   2
                   2
                   2
                   2
                   2
                   2
                   2
                   2
                   2
                   2
                   2
                   2
                   2
                   2
                   2
                   2
                   2
                   2
                   2
                   2
                   2
                   2
                   2
                   2
                   2
                   2
                   2
                   2
                   2
                   2
                   2
                   2
                   2
                   2
                   2
                   2
                   2
                   2
                   2
                   2
                   2
                   2
                   2
                   2
                   2
                   2
                   2
                   2
                   2
                   2
                   2
                   2
                   2
                   2
                   2
                   2
                   2
                   2
                   2
                   2
                   2
                   2
                   2
                   2
                   2
                   2
                   2
                   2
                   2
                   2
                   2
                   2
                   2
                   2
                   2
                   2
                   2
                   2
                   2
                   2
                   2
                   2
                   2
                   2
                   2
                   2
                   2
                   2
                   2
                   2
                   2
                   2
                   2
                   2
                   2
                   2
                   2
                   2
                   2
                   2
                   2
                   2
                   2
                   2
                   2
                   2
                   2
                   2
                   2
                   2
                   2
                   2
                   2
                   2
                   2
                   2
                   2
                   2
                   2
                   2
                   2
                   2
                   2
                   2
                   2
                   2
                   2
                   2
                   2
                   2
                   2
                   2
                   2
                   2
                   2
                   2
                   2
                   2
                   2
                   2
                   2
                   2
                   2
                   2
                   2
                   2
                   2
                   2
                   2
                   2
                   2
                   2
                   2
                   2
                   2
                   2
                   2
                   2
                   2
                   2
                   2
                   2
                   2
                   2
                   2
                   2
                   2
                   2
                   2
                   2
                   2
                   2
                   2
                   2
                   2
                   2
                   2
                   2
                   2
                   2
                   2
                   2
                   2
                   2
                   2
                   2
                   2
                   2
                   2
                   2
                   2
                   2
                   2
                   2
                   2
                   2
                   2
                   2
                   2
                   2
                   2
                   2
                   2
                   2
                   2
                   2
                   2
                   2
                   2
                   2
                   2
                   2
                   2
                   2
                   2
                   2
                   2
                   2
                   2
                   2
                   2
                   2
                   2
                   2
                   2
                   2
                   2
                   2
                   2
                   2
                   2
                   2
                   2
                   2
                   2
                   2
                   2
                   2
                   2
                   2
                   2
                   2
                   2
                   2
                   2
                   2
                   2
                   2
                   2
                   2
                   2
                   2
                   2
                   2
                   2
                   2
                   2
                   2
                   2
                   2
                   2
                   2
                   2
                   2
                   2
                   2
                   2
                   2
                   2
                   2
                   2
                   2
                   2
                   2
                   2
                   2
                   2
                   2
                   2
                   2
                   2
                   2
                   2
                   2
                   2
                   2
                   2
                   2
                   2
                   2
                   2
                   2
                   2
                   2
                   2
                   2
                   2
                   2
                   2
                   2
                   2
                   2
                   2
                   2
                   2
                   2
                   2
                   2
                   2
                   2
                   2
                   2
                   2
                   2
                   2
                   2
                   2
                   2
                   2
                   2
                   2
                   2
                   2
                   2
                   2
                   2
                   2
                   2
                   2
                   2
                   2
                   2
                   2
                   2
                   2
                   2
                   2
                   2
                   2
                   2
                   2
                   2
                   2
                   2
                   2
                   2
                   2
                   2
                   2
                   2
                   2
                   2
                   2
                   2
                   2
                   2
                   2
                   2
                   2
                   2
                   2
                   2
                   2
                   2
                   2
                   2
                   2
                   2
                   2
                   2
                   2
                   2
                   2
                   2
                   2
                   2
                   2
                   2
                   2
                   2
                   2
                   2
                   2
                   2
                   2
                   2
                   2
                   2
                   2
                   2
                   2
                   2
                   2
                   2
                   2
                   2
                   2
                   2
                   2
                   2
                   2
                   2
                   2
                   2
                   2
                   2
                   2
                   2
                   2
                   2
                   2
                   2
                   2
                   2
                   2
                   2
                   2
                   2
                   2
                   2
                   2
                   2
                   2
                   2
                   2
                   2
                   2
                   2
                   2
                   2
                   2
                   2
                   2
                   2
                   2
                   2
                   2
                   2
                   2
                   2
                   2
                   2
                   2
                   2
                   2
                   2
                   2
                   2
                   2
                   2
                   2
                   2
                   2
                   2
                   2
                   2
                   2
                   2
                   2
                   2
                   2
                   2
                   2
                   2
  
SCALARS                        node_id  double 1
LOOKUP_TABLE default
                   1
                   2
                   3
                   4
                   5
                   6
                   7
                   8
                   9
                  10
                  11
                  12
                  13
                  14
                  15
                  16
                  17
                  18
                  19
                  20
                  21
                  22
                  23
                  24
                  25
                  26
                  27
                  28
                  29
                  30
                  31
                  32
                  33
                  34
                  35
                  36
                  37
                  38
                  39
                  40
                  41
                  42
                  43
                  44
                  45
                  46
                  47
                  48
                  49
                  50
                  51
                  52
                  53
                  54
                  55
                  56
                  57
                  58
                  59
                  60
                  61
                  62
                  63
                  64
                  65
                  66
                  67
                  68
                  69
                  70
                  71
                  72
                  73
                  74
                  75
                  76
                  77
                  78
                  79
                  80
                  81
                  82
                  83
                  84
                  85
                  86
                  87
                  88
                  89
                  90
                  91
                  92
                  93
                  94
                  95
                  96
                  97
                  98
                  99
                 100
                 101
                 102
                 103
                 104
                 105
                 106
                 107
                 108
                 109
                 110
                 111
                 112
                 113
                 114
                 115
                 116
                 117
                 118
                 119
                 120
                 121
                 122
                 123
                 124
                 125
                 126
                 127
                 128
                 129
                 130
                 131
                 132
                 133
                 134
                 135
                 136
                 137
                 138
                 139
                 140
                 141
                 142
                 143
                 144
                 145
                 146
                 147
                 148
                 149
                 150
                 151
                 152
                 153
                 154
                 155
                 156
                 157
                 158
                 159
                 160
                 161
                 162
                 163
                 164
                 165
                 166
                 167
                 168
                 169
                 170
                 171
                 172
                 173
                 174
                 175
                 176
                 177
                 178
                 179
                 180
                 181
                 182
                 183
                 184
                 185
                 186
                 187
                 188
                 189
                 190
                 191
                 192
                 193
                 194
                 195
                 196
                 197
                 198
                 199
                 200
                 201
                 202
                 203
                 204
                 205
                 206
                 207
                 208
                 209
                 210
                 211
                 212
                 213
                 214
                 215
                 216
                 217
                 218
                 219
                 220
                 221
                 222
                 223
                 224
                 225
                 226
                 227
                 228
                 229
                 230
                 231
                 232
                 233
                 234
                 235
                 236
                 237
                 238
                 239
                 240
                 241
                 242
                 243
                 244
                 245
                 246
                 247
                 248
                 249
                 250
                 251
                 252
                 253
                 254
                 255
                 256
                 257
                 258
                 259
                 260
                 261
                 262
                 263
                 264
                 265
                 266
                 267
                 268
                 269
                 270
                 271
                 272
                 273
                 274
                 275
                 276
                 277
                 278
                 279
                 280
                 281
                 282
                 283
                 284
                 285
                 286
                 287
                 288
                 289
                 290
                 291
                 292
                 293
                 294
                 295
                 296
                 297
                 298
                 299
                 300
                 301
                 302
                 303
                 304
                 305
                 306
                 307
                 308
                 309
                 310
                 311
                 312
                 313
                 314
                 315
                 316
                 317
                 318
                 319
                 320
                 321
                 322
                 323
                 324
                 325
                 326
                 327
                 328
                 329
                 330
                 331
                 332
                 333
                 334
                 335
                 336
                 337
                 338
                 339
                 340
                 341
                 342
                 343
                 344
                 345
                 346
                 347
                 348
                 349
                 350
                 351
                 352
                 353
                 354
                 355
                 356
                 357
                 358
                 359
                 360
                 361
                 362
                 363
                 364
                 365
                 366
                 367
                 368
                 369
                 370
                 371
                 372
                 373
                 374
                 375
                 376
                 377
                 378
                 379
                 380
                 381
                 382
                 383
                 384
                 385
                 386
                 387
                 388
                 389
                 390
                 391
                 392
                 393
                 394
                 395
                 396
                 397
                 398
                 399
                 400
                 401
                 402
                 403
                 404
                 405
                 406
                 407
                 408
                 409
                 410
                 411
                 412
                 413
                 414
                 415
                 416
                 417
                 418
                 419
                 420
                 421
                 422
                 423
                 424
                 425
                 426
                 427
                 428
                 429
                 430
                 431
                 432
                 433
                 434
                 435
                 436
                 437
                 438
                 439
                 440
                 441
                 442
                 443
                 444
                 445
                 446
                 447
                 448
                 449
                 450
                 451
                 452
                 453
                 454
                 455
                 456
                 457
                 458
                 459
                 460
                 461
                 462
                 463
                 464
                 465
                 466
                 467
                 468
                 469
                 470
                 471
                 472
                 473
                 474
                 475
                 476
                 477
                 478
                 479
                 480
                 481
                 482
                 483
                 484
                 485
                 486
                 487
                 488
                 489
                 490
                 491
                 492
                 493
                 494
                 495
                 496
                 497
                 498
                 499
                 500
                 501
                 502
                 503
                 504
                 505
                 506
                 507
                 508
                 509
                 510
                 511
                 512
                 513
                 514
                 515
                 516
                 517
                 518
                 519
                 520
                 521
                 522
                 523
                 524
                 525
                 526
                 527
                 528
                 529
                 530
                 531
                 532
                 533
                 534
                 535
                 536
                 537
                 538
                 539
                 540
                 541
                 542
                 543
                 544
                 545
                 546
                 547
                 548
                 549
                 550
                 551
                 552
                 553
                 554
                 555
                 556
                 557
                 558
                 559
                 560
                 561
                 562
                 563
                 564
                 565
                 566
                 567
                 568
                 569
                 570
                 571
                 572
                 573
                 574
                 575
                 576
                 577
                 578
                 579
                 580
                 581
                 582
                 583
                 584
                 585
                 586
                 587
                 588
                 589
                 590
                 591
                 592
                 593
                 594
                 595
                 596
                 597
                 598
                 599
                 600
                 601
                 602
                 603
                 604
                 605
                 606
                 607
                 608
                 609
                 610
                 611
                 612
                 613
                 614
                 615
                 616
                 617
                 618
                 619
                 620
                 621
                 622
                 623
                 624
                 625
                 626
                 627
                 628
                 629
                 630
                 631
                 632
                 633
                 634
                 635
                 636
                 637
                 638
                 639
                 640
                 641
                 642
                 643
                 644
                 645
                 646
                 647
                 648
                 649
                 650
                 651
                 652
                 653
                 654
                 655
                 656
                 657
                 658
                 659
                 660
                 661
                 662
                 663
                 664
                 665
                 666
                 667
                 668
                 669
                 670
                 671
                 672
                 673
                 674
                 675
                 676
                 677
                 678
                 679
                 680
                 681
                 682
                 683
                 684
                 685
                 686
                 687
                 688
                 689
                 690
                 691
                 692
                 693
                 694
                 695
                 696
                 697
                 698
                 699
                 700
                 701
                 702
                 703
                 704
                 705
                 706
                 707
                 708
                 709
                 710
                 711
                 712
                 713
                 714
                 715
                 716
                 717
                 718
                 719
                 720
                 721
                 722
                 723
                 724
                 725
                 726
                 727
                 728
                 729
                 730
                 731
                 732
                 733
                 734
                 735
                 736
                 737
                 738
                 739
                 740
                 741
                 742
                 743
                 744
                 745
                 746
                 747
                 748
                 749
                 750
                 751
                 752
                 753
                 754
                 755
                 756
                 757
                 758
                 759
                 760
                 761
                 762
                 763
                 764
                 765
                 766
                 767
                 768
                 769
                 770
                 771
                 772
                 773
                 774
                 775
                 776
                 777
                 778
                 779
                 780
                 781
                 782
                 783
                 784
                 785
                 786
                 787
                 788
                 789
                 790
                 791
                 792
                 793
                 794
                 795
                 796
                 797
                 798
                 799
                 800
                 801
                 802
                 803
                 804
                 805
                 806
                 807
                 808
                 809
                 810
                 811
                 812
                 813
                 814
                 815
                 816
                 817
                 818
                 819
                 820
                 821
                 822
                 823
                 824
                 825
                 826
                 827
                 828
                 829
                 830
                 831
                 832
                 833
                 834
                 835
                 836
                 837
                 838
                 839
                 840
                 841
                 842
                 843
                 844
                 845
                 846
                 847
                 848
                 849
                 850
                 851
                 852
                 853
                 854
                 855
                 856
                 857
                 858
                 859
                 860
                 861
                 862
                 863
                 864
                 865
                 866
                 867
                 868
                 869
                 870
                 871
                 872
                 873
                 874
                 875
                 876
                 877
                 878
                 879
                 880
                 881
                 882
                 883
                 884
                 885
                 886
                 887
                 888
                 889
                 890
                 891
                 892
                 893
                 894
                 895
                 896
                 897
                 898
                 899
                 900
                 901
                 902
                 903
                 904
                 905
                 906
                 907
                 908
                 909
                 910
                 911
                 912
                 913
                 914
                 915
                 916
                 917
                 918
                 919
                 920
                 921
                 922
                 923
                 924
                 925
                 926
                 927
                 928
                 929
                 930
                 931
                 932
                 933
                 934
                 935
                 936
                 937
                 938
                 939
                 940
                 941
                 942
                 943
                 944
                 945
                 946
                 947
                 948
                 949
                 950
                 951
                 952
                 953
                 954
                 955
                 956
                 957
                 958
                 959
                 960
                 961
                 962
                 963
                 964
                 965
                 966
                 967
                 968
                 969
                 970
                 971
                 972
                 973
                 974
                 975
                 976
                 977
                 978
                 979
                 980
                 981
                 982
                 983
                 984
                 985
                 986
                 987
                 988
                 989
                 990
                 991
                 992
                 993
                 994
                 995
                 996
                 997
                 998
                 999
                1000
                1001
                1002
                1003
                1004
                1005
                1006
                1007
                1008
                1009
                1010
                1011
                1012
                1013
                1014
                1015
                1016
                1017
                1018
                1019
                1020
                1021
                1022
                1023
                1024
                1025
                1026
                1027
                1028
                1029
                1030
                1031
                1032
                1033
                1034
                1035
                1036
                1037
                1038
                1039
                1040
                1041
                1042
                1043
                1044
                1045
                1046
                1047
                1048
                1049
                1050
                1051
                1052
                1053
                1054
                1055
                1056
                1057
                1058
                1059
                1060
                1061
                1062
                1063
                1064
                1065
                1066
                1067
                1068
                1069
                1070
                1071
                1072
                1073
                1074
                1075
                1076
                1077
                1078
                1079
                1080
                1081
                1082
                1083
                1084
                1085
                1086
                1087
                1088
                1089
                1090
                1091
                1092
                1093
                1094
                1095
                1096
                1097
                1098
                1099
                1100
                1101
                1102
                1103
                1104
                1105
                1106
                1107
                1108
                1109
                1110
                1111
                1112
                1113
                1114
                1115
                1116
                1117
                1118
                1119
                1120
                1121
                1122
                1123
                1124
                1125
                1126
                1127
                1128
                1129
                1130
                1131
                1132
                1133
                1134
                1135
                1136
                1137
                1138
                1139
                1140
                1141
                1142
                1143
                1144
                1145
                1146
                1147
                1148
                1149
                1150
                1151
                1152
                1153
                1154
                1155
                1156
                1157
                1158
                1159
                1160
                1161
                1162
                1163
                1164
                1165
                1166
                1167
                1168
                1169
                1170
                1171
                1172
                1173
                1174
                1175
                1176
                1177
                1178
                1179
                1180
                1181
                1182
                1183
                1184
                1185
                1186
                1187
                1188
                1189
                1190
                1191
                1192
                1193
                1194
                1195
                1196
                1197
                1198
                1199
                1200
                1201
                1202
                1203
                1204
                1205
                1206
                1207
                1208
                1209
                1210
                1211
                1212
                1213
                1214
                1215
                1216
                1217
                1218
                1219
                1220
                1221
                1222
                1223
                1224
                1225
                1226
                1227
                1228
                1229
                1230
                1231
                1232
                1233
                1234
                1235
                1236
                1237
                1238
                1239
                1240
                1241
                1242
                1243
                1244
                1245
                1246
                1247
                1248
                1249
                1250
                1251
                1252
                1253
                1254
                1255
                1256
                1257
                1258
                1259
                1260
                1261
                1262
                1263
                1264
                1265
                1266
                1267
                1268
                1269
                1270
                1271
                1272
                1273
                1274
                1275
                1276
                1277
                1278
                1279
                1280
                1281
                1282
                1283
                1284
                1285
                1286
                1287
                1288
                1289
                1290
                1291
                1292
                1293
                1294
                1295
                1296
                1297
                1298
                1299
                1300
                1301
                1302
                1303
                1304
                1305
                1306
                1307
                1308
                1309
                1310
                1311
                1312
                1313
                1314
                1315
                1316
                1317
                1318
                1319
                1320
                1321
                1322
                1323
                1324
                1325
                1326
                1327
                1328
                1329
                1330
                1331
                1332
                1333
                1334
                1335
                1336
                1337
                1338
                1339
                1340
                1341
                1342
                1343
                1344
                1345
                1346
                1347
                1348
                1349
                1350
                1351
                1352
                1353
                1354
                1355
                1356
                1357
                1358
                1359
                1360
                1361
                1362
                1363
                1364
                1365
                1366
                1367
                1368
                1369
                1370
                1371
                1372
                1373
                1374
                1375
                1376
                1377
                1378
                1379
                1380
                1381
                1382
                1383
                1384
                1385
                1386
                1387
                1388
                1389
                1390
                1391
                1392
                1393
                1394
                1395
                1396
                1397
                1398
                1399
                1400
                1401
                1402
                1403
                1404
                1405
                1406
                1407
                1408
                1409
                1410
                1411
                1412
                1413
                1414
                1415
                1416
                1417
                1418
                1419
                1420
                1421
                1422
                1423
                1424
                1425
                1426
                1427
                1428
                1429
                1430
                1431
                1432
                1433
                1434
                1435
                1436
                1437
                1438
                1439
                1440
                1441
                1442
                1443
                1444
                1445
                1446
                1447
                1448
                1449
                1450
                1451
                1452
                1453
                1454
                1455
                1456
                1457
                1458
                1459
                1460
                1461
                1462
                1463
                1464
                1465
                1466
                1467
                1468
                1469
                1470
                1471
                1472
                1473
                1474
                1475
                1476
                1477
                1478
                1479
                1480
                1481
                1482
                1483
                1484
                1485
                1486
                1487
                1488
                1489
                1490
                1491
                1492
                1493
                1494
                1495
                1496
                1497
                1498
                1499
                1500
                1501
                1502
                1503
                1504
                1505
                1506
                1507
                1508
                1509
                1510
                1511
                1512
                1513
                1514
                1515
                1516
                1517
                1518
                1519
                1520
                1521
                1522
                1523
                1524
                1525
                1526
                1527
                1528
                1529
                1530
                1531
                1532
                1533
                1534
                1535
                1536
                1537
                1538
                1539
                1540
                1541
                1542
                1543
                1544
                1545
                1546
                1547
                1548
                1549
                1550
                1551
                1552
                1553
                1554
                1555
                1556
                1557
                1558
                1559
                1560
                1561
                1562
                1563
                1564
                1565
                1566
                1567
                1568
                1569
                1570
                1571
                1572
                1573
                1574
                1575
                1576
                1577
                1578
                1579
                1580
                1581
                1582
                1583
                1584
                1585
                1586
                1587
                1588
                1589
                1590
                1591
                1592
                1593
                1594
                1595
                1596
                1597
                1598
                1599
                1600
                1601
                1602
                1603
                1604
                1605
                1606
                1607
                1608
                1609
                1610
                1611
                1612
                1613
                1614
                1615
                1616
                1617
                1618
                1619
                1620
                1621
                1622
                1623
                1624
                1625
                1626
                1627
                1628
                1629
                1630
                1631
                1632
                1633
                1634
                1635
                1636
                1637
                1638
                1639
                1640
                1641
                1642
                1643
                1644
                1645
                1646
                1647
                1648
                1649
                1650
                1651
                1652
                1653
                1654
                1655
                1656
                1657
                1658
                1659
                1660
                1661
                1662
                1663
                1664
                1665
                1666
                1667
                1668
                1669
                1670
                1671
                1672
                1673
                1674
                1675
                1676
                1677
                1678
                1679
                1680
                1681
                1682
                1683
                1684
                1685
                1686
                1687
                1688
                1689
                1690
                1691
                1692
                1693
                1694
                1695
                1696
                1697
                1698
                1699
                1700
                1701
                1702
                1703
                1704
                1705
                1706
                1707
                1708
                1709
                1710
                1711
                1712
                1713
                1714
                1715
                1716
                1717
                1718
                1719
                1720
                1721
                1722
                1723
                1724
                1725
                1726
                1727
                1728
                1729
                1730
                1731
                1732
                1733
                1734
                1735
                1736
                1737
                1738
                1739
                1740
                1741
                1742
                1743
                1744
                1745
                1746
                1747
                1748
                1749
                1750
                1751
                1752
                1753
                1754
                1755
                1756
                1757
                1758
                1759
                1760
                1761
                1762
                1763
                1764
                1765
                1766
                1767
                1768
                1769
                1770
                1771
                1772
                1773
                1774
                1775
                1776
                1777
                1778
                1779
                1780
                1781
                1782
                1783
                1784
                1785
                1786
                1787
                1788
                1789
                1790
                1791
                1792
                1793
                1794
                1795
                1796
                1797
                1798
                1799
                1800
                1801
                1802
                1803
                1804
                1805
                1806
                1807
                1808
                1809
                1810
                1811
                1812
                1813
                1814
                1815
                1816
                1817
                1818
                1819
                1820
                1821
                1822
                1823
                1824
                1825
                1826
                1827
                1828
                1829
                1830
                1831
                1832
                1833
                1834
                1835
                1836
                1837
                1838
                1839
                1840
                1841
                1842
                1843
                1844
                1845
                1846
                1847
                1848
                1849
                1850
                1851
                1852
                1853
                1854
                1855
                1856
                1857
                1858
                1859
                1860
                1861
                1862
                1863
                1864
                1865
                1866
                1867
                1868
                1869
                1870
                1871
                1872
                1873
                1874
                1875
                1876
                1877
                1878
                1879
                1880
                1881
                1882
                1883
                1884
                1885
                1886
                1887
                1888
                1889
                1890
                1891
                1892
                1893
                1894
                1895
                1896
                1897
                1898
                1899
                1900
                1901
                1902
                1903
                1904
                1905
                1906
                1907
                1908
                1909
                1910
                1911
                1912
                1913
                1914
                1915
                1916
                1917
                1918
                1919
                1920
                1921
                1922
                1923
                1924
                1925
                1926
                1927
                1928
                1929
                1930
                1931
                1932
                1933
                1934
                1935
                1936
                1937
                1938
                1939
                1940
                1941
                1942
                1943
                1944
                1945
                1946
                1947
                1948
                1949
                1950
  
SCALARS                         bodyid  double 1
LOOKUP_TABLE default
                   1
                   1
                   1
                   1
                   1
                   1
                   1
                   1
                   1
                   1
                   1
                   1
                   1
                   1
                   1
                   1
                   1
                   1
                   1
                   1
                   1
                   1
                   1
                   1
                   1
                   1
                   1
                   1
                   1
                   1
                   1
                   1
                   1
                   1
                   1
                   1
                   1
                   1
                   1
                   1
                   1
                   1
                   1
                   1
                   1
                   1
                   1
                   1
                   1
                   1
                   1
                   1
                   1
                   1
                   1
                   1
                   1
                   1
                   1
                   1
                   1
                   1
                   1
                   1
                   1
                   1
                   1
                   1
                   1
                   1
                   1
                   1
                   1
                   1
                   1
                   1
                   1
                   1
                   1
                   1
                   1
                   1
                   1
                   1
                   1
                   1
                   1
                   1
                   1
                   1
                   1
                   1
                   1
                   1
                   1
                   1
                   1
                   1
                   1
                   1
                   1
                   1
                   1
                   1
                   1
                   1
                   1
                   1
                   1
                   1
                   1
                   1
                   1
                   1
                   1
                   1
                   1
                   1
                   1
                   1
                   1
                   1
                   1
                   1
                   1
                   1
                   1
                   1
                   1
                   1
                   1
                   1
                   1
                   1
                   1
                   1
                   1
                   1
                   1
                   1
                   1
                   1
                   1
                   1
                   1
                   1
                   1
                   1
                   1
                   1
                   1
                   1
                   1
                   1
                   1
                   1
                   1
                   1
                   1
                   1
                   1
                   1
                   1
                   1
                   1
                   1
                   1
                   1
                   1
                   1
                   1
                   1
                   1
                   1
                   1
                   1
                   1
                   1
                   1
                   1
                   1
                   1
                   1
                   1
                   1
                   1
                   1
                   1
                   1
                   1
                   1
                   1
                   1
                   1
                   1
                   1
                   1
                   1
                   1
                   1
                   1
                   1
                   1
                   1
                   1
                   1
                   1
                   1
                   1
                   1
                   1
                   1
                   1
                   1
                   1
                   1
                   1
                   1
                   1
                   1
                   1
                   1
                   1
                   1
                   1
                   1
                   1
                   1
                   1
                   1
                   1
                   1
                   1
                   1
                   1
                   1
                   1
                   1
                   1
                   1
                   1
                   1
                   1
                   1
                   1
                   1
                   1
                   1
                   1
                   1
                   1
                   1
                   1
                   1
                   1
                   1
                   1
                   1
                   1
                   1
                   1
                   1
                   1
                   1
                   1
                   1
                   1
                   1
                   1
                   1
                   1
                   1
                   1
                   1
                   1
                   1
                   1
                   1
                   1
                   1
                   1
                   1
                   1
                   1
                   1
                   1
                   1
                   1
                   1
                   1
                   1
                   1
                   1
                   1
                   1
                   1
                   1
                   1
                   1
                   1
                   1
                   1
                   1
                   1
                   1
                   1
                   1
                   1
                   1
                   1
                   1
                   1
                   1
                   1
                   1
                   1
                   1
                   1
                   1
                   1
                   1
                   1
                   1
                   1
                   1
                   1
                   1
                   1
                   1
                   1
                   1
                   1
                   1
                   1
                   1
                   1
                   1
                   1
                   1
                   1
                   1
                   1
                   1
                   1
                   1
                   1
                   1
                   1
                   1
                   1
                   1
                   1
                   1
                   1
                   1
                   1
                   1
                   1
                   1
                   1
                   1
                   1
                   1
                   1
                   1
                   1
                   1
                   1
                   1
                   1
                   1
                   1
                   1
                   1
                   1
                   1
                   1
                   1
                   1
                   1
                   1
                   1
                   1
                   1
                   1
                   1
                   1
                   1
                   1
                   1
                   1
                   1
                   1
                   1
                   1
                   1
                   1
                   1
                   1
                   1
                   1
                   1
                   1
                   1
                   1
                   1
                   1
                   1
                   1
                   1
                   1
                   1
                   1
                   1
                   1
                   1
                   1
                   1
                   1
                   1
                   1
                   1
                   1
                   1
                   1
                   1
                   1
                   1
                   1
                   1
                   1
                   1
                   1
                   1
                   1
                   1
                   1
                   1
                   1
                   1
                   1
                   1
                   1
                   1
                   1
                   1
                   1
                   1
                   1
                   1
                   1
                   1
                   1
                   1
                   1
                   1
                   1
                   1
                   1
                   1
                   1
                   1
                   1
                   1
                   1
                   1
                   1
                   1
                   1
                   1
                   1
                   1
                   1
                   1
                   1
                   1
                   1
                   1
                   1
                   1
                   1
                   1
                   1
                   1
                   1
                   1
                   1
                   1
                   1
                   1
                   1
                   1
                   1
                   1
                   1
                   1
                   1
                   1
                   1
                   1
                   1
                   1
                   1
                   1
                   1
                   1
                   1
                   1
                   1
                   1
                   1
                   1
                   1
                   1
                   1
                   1
                   1
                   1
                   1
                   1
                   1
                   1
                   1
                   1
                   1
                   1
                   1
                   1
                   1
                   1
                   1
                   1
                   1
                   1
                   1
                   1
                   1
                   1
                   1
                   1
                   1
                   1
                   1
                   1
                   1
                   1
                   1
                   1
                   1
                   1
                   1
                   1
                   1
                   1
                   1
                   1
                   1
                   1
                   1
                   1
                   1
                   1
                   1
                   1
                   1
                   1
                   1
                   1
                   1
                   1
                   1
                   1
                   1
                   1
                   1
                   1
                   1
                   1
                   1
                   1
                   1
                   1
                   1
                   1
                   1
                   1
                   1
                   1
                   1
                   1
                   1
                   1
                   1
                   1
                   1
                   1
                   1
                   1
                   1
                   1
                   1
                   1
                   1
                   1
                   1
                   1
                   1
                   1
                   1
                   1
                   1
                   1
                   1
                   1
                   1
                   1
                   1
                   1
                   1
                   1
                   1
                   1
                   1
                   1
                   1
                   1
                   1
                   1
                   1
                   1
                   1
                   1
                   1
                   1
                   1
                   1
                   1
                   1
                   1
                   1
                   1
                   1
                   1
                   1
                   1
                   1
                   1
                   1
                   1
                   1
                   1
                   1
                   1
                   1
                   1
                   1
                   1
                   1
                   1
                   1
                   1
                   1
                   1
                   1
                   1
                   1
                   1
                   1
                   1
                   1
                   1
                   1
                   1
                   1
                   1
                   1
                   1
                   1
                   1
                   1
                   1
                   1
                   1
                   1
                   1
                   1
                   1
                   1
                   1
                   1
                   1
                   1
                   1
                   1
                   1
                   1
                   1
                   1
                   1
                   1
                   1
                   1
                   1
                   1
                   1
                   1
                   1
                   1
                   1
                   1
                   1
                   1
                   1
                   1
                   1
                   1
                   1
                   1
                   1
                   1
                   1
                   1
                   1
                   1
                   1
                   1
                   1
                   1
                   1
                   1
                   1
                   1
                   1
                   1
                   1
                   1
                   1
                   1
                   1
                   1
                   1
                   1
                   1
                   1
                   1
                   1
                   1
                   1
                   1
                   1
                   1
                   1
                   1
                   1
                   1
                   1
                   1
                   1
                   1
                   1
                   1
                   1
                   1
                   1
                   1
                   1
                   1
                   1
                   1
                   1
                   1
                   1
                   1
                   1
                   1
                   1
                   1
                   1
                   1
                   1
                   1
                   1
                   1
                   1
                   1
                   1
                   1
                   1
                   1
                   1
                   1
                   1
                   1
                   1
                   1
                   1
                   1
                   1
                   1
                   1
                   1
                   1
                   1
                   1
                   1
                   1
                   1
                   1
                   1
                   1
                   1
                   1
                   1
                   1
                   1
                   1
                   1
                   1
                   1
                   1
                   1
                   1
                   1
                   1
                   1
                   1
                   1
                   1
                   1
                   1
                   1
                   1
                   1
                   1
                   1
                   1
                   1
                   1
                   1
                   1
                   1
                   1
                   1
                   1
                   1
                   1
                   1
                   1
                   1
                   1
                   1
                   1
                   1
                   1
                   1
                   1
                   1
                   1
                   1
                   1
                   1
                   1
                   1
                   1
                   1
                   1
                   1
                   1
                   1
                   1
                   1
                   1
                   1
                   1
                   1
                   1
                   1
                   1
                   1
                   1
                   1
                   1
                   1
                   1
                   1
                   1
                   1
                   1
                   1
                   1
                   1
                   1
                   1
                   1
                   1
                   1
                   1
                   1
                   1
                   1
                   1
                   1
                   1
                   1
                   1
                   1
                   1
                   1
                   1
                   1
                   1
                   1
                   1
                   1
                   1
                   1
                   1
                   1
                   1
                   1
                   1
                   1
                   1
                   1
                   1
                   1
                   1
                   1
                   1
                   1
                   1
                   1
                   1
                   1
                   1
                   1
                   1
                   1
                   1
                   1
                   1
                   1
                   1
                   1
                   1
                   1
                   1
                   1
                   1
                   1
                   1
                   1
                   1
                   1
                   1
                   1
                   1
                   1
                   1
                   1
                   1
                   1
                   1
                   1
                   1
                   1
                   1
                   1
                   1
                   1
                   1
                   1
                   1
                   1
                   1
                   1
                   1
                   1
                   1
                   1
                   1
                   1
                   1
                   1
                   1
                   1
                   1
                   1
                   1
                   1
                   1
                   1
                   1
                   1
                   1
                   1
                   1
                   1
                   1
                   1
                   1
                   1
                   1
                   1
                   1
                   1
                   1
                   1
                   1
                   1
                   1
                   1
                   1
                   1
                   1
                   1
                   1
                   1
                   1
                   1
                   1
                   1
                   1
                   1
                   1
                   1
                   1
                   1
                   1
                   1
                   1
                   1
                   1
                   1
                   1
                   1
                   1
                   1
                   1
                   1
                   1
                   1
                   1
                   1
                   1
                   1
                   1
                   1
                   1
                   1
                   1
                   1
                   1
                   1
                   1
                   1
                   1
                   1
                   1
                   1
                   1
                   1
                   1
                   1
                   1
                   1
                   1
                   1
                   1
                   1
                   1
                   1
                   1
                   1
                   1
                   1
                   1
                   1
                   1
                   1
                   1
                   1
                   1
                   1
                   1
                   1
                   1
                   1
                   1
                   1
                   1
                   1
                   1
                   1
                   1
                   1
                   1
                   1
                   1
                   1
                   1
                   1
                   1
                   1
                   1
                   1
                   1
                   1
                   1
                   1
                   1
                   1
                   1
                   1
                   1
                   1
                   1
                   1
                   1
                   1
                   1
                   1
                   1
                   1
                   1
                   1
                   1
                   1
                   1
                   1
                   1
                   1
                   1
                   1
                   1
                   1
                   1
                   1
                   1
                   1
                   1
                   1
                   1
                   1
                   1
                   1
                   1
                   1
                   1
                   1
                   1
                   1
                   1
                   1
                   1
                   1
                   1
                   1
                   1
                   1
                   1
                   1
                   1
                   1
                   1
                   1
                   1
                   1
                   1
                   1
                   1
                   1
                   1
                   1
                   1
                   1
                   1
                   1
                   1
                   1
                   1
                   1
                   1
                   1
                   1
                   1
                   1
                   1
                   1
                   1
                   1
                   1
                   1
                   1
                   1
                   1
                   1
                   1
                   1
                   1
                   1
                   1
                   1
                   1
                   1
                   1
                   1
                   1
                   1
                   1
                   1
                   1
                   1
                   1
                   1
                   1
                   1
                   1
                   1
                   1
                   1
                   1
                   1
                   1
                   1
                   1
                   1
                   1
                   1
                   1
                   1
                   1
                   1
                   1
                   1
                   1
                   1
                   1
                   1
                   1
                   1
                   1
                   1
                   1
                   1
                   1
                   1
                   1
                   1
                   1
                   1
                   1
                   1
                   1
                   1
                   1
                   1
                   1
                   1
                   1
                   1
                   1
                   1
                   1
                   1
                   1
                   1
                   1
                   1
                   1
                   1
                   1
                   1
                   1
                   1
                   1
                   1
                   1
                   1
                   1
                   1
                   1
                   1
                   1
                   1
                   1
                   1
                   1
                   1
                   1
                   1
                   1
                   1
                   1
                   1
                   1
                   1
                   1
                   1
                   1
                   1
                   1
                   1
                   1
                   1
                   1
                   1
                   1
                   1
                   1
                   1
                   1
                   1
                   1
                   1
                   1
                   1
                   1
                   1
                   1
                   1
                   1
                   1
                   1
                   1
                   1
                   1
                   1
                   1
                   1
                   1
                   1
                   1
                   1
                   1
                   1
                   1
                   1
                   1
                   1
                   1
                   1
                   1
                   1
                   1
                   1
                   1
                   1
                   1
                   1
                   1
                   1
                   1
                   1
                   1
                   1
                   1
                   1
                   1
                   1
                   1
                   1
                   1
                   1
                   1
                   1
                   1
                   1
                   1
                   1
                   1
                   1
                   1
                   1
                   1
                   1
                   1
                   1
                   1
                   1
                   1
                   1
                   1
                   1
                   1
                   1
                   1
                   1
                   1
                   1
                   1
                   1
                   1
                   1
                   1
                   1
                   1
                   1
                   1
                   1
                   1
                   1
                   1
                   1
                   1
                   1
                   1
                   1
                   1
                   1
                   1
                   1
                   1
                   1
                   1
                   1
                   1
                   1
                   1
                   1
                   1
                   1
                   1
                   1
                   1
                   1
                   1
                   1
                   1
                   1
                   1
                   1
                   1
                   1
                   1
                   1
                   1
                   1
                   1
                   1
                   1
                   1
                   1
                   1
                   1
                   1
                   1
                   1
                   1
                   1
                   1
                   1
                   1
                   1
                   1
                   1
                   1
                   1
                   1
                   1
                   1
                   1
                   1
                   1
                   1
                   1
                   1
                   1
                   1
                   1
                   1
                   1
                   1
                   1
                   1
                   1
                   1
                   1
                   1
                   1
                   1
                   1
                   1
                   1
                   1
                   1
                   1
                   1
                   1
                   1
                   1
                   1
                   1
                   1
                   1
                   1
                   1
                   1
                   1
                   1
                   1
                   1
                   1
                   1
                   1
                   1
                   1
                   1
                   1
                   1
                   1
                   1
                   1
                   1
                   1
                   1
                   1
                   1
                   1
                   1
                   1
                   1
                   1
                   1
                   1
                   1
                   1
                   1
                   1
                   1
                   1
                   1
                   1
                   1
                   1
                   1
                   1
                   1
                   1
                   1
                   1
                   1
                   1
                   1
                   1
                   1
                   1
                   1
                   1
                   1
                   1
                   1
                   1
                   1
                   1
                   1
                   1
                   1
                   1
                   1
                   1
                   1
                   1
                   1
                   1
                   1
                   1
                   1
                   1
                   1
                   1
                   1
                   1
                   1
                   1
                   1
                   1
                   1
                   1
                   1
                   1
                   1
                   1
                   1
                   1
                   1
                   1
                   1
                   1
                   1
                   1
                   1
                   1
                   1
                   1
                   1
                   1
                   1
                   1
                   1
                   1
                   1
                   1
                   1
                   1
                   1
                   1
                   1
                   1
                   1
                   1
                   1
                   1
                   1
                   1
                   1
                   1
                   1
                   1
                   1
                   1
                   1
                   1
                   1
                   1
                   1
                   1
                   1
                   1
                   1
                   1
                   1
                   1
                   1
                   1
                   1
                   1
                   1
                   1
                   1
                   1
                   1
                   1
                   1
                   1
                   1
                   1
                   1
                   1
                   1
                   1
                   1
                   1
                   1
                   1
                   1
                   1
                   1
                   1
                   1
                   1
                   1
                   1
                   1
                   1
                   1
                   1
                   1
                   1
                   1
                   1
                   1
                   1
                   1
                   1
                   1
                   1
                   1
                   1
                   1
                   1
                   1
                   1
                   1
                   1
                   1
                   1
                   1
                   1
                   1
                   1
                   1
                   1
                   1
                   1
                   1
                   1
                   1
                   1
                   1
                   1
                   1
                   1
                   1
                   1
                   1
                   1
                   1
                   1
                   1
                   1
                   1
                   1
                   1
                   1
                   1
                   1
                   1
                   1
                   1
                   1
                   1
                   1
                   1
                   1
                   1
                   1
                   1
                   1
                   1
                   1
                   1
                   1
                   1
                   1
                   1
                   1
                   1
                   1
                   1
                   1
                   1
                   1
                   1
                   1
                   1
                   1
                   1
                   1
                   1
                   1
                   1
                   1
                   1
                   1
                   1
                   1
                   1
                   1
                   1
                   1
                   1
                   1
                   1
                   1
                   1
                   1
                   1
                   1
                   1
                   1
                   1
                   1
                   1
                   1
                   1
                   1
                   1
                   1
                   1
                   1
                   1
                   1
                   1
                   1
                   1
                   1
                   1
                   1
                   1
                   1
                   1
                   1
                   1
                   1
                   1
                   1
                   1
                   1
                   1
                   1
                   1
                   1
                   1
                   1
                   1
                   1
                   1
                   1
                   1
                   1
                   1
                   1
                   1
                   1
                   1
                   1
                   1
                   1
                   1
                   1
                   1
                   1
                   1
                   1
                   1
                   1
                   1
                   1
                   1
                   1
                   1
                   1
                   1
                   1
                   1
                   1
                   1
                   1
                   1
                   1
                   1
                   1
                   1
                   1
                   1
                   1
                   1
                   1
                   1
                   1
                   1
                   1
                   1
                   1
                   1
                   1
                   1
                   1
                   1
                   1
                   1
                   1
                   1
                   1
                   1
                   1
                   1
                   1
                   1
                   1
                   1
                   1
                   1
                   1
                   1
                   1
                   1
                   1
                   1
                   1
                   1
                   1
                   1
                   1
                   1
                   1
                   1
                   1
                   1
                   1
                   1
                   1
                   1
                   1
                   1
                   1
                   1
                   1
                   1
                   1
                   1
                   1
                   1
                   1
                   1
                   1
                   1
                   1
                   1
                   1
                   1
                   1
                   1
                   1
                   1
                   1
                   1
                   1
                   1
                   1
                   1
                   1
                   1
                   1
                   1
                   1
                   1
                   1
                   1
                   1
                   1
                   1
                   1
                   1
                   1
                   1
                   1
                   1
                   1
                   1
                   1
                   1
                   1
                   1
                   1
                   1
                   1
                   1
                   1
  
SCALARS                  material_type  double 1
LOOKUP_TABLE default
                   2
                   2
                   2
                   2
                   2
                   2
                   2
                   2
                   2
                   2
                   2
                   2
                   2
                   2
                   2
                   2
                   2
                   2
                   2
                   2
                   2
                   2
                   2
                   2
                   2
                   2
                   2
                   2
                   2
                   2
                   2
                   2
                   2
                   2
                   2
                   2
                   2
                   2
                   2
                   2
                   2
                   2
                   2
                   2
                   2
                   2
                   2
                   2
                   2
                   2
                   2
                   2
                   2
                   2
                   2
                   2
                   2
                   2
                   2
                   2
                   2
                   2
                   2
                   2
                   2
                   2
                   2
                   2
                   2
                   2
                   2
                   2
                   2
                   2
                   2
                   2
                   2
                   2
                   2
                   2
                   2
                   2
                   2
                   2
                   2
                   2
                   2
                   2
                   2
                   2
                   2
                   2
                   2
                   2
                   2
                   2
                   2
                   2
                   2
                   2
                   2
                   2
                   2
                   2
                   2
                   2
                   2
                   2
                   2
                   2
                   2
                   2
                   2
                   2
                   2
                   2
                   2
                   2
                   2
                   2
                   2
                   2
                   2
                   2
                   2
                   2
                   2
                   2
                   2
                   2
                   2
                   2
                   2
                   2
                   2
                   2
                   2
                   2
                   2
                   2
                   2
                   2
                   2
                   2
                   2
                   2
                   2
                   2
                   2
                   2
                   2
                   2
                   2
                   2
                   2
                   2
                   2
                   2
                   2
                   2
                   2
                   2
                   2
                   2
                   2
                   2
                   2
                   2
                   2
                   2
                   2
                   2
                   2
                   2
                   2
                   2
                   2
                   2
                   2
                   2
                   2
                   2
                   2
                   2
                   2
                   2
                   2
                   2
                   2
                   2
                   2
                   2
                   2
                   2
                   2
                   2
                   2
                   2
                   2
                   2
                   2
                   2
                   2
                   2
                   2
                   2
                   2
                   2
                   2
                   2
                   2
                   2
                   2
                   2
                   2
                   2
                   2
                   2
                   2
                   2
                   2
                   2
                   2
                   2
                   2
                   2
                   2
                   2
                   2
                   2
                   2
                   2
                   2
                   2
                   2
                   2
                   2
                   2
                   2
                   2
                   2
                   2
                   2
                   2
                   2
                   2
                   2
                   2
                   2
                   2
                   2
                   2
                   2
                   2
                   2
                   2
                   2
                   2
                   2
                   2
                   2
                   2
                   2
                   2
                   2
                   2
                   2
                   2
                   2
                   2
                   2
                   2
                   2
                   2
                   2
                   2
                   2
                   2
                   2
                   2
                   2
                   2
                   2
                   2
                   2
                   2
                   2
                   2
                   2
                   2
                   2
                   2
                   2
                   2
                   2
                   2
                   2
                   2
                   2
                   2
                   2
                   2
                   2
                   2
                   2
                   2
                   2
                   2
                   2
                   2
                   2
                   2
                   2
                   2
                   2
                   2
                   2
                   2
                   2
                   2
                   2
                   2
                   2
                   2
                   2
                   2
                   2
                   2
                   2
                   2
                   2
                   2
                   2
                   2
                   2
                   2
                   2
                   2
                   2
                   2
                   2
                   2
                   2
                   2
                   2
                   2
                   2
                   2
                   2
                   2
                   2
                   2
                   2
                   2
                   2
                   2
                   2
                   2
                   2
                   2
                   2
                   2
                   2
                   2
                   2
                   2
                   2
                   2
                   2
                   2
                   2
                   2
                   2
                   2
                   2
                   2
                   2
                   2
                   2
                   2
                   2
                   2
                   2
                   2
                   2
                   2
                   2
                   2
                   2
                   2
                   2
                   2
                   2
                   2
                   2
                   2
                   2
                   2
                   2
                   2
                   2
                   2
                   2
                   2
                   2
                   2
                   2
                   2
                   2
                   2
                   2
                   2
                   2
                   2
                   2
                   2
                   2
                   2
                   2
                   2
                   2
                   2
                   2
                   2
                   2
                   2
                   2
                   2
                   2
                   2
                   2
                   2
                   2
                   2
                   2
                   2
                   2
                   2
                   2
                   2
                   2
                   2
                   2
                   2
                   2
                   2
                   2
                   2
                   2
                   2
                   2
                   2
                   2
                   2
                   2
                   2
                   2
                   2
                   2
                   2
                   2
                   2
                   2
                   2
                   2
                   2
                   2
                   2
                   2
                   2
                   2
                   2
                   2
                   2
                   2
                   2
                   2
                   2
                   2
                   2
                   2
                   2
                   2
                   2
                   2
                   2
                   2
                   2
                   2
                   2
                   2
                   2
                   2
                   2
                   2
                   2
                   2
                   2
                   2
                   2
                   2
                   2
                   2
                   2
                   2
                   2
                   2
                   2
                   2
                   2
                   2
                   2
                   2
                   2
                   2
                   2
                   2
                   2
                   2
                   2
                   2
                   2
                   2
                   2
                   2
                   2
                   2
                   2
                   2
                   2
                   2
                   2
                   2
                   2
                   2
                   2
                   2
                   2
                   2
                   2
                   2
                   2
                   2
                   2
                   2
                   2
                   2
                   2
                   2
                   2
                   2
                   2
                   2
                   2
                   2
                   2
                   2
                   2
                   2
                   2
                   2
                   2
                   2
                   2
                   2
                   2
                   2
                   2
                   2
                   2
                   2
                   2
                   2
                   2
                   2
                   2
                   2
                   2
                   2
                   2
                   2
                   2
                   2
                   2
                   2
                   2
                   2
                   2
                   2
                   2
                   2
                   2
                   2
                   2
                   2
                   2
                   2
                   2
                   2
                   2
                   2
                   2
                   2
                   2
                   2
                   2
                   2
                   2
                   2
                   2
                   2
                   2
                   2
                   2
                   2
                   2
                   2
                   2
                   2
                   2
                   2
                   2
                   2
                   2
                   2
                   2
                   2
                   2
                   2
                   2
                   2
                   2
                   2
                   2
                   2
                   2
                   2
                   2
                   2
                   2
                   2
                   2
                   2
                   2
                   2
                   2
                   2
                   2
                   2
                   2
                   2
                   2
                   2
                   2
                   2
                   2
                   2
                   2
                   2
                   2
                   2
                   2
                   2
                   2
                   2
                   2
                   2
                   2
                   2
                   2
                   2
                   2
                   2
                   2
                   2
                   2
                   2
                   2
                   2
                   2
                   2
                   2
                   2
                   2
                   2
                   2
                   2
                   2
                   2
                   2
                   2
                   2
                   2
                   2
                   2
                   2
                   2
                   2
                   2
                   2
                   2
                   2
                   2
                   2
                   2
                   2
                   2
                   2
                   2
                   2
                   2
                   2
                   2
                   2
                   2
                   2
                   2
                   2
                   2
                   2
                   2
                   2
                   2
                   2
                   2
                   2
                   2
                   2
                   2
                   2
                   2
                   2
                   2
                   2
                   2
                   2
                   2
                   2
                   2
                   2
                   2
                   2
                   2
                   2
                   2
                   2
                   2
                   2
                   2
                   2
                   2
                   2
                   2
                   2
                   2
                   2
                   2
                   2
                   2
                   2
                   2
                   2
                   2
                   2
                   2
                   2
                   2
                   2
                   2
                   2
                   2
                   2
                   2
                   2
                   2
                   2
                   2
                   2
                   2
                   2
                   2
                   2
                   2
                   2
                   2
                   2
                   2
                   2
                   2
                   2
                   2
                   2
                   2
                   2
                   2
                   2
                   2
                   2
                   2
                   2
                   2
                   2
                   2
                   2
                   2
                   2
                   2
                   2
                   2
                   2
                   2
                   2
                   2
                   2
                   2
                   2
                   2
                   2
                   2
                   2
                   2
                   2
                   2
                   2
                   2
                   2
                   2
                   2
                   2
                   2
                   2
                   2
                   2
                   2
                   2
                   2
                   2
                   2
                   2
                   2
                   2
                   2
                   2
                   2
                   2
                   2
                   2
                   2
                   2
                   2
                   2
                   2
                   2
                   2
                   2
                   2
                   2
                   2
                   2
                   2
                   2
                   2
                   2
                   2
                   2
                   2
                   2
                   2
                   2
                   2
                   2
                   2
                   2
                   2
                   2
                   2
                   2
                   2
                   2
                   2
                   2
                   2
                   2
                   2
                   2
                   2
                   2
                   2
                   2
                   2
                   2
                   2
                   2
                   2
                   2
                   2
                   2
                   2
                   2
                   2
                   2
                   2
                   2
                   2
                   2
                   2
                   2
                   2
                   2
                   2
                   2
                   2
                   2
                   2
                   2
                   2
                   2
                   2
                   2
                   2
                   2
                   2
                   2
                   2
                   2
                   2
                   2
                   2
                   2
                   2
                   2
                   2
                   2
                   2
                   2
                   2
                   2
                   2
                   2
                   2
                   2
                   2
                   2
                   2
                   2
                   2
                   2
                   2
                   2
                   2
                   2
                   2
                   2
                   2
                   2
                   2
                   2
                   2
                   2
                   2
                   2
                   2
                   2
                   2
                   2
                   2
                   2
                   2
                   2
                   2
                   2
                   2
                   2
                   2
                   2
                   2
                   2
                   2
                   2
                   2
                   2
                   2
                   2
                   2
                   2
                   2
                   2
                   2
                   2
                   2
                   2
                   2
                   2
                   2
                   2
                   2
                   2
                   2
                   2
                   2
                   2
                   2
                   2
                   2
                   2
                   2
                   2
                   2
                   2
                   2
                   2
                   2
                   2
                   2
                   2
                   2
                   2
                   2
                   2
                   2
                   2
                   2
                   2
                   2
                   2
                   2
                   2
                   2
                   2
                   2
                   2
                   2
                   2
                   2
                   2
                   2
                   2
                   2
                   2
                   2
                   2
                   2
                   2
                   2
                   2
                   2
                   2
                   2
                   2
                   2
                   2
                   2
                   2
                   2
                   2
                   2
                   2
                   2
                   2
                   2
                   2
                   2
                   2
                   2
                   2
                   2
                   2
                   2
                   2
                   2
                   2
                   2
                   2
                   2
                   2
                   2
                   2
                   2
                   2
                   2
                   2
                   2
                   2
                   2
                   2
                   2
                   2
                   2
                   2
                   2
                   2
                   2
                   2
                   2
                   2
                   2
                   2
                   2
                   2
                   2
                   2
                   2
                   2
                   2
                   2
                   2
                   2
                   2
                   2
                   2
                   2
                   2
                   2
                   2
                   2
                   2
                   2
                   2
                   2
                   2
                   2
                   2
                   2
                   2
                   2
                   2
                   2
                   2
                   2
                   2
                   2
                   2
                   2
                   2
                   2
                   2
                   2
                   2
                   2
                   2
                   2
                   2
                   2
                   2
                   2
                   2
                   2
                   2
                   2
                   2
                   2
                   2
                   2
                   2
                   2
                   2
                   2
                   2
                   2
                   2
                   2
                   2
                   2
                   2
                   2
                   2
                   2
                   2
                   2
                   2
                   2
                   2
                   2
                   2
                   2
                   2
                   2
                   2
                   2
                   2
                   2
                   2
                   2
                   2
                   2
                   2
                   2
                   2
                   2
                   2
                   2
                   2
                   2
                   2
                   2
                   2
                   2
                   2
                   2
                   2
                   2
                   2
                   2
                   2
                   2
                   2
                   2
                   2
                   2
                   2
                   2
                   2
                   2
                   2
                   2
                   2
                   2
                   2
                   2
                   2
                   2
                   2
                   2
                   2
                   2
                   2
                   2
                   2
                   2
                   2
                   2
                   2
                   2
                   2
                   2
                   2
                   2
                   2
                   2
                   2
                   2
                   2
                   2
                   2
                   2
                   2
                   2
                   2
                   2
                   2
                   2
                   2
                   2
                   2
                   2
                   2
                   2
                   2
                   2
                   2
                   2
                   2
                   2
                   2
                   2
                   2
                   2
                   2
                   2
                   2
                   2
                   2
                   2
                   2
                   2
                   2
                   2
                   2
                   2
                   2
                   2
                   2
                   2
                   2
                   2
                   2
                   2
                   2
                   2
                   2
                   2
                   2
                   2
                   2
                   2
                   2
                   2
                   2
                   2
                   2
                   2
                   2
                   2
                   2
                   2
                   2
                   2
                   2
                   2
                   2
                   2
                   2
                   2
                   2
                   2
                   2
                   2
                   2
                   2
                   2
                   2
                   2
                   2
                   2
                   2
                   2
                   2
                   2
                   2
                   2
                   2
                   2
                   2
                   2
                   2
                   2
                   2
                   2
                   2
                   2
                   2
                   2
                   2
                   2
                   2
                   2
                   2
                   2
                   2
                   2
                   2
                   2
                   2
                   2
                   2
                   2
                   2
                   2
                   2
                   2
                   2
                   2
                   2
                   2
                   2
                   2
                   2
                   2
                   2
                   2
                   2
                   2
                   2
                   2
                   2
                   2
                   2
                   2
                   2
                   2
                   2
                   2
                   2
                   2
                   2
                   2
                   2
                   2
                   2
                   2
                   2
                   2
                   2
                   2
                   2
                   2
                   2
                   2
                   2
                   2
                   2
                   2
                   2
                   2
                   2
                   2
                   2
                   2
                   2
                   2
                   2
                   2
                   2
                   2
                   2
                   2
                   2
                   2
                   2
                   2
                   2
                   2
                   2
                   2
                   2
                   2
                   2
                   2
                   2
                   2
                   2
                   2
                   2
                   2
                   2
                   2
                   2
                   2
                   2
                   2
                   2
                   2
                   2
                   2
                   2
                   2
                   2
                   2
                   2
                   2
                   2
                   2
                   2
                   2
                   2
                   2
                   2
                   2
                   2
                   2
                   2
                   2
                   2
                   2
                   2
                   2
                   2
                   2
                   2
                   2
                   2
                   2
                   2
                   2
                   2
                   2
                   2
                   2
                   2
                   2
                   2
                   2
                   2
                   2
                   2
                   2
                   2
                   2
                   2
                   2
                   2
                   2
                   2
                   2
                   2
                   2
                   2
                   2
                   2
                   2
                   2
                   2
                   2
                   2
                   2
                   2
                   2
                   2
                   2
                   2
                   2
                   2
                   2
                   2
                   2
                   2
                   2
                   2
                   2
                   2
                   2
                   2
                   2
                   2
                   2
                   2
                   2
                   2
                   2
                   2
                   2
                   2
                   2
                   2
                   2
                   2
                   2
                   2
                   2
                   2
                   2
                   2
                   2
                   2
                   2
                   2
                   2
                   2
                   2
                   2
                   2
                   2
                   2
                   2
                   2
                   2
                   2
                   2
                   2
                   2
                   2
                   2
                   2
                   2
                   2
                   2
                   2
                   2
                   2
                   2
                   2
                   2
                   2
                   2
                   2
                   2
                   2
                   2
                   2
                   2
                   2
                   2
                   2
                   2
                   2
                   2
                   2
                   2
                   2
                   2
                   2
                   2
                   2
                   2
                   2
                   2
                   2
                   2
                   2
                   2
                   2
                   2
                   2
                   2
                   2
                   2
                   2
                   2
                   2
                   2
                   2
                   2
                   2
                   2
                   2
                   2
                   2
                   2
                   2
                   2
                   2
                   2
                   2
                   2
                   2
                   2
                   2
                   2
                   2
                   2
                   2
                   2
                   2
                   2
                   2
                   2
                   2
                   2
                   2
                   2
                   2
                   2
                   2
                   2
                   2
                   2
                   2
                   2
                   2
                   2
                   2
                   2
                   2
                   2
                   2
                   2
                   2
                   2
                   2
                   2
                   2
                   2
                   2
                   2
                   2
                   2
                   2
                   2
                   2
                   2
                   2
                   2
                   2
                   2
                   2
                   2
                   2
                   2
                   2
                   2
                   2
                   2
                   2
                   2
                   2
                   2
                   2
                   2
                   2
                   2
                   2
                   2
                   2
                   2
                   2
                   2
                   2
                   2
                   2
                   2
                   2
                   2
                   2
                   2
                   2
                   2
                   2
                   2
                   2
                   2
                   2
                   2
                   2
                   2
                   2
                   2
                   2
                   2
                   2
                   2
                   2
                   2
                   2
                   2
                   2
                   2
                   2
                   2
                   2
                   2
                   2
                   2
                   2
                   2
                   2
                   2
                   2
                   2
                   2
                   2
                   2
                   2
                   2
                   2
                   2
                   2
                   2
                   2
                   2
                   2
                   2
                   2
                   2
                   2
                   2
                   2
                   2
                   2
                   2
                   2
                   2
                   2
                   2
                   2
                   2
                   2
                   2
                   2
                   2
                   2
                   2
                   2
                   2
                   2
                   2
                   2
                   2
                   2
                   2
                   2
                   2
                   2
                   2
                   2
                   2
                   2
                   2
                   2
                   2
                   2
                   2
                   2
                   2
                   2
                   2
                   2
                   2
                   2
                   2
                   2
                   2
                   2
                   2
                   2
                   2
                   2
                   2
                   2
                   2
                   2
                   2
                   2
                   2
                   2
                   2
                   2
                   2
                   2
                   2
                   2
                   2
                   2
                   2
                   2
                   2
                   2
                   2
                   2
                   2
                   2
                   2
                   2
                   2
                   2
                   2
                   2
                   2
                   2
                   2
                   2
                   2
                   2
                   2
                   2
                   2
                   2
                   2
                   2
                   2
                   2
                   2
                   2
                   2
                   2
                   2
                   2
                   2
                   2
                   2
                   2
                   2
                   2
                   2
                   2
                   2
                   2
                   2
                   2
                   2
                   2
                   2
                   2
                   2
                   2
                   2
                   2
                   2
                   2
                   2
                   2
                   2
                   2
                   2
                   2
                   2
                   2
                   2
                   2
                   2
                   2
                   2
                   2
                   2
                   2
                   2
                   2
                   2
                   2
                   2
                   2
                   2
                   2
                   2
                   2
                   2
                   2
                   2
                   2
                   2
                   2
                   2
                   2
                   2
                   2
                   2
                   2
                   2
                   2
                   2
                   2
                   2
                   2
                   2
                   2
                   2
                   2
                   2
                   2
                   2
                   2
                   2
                   2
                   2
                   2
                   2
                   2
                   2
                   2
                   2
                   2
                   2
                   2
                   2
                   2
                   2
                   2
                   2
                   2
                   2
                   2
  
SCALARS                       fixity_x  double 1
LOOKUP_TABLE default
                   0
                   0
                   0
                   0
                   0
                   0
                   0
                   0
                   0
                   0
                   0
                   0
                   0
                   0
                   0
                   0
                   0
                   0
                   0
                   0
                   0
                   0
                   0
                   0
                   0
                   0
                   0
                   0
                   0
                   0
                   0
                   0
                   0
                   0
                   0
                   0
                   0
                   0
                   0
                   0
                   0
                   0
                   0
                   0
                   0
                   0
                   0
                   0
                   0
                   0
                   0
                   0
                   0
                   0
                   0
                   0
                   0
                   0
                   0
                   0
                   0
                   0
                   0
                   0
                   0
                   0
                   0
                   0
                   0
                   0
                   0
                   0
                   0
                   0
                   0
                   0
                   0
                   0
                   0
                   0
                   0
                   0
                   0
                   0
                   0
                   0
                   0
                   0
                   0
                   0
                   0
                   0
                   0
                   0
                   0
                   0
                   0
                   0
                   0
                   0
                   0
                   0
                   0
                   0
                   0
                   0
                   0
                   0
                   0
                   0
                   0
                   0
                   0
                   0
                   0
                   0
                   0
                   0
                   0
                   0
                   0
                   0
                   0
                   0
                   0
                   0
                   0
                   0
                   0
                   0
                   0
                   0
                   0
                   0
                   0
                   0
                   0
                   0
                   0
                   0
                   0
                   0
                   0
                   0
                   0
                   0
                   0
                   0
                   0
                   0
                   0
                   0
                   0
                   0
                   0
                   0
                   0
                   0
                   0
                   0
                   0
                   0
                   0
                   0
                   0
                   0
                   0
                   0
                   0
                   0
                   0
                   0
                   0
                   0
                   0
                   0
                   0
                   0
                   0
                   0
                   0
                   0
                   0
                   0
                   0
                   0
                   0
                   0
                   0
                   0
                   0
                   0
                   0
                   0
                   0
                   0
                   0
                   0
                   0
                   0
                   0
                   0
                   0
                   0
                   0
                   0
                   0
                   0
                   0
                   0
                   0
                   0
                   0
                   0
                   0
                   0
                   0
                   0
                   0
                   0
                   0
                   0
                   0
                   0
                   0
                   0
                   0
                   0
                   0
                   0
                   0
                   0
                   0
                   0
                   0
                   0
                   0
                   0
                   0
                   0
                   0
                   0
                   0
                   0
                   0
                   0
                   0
                   0
                   0
                   0
                   0
                   0
                   0
                   0
                   0
                   0
                   0
                   0
                   0
                   0
                   0
                   0
                   0
                   0
                   0
                   0
                   0
                   0
                   0
                   0
                   0
                   0
                   0
                   0
                   0
                   0
                   0
                   0
                   0
                   0
                   0
                   0
                   0
                   0
                   0
                   0
                   0
                   0
                   0
                   0
                   0
                   0
                   0
                   0
                   0
                   0
                   0
                   0
                   0
                   0
                   0
                   0
                   0
                   0
                   0
                   0
                   0
                   0
                   0
                   0
                   0
                   0
                   0
                   0
                   0
                   0
                   0
                   0
                   0
                   0
                   0
                   0
                   0
                   0
                   0
                   0
                   0
                   0
                   0
                   0
                   0
                   0
                   0
                   0
                   0
                   0
                   0
                   0
                   0
                   0
                   0
                   0
                   0
                   0
                   0
                   0
                   0
                   0
                   0
                   0
                   0
                   0
                   0
                   0
                   0
                   0
                   0
                   0
                   0
                   0
                   0
                   0
                   0
                   0
                   0
                   0
                   0
                   0
                   0
                   0
                   0
                   0
                   0
                   0
                   0
                   0
                   0
                   0
                   0
                   0
                   0
                   0
                   0
                   0
                   0
                   0
                   0
                   0
                   0
                   0
                   0
                   0
                   0
                   0
                   0
                   0
                   0
                   0
                   0
                   0
                   0
                   0
                   0
                   0
                   0
                   0
                   0
                   0
                   0
                   0
                   0
                   0
                   0
                   0
                   0
                   0
                   0
                   0
                   0
                   0
                   0
                   0
                   0
                   0
                   0
                   0
                   0
                   0
                   0
                   0
                   0
                   0
                   0
                   0
                   0
                   0
                   0
                   0
                   0
                   0
                   0
                   0
                   0
                   0
                   0
                   0
                   0
                   0
                   0
                   0
                   0
                   0
                   0
                   0
                   0
                   0
                   0
                   0
                   0
                   0
                   0
                   0
                   0
                   0
                   0
                   0
                   0
                   0
                   0
                   0
                   0
                   0
                   0
                   0
                   0
                   0
                   0
                   0
                   0
                   0
                   0
                   0
                   0
                   0
                   0
                   0
                   0
                   0
                   0
                   0
                   0
                   0
                   0
                   0
                   0
                   0
                   0
                   0
                   0
                   0
                   0
                   0
                   0
                   0
                   0
                   0
                   0
                   0
                   0
                   0
                   0
                   0
                   0
                   0
                   0
                   0
                   0
                   0
                   0
                   0
                   0
                   0
                   0
                   0
                   0
                   0
                   0
                   0
                   0
                   0
                   0
                   0
                   0
                   0
                   0
                   0
                   0
                   0
                   0
                   0
                   0
                   0
                   0
                   0
                   0
                   0
                   0
                   0
                   0
                   0
                   0
                   0
                   0
                   0
                   0
                   0
                   0
                   0
                   0
                   0
                   0
                   0
                   0
                   0
                   0
                   0
                   0
                   0
                   0
                   0
                   0
                   0
                   0
                   0
                   0
                   0
                   0
                   0
                   0
                   0
                   0
                   0
                   0
                   0
                   0
                   0
                   0
                   0
                   0
                   0
                   0
                   0
                   0
                   0
                   0
                   0
                   0
                   0
                   0
                   0
                   0
                   0
                   0
                   0
                   0
                   0
                   0
                   0
                   0
                   0
                   0
                   0
                   0
                   0
                   0
                   0
                   0
                   0
                   0
                   0
                   0
                   0
                   0
                   0
                   0
                   0
                   0
                   0
                   0
                   0
                   0
                   0
                   0
                   0
                   0
                   0
                   0
                   0
                   0
                   0
                   0
                   0
                   0
                   0
                   0
                   0
                   0
                   0
                   0
                   0
                   0
                   0
                   0
                   0
                   0
                   0
                   0
                   0
                   0
                   0
                   0
                   0
                   0
                   0
                   0
                   0
                   0
                   0
                   0
                   0
                   0
                   0
                   0
                   0
                   0
                   0
                   0
                   0
                   0
                   0
                   0
                   0
                   0
                   0
                   0
                   0
                   0
                   0
                   0
                   0
                   0
                   0
                   0
                   0
                   0
                   0
                   0
                   0
                   0
                   0
                   0
                   0
                   0
                   0
                   0
                   0
                   0
                   0
                   0
                   0
                   0
                   0
                   0
                   0
                   0
                   0
                   0
                   0
                   0
                   0
                   0
                   0
                   0
                   0
                   0
                   0
                   0
                   0
                   0
                   0
                   0
                   0
                   0
                   0
                   0
                   0
                   0
                   0
                   0
                   0
                   0
                   0
                   0
                   0
                   0
                   0
                   0
                   0
                   0
                   0
                   0
                   0
                   0
                   0
                   0
                   0
                   0
                   0
                   0
                   0
                   0
                   0
                   0
                   0
                   0
                   0
                   0
                   0
                   0
                   0
                   0
                   0
                   0
                   0
                   0
                   0
                   0
                   0
                   0
                   0
                   0
                   0
                   0
                   0
                   0
                   0
                   0
                   0
                   0
                   0
                   0
                   0
                   0
                   0
                   0
                   0
                   0
                   0
                   0
                   0
                   0
                   0
                   0
                   0
                   0
                   0
                   0
                   0
                   0
                   0
                   0
                   0
                   0
                   0
                   0
                   0
                   0
                   0
                   0
                   0
                   0
                   0
                   0
                   0
                   0
                   0
                   0
                   0
                   0
                   0
                   0
                   0
                   0
                   0
                   0
                   0
                   0
                   0
                   0
                   0
                   0
                   0
                   0
                   0
                   0
                   0
                   0
                   0
                   0
                   0
                   0
                   0
                   0
                   0
                   0
                   0
                   0
                   0
                   0
                   0
                   0
                   0
                   0
                   0
                   0
                   0
                   0
                   0
                   0
                   0
                   0
                   0
                   0
                   0
                   0
                   0
                   0
                   0
                   0
                   0
                   0
                   0
                   0
                   0
                   0
                   0
                   0
                   0
                   0
                   0
                   0
                   0
                   0
                   0
                   0
                   0
                   0
                   0
                   0
                   0
                   0
                   0
                   0
                   0
                   0
                   0
                   0
                   0
                   0
                   0
                   0
                   0
                   0
                   0
                   0
                   0
                   0
                   0
                   0
                   0
                   0
                   0
                   0
                   0
                   0
                   0
                   0
                   0
                   0
                   0
                   0
                   0
                   0
                   0
                   0
                   0
                   0
                   0
                   0
                   0
                   0
                   0
                   0
                   0
                   0
                   0
                   0
                   0
                   0
                   0
                   0
                   0
                   0
                   0
                   0
                   0
                   0
                   0
                   0
                   0
                   0
                   0
                   0
                   0
                   0
                   0
                   0
                   0
                   0
                   0
                   0
                   0
                   0
                   0
                   0
                   0
                   0
                   0
                   0
                   0
                   0
                   0
                   0
                   0
                   0
                   0
                   0
                   0
                   0
                   0
                   0
                   0
                   0
                   0
                   0
                   0
                   0
                   0
                   0
                   0
                   0
                   0
                   0
                   0
                   0
                   0
                   0
                   0
                   0
                   0
                   0
                   0
                   0
                   0
                   0
                   0
                   0
                   0
                   0
                   0
                   0
                   0
                   0
                   0
                   0
                   0
                   0
                   0
                   0
                   0
                   0
                   0
                   0
                   0
                   0
                   0
                   0
                   0
                   0
                   0
                   0
                   0
                   0
                   0
                   0
                   0
                   0
                   0
                   0
                   0
                   0
                   0
                   0
                   0
                   0
                   0
                   0
                   0
                   0
                   0
                   0
                   0
                   0
                   0
                   0
                   0
                   0
                   0
                   0
                   0
                   0
                   0
                   0
                   0
                   0
                   0
                   0
                   0
                   0
                   0
                   0
                   0
                   0
                   0
                   0
                   0
                   0
                   0
                   0
                   0
                   0
                   0
                   0
                   0
                   0
                   0
                   0
                   0
                   0
                   0
                   0
                   0
                   0
                   0
                   0
                   0
                   0
                   0
                   0
                   0
                   0
                   0
                   0
                   0
                   0
                   0
                   0
                   0
                   0
                   0
                   0
                   0
                   0
                   0
                   0
                   0
                   0
                   0
                   0
                   0
                   0
                   0
                   0
                   0
                   0
                   0
                   0
                   0
                   0
                   0
                   0
                   0
                   0
                   0
                   0
                   0
                   0
                   0
                   0
                   0
                   0
                   0
                   0
                   0
                   0
                   0
                   0
                   0
                   0
                   0
                   0
                   0
                   0
                   0
                   0
                   0
                   0
                   0
                   0
                   0
                   0
                   0
                   0
                   0
                   0
                   0
                   0
                   0
                   0
                   0
                   0
                   0
                   0
                   0
                   0
                   0
                   0
                   0
                   0
                   0
                   0
                   0
                   0
                   0
                   0
                   0
                   0
                   0
                   0
                   0
                   0
                   0
                   0
                   0
                   0
                   0
                   0
                   0
                   0
                   0
                   0
                   0
                   0
                   0
                   0
                   0
                   0
                   0
                   0
                   0
                   0
                   0
                   0
                   0
                   0
                   0
                   0
                   0
                   0
                   0
                   0
                   0
                   0
                   0
                   0
                   0
                   0
                   0
                   0
                   0
                   0
                   0
                   0
                   0
                   0
                   0
                   0
                   0
                   0
                   0
                   0
                   0
                   0
                   0
                   0
                   0
                   0
                   0
                   0
                   0
                   0
                   0
                   0
                   0
                   0
                   0
                   0
                   0
                   0
                   0
                   0
                   0
                   0
                   0
                   0
                   0
                   0
                   0
                   0
                   0
                   0
                   0
                   0
                   0
                   0
                   0
                   0
                   0
                   0
                   0
                   0
                   0
                   0
                   0
                   0
                   0
                   0
                   0
                   0
                   0
                   0
                   0
                   0
                   0
                   0
                   0
                   0
                   0
                   0
                   0
                   0
                   0
                   0
                   0
                   0
                   0
                   0
                   0
                   0
                   0
                   0
                   0
                   0
                   0
                   0
                   0
                   0
                   0
                   0
                   0
                   0
                   0
                   0
                   0
                   0
                   0
                   0
                   0
                   0
                   0
                   0
                   0
                   0
                   0
                   0
                   0
                   0
                   0
                   0
                   0
                   0
                   0
                   0
                   0
                   0
                   0
                   0
                   0
                   0
                   0
                   0
                   0
                   0
                   0
                   0
                   0
                   0
                   0
                   0
                   0
                   0
                   0
                   0
                   0
                   0
                   0
                   0
                   0
                   0
                   0
                   0
                   0
                   0
                   0
                   0
                   0
                   0
                   0
                   0
                   0
                   0
                   0
                   0
                   0
                   0
                   0
                   0
                   0
                   0
                   0
                   0
                   0
                   0
                   0
                   0
                   0
                   0
                   0
                   0
                   0
                   0
                   0
                   0
                   0
                   0
                   0
                   0
                   0
                   0
                   0
                   0
                   0
                   0
                   0
                   0
                   0
                   0
                   0
                   0
                   0
                   0
                   0
                   0
                   0
                   0
                   0
                   0
                   0
                   0
                   0
                   0
                   0
                   0
                   0
                   0
                   0
                   0
                   0
                   0
                   0
                   0
                   0
                   0
                   0
                   0
                   0
                   0
                   0
                   0
                   0
                   0
                   0
                   0
                   0
                   0
                   0
                   0
                   0
                   0
                   0
                   0
                   0
                   0
                   0
                   0
                   0
                   0
                   0
                   0
                   0
                   0
                   0
                   0
                   0
                   0
                   0
                   0
                   0
                   0
                   0
                   0
                   0
                   0
                   0
                   0
                   0
                   0
                   0
                   0
                   0
                   0
                   0
                   0
                   0
                   0
                   0
                   0
                   0
                   0
                   0
                   0
                   0
                   0
                   0
                   0
                   0
                   0
                   0
                   0
                   0
                   0
                   0
                   0
                   0
                   0
                   0
                   0
                   0
                   0
                   0
                   0
                   0
                   0
                   0
                   0
                   0
                   0
                   0
                   0
                   0
                   0
                   0
                   0
                   0
                   0
                   0
                   0
                   0
                   0
                   0
                   0
                   0
                   0
                   0
                   0
                   0
                   0
                   0
                   0
                   0
                   0
                   0
                   0
                   0
                   0
                   0
                   0
                   0
                   0
                   0
                   0
                   0
                   0
                   0
                   0
                   0
                   0
                   0
                   0
                   0
                   0
                   0
                   0
                   0
                   0
                   0
                   0
                   0
                   0
                   0
                   0
                   0
                   0
                   0
                   0
                   0
                   0
                   0
                   0
                   0
                   0
                   0
                   0
                   0
                   0
                   0
                   0
                   0
                   0
                   0
                   0
                   0
                   0
                   0
                   0
                   0
                   0
                   0
                   0
                   0
                   0
                   0
                   0
                   0
                   0
                   0
                   0
                   0
                   0
                   0
                   0
                   0
                   0
                   0
                   0
                   0
                   0
                   0
                   0
                   0
                   0
                   0
                   0
                   0
                   0
                   0
                   0
                   0
                   0
                   0
                   0
                   0
                   0
                   0
                   0
                   0
                   0
                   0
                   0
                   0
                   0
                   0
                   0
                   0
                   0
                   0
                   0
                   0
                   0
                   0
                   0
                   0
                   0
                   0
                   0
                   0
                   0
                   0
                   0
                   0
                   0
                   0
                   0
                   0
                   0
                   0
                   0
                   0
                   0
                   0
                   0
                   0
                   0
                   0
                   0
                   0
                   0
                   0
                   0
                   0
                   0
                   0
                   0
                   0
                   0
                   0
                   0
                   0
                   0
                   0
                   0
                   0
                   0
                   0
                   0
                   0
                   0
                   0
                   0
                   0
                   0
                   0
                   0
                   0
                   0
                   0
                   0
                   0
                   0
                   0
                   0
                   0
                   0
                   0
                   0
                   0
                   0
                   0
                   0
                   0
                   0
                   0
                   0
                   0
                   0
                   0
                   0
                   0
                   0
                   0
                   0
                   0
                   0
                   0
                   0
                   0
                   0
                   0
                   0
                   0
                   0
                   0
                   0
                   0
                   0
                   0
                   0
                   0
                   0
                   0
                   0
                   0
                   0
                   0
                   0
                   0
                   0
                   0
                   0
                   0
                   0
                   0
                   0
                   0
                   0
                   0
                   0
                   0
                   0
                   0
                   0
                   0
                   0
                   0
                   0
                   0
                   0
                   0
                   0
                   0
                   0
                   0
                   0
                   0
                   0
                   0
                   0
                   0
                   0
                   0
                   0
                   0
                   0
                   0
                   0
                   0
                   0
                   0
                   0
                   0
                   0
                   0
                   0
                   0
                   0
                   0
                   0
                   0
                   0
                   0
                   0
                   0
                   0
                   0
                   0
                   0
                   0
                   0
                   0
                   0
                   0
                   0
                   0
                   0
                   0
                   0
                   0
                   0
                   0
                   0
                   0
                   0
                   0
                   0
                   0
                   0
                   0
                   0
                   0
                   0
                   0
                   0
                   0
                   0
                   0
                   0
                   0
                   0
                   0
                   0
                   0
                   0
                   0
                   0
                   0
                   0
                   0
                   0
                   0
                   0
                   0
                   0
                   0
                   0
                   0
                   0
                   0
                   0
                   0
                   0
                   0
                   0
                   0
                   0
                   0
                   0
                   0
                   0
                   0
                   0
                   0
                   0
                   0
                   0
                   0
                   0
                   0
                   0
                   0
                   0
                   0
                   0
                   0
                   0
                   0
                   0
                   0
                   0
                   0
                   0
                   0
                   0
                   0
                   0
                   0
                   0
                   0
                   0
                   0
                   0
                   0
                   0
                   0
                   0
                   0
                   0
                   0
                   0
                   0
                   0
                   0
                   0
                   0
                   0
                   0
                   0
                   0
                   0
                   0
                   0
  
SCALARS                       fixity_y  double 1
LOOKUP_TABLE default
                   0
                   0
                   0
                   0
                   0
                   0
                   0
                   0
                   0
                   0
                   0
                   0
                   0
                   0
                   0
                   0
                   0
                   0
                   0
                   0
                   0
                   0
                   0
                   0
                   0
                   0
                   0
                   0
                   0
                   0
                   0
                   0
                   0
                   0
                   0
                   0
                   0
                   0
                   0
                   0
                   0
                   0
                   0
                   0
                   0
                   0
                   0
                   0
                   0
                   0
                   0
                   0
                   0
                   0
                   0
                   0
                   0
                   0
                   0
                   0
                   0
                   0
                   0
                   0
                   0
                   0
                   0
                   0
                   0
                   0
                   0
                   0
                   0
                   0
                   0
                   0
                   0
                   0
                   0
                   0
                   0
                   0
                   0
                   0
                   0
                   0
                   0
                   0
                   0
                   0
                   0
                   0
                   0
                   0
                   0
                   0
                   0
                   0
                   0
                   0
                   0
                   0
                   0
                   0
                   0
                   0
                   0
                   0
                   0
                   0
                   0
                   0
                   0
                   0
                   0
                   0
                   0
                   0
                   0
                   0
                   0
                   0
                   0
                   0
                   0
                   0
                   0
                   0
                   0
                   0
                   0
                   0
                   0
                   0
                   0
                   0
                   0
                   0
                   0
                   0
                   0
                   0
                   0
                   0
                   0
                   0
                   0
                   0
                   0
                   0
                   0
                   0
                   0
                   0
                   0
                   0
                   0
                   0
                   0
                   0
                   0
                   0
                   0
                   0
                   0
                   0
                   0
                   0
                   0
                   0
                   0
                   0
                   0
                   0
                   0
                   0
                   0
                   0
                   0
                   0
                   0
                   0
                   0
                   0
                   0
                   0
                   0
                   0
                   0
                   0
                   0
                   0
                   0
                   0
                   0
                   0
                   0
                   0
                   0
                   0
                   0
                   0
                   0
                   0
                   0
                   0
                   0
                   0
                   0
                   0
                   0
                   0
                   0
                   0
                   0
                   0
                   0
                   0
                   0
                   0
                   0
                   0
                   0
                   0
                   0
                   0
                   0
                   0
                   0
                   0
                   0
                   0
                   0
                   0
                   0
                   0
                   0
                   0
                   0
                   0
                   0
                   0
                   0
                   0
                   0
                   0
                   0
                   0
                   0
                   0
                   0
                   0
                   0
                   0
                   0
                   0
                   0
                   0
                   0
                   0
                   0
                   0
                   0
                   0
                   0
                   0
                   0
                   0
                   0
                   0
                   0
                   0
                   0
                   0
                   0
                   0
                   0
                   0
                   0
                   0
                   0
                   0
                   0
                   0
                   0
                   0
                   0
                   0
                   0
                   0
                   0
                   0
                   0
                   0
                   0
                   0
                   0
                   0
                   0
                   0
                   0
                   0
                   0
                   0
                   0
                   0
                   0
                   0
                   0
                   0
                   0
                   0
                   0
                   0
                   0
                   0
                   0
                   0
                   0
                   0
                   0
                   0
                   0
                   0
                   0
                   0
                   0
                   0
                   0
                   0
                   0
                   0
                   0
                   0
                   0
                   0
                   0
                   0
                   0
                   0
                   0
                   0
                   0
                   0
                   0
                   0
                   0
                   0
                   0
                   0
                   0
                   0
                   0
                   0
                   0
                   0
                   0
                   0
                   0
                   0
                   0
                   0
                   0
                   0
                   0
                   0
                   0
                   0
                   0
                   0
                   0
                   0
                   0
                   0
                   0
                   0
                   0
                   0
                   0
                   0
                   0
                   0
                   0
                   0
                   0
                   0
                   0
                   0
                   0
                   0
                   0
                   0
                   0
                   0
                   0
                   0
                   0
                   0
                   0
                   0
                   0
                   0
                   0
                   0
                   0
                   0
                   0
                   0
                   0
                   0
                   0
                   0
                   0
                   0
                   0
                   0
                   0
                   0
                   0
                   0
                   0
                   0
                   0
                   0
                   0
                   0
                   0
                   0
                   0
                   0
                   0
                   0
                   0
                   0
                   0
                   0
                   0
                   0
                   0
                   0
                   0
                   0
                   0
                   0
                   0
                   0
                   0
                   0
                   0
                   0
                   0
                   0
                   0
                   0
                   0
                   0
                   0
                   0
                   0
                   0
                   0
                   0
                   0
                   0
                   0
                   0
                   0
                   0
                   0
                   0
                   0
                   0
                   0
                   0
                   0
                   0
                   0
                   0
                   0
                   0
                   0
                   0
                   0
                   0
                   0
                   0
                   0
                   0
                   0
                   0
                   0
                   0
                   0
                   0
                   0
                   0
                   0
                   0
                   0
                   0
                   0
                   0
                   0
                   0
                   0
                   0
                   0
                   0
                   0
                   0
                   0
                   0
                   0
                   0
                   0
                   0
                   0
                   0
                   0
                   0
                   0
                   0
                   0
                   0
                   0
                   0
                   0
                   0
                   0
                   0
                   0
                   0
                   0
                   0
                   0
                   0
                   0
                   0
                   0
                   0
                   0
                   0
                   0
                   0
                   0
                   0
                   0
                   0
                   0
                   0
                   0
                   0
                   0
                   0
                   0
                   0
                   0
                   0
                   0
                   0
                   0
                   0
                   0
                   0
                   0
                   0
                   0
                   0
                   0
                   0
                   0
                   0
                   0
                   0
                   0
                   0
                   0
                   0
                   0
                   0
                   0
                   0
                   0
                   0
                   0
                   0
                   0
                   0
                   0
                   0
                   0
                   0
                   0
                   0
                   0
                   0
                   0
                   0
                   0
                   0
                   0
                   0
                   0
                   0
                   0
                   0
                   0
                   0
                   0
                   0
                   0
                   0
                   0
                   0
                   0
                   0
                   0
                   0
                   0
                   0
                   0
                   0
                   0
                   0
                   0
                   0
                   0
                   0
                   0
                   0
                   0
                   0
                   0
                   0
                   0
                   0
                   0
                   0
                   0
                   0
                   0
                   0
                   0
                   0
                   0
                   0
                   0
                   0
                   0
                   0
                   0
                   0
                   0
                   0
                   0
                   0
                   0
                   0
                   0
                   0
                   0
                   0
                   0
                   0
                   0
                   0
                   0
                   0
                   0
                   0
                   0
                   0
                   0
                   0
                   0
                   0
                   0
                   0
                   0
                   0
                   0
                   0
                   0
                   0
                   0
                   0
                   0
                   0
                   0
                   0
                   0
                   0
                   0
                   0
                   0
                   0
                   0
                   0
                   0
                   0
                   0
                   0
                   0
                   0
                   0
                   0
                   0
                   0
                   0
                   0
                   0
                   0
                   0
                   0
                   0
                   0
                   0
                   0
                   0
                   0
                   0
                   0
                   0
                   0
                   0
                   0
                   0
                   0
                   0
                   0
                   0
                   0
                   0
                   0
                   0
                   0
                   0
                   0
                   0
                   0
                   0
                   0
                   0
                   0
                   0
                   0
                   0
                   0
                   0
                   0
                   0
                   0
                   0
                   0
                   0
                   0
                   0
                   0
                   0
                   0
                   0
                   0
                   0
                   0
                   0
                   0
                   0
                   0
                   0
                   0
                   0
                   0
                   0
                   0
                   0
                   0
                   0
                   0
                   0
                   0
                   0
                   0
                   0
                   0
                   0
                   0
                   0
                   0
                   0
                   0
                   0
                   0
                   0
                   0
                   0
                   0
                   0
                   0
                   0
                   0
                   0
                   0
                   0
                   0
                   0
                   0
                   0
                   0
                   0
                   0
                   0
                   0
                   0
                   0
                   0
                   0
                   0
                   0
                   0
                   0
                   0
                   0
                   0
                   0
                   0
                   0
                   0
                   0
                   0
                   0
                   0
                   0
                   0
                   0
                   0
                   0
                   0
                   0
                   0
                   0
                   0
                   0
                   0
                   0
                   0
                   0
                   0
                   0
                   0
                   0
                   0
                   0
                   0
                   0
                   0
                   0
                   0
                   0
                   0
                   0
                   0
                   0
                   0
                   0
                   0
                   0
                   0
                   0
                   0
                   0
                   0
                   0
                   0
                   0
                   0
                   0
                   0
                   0
                   0
                   0
                   0
                   0
                   0
                   0
                   0
                   0
                   0
                   0
                   0
                   0
                   0
                   0
                   0
                   0
                   0
                   0
                   0
                   0
                   0
                   0
                   0
                   0
                   0
                   0
                   0
                   0
                   0
                   0
                   0
                   0
                   0
                   0
                   0
                   0
                   0
                   0
                   0
                   0
                   0
                   0
                   0
                   0
                   0
                   0
                   0
                   0
                   0
                   0
                   0
                   0
                   0
                   0
                   0
                   0
                   0
                   0
                   0
                   0
                   0
                   0
                   0
                   0
                   0
                   0
                   0
                   0
                   0
                   0
                   0
                   0
                   0
                   0
                   0
                   0
                   0
                   0
                   0
                   0
                   0
                   0
                   0
                   0
                   0
                   0
                   0
                   0
                   0
                   0
                   0
                   0
                   0
                   0
                   0
                   0
                   0
                   0
                   0
                   0
                   0
                   0
                   0
                   0
                   0
                   0
                   0
                   0
                   0
                   0
                   0
                   0
                   0
                   0
                   0
                   0
                   0
                   0
                   0
                   0
                   0
                   0
                   0
                   0
                   0
                   0
                   0
                   0
                   0
                   0
                   0
                   0
                   0
                   0
                   0
                   0
                   0
                   0
                   0
                   0
                   0
                   0
                   0
                   0
                   0
                   0
                   0
                   0
                   0
                   0
                   0
                   0
                   0
                   0
                   0
                   0
                   0
                   0
                   0
                   0
                   0
                   0
                   0
                   0
                   0
                   0
                   0
                   0
                   0
                   0
                   0
                   0
                   0
                   0
                   0
                   0
                   0
                   0
                   0
                   0
                   0
                   0
                   0
                   0
                   0
                   0
                   0
                   0
                   0
                   0
                   0
                   0
                   0
                   0
                   0
                   0
                   0
                   0
                   0
                   0
                   0
                   0
                   0
                   0
                   0
                   0
                   0
                   0
                   0
                   0
                   0
                   0
                   0
                   0
                   0
                   0
                   0
                   0
                   0
                   0
                   0
                   0
                   0
                   0
                   0
                   0
                   0
                   0
                   0
                   0
                   0
                   0
                   0
                   0
                   0
                   0
                   0
                   0
                   0
                   0
                   0
                   0
                   0
                   0
                   0
                   0
                   0
                   0
                   0
                   0
                   0
                   0
                   0
                   0
                   0
                   0
                   0
                   0
                   0
                   0
                   0
                   0
                   0
                   0
                   0
                   0
                   0
                   0
                   0
                   0
                   0
                   0
                   0
                   0
                   0
                   0
                   0
                   0
                   0
                   0
                   0
                   0
                   0
                   0
                   0
                   0
                   0
                   0
                   0
                   0
                   0
                   0
                   0
                   0
                   0
                   0
                   0
                   0
                   0
                   0
                   0
                   0
                   0
                   0
                   0
                   0
                   0
                   0
                   0
                   0
                   0
                   0
                   0
                   0
                   0
                   0
                   0
                   0
                   0
                   0
                   0
                   0
                   0
                   0
                   0
                   0
                   0
                   0
                   0
                   0
                   0
                   0
                   0
                   0
                   0
                   0
                   0
                   0
                   0
                   0
                   0
                   0
                   0
                   0
                   0
                   0
                   0
                   0
                   0
                   0
                   0
                   0
                   0
                   0
                   0
                   0
                   0
                   0
                   0
                   0
                   0
                   0
                   0
                   0
                   0
                   0
                   0
                   0
                   0
                   0
                   0
                   0
                   0
                   0
                   0
                   0
                   0
                   0
                   0
                   0
                   0
                   0
                   0
                   0
                   0
                   0
                   0
                   0
                   0
                   0
                   0
                   0
                   0
                   0
                   0
                   0
                   0
                   0
                   0
                   0
                   0
                   0
                   0
                   0
                   0
                   0
                   0
                   0
                   0
                   0
                   0
                   0
                   0
                   0
                   0
                   0
                   0
                   0
                   0
                   0
                   0
                   0
                   0
                   0
                   0
                   0
                   0
                   0
                   0
                   0
                   0
                   0
                   0
                   0
                   0
                   0
                   0
                   0
                   0
                   0
                   0
                   0
                   0
                   0
                   0
                   0
                   0
                   0
                   0
                   0
                   0
                   0
                   0
                   0
                   0
                   0
                   0
                   0
                   0
                   0
                   0
                   0
                   0
                   0
                   0
                   0
                   0
                   0
                   0
                   0
                   0
                   0
                   0
                   0
                   0
                   0
                   0
                   0
                   0
                   0
                   0
                   0
                   0
                   0
                   0
                   0
                   0
                   0
                   0
                   0
                   0
                   0
                   0
                   0
                   0
                   0
                   0
                   0
                   0
                   0
                   0
                   0
                   0
                   0
                   0
                   0
                   0
                   0
                   0
                   0
                   0
                   0
                   0
                   0
                   0
                   0
                   0
                   0
                   0
                   0
                   0
                   0
                   0
                   0
                   0
                   0
                   0
                   0
                   0
                   0
                   0
                   0
                   0
                   0
                   0
                   0
                   0
                   0
                   0
                   0
                   0
                   0
                   0
                   0
                   0
                   0
                   0
                   0
                   0
                   0
                   0
                   0
                   0
                   0
                   0
                   0
                   0
                   0
                   0
                   0
                   0
                   0
                   0
                   0
                   0
                   0
                   0
                   0
                   0
                   0
                   0
                   0
                   0
                   0
                   0
                   0
                   0
                   0
                   0
                   0
                   0
                   0
                   0
                   0
                   0
                   0
                   0
                   0
                   0
                   0
                   0
                   0
                   0
                   0
                   0
                   0
                   0
                   0
                   0
                   0
                   0
                   0
                   0
                   0
                   0
                   0
                   0
                   0
                   0
                   0
                   0
                   0
                   0
                   0
                   0
                   0
                   0
                   0
                   0
                   0
                   0
                   0
                   0
                   0
                   0
                   0
                   0
                   0
                   0
                   0
                   0
                   0
                   0
                   0
                   0
                   0
                   0
                   0
                   0
                   0
                   0
                   0
                   0
                   0
                   0
                   0
                   0
                   0
                   0
                   0
                   0
                   0
                   0
                   0
                   0
                   0
                   0
                   0
                   0
                   0
                   0
                   0
                   0
                   0
                   0
                   0
                   0
                   0
                   0
                   0
                   0
                   0
                   0
                   0
                   0
                   0
                   0
                   0
                   0
                   0
                   0
                   0
                   0
                   0
                   0
                   0
                   0
                   0
                   0
                   0
                   0
                   0
                   0
                   0
                   0
                   0
                   0
                   0
                   0
                   0
                   0
                   0
                   0
                   0
                   0
                   0
                   0
                   0
                   0
                   0
                   0
                   0
                   0
                   0
                   0
                   0
                   0
                   0
                   0
                   0
                   0
                   0
                   0
                   0
                   0
                   0
                   0
                   0
                   0
                   0
                   0
                   0
                   0
                   0
                   0
                   0
                   0
                   0
                   0
                   0
                   0
                   0
                   0
                   0
                   0
                   0
                   0
                   0
                   0
                   0
                   0
                   0
                   0
                   0
                   0
                   0
                   0
                   0
                   0
                   0
                   0
                   0
                   0
                   0
                   0
                   0
                   0
                   0
                   0
                   0
                   0
                   0
                   0
                   0
                   0
                   0
                   0
                   0
                   0
                   0
                   0
                   0
                   0
                   0
                   0
                   0
                   0
                   0
                   0
                   0
                   0
                   0
                   0
                   0
                   0
                   0
                   0
                   0
                   0
                   0
                   0
                   0
                   0
                   0
                   0
                   0
                   0
                   0
                   0
                   0
                   0
                   0
                   0
                   0
                   0
                   0
                   0
                   0
                   0
                   0
                   0
                   0
                   0
                   0
                   0
                   0
                   0
                   0
                   0
                   0
                   0
                   0
                   0
                   0
                   0
                   0
                   0
                   0
                   0
                   0
                   0
                   0
                   0
                   0
                   0
                   0
                   0
                   0
                   0
                   0
                   0
                   0
                   0
                   0
                   0
                   0
                   0
                   0
                   0
                   0
                   0
                   0
                   0
                   0
                   0
                   0
                   0
                   0
                   0
                   0
                   0
                   0
                   0
                   0
                   0
                   0
                   0
                   0
                   0
                   0
                   0
                   0
                   0
                   0
                   0
                   0
                   0
                   0
                   0
                   0
                   0
                   0
                   0
                   0
                   0
                   0
                   0
                   0
                   0
                   0
                   0
                   0
                   0
                   0
                   0
                   0
                   0
                   0
                   0
                   0
                   0
                   0
                   0
                   0
                   0
                   0
                   0
                   0
                   0
                   0
                   0
                   0
                   0
                   0
                   0
                   0
                   0
                   0
                   0
                   0
                   0
                   0
                   0
                   0
                   0
                   0
                   0
                   0
                   0
                   0
                   0
                   0
                   0
                   0
                   0
                   0
                   0
                   0
                   0
                   0
                   0
                   0
                   0
                   0
                   0
                   0
                   0
                   0
                   0
                   0
                   0
                   0
                   0
                   0
                   0
                   0
                   0
                   0
                   0
                   0
                   0
                   0
                   0
                   0
                   0
                   0
                   0
                   0
                   0
                   0
                   0
                   0
                   0
                   0
                   0
                   0
                   0
                   0
                   0
                   0
                   0
                   0
                   0
                   0
                   0
                   0
                   0
                   0
                   0
                   0
                   0
                   0
                   0
                   0
                   0
                   0
                   0
                   0
                   0
                   0
                   0
                   0
                   0
                   0
                   0
                   0
                   0
                   0
                   0
                   0
                   0
                   0
                   0
                   0
                   0
                   0
                   0
                   0
                   0
                   0
                   0
                   0
                   0
                   0
                   0
                   0
                   0
                   0
                   0
                   0
                   0
                   0
                   0
                   0
                   0
                   0
                   0
                   0
                   0
                   0
                   0
                   0
                   0
                   0
                   0
                   0
                   0
                   0
                   0
                   0
                   0
                   0
                   0
                   0
                   0
                   0
                   0
                   0
                   0
                   0
                   0
                   0
  
SCALARS                       fixity_z  double 1
LOOKUP_TABLE default
                   0
                   0
                   0
                   0
                   1
                   1
                   1
                   1
                   0
                   0
                   1
                   1
                   0
                   0
                   1
                   1
                   0
                   0
                   1
                   1
                   0
                   0
                   0
                   1
                   1
                   1
                   0
                   0
                   1
                   1
                   0
                   0
                   0
                   1
                   1
                   1
                   0
                   0
                   1
                   1
                   0
                   0
                   1
                   1
                   0
                   0
                   1
                   1
                   0
                   1
                   0
                   1
                   0
                   1
                   0
                   1
                   0
                   0
                   1
                   1
                   0
                   0
                   1
                   1
                   0
                   1
                   0
                   1
                   0
                   0
                   1
                   1
                   0
                   1
                   0
                   1
                   0
                   1
                   0
                   1
                   0
                   0
                   1
                   1
                   0
                   1
                   0
                   1
                   0
                   1
                   0
                   0
                   1
                   1
                   0
                   1
                   0
                   1
                   0
                   1
                   0
                   0
                   1
                   1
                   0
                   0
                   1
                   1
                   0
                   1
                   0
                   1
                   0
                   1
                   0
                   1
                   0
                   1
                   0
                   1
                   0
                   1
                   0
                   1
                   0
                   1
                   0
                   1
                   0
                   1
                   0
                   1
                   0
                   1
                   0
                   1
                   0
                   1
                   0
                   1
                   0
                   1
                   0
                   1
                   0
                   1
                   0
                   1
                   0
                   1
                   0
                   1
                   0
                   1
                   0
                   1
                   0
                   0
                   0
                   0
                   0
                   0
                   0
                   0
                   0
                   0
                   0
                   0
                   0
                   0
                   0
                   0
                   0
                   0
                   0
                   0
                   0
                   0
                   0
                   0
                   0
                   0
                   0
                   0
                   0
                   0
                   0
                   0
                   0
                   0
                   0
                   0
                   0
                   0
                   0
                   0
                   0
                   0
                   0
                   0
                   0
                   0
                   0
                   0
                   0
                   0
                   0
                   0
                   0
                   0
                   0
                   0
                   0
                   0
                   0
                   0
                   0
                   0
                   0
                   0
                   0
                   0
                   0
                   0
                   0
                   0
                   0
                   0
                   0
                   0
                   0
                   0
                   0
                   0
                   0
                   0
                   0
                   0
                   0
                   0
                   0
                   0
                   0
                   0
                   0
                   0
                   0
                   0
                   0
                   0
                   0
                   0
                   0
                   0
                   0
                   0
                   0
                   0
                   0
                   0
                   0
                   0
                   0
                   0
                   0
                   0
                   0
                   0
                   0
                   0
                   0
                   0
                   0
                   0
                   0
                   0
                   0
                   0
                   0
                   0
                   0
                   0
                   0
                   0
                   0
                   0
                   0
                   0
                   0
                   0
                   0
                   0
                   0
                   0
                   0
                   0
                   0
                   0
                   0
                   0
                   0
                   0
                   0
                   0
                   0
                   0
                   0
                   0
                   0
                   0
                   0
                   0
                   0
                   0
                   0
                   0
                   0
                   0
                   0
                   0
                   0
                   0
                   0
                   0
                   0
                   0
                   0
                   0
                   0
                   0
                   0
                   0
                   0
                   0
                   0
                   0
                   0
                   0
                   0
                   0
                   0
                   0
                   0
                   0
                   0
                   0
                   0
                   0
                   0
                   0
                   0
                   0
                   0
                   0
                   0
                   0
                   0
                   0
                   0
                   0
                   0
                   0
                   0
                   0
                   0
                   0
                   0
                   0
                   0
                   0
                   0
                   0
                   0
                   0
                   0
                   0
                   0
                   0
                   0
                   0
                   0
                   0
                   0
                   0
                   0
                   0
                   0
                   0
                   0
                   0
                   0
                   0
                   0
                   0
                   0
                   0
                   0
                   0
                   0
                   0
                   0
                   0
                   0
                   0
                   0
                   0
                   0
                   0
                   0
                   0
                   0
                   0
                   0
                   0
                   0
                   0
                   0
                   0
                   0
                   0
                   0
                   0
                   0
                   0
                   0
                   0
                   0
                   0
                   0
                   0
                   0
                   0
                   0
                   0
                   0
                   0
                   0
                   0
                   0
                   0
                   0
                   0
                   0
                   0
                   0
                   0
                   0
                   0
                   0
                   0
                   0
                   0
                   0
                   0
                   0
                   0
                   0
                   0
                   0
                   0
                   0
                   0
                   0
                   0
                   0
                   0
                   0
                   0
                   0
                   0
                   0
                   0
                   0
                   0
                   0
                   0
                   0
                   0
                   0
                   0
                   0
                   0
                   0
                   0
                   0
                   0
                   0
                   0
                   0
                   0
                   0
                   0
                   0
                   0
                   0
                   0
                   0
                   0
                   0
                   0
                   0
                   0
                   0
                   0
                   0
                   0
                   0
                   0
                   0
                   0
                   0
                   0
                   0
                   0
                   0
                   0
                   0
                   0
                   0
                   0
                   0
                   0
                   0
                   0
                   0
                   0
                   0
                   0
                   0
                   0
                   0
                   0
                   0
                   0
                   0
                   0
                   0
                   0
                   0
                   0
                   0
                   0
                   0
                   0
                   0
                   0
                   0
                   0
                   0
                   0
                   0
                   0
                   0
                   0
                   0
                   0
                   0
                   0
                   0
                   0
                   0
                   0
                   0
                   0
                   0
                   0
                   0
                   0
                   0
                   0
                   0
                   0
                   0
                   0
                   0
                   0
                   0
                   0
                   0
                   0
                   0
                   0
                   0
                   0
                   0
                   0
                   0
                   0
                   0
                   0
                   0
                   0
                   0
                   0
                   0
                   0
                   0
                   0
                   0
                   0
                   0
                   0
                   0
                   0
                   0
                   0
                   0
                   0
                   0
                   0
                   0
                   0
                   0
                   0
                   0
                   0
                   0
                   0
                   0
                   0
                   0
                   0
                   0
                   0
                   0
                   0
                   0
                   0
                   0
                   0
                   0
                   0
                   0
                   0
                   0
                   0
                   0
                   0
                   0
                   0
                   0
                   0
                   0
                   0
                   0
                   0
                   0
                   0
                   0
                   0
                   0
                   0
                   0
                   0
                   0
                   0
                   0
                   0
                   0
                   0
                   0
                   0
                   0
                   0
                   0
                   0
                   0
                   0
                   0
                   0
                   0
                   0
                   0
                   0
                   0
                   0
                   0
                   0
                   0
                   0
                   0
                   0
                   0
                   0
                   0
                   0
                   0
                   0
                   0
                   0
                   0
                   0
                   0
                   0
                   0
                   0
                   0
                   0
                   0
                   0
                   0
                   0
                   0
                   0
                   0
                   0
                   0
                   0
                   0
                   0
                   0
                   0
                   0
                   0
                   0
                   0
                   0
                   0
                   0
                   0
                   0
                   0
                   0
                   0
                   0
                   0
                   0
                   0
                   0
                   0
                   0
                   0
                   0
                   0
                   0
                   0
                   0
                   0
                   0
                   0
                   0
                   0
                   0
                   0
                   0
                   0
                   0
                   0
                   0
                   0
                   0
                   0
                   0
                   0
                   0
                   0
                   0
                   0
                   0
                   0
                   0
                   0
                   0
                   0
                   0
                   0
                   0
                   0
                   0
                   0
                   0
                   0
                   0
                   0
                   0
                   0
                   0
                   0
                   0
                   0
                   0
                   0
                   0
                   0
                   0
                   0
                   0
                   0
                   0
                   0
                   0
                   0
                   0
                   0
                   0
                   0
                   0
                   0
                   0
                   0
                   0
                   0
                   0
                   0
                   0
                   0
                   0
                   0
                   0
                   0
                   0
                   0
                   0
                   0
                   0
                   0
                   0
                   0
                   0
                   0
                   0
                   0
                   0
                   0
                   0
                   0
                   0
                   0
                   0
                   0
                   0
                   0
                   0
                   0
                   0
                   0
                   0
                   0
                   0
                   0
                   0
                   0
                   0
                   0
                   0
                   0
                   0
                   0
                   0
                   0
                   0
                   0
                   0
                   0
                   0
                   0
                   0
                   0
                   0
                   0
                   0
                   0
                   0
                   0
                   0
                   0
                   0
                   0
                   0
                   0
                   0
                   0
                   0
                   0
                   0
                   0
                   0
                   0
                   0
                   0
                   0
                   0
                   0
                   0
                   0
                   0
                   0
                   0
                   0
                   0
                   0
                   0
                   0
                   0
                   0
                   0
                   0
                   0
                   0
                   0
                   0
                   0
                   0
                   0
                   0
                   0
                   0
                   0
                   0
                   0
                   0
                   0
                   0
                   0
                   0
                   0
                   0
                   0
                   0
                   0
                   0
                   0
                   0
                   0
                   0
                   0
                   0
                   0
                   0
                   0
                   0
                   0
                   0
                   0
                   0
                   0
                   0
                   0
                   0
                   0
                   0
                   0
                   0
                   0
                   0
                   0
                   0
                   0
                   0
                   0
                   0
                   0
                   0
                   0
                   0
                   0
                   0
                   0
                   0
                   0
                   0
                   0
                   0
                   0
                   0
                   0
                   0
                   0
                   0
                   0
                   0
                   0
                   0
                   0
                   0
                   0
                   0
                   0
                   0
                   0
                   0
                   0
                   0
                   0
                   0
                   0
                   0
                   0
                   0
                   0
                   0
                   0
                   0
                   0
                   0
                   0
                   0
                   0
                   0
                   0
                   0
                   0
                   0
                   0
                   0
                   0
                   0
                   0
                   0
                   0
                   0
                   0
                   0
                   0
                   0
                   0
                   0
                   0
                   0
                   0
                   0
                   0
                   0
                   0
                   0
                   0
                   0
                   0
                   0
                   0
                   0
                   0
                   0
                   0
                   0
                   0
                   0
                   0
                   0
                   0
                   0
                   0
                   0
                   0
                   0
                   0
                   0
                   0
                   0
                   0
                   0
                   0
                   0
                   0
                   0
                   0
                   0
                   0
                   0
                   0
                   0
                   0
                   0
                   0
                   0
                   0
                   0
                   0
                   0
                   0
                   0
                   0
                   0
                   0
                   0
                   0
                   0
                   0
                   0
                   0
                   0
                   0
                   0
                   0
                   0
                   0
                   0
                   0
                   0
                   0
                   0
                   0
                   0
                   0
                   0
                   0
                   0
                   0
                   0
                   0
                   0
                   0
                   0
                   0
                   0
                   0
                   0
                   0
                   0
                   0
                   0
                   0
                   0
                   0
                   0
                   0
                   0
                   0
                   0
                   0
                   0
                   0
                   0
                   0
                   0
                   0
                   0
                   0
                   0
                   0
                   0
                   0
                   0
                   0
                   0
                   0
                   0
                   0
                   0
                   0
                   0
                   0
                   0
                   0
                   0
                   0
                   0
                   0
                   0
                   0
                   0
                   0
                   0
                   0
                   0
                   0
                   0
                   0
                   0
                   0
                   0
                   0
                   0
                   0
                   0
                   0
                   0
                   0
                   0
                   0
                   0
                   0
                   0
                   0
                   0
                   0
                   0
                   0
                   0
                   0
                   0
                   0
                   0
                   0
                   0
                   0
                   0
                   0
                   0
                   0
                   0
                   0
                   0
                   0
                   0
                   0
                   0
                   0
                   0
                   0
                   0
                   0
                   0
                   0
                   0
                   0
                   0
                   0
                   0
                   0
                   0
                   0
                   0
                   0
                   0
                   0
                   0
                   0
                   0
                   0
                   0
                   0
                   0
                   0
                   0
                   0
                   0
                   0
                   0
                   0
                   0
                   0
                   0
                   0
                   0
                   0
                   0
                   0
                   0
                   0
                   0
                   0
                   0
                   0
                   0
                   0
                   0
                   0
                   0
                   0
                   0
                   0
                   0
                   0
                   0
                   0
                   0
                   0
                   0
                   0
                   0
                   0
                   0
                   0
                   0
                   0
                   0
                   0
                   0
                   0
                   0
                   0
                   0
                   0
                   0
                   0
                   0
                   0
                   0
                   0
                   0
                   0
                   0
                   0
                   0
                   0
                   0
                   0
                   0
                   0
                   0
                   0
                   0
                   0
                   0
                   0
                   0
                   0
                   0
                   0
                   0
                   0
                   0
                   0
                   0
                   0
                   0
                   0
                   0
                   0
                   0
                   0
                   0
                   0
                   0
                   0
                   0
                   0
                   0
                   0
                   0
                   0
                   0
                   0
                   0
                   0
                   0
                   0
                   0
                   0
                   0
                   0
                   0
                   0
                   0
                   0
                   0
                   0
                   0
                   0
                   0
                   0
                   0
                   0
                   0
                   0
                   0
                   0
                   0
                   0
                   0
                   0
                   0
                   0
                   0
                   0
                   0
                   0
                   0
                   0
                   0
                   0
                   0
                   0
                   0
                   0
                   0
                   0
                   0
                   0
                   0
                   0
                   0
                   0
                   0
                   0
                   0
                   0
                   0
                   0
                   0
                   0
                   0
                   0
                   0
                   0
                   0
                   0
                   0
                   0
                   0
                   0
                   0
                   0
                   0
                   0
                   0
                   0
                   0
                   0
                   0
                   0
                   0
                   0
                   0
                   0
                   0
                   0
                   0
                   0
                   0
                   0
                   0
                   0
                   0
                   0
                   0
                   0
                   0
                   0
                   0
                   0
                   0
                   0
                   0
                   0
                   0
                   0
                   0
                   0
                   0
                   0
                   0
                   0
                   0
                   0
                   0
                   0
                   0
                   0
                   0
                   0
                   0
                   0
                   0
                   0
                   0
                   0
                   0
                   0
                   0
                   0
                   0
                   0
                   0
                   0
                   0
                   0
                   0
                   0
                   0
                   0
                   0
                   0
                   0
                   0
                   0
                   0
                   0
                   0
                   0
                   0
                   0
                   0
                   0
                   0
                   0
                   0
                   0
                   0
                   0
                   0
                   0
                   0
                   0
                   0
                   0
                   0
                   0
                   0
                   0
                   0
                   0
                   0
                   0
                   0
                   0
                   0
                   0
                   0
                   0
                   0
                   0
                   0
                   0
                   0
                   0
                   0
                   0
                   0
                   0
                   0
                   0
                   0
                   0
                   0
                   0
                   0
                   0
                   0
                   0
                   0
                   0
                   0
                   0
                   0
                   0
                   0
                   0
                   0
                   0
                   0
                   0
                   0
                   0
                   0
                   0
                   0
                   0
                   0
                   0
                   0
                   0
                   0
                   0
                   0
                   0
                   0
                   0
                   0
                   0
                   0
                   0
                   0
                   0
                   0
                   0
                   0
                   0
                   0
                   0
                   0
                   0
                   0
                   0
                   0
                   0
                   0
                   0
                   0
                   0
                   0
                   0
                   0
                   0
                   0
                   0
                   0
                   0
                   0
                   0
                   0
                   0
                   0
                   0
                   0
                   0
                   0
                   0
                   0
                   0
                   0
                   0
                   0
                   0
                   0
                   0
                   0
                   0
                   0
                   0
                   0
                   0
                   0
                   0
                   0
                   0
                   0
                   0
                   0
                   0
                   0
                   0
                   0
                   0
                   0
                   0
                   0
                   0
                   0
                   0
                   0
                   0
                   0
                   0
                   0
                   0
                   0
                   0
                   0
                   0
                   0
                   0
                   0
                   0
                   0
                   0
                   0
                   0
                   0
                   0
                   0
                   0
                   0
                   0
                   0
                   0
                   0
                   0
                   0
                   0
                   0
                   0
                   0
                   0
                   0
                   0
                   0
                   0
                   0
                   0
                   0
                   0
                   0
                   0
                   0
                   0
                   0
                   0
                   0
                   0
                   0
                   0
                   0
                   0
                   0
                   0
                   0
                   0
                   0
                   0
                   0
                   0
                   0
                   0
                   0
                   0
                   0
                   0
                   0
                   0
                   0
                   0
                   0
                   0
                   0
                   0
                   0
                   0
                   0
                   0
                   0
                   0
                   0
                   0
                   0
                   0
                   0
                   0
                   0
                   0
                   0
                   0
                   0
                   0
                   0
                   0
                   0
                   0
                   0
                   0
                   0
                   0
                   0
                   0
                   0
                   0
                   0
                   0
                   0
                   0
                   0
                   0
                   0
                   0
                   0
                   0
                   0
                   0
                   0
                   0
                   0
                   0
                   0
                   0
                   0
                   0
                   0
                   0
                   0
                   0
                   0
                   0
                   0
                   0
                   0
                   0
                   0
                   0
                   0
                   0
                   0
                   0
                   0
                   0
                   0
                   0
                   0
                   0
                   0
                   0
                   0
                   0
                   0
                   0
                   0
                   0
                   0
                   0
                   0
                   0
                   0
                   0
                   0
                   0
                   0
                   0
                   0
                   0
                   0
                   0
                   0
                   0
                   0
                   0
                   0
                   0
                   0
                   0
                   0
                   0
                   0
                   0
                   0
                   0
                   0
                   0
                   0
                   0
                   0
                   0
                   0
                   0
                   0
                   0
                   0
                   0
                   0
                   0
                   0
                   0
                   0
                   0
                   0
                   0
                   0
                   0
                   0
                   0
                   0
                   0
                   0
                   0
                   0
                   0
                   0
                   0
                   0
                   0
                   0
                   0
                   0
                   0
                   0
                   0
                   0
                   0
                   0
                   0
                   0
                   0
                   0
                   0
                   0
                   0
                   0
                   0
                   0
                   0
                   0
                   0
                   0
                   0
                   0
                   0
                   0
                   0
                   0
                   0
                   0
                   0
                   0
                   0
                   0
                   0
                   0
                   0
                   0
                   0
                   0
                   0
                   0
                   0
                   0
                   0
                   0
                   0
                   0
                   0
                   0
                   0
                   0
                   0
                   0
                   0
                   0
                   0
                   0
                   0
                   0
                   0
                   0
                   0
                   0
                   0
                   0
                   0
                   0
                   0
                   0
                   0
                   0
                   0
                   0
                   0
                   0
                   0
                   0
                   0
                   0
                   0
                   0
                   0
                   0
                   0
                   0
                   0
                   0
                   0
                   0
                   0
                   0
                   0
                   0
                   0
                   0
                   0
                   0
                   0
                   0
                   0
                   0
                   0
                   0
                   0
                   0
                   0
                   0
                   0
                   0
  
SCALARS                         Ispace  double 1
LOOKUP_TABLE default
                  12
                  12
                  12
                  12
                  12
                  12
                  12
                  12
                  12
                  12
                  12
                  12
                  12
                  11
                  12
                  11
                  11
                  11
                  11
                  11
                  11
                  12
                  12
                  11
                  12
                  12
                  11
                  11
                  11
                  11
                  11
                  11
                  11
                  11
                  11
                  11
                  11
                  11
                  11
                  11
                  11
                  11
                  11
                  11
                  11
                  11
                  11
                  11
                  11
                  11
                  11
                  11
                  11
                  11
                  11
                  11
                  11
                  11
                  11
                  11
                  11
                  11
                  11
                  11
                  11
                  11
                  12
                  12
                  12
                  12
                  12
                  12
                  12
                  12
                  11
                  11
                  11
                  11
                  11
                  11
                  11
                  11
                  11
                  11
                  11
                  11
                  11
                  11
                  11
                  11
                  11
                  11
                  11
                  11
                  11
                  11
                  12
                  12
                  12
                  12
                  12
                  12
                  12
                  12
                  12
                  12
                  12
                  12
                  12
                  12
                  12
                  12
                  12
                  12
                  12
                  12
                  11
                  11
                  11
                  11
                  11
                  11
                  11
                  11
                  11
                  11
                  11
                  11
                  11
                  11
                  11
                  11
                  11
                  11
                  11
                  11
                  11
                  11
                  11
                  11
                  11
                  11
                  11
                  11
                  11
                  11
                  12
                  12
                  12
                  12
                  12
                  12
                  12
                  12
                  12
                  12
                  12
                  12
                  12
                  12
                  12
                  12
                  12
                  11
                  11
                  11
                  11
                  12
                  12
                  11
                  11
                  11
                  11
                  11
                  11
                  11
                  11
                  11
                  11
                  11
                  11
                  11
                  11
                  11
                  11
                  11
                  11
                  11
                  11
                  12
                  12
                  12
                  12
                  11
                  11
                  11
                  11
                  11
                  11
                  11
                  11
                  11
                  11
                  11
                  12
                  12
                  12
                  12
                  12
                  12
                  12
                  12
                  12
                  12
                  11
                  11
                  11
                  11
                  11
                  11
                  11
                  11
                  11
                  11
                  11
                  11
                  11
                  11
                  11
                  12
                  12
                  12
                  12
                  12
                  12
                  12
                  12
                  12
                  12
                  12
                  12
                  11
                  11
                  11
                  11
                  12
                  12
                  11
                  11
                  11
                  11
                  11
                  11
                  11
                  11
                  11
                  11
                  11
                  11
                  11
                  11
                  11
                  11
                  11
                  11
                  11
                  11
                  12
                  12
                  12
                  12
                  11
                  11
                  11
                  11
                  11
                  11
                  11
                  11
                  11
                  11
                  11
                  12
                  12
                  12
                  12
                  12
                  12
                  12
                  12
                  12
                  12
                  11
                  11
                  11
                  11
                  11
                  11
                  11
                  11
                  11
                  11
                  11
                  11
                  11
                  11
                  11
                  12
                  12
                  12
                  12
                  12
                  12
                  12
                  12
                  12
                  12
                  12
                  12
                  11
                  11
                  11
                  11
                  12
                  12
                  11
                  11
                  11
                  11
                  11
                  11
                  11
                  11
                  11
                  11
                  11
                  11
                  11
                  11
                  11
                  11
                  11
                  11
                  11
                  11
                  12
                  12
                  12
                  12
                  11
                  11
                  11
                  11
                  11
                  11
                  11
                  11
                  11
                  11
                  11
                  12
                  12
                  12
                  12
                  12
                  12
                  12
                  12
                  12
                  12
                  11
                  11
                  11
                  11
                  11
                  11
                  11
                  11
                  11
                  11
                  11
                  11
                  11
                  11
                  11
                  12
                  12
                  12
                  12
                  12
                  12
                  12
                  12
                  12
                  12
                  12
                  12
                  11
                  11
                  11
                  11
                  12
                  12
                  11
                  11
                  11
                  11
                  11
                  11
                  11
                  11
                  11
                  11
                  11
                  11
                  11
                  11
                  11
                  11
                  11
                  11
                  11
                  11
                  12
                  12
                  12
                  12
                  11
                  11
                  11
                  11
                  11
                  11
                  11
                  11
                  11
                  11
                  11
                  12
                  12
                  12
                  12
                  12
                  12
                  12
                  12
                  12
                  12
                  11
                  11
                  11
                  11
                  11
                  11
                  11
                  11
                  11
                  11
                  11
                  11
                  11
                  11
                  11
                  12
                  12
                  12
                  12
                  12
                  12
                  12
                  12
                  12
                  12
                  12
                  12
                  11
                  11
                  11
                  11
                  12
                  12
                  11
                  11
                  11
                  11
                  11
                  11
                  11
                  11
                  11
                  11
                  11
                  11
                  11
                  11
                  11
                  11
                  11
                  11
                  11
                  11
                  12
                  12
                  12
                  12
                  11
                  11
                  11
                  11
                  11
                  11
                  11
                  11
                  11
                  11
                  11
                  12
                  12
                  12
                  12
                  12
                  12
                  12
                  12
                  12
                  12
                  11
                  11
                  11
                  11
                  11
                  11
                  11
                  11
                  11
                  11
                  11
                  11
                  11
                  11
                  11
                  12
                  12
                  12
                  12
                  12
                  12
                  12
                  12
                  12
                  12
                  12
                  12
                  11
                  11
                  11
                  11
                  12
                  12
                  11
                  11
                  11
                  11
                  11
                  11
                  11
                  11
                  11
                  11
                  11
                  11
                  11
                  11
                  11
                  11
                  11
                  11
                  11
                  11
                  12
                  12
                  12
                  12
                  11
                  11
                  11
                  11
                  11
                  11
                  11
                  11
                  11
                  11
                  11
                  12
                  12
                  12
                  12
                  12
                  12
                  12
                  12
                  12
                  12
                  11
                  11
                  11
                  11
                  11
                  11
                  11
                  11
                  11
                  11
                  11
                  11
                  11
                  11
                  11
                  12
                  12
                  12
                  12
                  12
                  12
                  12
                  12
                  12
                  12
                  12
                  12
                  11
                  11
                  11
                  11
                  12
                  12
                  11
                  11
                  11
                  11
                  11
                  11
                  11
                  11
                  11
                  11
                  11
                  11
                  11
                  11
                  11
                  11
                  11
                  11
                  11
                  11
                  12
                  12
                  12
                  12
                  11
                  11
                  11
                  11
                  11
                  11
                  11
                  11
                  11
                  11
                  11
                  12
                  12
                  12
                  12
                  12
                  12
                  12
                  12
                  12
                  12
                  11
                  11
                  11
                  11
                  11
                  11
                  11
                  11
                  11
                  11
                  11
                  11
                  11
                  11
                  11
                  12
                  12
                  12
                  12
                  12
                  12
                  12
                  12
                  12
                  12
                  12
                  12
                  11
                  11
                  11
                  11
                  12
                  12
                  11
                  11
                  11
                  11
                  11
                  11
                  11
                  11
                  11
                  11
                  11
                  11
                  11
                  11
                  11
                  11
                  11
                  11
                  11
                  11
                  12
                  12
                  12
                  12
                  11
                  11
                  11
                  11
                  11
                  11
                  11
                  11
                  11
                  11
                  11
                  12
                  12
                  12
                  12
                  12
                  12
                  12
                  12
                  12
                  12
                  11
                  11
                  11
                  11
                  11
                  11
                  11
                  11
                  11
                  11
                  11
                  11
                  11
                  11
                  11
                  12
                  12
                  12
                  12
                  12
                  12
                  12
                  12
                  12
                  12
                  12
                  12
                  11
                  11
                  11
                  11
                  12
                  12
                  11
                  11
                  11
                  11
                  11
                  11
                  11
                  11
                  11
                  11
                  11
                  11
                  11
                  11
                  11
                  11
                  11
                  11
                  11
                  11
                  12
                  12
                  12
                  12
                  11
                  11
                  11
                  11
                  11
                  11
                  11
                  11
                  11
                  11
                  11
                  12
                  12
                  12
                  12
                  12
                  12
                  12
                  12
                  12
                  12
                  11
                  11
                  11
                  11
                  11
                  11
                  11
                  11
                  11
                  11
                  11
                  11
                  11
                  11
                  11
                  12
                  12
                  12
                  12
                  12
                  12
                  12
                  12
                  12
                  12
                  12
                  12
                  11
                  11
                  11
                  11
                  12
                  12
                  11
                  11
                  11
                  11
                  11
                  11
                  11
                  11
                  11
                  11
                  11
                  11
                  11
                  11
                  11
                  11
                  11
                  11
                  11
                  11
                  12
                  12
                  12
                  12
                  11
                  11
                  11
                  11
                  11
                  11
                  11
                  11
                  11
                  11
                  11
                  12
                  12
                  12
                  12
                  12
                  12
                  12
                  12
                  12
                  12
                  11
                  11
                  11
                  11
                  11
                  11
                  11
                  11
                  11
                  11
                  11
                  11
                  11
                  11
                  11
                  12
                  12
                  12
                  12
                  12
                  12
                  12
                  12
                  12
                  12
                  12
                  12
                  11
                  11
                  11
                  11
                  12
                  12
                  11
                  11
                  11
                  11
                  11
                  11
                  11
                  11
                  11
                  11
                  11
                  11
                  11
                  11
                  11
                  11
                  11
                  11
                  11
                  11
                  12
                  12
                  12
                  12
                  11
                  11
                  11
                  11
                  11
                  11
                  11
                  11
                  11
                  11
                  11
                  12
                  12
                  12
                  12
                  12
                  12
                  12
                  12
                  12
                  12
                  11
                  11
                  11
                  11
                  11
                  11
                  11
                  11
                  11
                  11
                  11
                  11
                  11
                  11
                  11
                  12
                  12
                  12
                  12
                  12
                  12
                  12
                  12
                  12
                  12
                  12
                  12
                  11
                  11
                  11
                  11
                  12
                  12
                  11
                  11
                  11
                  11
                  11
                  11
                  11
                  11
                  11
                  11
                  11
                  11
                  11
                  11
                  11
                  11
                  11
                  11
                  11
                  11
                  12
                  12
                  12
                  12
                  11
                  11
                  11
                  11
                  11
                  11
                  11
                  11
                  11
                  11
                  11
                  12
                  12
                  12
                  12
                  12
                  12
                  12
                  12
                  12
                  12
                  11
                  11
                  11
                  11
                  11
                  11
                  11
                  11
                  11
                  11
                  11
                  11
                  11
                  11
                  11
                  12
                  12
                  12
                  12
                  12
                  12
                  12
                  12
                  12
                  12
                  12
                  12
                  11
                  11
                  11
                  11
                  12
                  12
                  11
                  11
                  11
                  11
                  11
                  11
                  11
                  11
                  11
                  11
                  11
                  11
                  11
                  11
                  11
                  11
                  11
                  11
                  11
                  11
                  12
                  12
                  12
                  12
                  11
                  11
                  11
                  11
                  11
                  11
                  11
                  11
                  11
                  11
                  11
                  12
                  12
                  12
                  12
                  12
                  12
                  12
                  12
                  12
                  12
                  11
                  11
                  11
                  11
                  11
                  11
                  11
                  11
                  11
                  11
                  11
                  11
                  11
                  11
                  11
                  12
                  12
                  12
                  12
                  12
                  12
                  12
                  12
                  12
                  12
                  12
                  12
                  11
                  11
                  11
                  11
                  12
                  12
                  11
                  11
                  11
                  11
                  11
                  11
                  11
                  11
                  11
                  11
                  11
                  11
                  11
                  11
                  11
                  11
                  11
                  11
                  11
                  11
                  12
                  12
                  12
                  12
                  11
                  11
                  11
                  11
                  11
                  11
                  11
                  11
                  11
                  11
                  11
                  12
                  12
                  12
                  12
                  12
                  12
                  12
                  12
                  12
                  12
                  11
                  11
                  11
                  11
                  11
                  11
                  11
                  11
                  11
                  11
                  11
                  11
                  11
                  11
                  11
                  12
                  12
                  12
                  12
                  12
                  12
                  12
                  12
                  12
                  12
                  12
                  12
                  11
                  11
                  11
                  11
                  12
                  12
                  11
                  11
                  11
                  11
                  11
                  11
                  11
                  11
                  11
                  11
                  11
                  11
                  11
                  11
                  11
                  11
                  11
                  11
                  11
                  11
                  12
                  12
                  12
                  12
                  11
                  11
                  11
                  11
                  11
                  11
                  11
                  11
                  11
                  11
                  11
                  12
                  12
                  12
                  12
                  12
                  12
                  12
                  12
                  12
                  12
                  11
                  11
                  11
                  11
                  11
                  11
                  11
                  11
                  11
                  11
                  11
                  11
                  11
                  11
                  11
                  12
                  12
                  12
                  12
                  12
                  12
                  12
                  12
                  12
                  12
                  12
                  12
                  11
                  11
                  11
                  11
                  12
                  12
                  11
                  11
                  11
                  11
                  11
                  11
                  11
                  11
                  11
                  11
                  11
                  11
                  11
                  11
                  11
                  11
                  11
                  11
                  11
                  11
                  12
                  12
                  12
                  12
                  11
                  11
                  11
                  11
                  11
                  11
                  11
                  11
                  11
                  11
                  11
                  12
                  12
                  12
                  12
                  12
                  12
                  12
                  12
                  12
                  12
                  11
                  11
                  11
                  11
                  11
                  11
                  11
                  11
                  11
                  11
                  11
                  11
                  11
                  11
                  11
                  12
                  12
                  12
                  12
                  12
                  12
                  12
                  12
                  12
                  12
                  12
                  12
                  11
                  11
                  11
                  11
                  12
                  12
                  11
                  11
                  11
                  11
                  11
                  11
                  11
                  11
                  11
                  11
                  11
                  11
                  11
                  11
                  11
                  11
                  11
                  11
                  11
                  11
                  12
                  12
                  12
                  12
                  11
                  11
                  11
                  11
                  11
                  11
                  11
                  11
                  11
                  11
                  11
                  12
                  12
                  12
                  12
                  12
                  12
                  12
                  12
                  12
                  12
                  11
                  11
                  11
                  11
                  11
                  11
                  11
                  11
                  11
                  11
                  11
                  11
                  11
                  11
                  11
                  12
                  12
                  12
                  12
                  12
                  12
                  12
                  12
                  12
                  12
                  12
                  12
                  11
                  11
                  11
                  11
                  12
                  12
                  11
                  11
                  11
                  11
                  11
                  11
                  11
                  11
                  11
                  11
                  11
                  11
                  11
                  11
                  11
                  11
                  11
                  11
                  11
                  11
                  12
                  12
                  12
                  12
                  11
                  11
                  11
                  11
                  11
                  11
                  11
                  11
                  11
                  11
                  11
                  12
                  12
                  12
                  12
                  12
                  12
                  12
                  12
                  12
                  12
                  11
                  11
                  11
                  11
                  11
                  11
                  11
                  11
                  11
                  11
                  11
                  11
                  11
                  11
                  11
                  12
                  12
                  12
                  12
                  12
                  12
                  12
                  12
                  12
                  12
                  12
                  12
                  11
                  11
                  11
                  11
                  12
                  12
                  11
                  11
                  11
                  11
                  11
                  11
                  11
                  11
                  11
                  11
                  11
                  11
                  11
                  11
                  11
                  11
                  11
                  11
                  11
                  11
                  12
                  12
                  12
                  12
                  11
                  11
                  11
                  11
                  11
                  11
                  11
                  11
                  11
                  11
                  11
                  12
                  12
                  12
                  12
                  12
                  12
                  12
                  12
                  12
                  12
                  11
                  11
                  11
                  11
                  11
                  11
                  11
                  11
                  11
                  11
                  11
                  11
                  11
                  11
                  11
                  12
                  12
                  12
                  12
                  12
                  12
                  12
                  12
                  12
                  12
                  12
                  12
                  11
                  11
                  11
                  11
                  12
                  12
                  11
                  11
                  11
                  11
                  11
                  11
                  11
                  11
                  11
                  11
                  11
                  11
                  11
                  11
                  11
                  11
                  11
                  11
                  11
                  11
                  12
                  12
                  12
                  12
                  11
                  11
                  11
                  11
                  11
                  11
                  11
                  11
                  11
                  11
                  11
                  12
                  12
                  12
                  12
                  12
                  12
                  12
                  12
                  12
                  12
                  11
                  11
                  11
                  11
                  11
                  11
                  11
                  11
                  11
                  11
                  11
                  11
                  11
                  11
                  11
                  12
                  12
                  12
                  12
                  12
                  12
                  12
                  12
                  12
                  12
                  12
                  12
                  11
                  11
                  11
                  11
                  12
                  12
                  11
                  11
                  11
                  11
                  11
                  11
                  11
                  11
                  11
                  11
                  11
                  11
                  11
                  11
                  11
                  11
                  11
                  11
                  11
                  11
                  12
                  12
                  12
                  12
                  11
                  11
                  11
                  11
                  11
                  11
                  11
                  11
                  11
                  11
                  11
                  12
                  12
                  12
                  12
                  12
                  12
                  12
                  12
                  12
                  12
                  11
                  11
                  11
                  11
                  11
                  11
                  11
                  11
                  11
                  11
                  11
                  11
                  11
                  11
                  11
                  12
                  12
                  12
                  12
                  12
                  12
                  12
                  12
                  12
                  12
                  12
                  12
                  11
                  11
                  11
                  11
                  12
                  12
                  11
                  11
                  11
                  11
                  11
                  11
                  11
                  11
                  11
                  11
                  11
                  11
                  11
                  11
                  11
                  11
                  11
                  11
                  11
                  11
                  12
                  12
                  12
                  12
                  11
                  11
                  11
                  11
                  11
                  11
                  11
                  11
                  11
                  11
                  11
                  12
                  12
                  12
                  12
                  12
                  12
                  12
                  12
                  12
                  12
                  11
                  11
                  11
                  11
                  11
                  11
                  11
                  11
                  11
                  11
                  11
                  11
                  11
                  11
                  11
                  12
                  12
                  12
                  12
                  12
                  12
                  12
                  12
                  12
                  12
                  12
                  12
                  11
                  11
                  11
                  11
                  12
                  12
                  11
                  11
                  11
                  11
                  11
                  11
                  11
                  11
                  11
                  11
                  11
                  11
                  11
                  11
                  11
                  11
                  11
                  11
                  11
                  11
                  12
                  12
                  12
                  12
                  11
                  11
                  11
                  11
                  11
                  11
                  11
                  11
                  11
                  11
                  11
                  12
                  12
                  12
                  12
                  12
                  12
                  12
                  12
                  12
                  12
                  11
                  11
                  11
                  11
                  11
                  11
                  11
                  11
                  11
                  11
                  11
                  11
                  11
                  11
                  11
                  12
                  12
                  12
                  12
                  12
  
SCALARS                         Jspace  double 1
LOOKUP_TABLE default
                  11
                  12
                  11
                  11
                  11
                  12
                  11
                  11
                  11
                  11
                  11
                  11
                  12
                  12
                  12
                  12
                  11
                  12
                  11
                  12
                  12
                  12
                  12
                  12
                  12
                  12
                  12
                  12
                  12
                  12
                  11
                  11
                  11
                  11
                  11
                  11
                  11
                  11
                  11
                  11
                  11
                  11
                  11
                  11
                  11
                  11
                  11
                  11
                  11
                  11
                  11
                  11
                  12
                  12
                  12
                  12
                  12
                  11
                  12
                  11
                  11
                  11
                  11
                  11
                  11
                  11
                  11
                  11
                  11
                  12
                  11
                  12
                  12
                  12
                  12
                  12
                  12
                  12
                  12
                  12
                  12
                  12
                  12
                  12
                  11
                  11
                  11
                  11
                  11
                  11
                  11
                  11
                  11
                  11
                  11
                  11
                  11
                  11
                  11
                  11
                  11
                  11
                  11
                  11
                  11
                  11
                  11
                  11
                  12
                  12
                  12
                  12
                  12
                  12
                  12
                  12
                  12
                  12
                  12
                  12
                  12
                  12
                  12
                  12
                  12
                  12
                  12
                  12
                  11
                  11
                  11
                  11
                  11
                  11
                  11
                  11
                  11
                  11
                  11
                  11
                  11
                  11
                  11
                  11
                  11
                  11
                  11
                  11
                  11
                  11
                  11
                  11
                  11
                  11
                  11
                  11
                  11
                  12
                  11
                  11
                  11
                  11
                  12
                  12
                  11
                  12
                  12
                  12
                  12
                  12
                  12
                  11
                  11
                  11
                  11
                  11
                  11
                  11
                  11
                  11
                  11
                  11
                  12
                  12
                  12
                  11
                  11
                  11
                  11
                  11
                  11
                  12
                  12
                  12
                  12
                  12
                  12
                  12
                  11
                  11
                  11
                  11
                  11
                  11
                  11
                  11
                  11
                  11
                  11
                  11
                  12
                  12
                  12
                  12
                  12
                  12
                  12
                  12
                  12
                  12
                  11
                  11
                  11
                  11
                  11
                  11
                  11
                  11
                  11
                  11
                  11
                  11
                  11
                  11
                  11
                  12
                  11
                  11
                  11
                  11
                  12
                  12
                  11
                  12
                  12
                  12
                  12
                  12
                  12
                  11
                  11
                  11
                  11
                  11
                  11
                  11
                  11
                  11
                  11
                  11
                  12
                  12
                  12
                  11
                  11
                  11
                  11
                  11
                  11
                  12
                  12
                  12
                  12
                  12
                  12
                  12
                  11
                  11
                  11
                  11
                  11
                  11
                  11
                  11
                  11
                  11
                  11
                  11
                  12
                  12
                  12
                  12
                  12
                  12
                  12
                  12
                  12
                  12
                  11
                  11
                  11
                  11
                  11
                  11
                  11
                  11
                  11
                  11
                  11
                  11
                  11
                  11
                  11
                  12
                  11
                  11
                  11
                  11
                  12
                  12
                  11
                  12
                  12
                  12
                  12
                  12
                  12
                  11
                  11
                  11
                  11
                  11
                  11
                  11
                  11
                  11
                  11
                  11
                  12
                  12
                  12
                  11
                  11
                  11
                  11
                  11
                  11
                  12
                  12
                  12
                  12
                  12
                  12
                  12
                  11
                  11
                  11
                  11
                  11
                  11
                  11
                  11
                  11
                  11
                  11
                  11
                  12
                  12
                  12
                  12
                  12
                  12
                  12
                  12
                  12
                  12
                  11
                  11
                  11
                  11
                  11
                  11
                  11
                  11
                  11
                  11
                  11
                  11
                  11
                  11
                  11
                  12
                  11
                  11
                  11
                  11
                  12
                  12
                  11
                  12
                  12
                  12
                  12
                  12
                  12
                  11
                  11
                  11
                  11
                  11
                  11
                  11
                  11
                  11
                  11
                  11
                  12
                  12
                  12
                  11
                  11
                  11
                  11
                  11
                  11
                  12
                  12
                  12
                  12
                  12
                  12
                  12
                  11
                  11
                  11
                  11
                  11
                  11
                  11
                  11
                  11
                  11
                  11
                  11
                  12
                  12
                  12
                  12
                  12
                  12
                  12
                  12
                  12
                  12
                  11
                  11
                  11
                  11
                  11
                  11
                  11
                  11
                  11
                  11
                  11
                  11
                  11
                  11
                  11
                  12
                  11
                  11
                  11
                  11
                  12
                  12
                  11
                  12
                  12
                  12
                  12
                  12
                  12
                  11
                  11
                  11
                  11
                  11
                  11
                  11
                  11
                  11
                  11
                  11
                  12
                  12
                  12
                  11
                  11
                  11
                  11
                  11
                  11
                  12
                  12
                  12
                  12
                  12
                  12
                  12
                  11
                  11
                  11
                  11
                  11
                  11
                  11
                  11
                  11
                  11
                  11
                  11
                  12
                  12
                  12
                  12
                  12
                  12
                  12
                  12
                  12
                  12
                  11
                  11
                  11
                  11
                  11
                  11
                  11
                  11
                  11
                  11
                  11
                  11
                  11
                  11
                  11
                  12
                  11
                  11
                  11
                  11
                  12
                  12
                  11
                  12
                  12
                  12
                  12
                  12
                  12
                  11
                  11
                  11
                  11
                  11
                  11
                  11
                  11
                  11
                  11
                  11
                  12
                  12
                  12
                  11
                  11
                  11
                  11
                  11
                  11
                  12
                  12
                  12
                  12
                  12
                  12
                  12
                  11
                  11
                  11
                  11
                  11
                  11
                  11
                  11
                  11
                  11
                  11
                  11
                  12
                  12
                  12
                  12
                  12
                  12
                  12
                  12
                  12
                  12
                  11
                  11
                  11
                  11
                  11
                  11
                  11
                  11
                  11
                  11
                  11
                  11
                  11
                  11
                  11
                  12
                  11
                  11
                  11
                  11
                  12
                  12
                  11
                  12
                  12
                  12
                  12
                  12
                  12
                  11
                  11
                  11
                  11
                  11
                  11
                  11
                  11
                  11
                  11
                  11
                  12
                  12
                  12
                  11
                  11
                  11
                  11
                  11
                  11
                  12
                  12
                  12
                  12
                  12
                  12
                  12
                  11
                  11
                  11
                  11
                  11
                  11
                  11
                  11
                  11
                  11
                  11
                  11
                  12
                  12
                  12
                  12
                  12
                  12
                  12
                  12
                  12
                  12
                  11
                  11
                  11
                  11
                  11
                  11
                  11
                  11
                  11
                  11
                  11
                  11
                  11
                  11
                  11
                  12
                  11
                  11
                  11
                  11
                  12
                  12
                  11
                  12
                  12
                  12
                  12
                  12
                  12
                  11
                  11
                  11
                  11
                  11
                  11
                  11
                  11
                  11
                  11
                  11
                  12
                  12
                  12
                  11
                  11
                  11
                  11
                  11
                  11
                  12
                  12
                  12
                  12
                  12
                  12
                  12
                  11
                  11
                  11
                  11
                  11
                  11
                  11
                  11
                  11
                  11
                  11
                  11
                  12
                  12
                  12
                  12
                  12
                  12
                  12
                  12
                  12
                  12
                  11
                  11
                  11
                  11
                  11
                  11
                  11
                  11
                  11
                  11
                  11
                  11
                  11
                  11
                  11
                  12
                  11
                  11
                  11
                  11
                  12
                  12
                  11
                  12
                  12
                  12
                  12
                  12
                  12
                  11
                  11
                  11
                  11
                  11
                  11
                  11
                  11
                  11
                  11
                  11
                  12
                  12
                  12
                  11
                  11
                  11
                  11
                  11
                  11
                  12
                  12
                  12
                  12
                  12
                  12
                  12
                  11
                  11
                  11
                  11
                  11
                  11
                  11
                  11
                  11
                  11
                  11
                  11
                  12
                  12
                  12
                  12
                  12
                  12
                  12
                  12
                  12
                  12
                  11
                  11
                  11
                  11
                  11
                  11
                  11
                  11
                  11
                  11
                  11
                  11
                  11
                  11
                  11
                  12
                  11
                  11
                  11
                  11
                  12
                  12
                  11
                  12
                  12
                  12
                  12
                  12
                  12
                  11
                  11
                  11
                  11
                  11
                  11
                  11
                  11
                  11
                  11
                  11
                  12
                  12
                  12
                  11
                  11
                  11
                  11
                  11
                  11
                  12
                  12
                  12
                  12
                  12
                  12
                  12
                  11
                  11
                  11
                  11
                  11
                  11
                  11
                  11
                  11
                  11
                  11
                  11
                  12
                  12
                  12
                  12
                  12
                  12
                  12
                  12
                  12
                  12
                  11
                  11
                  11
                  11
                  11
                  11
                  11
                  11
                  11
                  11
                  11
                  11
                  11
                  11
                  11
                  12
                  11
                  11
                  11
                  11
                  12
                  12
                  11
                  12
                  12
                  12
                  12
                  12
                  12
                  11
                  11
                  11
                  11
                  11
                  11
                  11
                  11
                  11
                  11
                  11
                  12
                  12
                  12
                  11
                  11
                  11
                  11
                  11
                  11
                  12
                  12
                  12
                  12
                  12
                  12
                  12
                  11
                  11
                  11
                  11
                  11
                  11
                  11
                  11
                  11
                  11
                  11
                  11
                  12
                  12
                  12
                  12
                  12
                  12
                  12
                  12
                  12
                  12
                  11
                  11
                  11
                  11
                  11
                  11
                  11
                  11
                  11
                  11
                  11
                  11
                  11
                  11
                  11
                  12
                  11
                  11
                  11
                  11
                  12
                  12
                  11
                  12
                  12
                  12
                  12
                  12
                  12
                  11
                  11
                  11
                  11
                  11
                  11
                  11
                  11
                  11
                  11
                  11
                  12
                  12
                  12
                  11
                  11
                  11
                  11
                  11
                  11
                  12
                  12
                  12
                  12
                  12
                  12
                  12
                  11
                  11
                  11
                  11
                  11
                  11
                  11
                  11
                  11
                  11
                  11
                  11
                  12
                  12
                  12
                  12
                  12
                  12
                  12
                  12
                  12
                  12
                  11
                  11
                  11
                  11
                  11
                  11
                  11
                  11
                  11
                  11
                  11
                  11
                  11
                  11
                  11
                  12
                  11
                  11
                  11
                  11
                  12
                  12
                  11
                  12
                  12
                  12
                  12
                  12
                  12
                  11
                  11
                  11
                  11
                  11
                  11
                  11
                  11
                  11
                  11
                  11
                  12
                  12
                  12
                  11
                  11
                  11
                  11
                  11
                  11
                  12
                  12
                  12
                  12
                  12
                  12
                  12
                  11
                  11
                  11
                  11
                  11
                  11
                  11
                  11
                  11
                  11
                  11
                  11
                  12
                  12
                  12
                  12
                  12
                  12
                  12
                  12
                  12
                  12
                  11
                  11
                  11
                  11
                  11
                  11
                  11
                  11
                  11
                  11
                  11
                  11
                  11
                  11
                  11
                  12
                  11
                  11
                  11
                  11
                  12
                  12
                  11
                  12
                  12
                  12
                  12
                  12
                  12
                  11
                  11
                  11
                  11
                  11
                  11
                  11
                  11
                  11
                  11
                  11
                  12
                  12
                  12
                  11
                  11
                  11
                  11
                  11
                  11
                  12
                  12
                  12
                  12
                  12
                  12
                  12
                  11
                  11
                  11
                  11
                  11
                  11
                  11
                  11
                  11
                  11
                  11
                  11
                  12
                  12
                  12
                  12
                  12
                  12
                  12
                  12
                  12
                  12
                  11
                  11
                  11
                  11
                  11
                  11
                  11
                  11
                  11
                  11
                  11
                  11
                  11
                  11
                  11
                  12
                  11
                  11
                  11
                  11
                  12
                  12
                  11
                  12
                  12
                  12
                  12
                  12
                  12
                  11
                  11
                  11
                  11
                  11
                  11
                  11
                  11
                  11
                  11
                  11
                  12
                  12
                  12
                  11
                  11
                  11
                  11
                  11
                  11
                  12
                  12
                  12
                  12
                  12
                  12
                  12
                  11
                  11
                  11
                  11
                  11
                  11
                  11
                  11
                  11
                  11
                  11
                  11
                  12
                  12
                  12
                  12
                  12
                  12
                  12
                  12
                  12
                  12
                  11
                  11
                  11
                  11
                  11
                  11
                  11
                  11
                  11
                  11
                  11
                  11
                  11
                  11
                  11
                  12
                  11
                  11
                  11
                  11
                  12
                  12
                  11
                  12
                  12
                  12
                  12
                  12
                  12
                  11
                  11
                  11
                  11
                  11
                  11
                  11
                  11
                  11
                  11
                  11
                  12
                  12
                  12
                  11
                  11
                  11
                  11
                  11
                  11
                  12
                  12
                  12
                  12
                  12
                  12
                  12
                  11
                  11
                  11
                  11
                  11
                  11
                  11
                  11
                  11
                  11
                  11
                  11
                  12
                  12
                  12
                  12
                  12
                  12
                  12
                  12
                  12
                  12
                  11
                  11
                  11
                  11
                  11
                  11
                  11
                  11
                  11
                  11
                  11
                  11
                  11
                  11
                  11
                  12
                  11
                  11
                  11
                  11
                  12
                  12
                  11
                  12
                  12
                  12
                  12
                  12
                  12
                  11
                  11
                  11
                  11
                  11
                  11
                  11
                  11
                  11
                  11
                  11
                  12
                  12
                  12
                  11
                  11
                  11
                  11
                  11
                  11
                  12
                  12
                  12
                  12
                  12
                  12
                  12
                  11
                  11
                  11
                  11
                  11
                  11
                  11
                  11
                  11
                  11
                  11
                  11
                  12
                  12
                  12
                  12
                  12
                  12
                  12
                  12
                  12
                  12
                  11
                  11
                  11
                  11
                  11
                  11
                  11
                  11
                  11
                  11
                  11
                  11
                  11
                  11
                  11
                  12
                  11
                  11
                  11
                  11
                  12
                  12
                  11
                  12
                  12
                  12
                  12
                  12
                  12
                  11
                  11
                  11
                  11
                  11
                  11
                  11
                  11
                  11
                  11
                  11
                  12
                  12
                  12
                  11
                  11
                  11
                  11
                  11
                  11
                  12
                  12
                  12
                  12
                  12
                  12
                  12
                  11
                  11
                  11
                  11
                  11
                  11
                  11
                  11
                  11
                  11
                  11
                  11
                  12
                  12
                  12
                  12
                  12
                  12
                  12
                  12
                  12
                  12
                  11
                  11
                  11
                  11
                  11
                  11
                  11
                  11
                  11
                  11
                  11
                  11
                  11
                  11
                  11
                  12
                  11
                  11
                  11
                  11
                  12
                  12
                  11
                  12
                  12
                  12
                  12
                  12
                  12
                  11
                  11
                  11
                  11
                  11
                  11
                  11
                  11
                  11
                  11
                  11
                  12
                  12
                  12
                  11
                  11
                  11
                  11
                  11
                  11
                  12
                  12
                  12
                  12
                  12
                  12
                  12
                  11
                  11
                  11
                  11
                  11
                  11
                  11
                  11
                  11
                  11
                  11
                  11
                  12
                  12
                  12
                  12
                  12
                  12
                  12
                  12
                  12
                  12
                  11
                  11
                  11
                  11
                  11
                  11
                  11
                  11
                  11
                  11
                  11
                  11
                  11
                  11
                  11
                  12
                  11
                  11
                  11
                  11
                  12
                  12
                  11
                  12
                  12
                  12
                  12
                  12
                  12
                  11
                  11
                  11
                  11
                  11
                  11
                  11
                  11
                  11
                  11
                  11
                  12
                  12
                  12
                  11
                  11
                  11
                  11
                  11
                  11
                  12
                  12
                  12
                  12
                  12
                  12
                  12
                  11
                  11
                  11
                  11
                  11
                  11
                  11
                  11
                  11
                  11
                  11
                  11
                  12
                  12
                  12
                  12
                  12
                  12
                  12
                  12
                  12
                  12
                  11
                  11
                  11
                  11
                  11
                  11
                  11
                  11
                  11
                  11
                  11
                  11
                  11
                  11
                  11
                  12
                  11
                  11
                  11
                  11
                  12
                  12
                  11
                  12
                  12
                  12
                  12
                  12
                  12
                  11
                  11
                  11
                  11
                  11
                  11
                  11
                  11
                  11
                  11
                  11
                  12
                  12
                  12
                  11
                  11
                  11
                  11
                  11
                  11
                  12
                  12
                  12
                  12
                  12
                  12
                  12
                  11
                  11
                  11
                  11
                  11
                  11
                  11
                  11
                  11
                  11
                  11
                  11
                  12
                  12
                  12
                  12
                  12
                  12
                  12
                  12
                  12
                  12
                  11
                  11
                  11
                  11
                  11
                  11
                  11
                  11
                  11
                  11
                  11
                  11
                  11
                  11
                  11
                  12
                  11
                  11
                  11
                  11
                  12
                  12
                  11
                  12
                  12
                  12
                  12
                  12
                  12
                  11
                  11
                  11
                  11
                  11
                  11
                  11
                  11
                  11
                  11
                  11
                  12
                  12
                  12
                  11
                  11
                  11
                  11
                  11
                  11
                  12
                  12
                  12
                  12
                  12
                  12
                  12
                  11
                  11
                  11
                  11
                  11
                  11
                  11
                  11
                  11
                  11
                  11
                  11
                  12
                  12
                  12
                  12
                  12
                  12
                  12
                  12
                  12
                  12
                  11
                  11
                  11
                  11
                  11
                  11
                  11
                  11
                  11
                  11
                  11
                  11
                  11
                  11
                  11
                  12
                  11
                  11
                  11
                  11
                  12
                  12
                  11
                  12
                  12
                  12
                  12
                  12
                  12
                  11
                  11
                  11
                  11
                  11
                  11
                  11
                  11
                  11
                  11
                  11
                  12
                  12
                  12
                  11
                  11
                  11
                  11
                  11
                  11
                  12
                  12
                  12
                  12
                  12
                  12
                  12
                  11
                  11
                  11
                  11
                  11
                  11
                  11
                  11
                  11
                  11
                  11
                  11
                  12
                  12
                  12
                  12
                  12
                  12
                  12
                  12
                  12
                  12
                  11
                  11
                  11
                  11
                  11
                  11
                  11
                  11
                  11
                  11
                  11
                  11
                  11
                  11
  
SCALARS                         Kspace  double 1
LOOKUP_TABLE default
                  11
                  11
                  11
                  11
                  11
                  11
                  11
                  11
                  11
                  11
                  11
                  11
                  11
                  11
                  11
                  11
                  11
                  11
                  11
                  11
                  11
                  11
                  11
                  11
                  11
                  11
                  11
                  11
                  11
                  11
                  11
                  11
                  11
                  11
                  11
                  11
                  11
                  11
                  11
                  11
                  11
                  11
                  11
                  11
                  11
                  11
                  11
                  11
                  11
                  11
                  11
                  11
                  11
                  11
                  11
                  11
                  11
                  11
                  11
                  11
                  11
                  11
                  11
                  11
                  11
                  11
                  11
                  11
                  11
                  11
                  11
                  11
                  11
                  11
                  11
                  11
                  11
                  11
                  11
                  11
                  11
                  11
                  11
                  11
                  11
                  11
                  11
                  11
                  11
                  11
                  11
                  11
                  11
                  11
                  11
                  11
                  11
                  11
                  11
                  11
                  11
                  11
                  11
                  11
                  11
                  11
                  11
                  11
                  11
                  11
                  11
                  11
                  11
                  11
                  11
                  11
                  11
                  11
                  11
                  11
                  11
                  11
                  11
                  11
                  11
                  11
                  11
                  11
                  11
                  11
                  11
                  11
                  11
                  11
                  11
                  11
                  11
                  11
                  11
                  11
                  11
                  11
                  11
                  11
                  11
                  11
                  11
                  11
                  11
                  11
                  11
                  11
                  11
                  11
                  11
                  11
                  11
                  11
                  11
                  11
                  11
                  11
                  11
                  11
                  11
                  11
                  11
                  11
                  11
                  11
                  11
                  11
                  11
                  11
                  11
                  11
                  11
                  11
                  11
                  11
                  11
                  11
                  11
                  11
                  11
                  11
                  11
                  11
                  11
                  11
                  11
                  11
                  11
                  11
                  11
                  11
                  11
                  11
                  11
                  11
                  11
                  11
                  11
                  11
                  11
                  11
                  11
                  11
                  11
                  11
                  11
                  11
                  11
                  11
                  11
                  11
                  11
                  11
                  11
                  11
                  11
                  11
                  11
                  11
                  11
                  11
                  11
                  11
                  11
                  11
                  11
                  11
                  11
                  11
                  11
                  11
                  11
                  11
                  11
                  11
                  11
                  11
                  11
                  11
                  11
                  11
                  11
                  11
                  11
                  11
                  11
                  11
                  11
                  11
                  11
                  11
                  11
                  11
                  11
                  11
                  11
                  11
                  11
                  11
                  11
                  11
                  11
                  11
                  11
                  11
                  11
                  11
                  11
                  11
                  11
                  11
                  11
                  11
                  11
                  11
                  11
                  11
                  11
                  11
                  11
                  11
                  11
                  11
                  11
                  11
                  11
                  11
                  11
                  11
                  11
                  11
                  11
                  11
                  11
                  11
                  11
                  11
                  11
                  11
                  11
                  11
                  11
                  11
                  11
                  11
                  11
                  11
                  12
                  12
                  12
                  12
                  12
                  12
                  12
                  12
                  12
                  12
                  12
                  12
                  12
                  12
                  12
                  12
                  12
                  12
                  12
                  12
                  12
                  12
                  12
                  12
                  12
                  12
                  12
                  12
                  12
                  12
                  12
                  12
                  12
                  12
                  12
                  12
                  12
                  12
                  12
                  12
                  12
                  12
                  12
                  12
                  12
                  12
                  12
                  12
                  12
                  12
                  12
                  12
                  12
                  12
                  12
                  12
                  12
                  12
                  12
                  12
                  12
                  12
                  12
                  12
                  12
                  12
                  12
                  12
                  12
                  12
                  12
                  12
                  12
                  12
                  12
                  12
                  12
                  12
                  12
                  12
                  12
                  12
                  12
                  12
                  12
                  12
                  12
                  12
                  12
                  12
                  12
                  12
                  12
                  12
                  12
                  12
                  12
                  12
                  12
                  12
                  12
                  12
                  12
                  12
                  12
                  12
                  12
                  12
                  12
                  12
                  12
                  12
                  12
                  12
                  12
                  12
                  12
                  12
                  12
                  12
                  12
                  12
                  12
                  12
                  12
                  12
                  12
                  12
                  12
                  12
                  12
                  12
                  12
                  12
                  12
                  12
                  12
                  12
                  12
                  12
                  12
                  12
                  12
                  12
                  12
                  12
                  12
                  12
                  12
                  12
                  12
                  12
                  12
                  12
                  12
                  12
                  12
                  12
                  12
                  12
                  12
                  12
                  12
                  12
                  12
                  12
                  12
                  12
                  12
                  12
                  12
                  12
                  12
                  12
                  12
                  12
                  12
                  12
                  12
                  12
                  12
                  12
                  12
                  12
                  12
                  12
                  12
                  12
                  12
                  12
                  12
                  12
                  12
                  12
                  12
                  12
                  12
                  12
                  12
                  12
                  12
                  12
                  12
                  12
                  12
                  12
                  12
                  12
                  12
                  12
                  12
                  12
                  12
                  12
                  12
                  12
                  12
                  12
                  12
                  12
                  12
                  12
                  12
                  12
                  12
                  12
                  12
                  12
                  12
                  12
                  12
                  12
                  12
                  12
                  13
                  13
                  13
                  13
                  13
                  13
                  13
                  13
                  13
                  13
                  13
                  13
                  13
                  13
                  13
                  13
                  13
                  13
                  13
                  13
                  13
                  13
                  13
                  13
                  13
                  13
                  13
                  13
                  13
                  13
                  13
                  13
                  13
                  13
                  13
                  13
                  13
                  13
                  13
                  13
                  13
                  13
                  13
                  13
                  13
                  13
                  13
                  13
                  13
                  13
                  13
                  13
                  13
                  13
                  13
                  13
                  13
                  13
                  13
                  13
                  13
                  13
                  13
                  13
                  13
                  13
                  13
                  13
                  13
                  13
                  13
                  13
                  13
                  13
                  13
                  13
                  13
                  13
                  13
                  13
                  13
                  13
                  13
                  13
                  13
                  13
                  13
                  13
                  13
                  13
                  13
                  13
                  13
                  13
                  13
                  13
                  13
                  13
                  13
                  13
                  13
                  13
                  13
                  13
                  13
                  13
                  13
                  13
                  13
                  13
                  13
                  13
                  13
                  13
                  13
                  13
                  13
                  13
                  13
                  13
                  13
                  13
                  13
                  13
                  13
                  13
                  13
                  13
                  13
                  13
                  13
                  13
                  13
                  13
                  13
                  13
                  13
                  13
                  13
                  13
                  13
                  13
                  13
                  13
                  13
                  13
                  13
                  13
                  13
                  13
                  13
                  13
                  13
                  13
                  13
                  13
                  13
                  13
                  13
                  13
                  13
                  13
                  13
                  13
                  13
                  13
                  13
                  13
                  13
                  13
                  13
                  13
                  13
                  13
                  13
                  13
                  13
                  13
                  13
                  13
                  13
                  13
                  13
                  13
                  13
                  13
                  13
                  13
                  13
                  13
                  13
                  13
                  13
                  13
                  13
                  13
                  13
                  13
                  13
                  13
                  13
                  13
                  13
                  13
                  13
                  13
                  13
                  13
                  13
                  13
                  13
                  13
                  13
                  13
                  13
                  13
                  13
                  13
                  13
                  13
                  13
                  13
                  13
                  13
                  13
                  13
                  13
                  13
                  13
                  13
                  13
                  13
                  13
                  13
                  14
                  14
                  14
                  14
                  14
                  14
                  14
                  14
                  14
                  14
                  14
                  14
                  14
                  14
                  14
                  14
                  14
                  14
                  14
                  14
                  14
                  14
                  14
                  14
                  14
                  14
                  14
                  14
                  14
                  14
                  14
                  14
                  14
                  14
                  14
                  14
                  14
                  14
                  14
                  14
                  14
                  14
                  14
                  14
                  14
                  14
                  14
                  14
                  14
                  14
                  14
                  14
                  14
                  14
                  14
                  14
                  14
                  14
                  14
                  14
                  14
                  14
                  14
                  14
                  14
                  14
                  14
                  14
                  14
                  14
                  14
                  14
                  14
                  14
                  14
                  14
                  14
                  14
                  14
                  14
                  14
                  14
                  14
                  14
                  14
                  14
                  14
                  14
                  14
                  14
                  14
                  14
                  14
                  14
                  14
                  14
                  14
                  14
                  14
                  14
                  14
                  14
                  14
                  14
                  14
                  14
                  14
                  14
                  14
                  14
                  14
                  14
                  14
                  14
                  14
                  14
                  14
                  14
                  14
                  14
                  14
                  14
                  14
                  14
                  14
                  14
                  14
                  14
                  14
                  14
                  14
                  14
                  14
                  14
                  14
                  14
                  14
                  14
                  14
                  14
                  14
                  14
                  14
                  14
                  14
                  14
                  14
                  14
                  14
                  14
                  14
                  14
                  14
                  14
                  14
                  14
                  14
                  14
                  14
                  14
                  14
                  14
                  14
                  14
                  14
                  14
                  14
                  14
                  14
                  14
                  14
                  14
                  14
                  14
                  14
                  14
                  14
                  14
                  14
                  14
                  14
                  14
                  14
                  14
                  14
                  14
                  14
                  14
                  14
                  14
                  14
                  14
                  14
                  14
                  14
                  14
                  14
                  14
                  14
                  14
                  14
                  14
                  14
                  14
                  14
                  14
                  14
                  14
                  14
                  14
                  14
                  14
                  14
                  14
                  14
                  14
                  14
                  14
                  14
                  14
                  14
                  14
                  14
                  14
                  14
                  14
                  14
                  14
                  14
                  14
                  14
                  14
                  14
                  14
                  15
                  15
                  15
                  15
                  15
                  15
                  15
                  15
                  15
                  15
                  15
                  15
                  15
                  15
                  15
                  15
                  15
                  15
                  15
                  15
                  15
                  15
                  15
                  15
                  15
                  15
                  15
                  15
                  15
                  15
                  15
                  15
                  15
                  15
                  15
                  15
                  15
                  15
                  15
                  15
                  15
                  15
                  15
                  15
                  15
                  15
                  15
                  15
                  15
                  15
                  15
                  15
                  15
                  15
                  15
                  15
                  15
                  15
                  15
                  15
                  15
                  15
                  15
                  15
                  15
                  15
                  15
                  15
                  15
                  15
                  15
                  15
                  15
                  15
                  15
                  15
                  15
                  15
                  15
                  15
                  15
                  15
                  15
                  15
                  15
                  15
                  15
                  15
                  15
                  15
                  15
                  15
                  15
                  15
                  15
                  15
                  15
                  15
                  15
                  15
                  15
                  15
                  15
                  15
                  15
                  15
                  15
                  15
                  15
                  15
                  15
                  15
                  15
                  15
                  15
                  15
                  15
                  15
                  15
                  15
                  15
                  15
                  15
                  15
                  15
                  15
                  15
                  15
                  15
                  15
                  15
                  15
                  15
                  15
                  15
                  15
                  15
                  15
                  15
                  15
                  15
                  15
                  15
                  15
                  15
                  15
                  15
                  15
                  15
                  15
                  15
                  15
                  15
                  15
                  15
                  15
                  15
                  15
                  15
                  15
                  15
                  15
                  15
                  15
                  15
                  15
                  15
                  15
                  15
                  15
                  15
                  15
                  15
                  15
                  15
                  15
                  15
                  15
                  15
                  15
                  15
                  15
                  15
                  15
                  15
                  15
                  15
                  15
                  15
                  15
                  15
                  15
                  15
                  15
                  15
                  15
                  15
                  15
                  15
                  15
                  15
                  15
                  15
                  15
                  15
                  15
                  15
                  15
                  15
                  15
                  15
                  15
                  15
                  15
                  15
                  15
                  15
                  15
                  15
                  15
                  15
                  15
                  15
                  15
                  15
                  15
                  15
                  15
                  15
                  15
                  15
                  15
                  15
                  15
                  15
                  15
                  15
                  15
                  15
                  15
                  15
                  15
                  15
                  15
                  15
                  15
                  15
                  15
                  15
                  15
                  15
                  15
                  15
                  15
                  15
                  15
                  15
                  15
                  15
                  15
                  15
                  15
                  15
                  15
                  15
                  15
                  15
                  15
                  15
                  15
                  15
                  15
                  15
                  15
                  15
                  15
                  15
                  15
                  15
                  15
                  15
                  15
                  15
                  15
                  15
                  15
                  15
                  15
                  15
                  15
                  15
                  15
                  15
                  15
                  15
                  15
                  15
                  15
                  15
                  15
                  15
                  15
                  15
                  15
                  15
                  15
                  15
                  15
                  15
                  15
                  15
                  15
                  16
                  16
                  16
                  16
                  16
                  16
                  16
                  16
                  16
                  16
                  16
                  16
                  16
                  16
                  16
                  16
                  16
                  16
                  16
                  16
                  16
                  16
                  16
                  16
                  16
                  16
                  16
                  16
                  16
                  16
                  16
                  16
                  16
                  16
                  16
                  16
                  16
                  16
                  16
                  16
                  16
                  16
                  16
                  16
                  16
                  16
                  16
                  16
                  16
                  16
                  16
                  16
                  16
                  16
                  16
                  16
                  16
                  16
                  16
                  16
                  16
                  16
                  16
                  16
                  16
                  16
                  16
                  16
                  16
                  16
                  16
                  16
                  16
                  16
                  16
                  16
                  16
                  16
                  16
                  16
                  16
                  16
                  16
                  16
                  16
                  16
                  16
                  16
                  16
                  16
                  16
                  16
                  16
                  16
                  16
                  16
                  16
                  16
                  16
                  16
                  16
                  16
                  16
                  16
                  16
                  16
                  16
                  16
                  16
                  16
                  16
                  16
                  16
                  16
                  16
                  16
                  16
                  16
                  16
                  16
                  16
                  16
                  16
                  16
                  16
                  16
                  16
                  16
                  16
                  16
                  16
                  16
                  16
                  16
                  16
                  16
                  16
                  16
                  16
                  16
                  16
                  16
                  16
                  16
                  16
                  16
                  16
                  16
                  16
                  16
                  16
                  16
                  16
                  16
                  16
                  16
                  16
                  16
                  16
                  16
                  16
                  16
                  16
                  16
                  16
                  16
                  16
                  16
                  16
                  16
                  16
                  16
                  16
                  16
                  16
                  16
                  16
                  16
                  16
                  16
                  16
                  16
                  16
                  16
                  16
                  16
                  16
                  16
                  16
                  16
                  16
                  16
                  16
                  16
                  16
                  16
                  16
                  16
                  16
                  16
                  16
                  16
                  16
                  16
                  16
                  16
                  16
                  16
                  16
                  16
                  16
                  16
                  16
                  16
                  16
                  16
                  16
                  16
                  16
                  16
                  16
                  16
                  16
                  16
                  16
                  16
                  16
                  16
                  16
                  16
                  16
                  16
                  16
                  16
                  17
                  17
                  17
                  17
                  17
                  17
                  17
                  17
                  17
                  17
                  17
                  17
                  17
                  17
                  17
                  17
                  17
                  17
                  17
                  17
                  17
                  17
                  17
                  17
                  17
                  17
                  17
                  17
                  17
                  17
                  17
                  17
                  17
                  17
                  17
                  17
                  17
                  17
                  17
                  17
                  17
                  17
                  17
                  17
                  17
                  17
                  17
                  17
                  17
                  17
                  17
                  17
                  17
                  17
                  17
                  17
                  17
                  17
                  17
                  17
                  17
                  17
                  17
                  17
                  17
                  17
                  17
                  17
                  17
                  17
                  17
                  17
                  17
                  17
                  17
                  17
                  17
                  17
                  17
                  17
                  17
                  17
                  17
                  17
                  17
                  17
                  17
                  17
                  17
                  17
                  17
                  17
                  17
                  17
                  17
                  17
                  17
                  17
                  17
                  17
                  17
                  17
                  17
                  17
                  17
                  17
                  17
                  17
                  17
                  17
                  17
                  17
                  17
                  17
                  17
                  17
                  17
                  17
                  17
                  17
                  17
                  17
                  17
                  17
                  17
                  17
                  17
                  17
                  17
                  17
                  17
                  17
                  17
                  17
                  17
                  17
                  17
                  17
                  17
                  17
                  17
                  17
                  17
                  17
                  17
                  17
                  17
                  17
                  17
                  17
                  17
                  17
                  17
                  17
                  17
                  17
                  17
                  17
                  17
                  17
                  17
                  17
                  17
                  17
                  17
                  17
                  17
                  17
                  17
                  17
                  17
                  17
                  17
                  17
                  17
                  17
                  17
                  17
                  17
                  17
                  17
                  17
                  17
                  17
                  17
                  17
                  17
                  17
                  17
                  17
                  17
                  17
                  17
                  17
                  17
                  17
                  17
                  17
                  17
                  17
                  17
                  17
                  17
                  17
                  17
                  17
                  17
                  17
                  17
                  17
                  17
                  17
                  17
                  17
                  17
                  17
                  17
                  17
                  17
                  17
                  17
                  17
                  17
                  17
                  17
                  17
                  17
                  17
                  17
                  17
                  17
                  17
                  17
                  17
                  18
                  18
                  18
                  18
                  18
                  18
                  18
                  18
                  18
                  18
                  18
                  18
                  18
                  18
                  18
                  18
                  18
                  18
                  18
                  18
                  18
                  18
                  18
                  18
                  18
                  18
                  18
                  18
                  18
                  18
                  18
                  18
                  18
                  18
                  18
                  18
                  18
                  18
                  18
                  18
                  18
                  18
                  18
                  18
                  18
                  18
                  18
                  18
                  18
                  18
                  18
                  18
                  18
                  18
                  18
                  18
                  18
                  18
                  18
                  18
                  18
                  18
                  18
                  18
                  18
                  18
                  18
                  18
                  18
                  18
                  18
                  18
                  18
                  18
                  18
                  18
                  18
                  18
                  18
                  18
                  18
                  18
                  18
                  18
                  18
                  18
                  18
                  18
                  18
                  18
                  18
                  18
                  18
                  18
                  18
                  18
                  18
                  18
                  18
                  18
                  18
                  18
                  18
                  18
                  18
                  18
                  18
                  18
                  18
                  18
                  18
                  18
                  18
                  18
                  18
                  18
                  18
                  18
                  18
                  18
                  18
                  18
                  18
                  18
                  18
                  18
                  18
                  18
                  18
                  18
                  18
                  18
                  18
                  18
                  18
                  18
                  18
                  18
                  18
                  18
                  18
                  18
                  18
                  18
                  18
                  18
                  18
                  18
                  18
                  18
                  18
                  18
                  18
                  18
                  18
                  18
  
SCALARS                 displacement_x  double 1
LOOKUP_TABLE default
         0.00000E+00
         0.00000E+00
         0.00000E+00
         0.00000E+00
         0.00000E+00
         0.00000E+00
         0.00000E+00
         0.00000E+00
         0.00000E+00
         0.00000E+00
         0.00000E+00
         0.00000E+00
         0.00000E+00
         0.00000E+00
         0.00000E+00
         0.00000E+00
         0.00000E+00
         0.00000E+00
         0.00000E+00
         0.00000E+00
         0.00000E+00
         0.00000E+00
         0.00000E+00
         0.00000E+00
         0.00000E+00
         0.00000E+00
         0.00000E+00
         0.00000E+00
         0.00000E+00
         0.00000E+00
         0.00000E+00
         0.00000E+00
         0.00000E+00
         0.00000E+00
         0.00000E+00
         0.00000E+00
         0.00000E+00
         0.00000E+00
         0.00000E+00
         0.00000E+00
         0.00000E+00
         0.00000E+00
         0.00000E+00
         0.00000E+00
         0.00000E+00
         0.00000E+00
         0.00000E+00
         0.00000E+00
         0.00000E+00
         0.00000E+00
         0.00000E+00
         0.00000E+00
         0.00000E+00
         0.00000E+00
         0.00000E+00
         0.00000E+00
         0.00000E+00
         0.00000E+00
         0.00000E+00
         0.00000E+00
         0.00000E+00
         0.00000E+00
         0.00000E+00
         0.00000E+00
         0.00000E+00
         0.00000E+00
         0.00000E+00
         0.00000E+00
         0.00000E+00
         0.00000E+00
         0.00000E+00
         0.00000E+00
         0.00000E+00
         0.00000E+00
         0.00000E+00
         0.00000E+00
         0.00000E+00
         0.00000E+00
         0.00000E+00
         0.00000E+00
         0.00000E+00
         0.00000E+00
         0.00000E+00
         0.00000E+00
         0.00000E+00
         0.00000E+00
         0.00000E+00
         0.00000E+00
         0.00000E+00
         0.00000E+00
         0.00000E+00
         0.00000E+00
         0.00000E+00
         0.00000E+00
         0.00000E+00
         0.00000E+00
         0.00000E+00
         0.00000E+00
         0.00000E+00
         0.00000E+00
         0.00000E+00
         0.00000E+00
         0.00000E+00
         0.00000E+00
         0.00000E+00
         0.00000E+00
         0.00000E+00
         0.00000E+00
         0.00000E+00
         0.00000E+00
         0.00000E+00
         0.00000E+00
         0.00000E+00
         0.00000E+00
         0.00000E+00
         0.00000E+00
         0.00000E+00
         0.00000E+00
         0.00000E+00
         0.00000E+00
         0.00000E+00
         0.00000E+00
         0.00000E+00
         0.00000E+00
         0.00000E+00
         0.00000E+00
         0.00000E+00
         0.00000E+00
         0.00000E+00
         0.00000E+00
         0.00000E+00
         0.00000E+00
         0.00000E+00
         0.00000E+00
         0.00000E+00
         0.00000E+00
         0.00000E+00
         0.00000E+00
         0.00000E+00
         0.00000E+00
         0.00000E+00
         0.00000E+00
         0.00000E+00
         0.00000E+00
         0.00000E+00
         0.00000E+00
         0.00000E+00
         0.00000E+00
         0.00000E+00
         0.00000E+00
         0.00000E+00
         0.00000E+00
         0.00000E+00
         0.00000E+00
         0.00000E+00
         0.00000E+00
         0.00000E+00
         0.00000E+00
         0.00000E+00
         0.00000E+00
         0.00000E+00
         0.00000E+00
         0.00000E+00
         0.00000E+00
         0.00000E+00
         0.00000E+00
         0.00000E+00
         0.00000E+00
         0.00000E+00
         0.00000E+00
         0.00000E+00
         0.00000E+00
         0.00000E+00
         0.00000E+00
         0.00000E+00
         0.00000E+00
         0.00000E+00
         0.00000E+00
         0.00000E+00
         0.00000E+00
         0.00000E+00
         0.00000E+00
         0.00000E+00
         0.00000E+00
         0.00000E+00
         0.00000E+00
         0.00000E+00
         0.00000E+00
         0.00000E+00
         0.00000E+00
         0.00000E+00
         0.00000E+00
         0.00000E+00
         0.00000E+00
         0.00000E+00
         0.00000E+00
         0.00000E+00
         0.00000E+00
         0.00000E+00
         0.00000E+00
         0.00000E+00
         0.00000E+00
         0.00000E+00
         0.00000E+00
         0.00000E+00
         0.00000E+00
         0.00000E+00
         0.00000E+00
         0.00000E+00
         0.00000E+00
         0.00000E+00
         0.00000E+00
         0.00000E+00
         0.00000E+00
         0.00000E+00
         0.00000E+00
         0.00000E+00
         0.00000E+00
         0.00000E+00
         0.00000E+00
         0.00000E+00
         0.00000E+00
         0.00000E+00
         0.00000E+00
         0.00000E+00
         0.00000E+00
         0.00000E+00
         0.00000E+00
         0.00000E+00
         0.00000E+00
         0.00000E+00
         0.00000E+00
         0.00000E+00
         0.00000E+00
         0.00000E+00
         0.00000E+00
         0.00000E+00
         0.00000E+00
         0.00000E+00
         0.00000E+00
         0.00000E+00
         0.00000E+00
         0.00000E+00
         0.00000E+00
         0.00000E+00
         0.00000E+00
         0.00000E+00
         0.00000E+00
         0.00000E+00
         0.00000E+00
         0.00000E+00
         0.00000E+00
         0.00000E+00
         0.00000E+00
         0.00000E+00
         0.00000E+00
         0.00000E+00
         0.00000E+00
         0.00000E+00
         0.00000E+00
         0.00000E+00
         0.00000E+00
         0.00000E+00
         0.00000E+00
         0.00000E+00
         0.00000E+00
         0.00000E+00
         0.00000E+00
         0.00000E+00
         0.00000E+00
         0.00000E+00
         0.00000E+00
         0.00000E+00
         0.00000E+00
         0.00000E+00
         0.00000E+00
         0.00000E+00
         0.00000E+00
         0.00000E+00
         0.00000E+00
         0.00000E+00
         0.00000E+00
         0.00000E+00
         0.00000E+00
         0.00000E+00
         0.00000E+00
         0.00000E+00
         0.00000E+00
         0.00000E+00
         0.00000E+00
         0.00000E+00
         0.00000E+00
         0.00000E+00
         0.00000E+00
         0.00000E+00
         0.00000E+00
         0.00000E+00
         0.00000E+00
         0.00000E+00
         0.00000E+00
         0.00000E+00
         0.00000E+00
         0.00000E+00
         0.00000E+00
         0.00000E+00
         0.00000E+00
         0.00000E+00
         0.00000E+00
         0.00000E+00
         0.00000E+00
         0.00000E+00
         0.00000E+00
         0.00000E+00
         0.00000E+00
         0.00000E+00
         0.00000E+00
         0.00000E+00
         0.00000E+00
         0.00000E+00
         0.00000E+00
         0.00000E+00
         0.00000E+00
         0.00000E+00
         0.00000E+00
         0.00000E+00
         0.00000E+00
         0.00000E+00
         0.00000E+00
         0.00000E+00
         0.00000E+00
         0.00000E+00
         0.00000E+00
         0.00000E+00
         0.00000E+00
         0.00000E+00
         0.00000E+00
         0.00000E+00
         0.00000E+00
         0.00000E+00
         0.00000E+00
         0.00000E+00
         0.00000E+00
         0.00000E+00
         0.00000E+00
         0.00000E+00
         0.00000E+00
         0.00000E+00
         0.00000E+00
         0.00000E+00
         0.00000E+00
         0.00000E+00
         0.00000E+00
         0.00000E+00
         0.00000E+00
         0.00000E+00
         0.00000E+00
         0.00000E+00
         0.00000E+00
         0.00000E+00
         0.00000E+00
         0.00000E+00
         0.00000E+00
         0.00000E+00
         0.00000E+00
         0.00000E+00
         0.00000E+00
         0.00000E+00
         0.00000E+00
         0.00000E+00
         0.00000E+00
         0.00000E+00
         0.00000E+00
         0.00000E+00
         0.00000E+00
         0.00000E+00
         0.00000E+00
         0.00000E+00
         0.00000E+00
         0.00000E+00
         0.00000E+00
         0.00000E+00
         0.00000E+00
         0.00000E+00
         0.00000E+00
         0.00000E+00
         0.00000E+00
         0.00000E+00
         0.00000E+00
         0.00000E+00
         0.00000E+00
         0.00000E+00
         0.00000E+00
         0.00000E+00
         0.00000E+00
         0.00000E+00
         0.00000E+00
         0.00000E+00
         0.00000E+00
         0.00000E+00
         0.00000E+00
         0.00000E+00
         0.00000E+00
         0.00000E+00
         0.00000E+00
         0.00000E+00
         0.00000E+00
         0.00000E+00
         0.00000E+00
         0.00000E+00
         0.00000E+00
         0.00000E+00
         0.00000E+00
         0.00000E+00
         0.00000E+00
         0.00000E+00
         0.00000E+00
         0.00000E+00
         0.00000E+00
         0.00000E+00
         0.00000E+00
         0.00000E+00
         0.00000E+00
         0.00000E+00
         0.00000E+00
         0.00000E+00
         0.00000E+00
         0.00000E+00
         0.00000E+00
         0.00000E+00
         0.00000E+00
         0.00000E+00
         0.00000E+00
         0.00000E+00
         0.00000E+00
         0.00000E+00
         0.00000E+00
         0.00000E+00
         0.00000E+00
         0.00000E+00
         0.00000E+00
         0.00000E+00
         0.00000E+00
         0.00000E+00
         0.00000E+00
         0.00000E+00
         0.00000E+00
         0.00000E+00
         0.00000E+00
         0.00000E+00
         0.00000E+00
         0.00000E+00
         0.00000E+00
         0.00000E+00
         0.00000E+00
         0.00000E+00
         0.00000E+00
         0.00000E+00
         0.00000E+00
         0.00000E+00
         0.00000E+00
         0.00000E+00
         0.00000E+00
         0.00000E+00
         0.00000E+00
         0.00000E+00
         0.00000E+00
         0.00000E+00
         0.00000E+00
         0.00000E+00
         0.00000E+00
         0.00000E+00
         0.00000E+00
         0.00000E+00
         0.00000E+00
         0.00000E+00
         0.00000E+00
         0.00000E+00
         0.00000E+00
         0.00000E+00
         0.00000E+00
         0.00000E+00
         0.00000E+00
         0.00000E+00
         0.00000E+00
         0.00000E+00
         0.00000E+00
         0.00000E+00
         0.00000E+00
         0.00000E+00
         0.00000E+00
         0.00000E+00
         0.00000E+00
         0.00000E+00
         0.00000E+00
         0.00000E+00
         0.00000E+00
         0.00000E+00
         0.00000E+00
         0.00000E+00
         0.00000E+00
         0.00000E+00
         0.00000E+00
         0.00000E+00
         0.00000E+00
         0.00000E+00
         0.00000E+00
         0.00000E+00
         0.00000E+00
         0.00000E+00
         0.00000E+00
         0.00000E+00
         0.00000E+00
         0.00000E+00
         0.00000E+00
         0.00000E+00
         0.00000E+00
         0.00000E+00
         0.00000E+00
         0.00000E+00
         0.00000E+00
         0.00000E+00
         0.00000E+00
         0.00000E+00
         0.00000E+00
         0.00000E+00
         0.00000E+00
         0.00000E+00
         0.00000E+00
         0.00000E+00
         0.00000E+00
         0.00000E+00
         0.00000E+00
         0.00000E+00
         0.00000E+00
         0.00000E+00
         0.00000E+00
         0.00000E+00
         0.00000E+00
         0.00000E+00
         0.00000E+00
         0.00000E+00
         0.00000E+00
         0.00000E+00
         0.00000E+00
         0.00000E+00
         0.00000E+00
         0.00000E+00
         0.00000E+00
         0.00000E+00
         0.00000E+00
         0.00000E+00
         0.00000E+00
         0.00000E+00
         0.00000E+00
         0.00000E+00
         0.00000E+00
         0.00000E+00
         0.00000E+00
         0.00000E+00
         0.00000E+00
         0.00000E+00
         0.00000E+00
         0.00000E+00
         0.00000E+00
         0.00000E+00
         0.00000E+00
         0.00000E+00
         0.00000E+00
         0.00000E+00
         0.00000E+00
         0.00000E+00
         0.00000E+00
         0.00000E+00
         0.00000E+00
         0.00000E+00
         0.00000E+00
         0.00000E+00
         0.00000E+00
         0.00000E+00
         0.00000E+00
         0.00000E+00
         0.00000E+00
         0.00000E+00
         0.00000E+00
         0.00000E+00
         0.00000E+00
         0.00000E+00
         0.00000E+00
         0.00000E+00
         0.00000E+00
         0.00000E+00
         0.00000E+00
         0.00000E+00
         0.00000E+00
         0.00000E+00
         0.00000E+00
         0.00000E+00
         0.00000E+00
         0.00000E+00
         0.00000E+00
         0.00000E+00
         0.00000E+00
         0.00000E+00
         0.00000E+00
         0.00000E+00
         0.00000E+00
         0.00000E+00
         0.00000E+00
         0.00000E+00
         0.00000E+00
         0.00000E+00
         0.00000E+00
         0.00000E+00
         0.00000E+00
         0.00000E+00
         0.00000E+00
         0.00000E+00
         0.00000E+00
         0.00000E+00
         0.00000E+00
         0.00000E+00
         0.00000E+00
         0.00000E+00
         0.00000E+00
         0.00000E+00
         0.00000E+00
         0.00000E+00
         0.00000E+00
         0.00000E+00
         0.00000E+00
         0.00000E+00
         0.00000E+00
         0.00000E+00
         0.00000E+00
         0.00000E+00
         0.00000E+00
         0.00000E+00
         0.00000E+00
         0.00000E+00
         0.00000E+00
         0.00000E+00
         0.00000E+00
         0.00000E+00
         0.00000E+00
         0.00000E+00
         0.00000E+00
         0.00000E+00
         0.00000E+00
         0.00000E+00
         0.00000E+00
         0.00000E+00
         0.00000E+00
         0.00000E+00
         0.00000E+00
         0.00000E+00
         0.00000E+00
         0.00000E+00
         0.00000E+00
         0.00000E+00
         0.00000E+00
         0.00000E+00
         0.00000E+00
         0.00000E+00
         0.00000E+00
         0.00000E+00
         0.00000E+00
         0.00000E+00
         0.00000E+00
         0.00000E+00
         0.00000E+00
         0.00000E+00
         0.00000E+00
         0.00000E+00
         0.00000E+00
         0.00000E+00
         0.00000E+00
         0.00000E+00
         0.00000E+00
         0.00000E+00
         0.00000E+00
         0.00000E+00
         0.00000E+00
         0.00000E+00
         0.00000E+00
         0.00000E+00
         0.00000E+00
         0.00000E+00
         0.00000E+00
         0.00000E+00
         0.00000E+00
         0.00000E+00
         0.00000E+00
         0.00000E+00
         0.00000E+00
         0.00000E+00
         0.00000E+00
         0.00000E+00
         0.00000E+00
         0.00000E+00
         0.00000E+00
         0.00000E+00
         0.00000E+00
         0.00000E+00
         0.00000E+00
         0.00000E+00
         0.00000E+00
         0.00000E+00
         0.00000E+00
         0.00000E+00
         0.00000E+00
         0.00000E+00
         0.00000E+00
         0.00000E+00
         0.00000E+00
         0.00000E+00
         0.00000E+00
         0.00000E+00
         0.00000E+00
         0.00000E+00
         0.00000E+00
         0.00000E+00
         0.00000E+00
         0.00000E+00
         0.00000E+00
         0.00000E+00
         0.00000E+00
         0.00000E+00
         0.00000E+00
         0.00000E+00
         0.00000E+00
         0.00000E+00
         0.00000E+00
         0.00000E+00
         0.00000E+00
         0.00000E+00
         0.00000E+00
         0.00000E+00
         0.00000E+00
         0.00000E+00
         0.00000E+00
         0.00000E+00
         0.00000E+00
         0.00000E+00
         0.00000E+00
         0.00000E+00
         0.00000E+00
         0.00000E+00
         0.00000E+00
         0.00000E+00
         0.00000E+00
         0.00000E+00
         0.00000E+00
         0.00000E+00
         0.00000E+00
         0.00000E+00
         0.00000E+00
         0.00000E+00
         0.00000E+00
         0.00000E+00
         0.00000E+00
         0.00000E+00
         0.00000E+00
         0.00000E+00
         0.00000E+00
         0.00000E+00
         0.00000E+00
         0.00000E+00
         0.00000E+00
         0.00000E+00
         0.00000E+00
         0.00000E+00
         0.00000E+00
         0.00000E+00
         0.00000E+00
         0.00000E+00
         0.00000E+00
         0.00000E+00
         0.00000E+00
         0.00000E+00
         0.00000E+00
         0.00000E+00
         0.00000E+00
         0.00000E+00
         0.00000E+00
         0.00000E+00
         0.00000E+00
         0.00000E+00
         0.00000E+00
         0.00000E+00
         0.00000E+00
         0.00000E+00
         0.00000E+00
         0.00000E+00
         0.00000E+00
         0.00000E+00
         0.00000E+00
         0.00000E+00
         0.00000E+00
         0.00000E+00
         0.00000E+00
         0.00000E+00
         0.00000E+00
         0.00000E+00
         0.00000E+00
         0.00000E+00
         0.00000E+00
         0.00000E+00
         0.00000E+00
         0.00000E+00
         0.00000E+00
         0.00000E+00
         0.00000E+00
         0.00000E+00
         0.00000E+00
         0.00000E+00
         0.00000E+00
         0.00000E+00
         0.00000E+00
         0.00000E+00
         0.00000E+00
         0.00000E+00
         0.00000E+00
         0.00000E+00
         0.00000E+00
         0.00000E+00
         0.00000E+00
         0.00000E+00
         0.00000E+00
         0.00000E+00
         0.00000E+00
         0.00000E+00
         0.00000E+00
         0.00000E+00
         0.00000E+00
         0.00000E+00
         0.00000E+00
         0.00000E+00
         0.00000E+00
         0.00000E+00
         0.00000E+00
         0.00000E+00
         0.00000E+00
         0.00000E+00
         0.00000E+00
         0.00000E+00
         0.00000E+00
         0.00000E+00
         0.00000E+00
         0.00000E+00
         0.00000E+00
         0.00000E+00
         0.00000E+00
         0.00000E+00
         0.00000E+00
         0.00000E+00
         0.00000E+00
         0.00000E+00
         0.00000E+00
         0.00000E+00
         0.00000E+00
         0.00000E+00
         0.00000E+00
         0.00000E+00
         0.00000E+00
         0.00000E+00
         0.00000E+00
         0.00000E+00
         0.00000E+00
         0.00000E+00
         0.00000E+00
         0.00000E+00
         0.00000E+00
         0.00000E+00
         0.00000E+00
         0.00000E+00
         0.00000E+00
         0.00000E+00
         0.00000E+00
         0.00000E+00
         0.00000E+00
         0.00000E+00
         0.00000E+00
         0.00000E+00
         0.00000E+00
         0.00000E+00
         0.00000E+00
         0.00000E+00
         0.00000E+00
         0.00000E+00
         0.00000E+00
         0.00000E+00
         0.00000E+00
         0.00000E+00
         0.00000E+00
         0.00000E+00
         0.00000E+00
         0.00000E+00
         0.00000E+00
         0.00000E+00
         0.00000E+00
         0.00000E+00
         0.00000E+00
         0.00000E+00
         0.00000E+00
         0.00000E+00
         0.00000E+00
         0.00000E+00
         0.00000E+00
         0.00000E+00
         0.00000E+00
         0.00000E+00
         0.00000E+00
         0.00000E+00
         0.00000E+00
         0.00000E+00
         0.00000E+00
         0.00000E+00
         0.00000E+00
         0.00000E+00
         0.00000E+00
         0.00000E+00
         0.00000E+00
         0.00000E+00
         0.00000E+00
         0.00000E+00
         0.00000E+00
         0.00000E+00
         0.00000E+00
         0.00000E+00
         0.00000E+00
         0.00000E+00
         0.00000E+00
         0.00000E+00
         0.00000E+00
         0.00000E+00
         0.00000E+00
         0.00000E+00
         0.00000E+00
         0.00000E+00
         0.00000E+00
         0.00000E+00
         0.00000E+00
         0.00000E+00
         0.00000E+00
         0.00000E+00
         0.00000E+00
         0.00000E+00
         0.00000E+00
         0.00000E+00
         0.00000E+00
         0.00000E+00
         0.00000E+00
         0.00000E+00
         0.00000E+00
         0.00000E+00
         0.00000E+00
         0.00000E+00
         0.00000E+00
         0.00000E+00
         0.00000E+00
         0.00000E+00
         0.00000E+00
         0.00000E+00
         0.00000E+00
         0.00000E+00
         0.00000E+00
         0.00000E+00
         0.00000E+00
         0.00000E+00
         0.00000E+00
         0.00000E+00
         0.00000E+00
         0.00000E+00
         0.00000E+00
         0.00000E+00
         0.00000E+00
         0.00000E+00
         0.00000E+00
         0.00000E+00
         0.00000E+00
         0.00000E+00
         0.00000E+00
         0.00000E+00
         0.00000E+00
         0.00000E+00
         0.00000E+00
         0.00000E+00
         0.00000E+00
         0.00000E+00
         0.00000E+00
         0.00000E+00
         0.00000E+00
         0.00000E+00
         0.00000E+00
         0.00000E+00
         0.00000E+00
         0.00000E+00
         0.00000E+00
         0.00000E+00
         0.00000E+00
         0.00000E+00
         0.00000E+00
         0.00000E+00
         0.00000E+00
         0.00000E+00
         0.00000E+00
         0.00000E+00
         0.00000E+00
         0.00000E+00
         0.00000E+00
         0.00000E+00
         0.00000E+00
         0.00000E+00
         0.00000E+00
         0.00000E+00
         0.00000E+00
         0.00000E+00
         0.00000E+00
         0.00000E+00
         0.00000E+00
         0.00000E+00
         0.00000E+00
         0.00000E+00
         0.00000E+00
         0.00000E+00
         0.00000E+00
         0.00000E+00
         0.00000E+00
         0.00000E+00
         0.00000E+00
         0.00000E+00
         0.00000E+00
         0.00000E+00
         0.00000E+00
         0.00000E+00
         0.00000E+00
         0.00000E+00
         0.00000E+00
         0.00000E+00
         0.00000E+00
         0.00000E+00
         0.00000E+00
         0.00000E+00
         0.00000E+00
         0.00000E+00
         0.00000E+00
         0.00000E+00
         0.00000E+00
         0.00000E+00
         0.00000E+00
         0.00000E+00
         0.00000E+00
         0.00000E+00
         0.00000E+00
         0.00000E+00
         0.00000E+00
         0.00000E+00
         0.00000E+00
         0.00000E+00
         0.00000E+00
         0.00000E+00
         0.00000E+00
         0.00000E+00
         0.00000E+00
         0.00000E+00
         0.00000E+00
         0.00000E+00
         0.00000E+00
         0.00000E+00
         0.00000E+00
         0.00000E+00
         0.00000E+00
         0.00000E+00
         0.00000E+00
         0.00000E+00
         0.00000E+00
         0.00000E+00
         0.00000E+00
         0.00000E+00
         0.00000E+00
         0.00000E+00
         0.00000E+00
         0.00000E+00
         0.00000E+00
         0.00000E+00
         0.00000E+00
         0.00000E+00
         0.00000E+00
         0.00000E+00
         0.00000E+00
         0.00000E+00
         0.00000E+00
         0.00000E+00
         0.00000E+00
         0.00000E+00
         0.00000E+00
         0.00000E+00
         0.00000E+00
         0.00000E+00
         0.00000E+00
         0.00000E+00
         0.00000E+00
         0.00000E+00
         0.00000E+00
         0.00000E+00
         0.00000E+00
         0.00000E+00
         0.00000E+00
         0.00000E+00
         0.00000E+00
         0.00000E+00
         0.00000E+00
         0.00000E+00
         0.00000E+00
         0.00000E+00
         0.00000E+00
         0.00000E+00
         0.00000E+00
         0.00000E+00
         0.00000E+00
         0.00000E+00
         0.00000E+00
         0.00000E+00
         0.00000E+00
         0.00000E+00
         0.00000E+00
         0.00000E+00
         0.00000E+00
         0.00000E+00
         0.00000E+00
         0.00000E+00
         0.00000E+00
         0.00000E+00
         0.00000E+00
         0.00000E+00
         0.00000E+00
         0.00000E+00
         0.00000E+00
         0.00000E+00
         0.00000E+00
         0.00000E+00
         0.00000E+00
         0.00000E+00
         0.00000E+00
         0.00000E+00
         0.00000E+00
         0.00000E+00
         0.00000E+00
         0.00000E+00
         0.00000E+00
         0.00000E+00
         0.00000E+00
         0.00000E+00
         0.00000E+00
         0.00000E+00
         0.00000E+00
         0.00000E+00
         0.00000E+00
         0.00000E+00
         0.00000E+00
         0.00000E+00
         0.00000E+00
         0.00000E+00
         0.00000E+00
         0.00000E+00
         0.00000E+00
         0.00000E+00
         0.00000E+00
         0.00000E+00
         0.00000E+00
         0.00000E+00
         0.00000E+00
         0.00000E+00
         0.00000E+00
         0.00000E+00
         0.00000E+00
         0.00000E+00
         0.00000E+00
         0.00000E+00
         0.00000E+00
         0.00000E+00
         0.00000E+00
         0.00000E+00
         0.00000E+00
         0.00000E+00
         0.00000E+00
         0.00000E+00
         0.00000E+00
         0.00000E+00
         0.00000E+00
         0.00000E+00
         0.00000E+00
         0.00000E+00
         0.00000E+00
         0.00000E+00
         0.00000E+00
         0.00000E+00
         0.00000E+00
         0.00000E+00
         0.00000E+00
         0.00000E+00
         0.00000E+00
         0.00000E+00
         0.00000E+00
         0.00000E+00
         0.00000E+00
         0.00000E+00
         0.00000E+00
         0.00000E+00
         0.00000E+00
         0.00000E+00
         0.00000E+00
         0.00000E+00
         0.00000E+00
         0.00000E+00
         0.00000E+00
         0.00000E+00
         0.00000E+00
         0.00000E+00
         0.00000E+00
         0.00000E+00
         0.00000E+00
         0.00000E+00
         0.00000E+00
         0.00000E+00
         0.00000E+00
         0.00000E+00
         0.00000E+00
         0.00000E+00
         0.00000E+00
         0.00000E+00
         0.00000E+00
         0.00000E+00
         0.00000E+00
         0.00000E+00
         0.00000E+00
         0.00000E+00
         0.00000E+00
         0.00000E+00
         0.00000E+00
         0.00000E+00
         0.00000E+00
         0.00000E+00
         0.00000E+00
         0.00000E+00
         0.00000E+00
         0.00000E+00
         0.00000E+00
         0.00000E+00
         0.00000E+00
         0.00000E+00
         0.00000E+00
         0.00000E+00
         0.00000E+00
         0.00000E+00
         0.00000E+00
         0.00000E+00
         0.00000E+00
         0.00000E+00
         0.00000E+00
         0.00000E+00
         0.00000E+00
         0.00000E+00
         0.00000E+00
         0.00000E+00
         0.00000E+00
         0.00000E+00
         0.00000E+00
         0.00000E+00
         0.00000E+00
         0.00000E+00
         0.00000E+00
         0.00000E+00
         0.00000E+00
         0.00000E+00
         0.00000E+00
         0.00000E+00
         0.00000E+00
         0.00000E+00
         0.00000E+00
         0.00000E+00
         0.00000E+00
         0.00000E+00
         0.00000E+00
         0.00000E+00
         0.00000E+00
         0.00000E+00
         0.00000E+00
         0.00000E+00
         0.00000E+00
         0.00000E+00
         0.00000E+00
         0.00000E+00
         0.00000E+00
         0.00000E+00
         0.00000E+00
         0.00000E+00
         0.00000E+00
         0.00000E+00
         0.00000E+00
         0.00000E+00
         0.00000E+00
         0.00000E+00
         0.00000E+00
         0.00000E+00
         0.00000E+00
         0.00000E+00
         0.00000E+00
         0.00000E+00
         0.00000E+00
         0.00000E+00
         0.00000E+00
         0.00000E+00
         0.00000E+00
         0.00000E+00
         0.00000E+00
         0.00000E+00
         0.00000E+00
         0.00000E+00
         0.00000E+00
         0.00000E+00
         0.00000E+00
         0.00000E+00
         0.00000E+00
         0.00000E+00
         0.00000E+00
         0.00000E+00
         0.00000E+00
         0.00000E+00
         0.00000E+00
         0.00000E+00
         0.00000E+00
         0.00000E+00
         0.00000E+00
         0.00000E+00
         0.00000E+00
         0.00000E+00
         0.00000E+00
         0.00000E+00
         0.00000E+00
         0.00000E+00
         0.00000E+00
         0.00000E+00
         0.00000E+00
         0.00000E+00
         0.00000E+00
         0.00000E+00
         0.00000E+00
         0.00000E+00
         0.00000E+00
         0.00000E+00
         0.00000E+00
         0.00000E+00
         0.00000E+00
         0.00000E+00
         0.00000E+00
         0.00000E+00
         0.00000E+00
         0.00000E+00
         0.00000E+00
         0.00000E+00
         0.00000E+00
         0.00000E+00
         0.00000E+00
         0.00000E+00
         0.00000E+00
         0.00000E+00
         0.00000E+00
         0.00000E+00
         0.00000E+00
         0.00000E+00
         0.00000E+00
         0.00000E+00
         0.00000E+00
         0.00000E+00
         0.00000E+00
         0.00000E+00
         0.00000E+00
         0.00000E+00
         0.00000E+00
         0.00000E+00
         0.00000E+00
         0.00000E+00
         0.00000E+00
         0.00000E+00
         0.00000E+00
         0.00000E+00
         0.00000E+00
         0.00000E+00
         0.00000E+00
         0.00000E+00
         0.00000E+00
         0.00000E+00
         0.00000E+00
         0.00000E+00
         0.00000E+00
         0.00000E+00
         0.00000E+00
         0.00000E+00
         0.00000E+00
         0.00000E+00
         0.00000E+00
         0.00000E+00
         0.00000E+00
         0.00000E+00
         0.00000E+00
         0.00000E+00
         0.00000E+00
         0.00000E+00
         0.00000E+00
         0.00000E+00
         0.00000E+00
         0.00000E+00
         0.00000E+00
         0.00000E+00
         0.00000E+00
         0.00000E+00
         0.00000E+00
         0.00000E+00
         0.00000E+00
         0.00000E+00
         0.00000E+00
         0.00000E+00
         0.00000E+00
         0.00000E+00
         0.00000E+00
         0.00000E+00
         0.00000E+00
         0.00000E+00
         0.00000E+00
         0.00000E+00
         0.00000E+00
         0.00000E+00
         0.00000E+00
         0.00000E+00
         0.00000E+00
         0.00000E+00
         0.00000E+00
         0.00000E+00
         0.00000E+00
         0.00000E+00
         0.00000E+00
         0.00000E+00
         0.00000E+00
         0.00000E+00
         0.00000E+00
         0.00000E+00
         0.00000E+00
         0.00000E+00
         0.00000E+00
         0.00000E+00
         0.00000E+00
         0.00000E+00
         0.00000E+00
         0.00000E+00
         0.00000E+00
         0.00000E+00
         0.00000E+00
         0.00000E+00
         0.00000E+00
         0.00000E+00
         0.00000E+00
         0.00000E+00
         0.00000E+00
         0.00000E+00
         0.00000E+00
         0.00000E+00
         0.00000E+00
         0.00000E+00
         0.00000E+00
         0.00000E+00
         0.00000E+00
         0.00000E+00
         0.00000E+00
         0.00000E+00
         0.00000E+00
         0.00000E+00
         0.00000E+00
         0.00000E+00
         0.00000E+00
         0.00000E+00
         0.00000E+00
         0.00000E+00
         0.00000E+00
         0.00000E+00
         0.00000E+00
         0.00000E+00
         0.00000E+00
         0.00000E+00
         0.00000E+00
         0.00000E+00
         0.00000E+00
         0.00000E+00
         0.00000E+00
         0.00000E+00
         0.00000E+00
         0.00000E+00
         0.00000E+00
         0.00000E+00
         0.00000E+00
         0.00000E+00
         0.00000E+00
         0.00000E+00
         0.00000E+00
         0.00000E+00
         0.00000E+00
         0.00000E+00
         0.00000E+00
         0.00000E+00
         0.00000E+00
         0.00000E+00
         0.00000E+00
         0.00000E+00
         0.00000E+00
         0.00000E+00
         0.00000E+00
         0.00000E+00
         0.00000E+00
         0.00000E+00
         0.00000E+00
         0.00000E+00
         0.00000E+00
         0.00000E+00
         0.00000E+00
         0.00000E+00
         0.00000E+00
         0.00000E+00
         0.00000E+00
         0.00000E+00
         0.00000E+00
         0.00000E+00
         0.00000E+00
         0.00000E+00
         0.00000E+00
         0.00000E+00
         0.00000E+00
         0.00000E+00
         0.00000E+00
         0.00000E+00
         0.00000E+00
         0.00000E+00
         0.00000E+00
         0.00000E+00
         0.00000E+00
         0.00000E+00
         0.00000E+00
         0.00000E+00
         0.00000E+00
         0.00000E+00
         0.00000E+00
         0.00000E+00
         0.00000E+00
         0.00000E+00
         0.00000E+00
         0.00000E+00
         0.00000E+00
         0.00000E+00
         0.00000E+00
         0.00000E+00
         0.00000E+00
         0.00000E+00
         0.00000E+00
         0.00000E+00
         0.00000E+00
         0.00000E+00
         0.00000E+00
         0.00000E+00
         0.00000E+00
         0.00000E+00
         0.00000E+00
         0.00000E+00
         0.00000E+00
         0.00000E+00
         0.00000E+00
         0.00000E+00
         0.00000E+00
         0.00000E+00
         0.00000E+00
         0.00000E+00
         0.00000E+00
         0.00000E+00
         0.00000E+00
         0.00000E+00
         0.00000E+00
         0.00000E+00
         0.00000E+00
         0.00000E+00
         0.00000E+00
         0.00000E+00
         0.00000E+00
         0.00000E+00
         0.00000E+00
         0.00000E+00
         0.00000E+00
         0.00000E+00
         0.00000E+00
         0.00000E+00
         0.00000E+00
         0.00000E+00
         0.00000E+00
         0.00000E+00
         0.00000E+00
         0.00000E+00
         0.00000E+00
         0.00000E+00
         0.00000E+00
         0.00000E+00
         0.00000E+00
         0.00000E+00
         0.00000E+00
         0.00000E+00
         0.00000E+00
         0.00000E+00
         0.00000E+00
         0.00000E+00
         0.00000E+00
         0.00000E+00
         0.00000E+00
         0.00000E+00
         0.00000E+00
         0.00000E+00
         0.00000E+00
         0.00000E+00
         0.00000E+00
         0.00000E+00
         0.00000E+00
         0.00000E+00
         0.00000E+00
         0.00000E+00
         0.00000E+00
         0.00000E+00
         0.00000E+00
         0.00000E+00
         0.00000E+00
         0.00000E+00
         0.00000E+00
         0.00000E+00
         0.00000E+00
         0.00000E+00
         0.00000E+00
         0.00000E+00
         0.00000E+00
         0.00000E+00
         0.00000E+00
         0.00000E+00
         0.00000E+00
         0.00000E+00
         0.00000E+00
         0.00000E+00
         0.00000E+00
         0.00000E+00
         0.00000E+00
         0.00000E+00
         0.00000E+00
         0.00000E+00
         0.00000E+00
         0.00000E+00
         0.00000E+00
         0.00000E+00
         0.00000E+00
         0.00000E+00
         0.00000E+00
         0.00000E+00
         0.00000E+00
         0.00000E+00
         0.00000E+00
         0.00000E+00
         0.00000E+00
         0.00000E+00
         0.00000E+00
         0.00000E+00
         0.00000E+00
         0.00000E+00
         0.00000E+00
         0.00000E+00
         0.00000E+00
         0.00000E+00
         0.00000E+00
         0.00000E+00
         0.00000E+00
         0.00000E+00
         0.00000E+00
         0.00000E+00
         0.00000E+00
         0.00000E+00
         0.00000E+00
         0.00000E+00
         0.00000E+00
         0.00000E+00
         0.00000E+00
         0.00000E+00
         0.00000E+00
         0.00000E+00
         0.00000E+00
         0.00000E+00
         0.00000E+00
         0.00000E+00
         0.00000E+00
         0.00000E+00
         0.00000E+00
         0.00000E+00
         0.00000E+00
         0.00000E+00
         0.00000E+00
         0.00000E+00
         0.00000E+00
         0.00000E+00
         0.00000E+00
         0.00000E+00
         0.00000E+00
         0.00000E+00
         0.00000E+00
         0.00000E+00
         0.00000E+00
         0.00000E+00
         0.00000E+00
         0.00000E+00
         0.00000E+00
         0.00000E+00
         0.00000E+00
         0.00000E+00
         0.00000E+00
         0.00000E+00
         0.00000E+00
         0.00000E+00
         0.00000E+00
         0.00000E+00
         0.00000E+00
         0.00000E+00
         0.00000E+00
         0.00000E+00
         0.00000E+00
         0.00000E+00
         0.00000E+00
         0.00000E+00
         0.00000E+00
         0.00000E+00
         0.00000E+00
         0.00000E+00
         0.00000E+00
         0.00000E+00
         0.00000E+00
         0.00000E+00
         0.00000E+00
         0.00000E+00
         0.00000E+00
         0.00000E+00
         0.00000E+00
         0.00000E+00
         0.00000E+00
         0.00000E+00
         0.00000E+00
         0.00000E+00
         0.00000E+00
         0.00000E+00
         0.00000E+00
         0.00000E+00
         0.00000E+00
         0.00000E+00
         0.00000E+00
         0.00000E+00
         0.00000E+00
         0.00000E+00
         0.00000E+00
         0.00000E+00
         0.00000E+00
         0.00000E+00
         0.00000E+00
         0.00000E+00
         0.00000E+00
         0.00000E+00
         0.00000E+00
         0.00000E+00
         0.00000E+00
         0.00000E+00
         0.00000E+00
         0.00000E+00
         0.00000E+00
         0.00000E+00
         0.00000E+00
         0.00000E+00
         0.00000E+00
         0.00000E+00
         0.00000E+00
         0.00000E+00
         0.00000E+00
         0.00000E+00
         0.00000E+00
         0.00000E+00
         0.00000E+00
         0.00000E+00
         0.00000E+00
         0.00000E+00
         0.00000E+00
         0.00000E+00
         0.00000E+00
         0.00000E+00
         0.00000E+00
         0.00000E+00
         0.00000E+00
         0.00000E+00
         0.00000E+00
         0.00000E+00
         0.00000E+00
         0.00000E+00
         0.00000E+00
         0.00000E+00
         0.00000E+00
         0.00000E+00
         0.00000E+00
         0.00000E+00
         0.00000E+00
         0.00000E+00
         0.00000E+00
         0.00000E+00
         0.00000E+00
         0.00000E+00
         0.00000E+00
         0.00000E+00
         0.00000E+00
         0.00000E+00
         0.00000E+00
         0.00000E+00
         0.00000E+00
         0.00000E+00
         0.00000E+00
         0.00000E+00
         0.00000E+00
         0.00000E+00
         0.00000E+00
         0.00000E+00
         0.00000E+00
         0.00000E+00
         0.00000E+00
         0.00000E+00
         0.00000E+00
         0.00000E+00
         0.00000E+00
         0.00000E+00
         0.00000E+00
         0.00000E+00
         0.00000E+00
         0.00000E+00
         0.00000E+00
         0.00000E+00
         0.00000E+00
         0.00000E+00
         0.00000E+00
         0.00000E+00
         0.00000E+00
         0.00000E+00
         0.00000E+00
         0.00000E+00
         0.00000E+00
         0.00000E+00
         0.00000E+00
         0.00000E+00
         0.00000E+00
         0.00000E+00
         0.00000E+00
         0.00000E+00
         0.00000E+00
         0.00000E+00
         0.00000E+00
         0.00000E+00
         0.00000E+00
         0.00000E+00
         0.00000E+00
         0.00000E+00
         0.00000E+00
         0.00000E+00
         0.00000E+00
         0.00000E+00
         0.00000E+00
         0.00000E+00
         0.00000E+00
         0.00000E+00
         0.00000E+00
         0.00000E+00
         0.00000E+00
         0.00000E+00
         0.00000E+00
         0.00000E+00
         0.00000E+00
         0.00000E+00
         0.00000E+00
         0.00000E+00
         0.00000E+00
         0.00000E+00
         0.00000E+00
         0.00000E+00
         0.00000E+00
         0.00000E+00
         0.00000E+00
         0.00000E+00
         0.00000E+00
         0.00000E+00
         0.00000E+00
         0.00000E+00
         0.00000E+00
         0.00000E+00
         0.00000E+00
         0.00000E+00
         0.00000E+00
         0.00000E+00
         0.00000E+00
         0.00000E+00
         0.00000E+00
         0.00000E+00
         0.00000E+00
         0.00000E+00
         0.00000E+00
         0.00000E+00
         0.00000E+00
         0.00000E+00
         0.00000E+00
         0.00000E+00
         0.00000E+00
         0.00000E+00
         0.00000E+00
         0.00000E+00
         0.00000E+00
         0.00000E+00
         0.00000E+00
         0.00000E+00
         0.00000E+00
         0.00000E+00
         0.00000E+00
         0.00000E+00
         0.00000E+00
         0.00000E+00
         0.00000E+00
         0.00000E+00
         0.00000E+00
         0.00000E+00
         0.00000E+00
         0.00000E+00
         0.00000E+00
         0.00000E+00
         0.00000E+00
         0.00000E+00
         0.00000E+00
         0.00000E+00
         0.00000E+00
         0.00000E+00
         0.00000E+00
         0.00000E+00
         0.00000E+00
         0.00000E+00
         0.00000E+00
  
SCALARS                 displacement_y  double 1
LOOKUP_TABLE default
         0.00000E+00
         0.00000E+00
         0.00000E+00
         0.00000E+00
         0.00000E+00
         0.00000E+00
         0.00000E+00
         0.00000E+00
         0.00000E+00
         0.00000E+00
         0.00000E+00
         0.00000E+00
         0.00000E+00
         0.00000E+00
         0.00000E+00
         0.00000E+00
         0.00000E+00
         0.00000E+00
         0.00000E+00
         0.00000E+00
         0.00000E+00
         0.00000E+00
         0.00000E+00
         0.00000E+00
         0.00000E+00
         0.00000E+00
         0.00000E+00
         0.00000E+00
         0.00000E+00
         0.00000E+00
         0.00000E+00
         0.00000E+00
         0.00000E+00
         0.00000E+00
         0.00000E+00
         0.00000E+00
         0.00000E+00
         0.00000E+00
         0.00000E+00
         0.00000E+00
         0.00000E+00
         0.00000E+00
         0.00000E+00
         0.00000E+00
         0.00000E+00
         0.00000E+00
         0.00000E+00
         0.00000E+00
         0.00000E+00
         0.00000E+00
         0.00000E+00
         0.00000E+00
         0.00000E+00
         0.00000E+00
         0.00000E+00
         0.00000E+00
         0.00000E+00
         0.00000E+00
         0.00000E+00
         0.00000E+00
         0.00000E+00
         0.00000E+00
         0.00000E+00
         0.00000E+00
         0.00000E+00
         0.00000E+00
         0.00000E+00
         0.00000E+00
         0.00000E+00
         0.00000E+00
         0.00000E+00
         0.00000E+00
         0.00000E+00
         0.00000E+00
         0.00000E+00
         0.00000E+00
         0.00000E+00
         0.00000E+00
         0.00000E+00
         0.00000E+00
         0.00000E+00
         0.00000E+00
         0.00000E+00
         0.00000E+00
         0.00000E+00
         0.00000E+00
         0.00000E+00
         0.00000E+00
         0.00000E+00
         0.00000E+00
         0.00000E+00
         0.00000E+00
         0.00000E+00
         0.00000E+00
         0.00000E+00
         0.00000E+00
         0.00000E+00
         0.00000E+00
         0.00000E+00
         0.00000E+00
         0.00000E+00
         0.00000E+00
         0.00000E+00
         0.00000E+00
         0.00000E+00
         0.00000E+00
         0.00000E+00
         0.00000E+00
         0.00000E+00
         0.00000E+00
         0.00000E+00
         0.00000E+00
         0.00000E+00
         0.00000E+00
         0.00000E+00
         0.00000E+00
         0.00000E+00
         0.00000E+00
         0.00000E+00
         0.00000E+00
         0.00000E+00
         0.00000E+00
         0.00000E+00
         0.00000E+00
         0.00000E+00
         0.00000E+00
         0.00000E+00
         0.00000E+00
         0.00000E+00
         0.00000E+00
         0.00000E+00
         0.00000E+00
         0.00000E+00
         0.00000E+00
         0.00000E+00
         0.00000E+00
         0.00000E+00
         0.00000E+00
         0.00000E+00
         0.00000E+00
         0.00000E+00
         0.00000E+00
         0.00000E+00
         0.00000E+00
         0.00000E+00
         0.00000E+00
         0.00000E+00
         0.00000E+00
         0.00000E+00
         0.00000E+00
         0.00000E+00
         0.00000E+00
         0.00000E+00
         0.00000E+00
         0.00000E+00
         0.00000E+00
         0.00000E+00
         0.00000E+00
         0.00000E+00
         0.00000E+00
         0.00000E+00
         0.00000E+00
         0.00000E+00
         0.00000E+00
         0.00000E+00
         0.00000E+00
         0.00000E+00
         0.00000E+00
         0.00000E+00
         0.00000E+00
         0.00000E+00
         0.00000E+00
         0.00000E+00
         0.00000E+00
         0.00000E+00
         0.00000E+00
         0.00000E+00
         0.00000E+00
         0.00000E+00
         0.00000E+00
         0.00000E+00
         0.00000E+00
         0.00000E+00
         0.00000E+00
         0.00000E+00
         0.00000E+00
         0.00000E+00
         0.00000E+00
         0.00000E+00
         0.00000E+00
         0.00000E+00
         0.00000E+00
         0.00000E+00
         0.00000E+00
         0.00000E+00
         0.00000E+00
         0.00000E+00
         0.00000E+00
         0.00000E+00
         0.00000E+00
         0.00000E+00
         0.00000E+00
         0.00000E+00
         0.00000E+00
         0.00000E+00
         0.00000E+00
         0.00000E+00
         0.00000E+00
         0.00000E+00
         0.00000E+00
         0.00000E+00
         0.00000E+00
         0.00000E+00
         0.00000E+00
         0.00000E+00
         0.00000E+00
         0.00000E+00
         0.00000E+00
         0.00000E+00
         0.00000E+00
         0.00000E+00
         0.00000E+00
         0.00000E+00
         0.00000E+00
         0.00000E+00
         0.00000E+00
         0.00000E+00
         0.00000E+00
         0.00000E+00
         0.00000E+00
         0.00000E+00
         0.00000E+00
         0.00000E+00
         0.00000E+00
         0.00000E+00
         0.00000E+00
         0.00000E+00
         0.00000E+00
         0.00000E+00
         0.00000E+00
         0.00000E+00
         0.00000E+00
         0.00000E+00
         0.00000E+00
         0.00000E+00
         0.00000E+00
         0.00000E+00
         0.00000E+00
         0.00000E+00
         0.00000E+00
         0.00000E+00
         0.00000E+00
         0.00000E+00
         0.00000E+00
         0.00000E+00
         0.00000E+00
         0.00000E+00
         0.00000E+00
         0.00000E+00
         0.00000E+00
         0.00000E+00
         0.00000E+00
         0.00000E+00
         0.00000E+00
         0.00000E+00
         0.00000E+00
         0.00000E+00
         0.00000E+00
         0.00000E+00
         0.00000E+00
         0.00000E+00
         0.00000E+00
         0.00000E+00
         0.00000E+00
         0.00000E+00
         0.00000E+00
         0.00000E+00
         0.00000E+00
         0.00000E+00
         0.00000E+00
         0.00000E+00
         0.00000E+00
         0.00000E+00
         0.00000E+00
         0.00000E+00
         0.00000E+00
         0.00000E+00
         0.00000E+00
         0.00000E+00
         0.00000E+00
         0.00000E+00
         0.00000E+00
         0.00000E+00
         0.00000E+00
         0.00000E+00
         0.00000E+00
         0.00000E+00
         0.00000E+00
         0.00000E+00
         0.00000E+00
         0.00000E+00
         0.00000E+00
         0.00000E+00
         0.00000E+00
         0.00000E+00
         0.00000E+00
         0.00000E+00
         0.00000E+00
         0.00000E+00
         0.00000E+00
         0.00000E+00
         0.00000E+00
         0.00000E+00
         0.00000E+00
         0.00000E+00
         0.00000E+00
         0.00000E+00
         0.00000E+00
         0.00000E+00
         0.00000E+00
         0.00000E+00
         0.00000E+00
         0.00000E+00
         0.00000E+00
         0.00000E+00
         0.00000E+00
         0.00000E+00
         0.00000E+00
         0.00000E+00
         0.00000E+00
         0.00000E+00
         0.00000E+00
         0.00000E+00
         0.00000E+00
         0.00000E+00
         0.00000E+00
         0.00000E+00
         0.00000E+00
         0.00000E+00
         0.00000E+00
         0.00000E+00
         0.00000E+00
         0.00000E+00
         0.00000E+00
         0.00000E+00
         0.00000E+00
         0.00000E+00
         0.00000E+00
         0.00000E+00
         0.00000E+00
         0.00000E+00
         0.00000E+00
         0.00000E+00
         0.00000E+00
         0.00000E+00
         0.00000E+00
         0.00000E+00
         0.00000E+00
         0.00000E+00
         0.00000E+00
         0.00000E+00
         0.00000E+00
         0.00000E+00
         0.00000E+00
         0.00000E+00
         0.00000E+00
         0.00000E+00
         0.00000E+00
         0.00000E+00
         0.00000E+00
         0.00000E+00
         0.00000E+00
         0.00000E+00
         0.00000E+00
         0.00000E+00
         0.00000E+00
         0.00000E+00
         0.00000E+00
         0.00000E+00
         0.00000E+00
         0.00000E+00
         0.00000E+00
         0.00000E+00
         0.00000E+00
         0.00000E+00
         0.00000E+00
         0.00000E+00
         0.00000E+00
         0.00000E+00
         0.00000E+00
         0.00000E+00
         0.00000E+00
         0.00000E+00
         0.00000E+00
         0.00000E+00
         0.00000E+00
         0.00000E+00
         0.00000E+00
         0.00000E+00
         0.00000E+00
         0.00000E+00
         0.00000E+00
         0.00000E+00
         0.00000E+00
         0.00000E+00
         0.00000E+00
         0.00000E+00
         0.00000E+00
         0.00000E+00
         0.00000E+00
         0.00000E+00
         0.00000E+00
         0.00000E+00
         0.00000E+00
         0.00000E+00
         0.00000E+00
         0.00000E+00
         0.00000E+00
         0.00000E+00
         0.00000E+00
         0.00000E+00
         0.00000E+00
         0.00000E+00
         0.00000E+00
         0.00000E+00
         0.00000E+00
         0.00000E+00
         0.00000E+00
         0.00000E+00
         0.00000E+00
         0.00000E+00
         0.00000E+00
         0.00000E+00
         0.00000E+00
         0.00000E+00
         0.00000E+00
         0.00000E+00
         0.00000E+00
         0.00000E+00
         0.00000E+00
         0.00000E+00
         0.00000E+00
         0.00000E+00
         0.00000E+00
         0.00000E+00
         0.00000E+00
         0.00000E+00
         0.00000E+00
         0.00000E+00
         0.00000E+00
         0.00000E+00
         0.00000E+00
         0.00000E+00
         0.00000E+00
         0.00000E+00
         0.00000E+00
         0.00000E+00
         0.00000E+00
         0.00000E+00
         0.00000E+00
         0.00000E+00
         0.00000E+00
         0.00000E+00
         0.00000E+00
         0.00000E+00
         0.00000E+00
         0.00000E+00
         0.00000E+00
         0.00000E+00
         0.00000E+00
         0.00000E+00
         0.00000E+00
         0.00000E+00
         0.00000E+00
         0.00000E+00
         0.00000E+00
         0.00000E+00
         0.00000E+00
         0.00000E+00
         0.00000E+00
         0.00000E+00
         0.00000E+00
         0.00000E+00
         0.00000E+00
         0.00000E+00
         0.00000E+00
         0.00000E+00
         0.00000E+00
         0.00000E+00
         0.00000E+00
         0.00000E+00
         0.00000E+00
         0.00000E+00
         0.00000E+00
         0.00000E+00
         0.00000E+00
         0.00000E+00
         0.00000E+00
         0.00000E+00
         0.00000E+00
         0.00000E+00
         0.00000E+00
         0.00000E+00
         0.00000E+00
         0.00000E+00
         0.00000E+00
         0.00000E+00
         0.00000E+00
         0.00000E+00
         0.00000E+00
         0.00000E+00
         0.00000E+00
         0.00000E+00
         0.00000E+00
         0.00000E+00
         0.00000E+00
         0.00000E+00
         0.00000E+00
         0.00000E+00
         0.00000E+00
         0.00000E+00
         0.00000E+00
         0.00000E+00
         0.00000E+00
         0.00000E+00
         0.00000E+00
         0.00000E+00
         0.00000E+00
         0.00000E+00
         0.00000E+00
         0.00000E+00
         0.00000E+00
         0.00000E+00
         0.00000E+00
         0.00000E+00
         0.00000E+00
         0.00000E+00
         0.00000E+00
         0.00000E+00
         0.00000E+00
         0.00000E+00
         0.00000E+00
         0.00000E+00
         0.00000E+00
         0.00000E+00
         0.00000E+00
         0.00000E+00
         0.00000E+00
         0.00000E+00
         0.00000E+00
         0.00000E+00
         0.00000E+00
         0.00000E+00
         0.00000E+00
         0.00000E+00
         0.00000E+00
         0.00000E+00
         0.00000E+00
         0.00000E+00
         0.00000E+00
         0.00000E+00
         0.00000E+00
         0.00000E+00
         0.00000E+00
         0.00000E+00
         0.00000E+00
         0.00000E+00
         0.00000E+00
         0.00000E+00
         0.00000E+00
         0.00000E+00
         0.00000E+00
         0.00000E+00
         0.00000E+00
         0.00000E+00
         0.00000E+00
         0.00000E+00
         0.00000E+00
         0.00000E+00
         0.00000E+00
         0.00000E+00
         0.00000E+00
         0.00000E+00
         0.00000E+00
         0.00000E+00
         0.00000E+00
         0.00000E+00
         0.00000E+00
         0.00000E+00
         0.00000E+00
         0.00000E+00
         0.00000E+00
         0.00000E+00
         0.00000E+00
         0.00000E+00
         0.00000E+00
         0.00000E+00
         0.00000E+00
         0.00000E+00
         0.00000E+00
         0.00000E+00
         0.00000E+00
         0.00000E+00
         0.00000E+00
         0.00000E+00
         0.00000E+00
         0.00000E+00
         0.00000E+00
         0.00000E+00
         0.00000E+00
         0.00000E+00
         0.00000E+00
         0.00000E+00
         0.00000E+00
         0.00000E+00
         0.00000E+00
         0.00000E+00
         0.00000E+00
         0.00000E+00
         0.00000E+00
         0.00000E+00
         0.00000E+00
         0.00000E+00
         0.00000E+00
         0.00000E+00
         0.00000E+00
         0.00000E+00
         0.00000E+00
         0.00000E+00
         0.00000E+00
         0.00000E+00
         0.00000E+00
         0.00000E+00
         0.00000E+00
         0.00000E+00
         0.00000E+00
         0.00000E+00
         0.00000E+00
         0.00000E+00
         0.00000E+00
         0.00000E+00
         0.00000E+00
         0.00000E+00
         0.00000E+00
         0.00000E+00
         0.00000E+00
         0.00000E+00
         0.00000E+00
         0.00000E+00
         0.00000E+00
         0.00000E+00
         0.00000E+00
         0.00000E+00
         0.00000E+00
         0.00000E+00
         0.00000E+00
         0.00000E+00
         0.00000E+00
         0.00000E+00
         0.00000E+00
         0.00000E+00
         0.00000E+00
         0.00000E+00
         0.00000E+00
         0.00000E+00
         0.00000E+00
         0.00000E+00
         0.00000E+00
         0.00000E+00
         0.00000E+00
         0.00000E+00
         0.00000E+00
         0.00000E+00
         0.00000E+00
         0.00000E+00
         0.00000E+00
         0.00000E+00
         0.00000E+00
         0.00000E+00
         0.00000E+00
         0.00000E+00
         0.00000E+00
         0.00000E+00
         0.00000E+00
         0.00000E+00
         0.00000E+00
         0.00000E+00
         0.00000E+00
         0.00000E+00
         0.00000E+00
         0.00000E+00
         0.00000E+00
         0.00000E+00
         0.00000E+00
         0.00000E+00
         0.00000E+00
         0.00000E+00
         0.00000E+00
         0.00000E+00
         0.00000E+00
         0.00000E+00
         0.00000E+00
         0.00000E+00
         0.00000E+00
         0.00000E+00
         0.00000E+00
         0.00000E+00
         0.00000E+00
         0.00000E+00
         0.00000E+00
         0.00000E+00
         0.00000E+00
         0.00000E+00
         0.00000E+00
         0.00000E+00
         0.00000E+00
         0.00000E+00
         0.00000E+00
         0.00000E+00
         0.00000E+00
         0.00000E+00
         0.00000E+00
         0.00000E+00
         0.00000E+00
         0.00000E+00
         0.00000E+00
         0.00000E+00
         0.00000E+00
         0.00000E+00
         0.00000E+00
         0.00000E+00
         0.00000E+00
         0.00000E+00
         0.00000E+00
         0.00000E+00
         0.00000E+00
         0.00000E+00
         0.00000E+00
         0.00000E+00
         0.00000E+00
         0.00000E+00
         0.00000E+00
         0.00000E+00
         0.00000E+00
         0.00000E+00
         0.00000E+00
         0.00000E+00
         0.00000E+00
         0.00000E+00
         0.00000E+00
         0.00000E+00
         0.00000E+00
         0.00000E+00
         0.00000E+00
         0.00000E+00
         0.00000E+00
         0.00000E+00
         0.00000E+00
         0.00000E+00
         0.00000E+00
         0.00000E+00
         0.00000E+00
         0.00000E+00
         0.00000E+00
         0.00000E+00
         0.00000E+00
         0.00000E+00
         0.00000E+00
         0.00000E+00
         0.00000E+00
         0.00000E+00
         0.00000E+00
         0.00000E+00
         0.00000E+00
         0.00000E+00
         0.00000E+00
         0.00000E+00
         0.00000E+00
         0.00000E+00
         0.00000E+00
         0.00000E+00
         0.00000E+00
         0.00000E+00
         0.00000E+00
         0.00000E+00
         0.00000E+00
         0.00000E+00
         0.00000E+00
         0.00000E+00
         0.00000E+00
         0.00000E+00
         0.00000E+00
         0.00000E+00
         0.00000E+00
         0.00000E+00
         0.00000E+00
         0.00000E+00
         0.00000E+00
         0.00000E+00
         0.00000E+00
         0.00000E+00
         0.00000E+00
         0.00000E+00
         0.00000E+00
         0.00000E+00
         0.00000E+00
         0.00000E+00
         0.00000E+00
         0.00000E+00
         0.00000E+00
         0.00000E+00
         0.00000E+00
         0.00000E+00
         0.00000E+00
         0.00000E+00
         0.00000E+00
         0.00000E+00
         0.00000E+00
         0.00000E+00
         0.00000E+00
         0.00000E+00
         0.00000E+00
         0.00000E+00
         0.00000E+00
         0.00000E+00
         0.00000E+00
         0.00000E+00
         0.00000E+00
         0.00000E+00
         0.00000E+00
         0.00000E+00
         0.00000E+00
         0.00000E+00
         0.00000E+00
         0.00000E+00
         0.00000E+00
         0.00000E+00
         0.00000E+00
         0.00000E+00
         0.00000E+00
         0.00000E+00
         0.00000E+00
         0.00000E+00
         0.00000E+00
         0.00000E+00
         0.00000E+00
         0.00000E+00
         0.00000E+00
         0.00000E+00
         0.00000E+00
         0.00000E+00
         0.00000E+00
         0.00000E+00
         0.00000E+00
         0.00000E+00
         0.00000E+00
         0.00000E+00
         0.00000E+00
         0.00000E+00
         0.00000E+00
         0.00000E+00
         0.00000E+00
         0.00000E+00
         0.00000E+00
         0.00000E+00
         0.00000E+00
         0.00000E+00
         0.00000E+00
         0.00000E+00
         0.00000E+00
         0.00000E+00
         0.00000E+00
         0.00000E+00
         0.00000E+00
         0.00000E+00
         0.00000E+00
         0.00000E+00
         0.00000E+00
         0.00000E+00
         0.00000E+00
         0.00000E+00
         0.00000E+00
         0.00000E+00
         0.00000E+00
         0.00000E+00
         0.00000E+00
         0.00000E+00
         0.00000E+00
         0.00000E+00
         0.00000E+00
         0.00000E+00
         0.00000E+00
         0.00000E+00
         0.00000E+00
         0.00000E+00
         0.00000E+00
         0.00000E+00
         0.00000E+00
         0.00000E+00
         0.00000E+00
         0.00000E+00
         0.00000E+00
         0.00000E+00
         0.00000E+00
         0.00000E+00
         0.00000E+00
         0.00000E+00
         0.00000E+00
         0.00000E+00
         0.00000E+00
         0.00000E+00
         0.00000E+00
         0.00000E+00
         0.00000E+00
         0.00000E+00
         0.00000E+00
         0.00000E+00
         0.00000E+00
         0.00000E+00
         0.00000E+00
         0.00000E+00
         0.00000E+00
         0.00000E+00
         0.00000E+00
         0.00000E+00
         0.00000E+00
         0.00000E+00
         0.00000E+00
         0.00000E+00
         0.00000E+00
         0.00000E+00
         0.00000E+00
         0.00000E+00
         0.00000E+00
         0.00000E+00
         0.00000E+00
         0.00000E+00
         0.00000E+00
         0.00000E+00
         0.00000E+00
         0.00000E+00
         0.00000E+00
         0.00000E+00
         0.00000E+00
         0.00000E+00
         0.00000E+00
         0.00000E+00
         0.00000E+00
         0.00000E+00
         0.00000E+00
         0.00000E+00
         0.00000E+00
         0.00000E+00
         0.00000E+00
         0.00000E+00
         0.00000E+00
         0.00000E+00
         0.00000E+00
         0.00000E+00
         0.00000E+00
         0.00000E+00
         0.00000E+00
         0.00000E+00
         0.00000E+00
         0.00000E+00
         0.00000E+00
         0.00000E+00
         0.00000E+00
         0.00000E+00
         0.00000E+00
         0.00000E+00
         0.00000E+00
         0.00000E+00
         0.00000E+00
         0.00000E+00
         0.00000E+00
         0.00000E+00
         0.00000E+00
         0.00000E+00
         0.00000E+00
         0.00000E+00
         0.00000E+00
         0.00000E+00
         0.00000E+00
         0.00000E+00
         0.00000E+00
         0.00000E+00
         0.00000E+00
         0.00000E+00
         0.00000E+00
         0.00000E+00
         0.00000E+00
         0.00000E+00
         0.00000E+00
         0.00000E+00
         0.00000E+00
         0.00000E+00
         0.00000E+00
         0.00000E+00
         0.00000E+00
         0.00000E+00
         0.00000E+00
         0.00000E+00
         0.00000E+00
         0.00000E+00
         0.00000E+00
         0.00000E+00
         0.00000E+00
         0.00000E+00
         0.00000E+00
         0.00000E+00
         0.00000E+00
         0.00000E+00
         0.00000E+00
         0.00000E+00
         0.00000E+00
         0.00000E+00
         0.00000E+00
         0.00000E+00
         0.00000E+00
         0.00000E+00
         0.00000E+00
         0.00000E+00
         0.00000E+00
         0.00000E+00
         0.00000E+00
         0.00000E+00
         0.00000E+00
         0.00000E+00
         0.00000E+00
         0.00000E+00
         0.00000E+00
         0.00000E+00
         0.00000E+00
         0.00000E+00
         0.00000E+00
         0.00000E+00
         0.00000E+00
         0.00000E+00
         0.00000E+00
         0.00000E+00
         0.00000E+00
         0.00000E+00
         0.00000E+00
         0.00000E+00
         0.00000E+00
         0.00000E+00
         0.00000E+00
         0.00000E+00
         0.00000E+00
         0.00000E+00
         0.00000E+00
         0.00000E+00
         0.00000E+00
         0.00000E+00
         0.00000E+00
         0.00000E+00
         0.00000E+00
         0.00000E+00
         0.00000E+00
         0.00000E+00
         0.00000E+00
         0.00000E+00
         0.00000E+00
         0.00000E+00
         0.00000E+00
         0.00000E+00
         0.00000E+00
         0.00000E+00
         0.00000E+00
         0.00000E+00
         0.00000E+00
         0.00000E+00
         0.00000E+00
         0.00000E+00
         0.00000E+00
         0.00000E+00
         0.00000E+00
         0.00000E+00
         0.00000E+00
         0.00000E+00
         0.00000E+00
         0.00000E+00
         0.00000E+00
         0.00000E+00
         0.00000E+00
         0.00000E+00
         0.00000E+00
         0.00000E+00
         0.00000E+00
         0.00000E+00
         0.00000E+00
         0.00000E+00
         0.00000E+00
         0.00000E+00
         0.00000E+00
         0.00000E+00
         0.00000E+00
         0.00000E+00
         0.00000E+00
         0.00000E+00
         0.00000E+00
         0.00000E+00
         0.00000E+00
         0.00000E+00
         0.00000E+00
         0.00000E+00
         0.00000E+00
         0.00000E+00
         0.00000E+00
         0.00000E+00
         0.00000E+00
         0.00000E+00
         0.00000E+00
         0.00000E+00
         0.00000E+00
         0.00000E+00
         0.00000E+00
         0.00000E+00
         0.00000E+00
         0.00000E+00
         0.00000E+00
         0.00000E+00
         0.00000E+00
         0.00000E+00
         0.00000E+00
         0.00000E+00
         0.00000E+00
         0.00000E+00
         0.00000E+00
         0.00000E+00
         0.00000E+00
         0.00000E+00
         0.00000E+00
         0.00000E+00
         0.00000E+00
         0.00000E+00
         0.00000E+00
         0.00000E+00
         0.00000E+00
         0.00000E+00
         0.00000E+00
         0.00000E+00
         0.00000E+00
         0.00000E+00
         0.00000E+00
         0.00000E+00
         0.00000E+00
         0.00000E+00
         0.00000E+00
         0.00000E+00
         0.00000E+00
         0.00000E+00
         0.00000E+00
         0.00000E+00
         0.00000E+00
         0.00000E+00
         0.00000E+00
         0.00000E+00
         0.00000E+00
         0.00000E+00
         0.00000E+00
         0.00000E+00
         0.00000E+00
         0.00000E+00
         0.00000E+00
         0.00000E+00
         0.00000E+00
         0.00000E+00
         0.00000E+00
         0.00000E+00
         0.00000E+00
         0.00000E+00
         0.00000E+00
         0.00000E+00
         0.00000E+00
         0.00000E+00
         0.00000E+00
         0.00000E+00
         0.00000E+00
         0.00000E+00
         0.00000E+00
         0.00000E+00
         0.00000E+00
         0.00000E+00
         0.00000E+00
         0.00000E+00
         0.00000E+00
         0.00000E+00
         0.00000E+00
         0.00000E+00
         0.00000E+00
         0.00000E+00
         0.00000E+00
         0.00000E+00
         0.00000E+00
         0.00000E+00
         0.00000E+00
         0.00000E+00
         0.00000E+00
         0.00000E+00
         0.00000E+00
         0.00000E+00
         0.00000E+00
         0.00000E+00
         0.00000E+00
         0.00000E+00
         0.00000E+00
         0.00000E+00
         0.00000E+00
         0.00000E+00
         0.00000E+00
         0.00000E+00
         0.00000E+00
         0.00000E+00
         0.00000E+00
         0.00000E+00
         0.00000E+00
         0.00000E+00
         0.00000E+00
         0.00000E+00
         0.00000E+00
         0.00000E+00
         0.00000E+00
         0.00000E+00
         0.00000E+00
         0.00000E+00
         0.00000E+00
         0.00000E+00
         0.00000E+00
         0.00000E+00
         0.00000E+00
         0.00000E+00
         0.00000E+00
         0.00000E+00
         0.00000E+00
         0.00000E+00
         0.00000E+00
         0.00000E+00
         0.00000E+00
         0.00000E+00
         0.00000E+00
         0.00000E+00
         0.00000E+00
         0.00000E+00
         0.00000E+00
         0.00000E+00
         0.00000E+00
         0.00000E+00
         0.00000E+00
         0.00000E+00
         0.00000E+00
         0.00000E+00
         0.00000E+00
         0.00000E+00
         0.00000E+00
         0.00000E+00
         0.00000E+00
         0.00000E+00
         0.00000E+00
         0.00000E+00
         0.00000E+00
         0.00000E+00
         0.00000E+00
         0.00000E+00
         0.00000E+00
         0.00000E+00
         0.00000E+00
         0.00000E+00
         0.00000E+00
         0.00000E+00
         0.00000E+00
         0.00000E+00
         0.00000E+00
         0.00000E+00
         0.00000E+00
         0.00000E+00
         0.00000E+00
         0.00000E+00
         0.00000E+00
         0.00000E+00
         0.00000E+00
         0.00000E+00
         0.00000E+00
         0.00000E+00
         0.00000E+00
         0.00000E+00
         0.00000E+00
         0.00000E+00
         0.00000E+00
         0.00000E+00
         0.00000E+00
         0.00000E+00
         0.00000E+00
         0.00000E+00
         0.00000E+00
         0.00000E+00
         0.00000E+00
         0.00000E+00
         0.00000E+00
         0.00000E+00
         0.00000E+00
         0.00000E+00
         0.00000E+00
         0.00000E+00
         0.00000E+00
         0.00000E+00
         0.00000E+00
         0.00000E+00
         0.00000E+00
         0.00000E+00
         0.00000E+00
         0.00000E+00
         0.00000E+00
         0.00000E+00
         0.00000E+00
         0.00000E+00
         0.00000E+00
         0.00000E+00
         0.00000E+00
         0.00000E+00
         0.00000E+00
         0.00000E+00
         0.00000E+00
         0.00000E+00
         0.00000E+00
         0.00000E+00
         0.00000E+00
         0.00000E+00
         0.00000E+00
         0.00000E+00
         0.00000E+00
         0.00000E+00
         0.00000E+00
         0.00000E+00
         0.00000E+00
         0.00000E+00
         0.00000E+00
         0.00000E+00
         0.00000E+00
         0.00000E+00
         0.00000E+00
         0.00000E+00
         0.00000E+00
         0.00000E+00
         0.00000E+00
         0.00000E+00
         0.00000E+00
         0.00000E+00
         0.00000E+00
         0.00000E+00
         0.00000E+00
         0.00000E+00
         0.00000E+00
         0.00000E+00
         0.00000E+00
         0.00000E+00
         0.00000E+00
         0.00000E+00
         0.00000E+00
         0.00000E+00
         0.00000E+00
         0.00000E+00
         0.00000E+00
         0.00000E+00
         0.00000E+00
         0.00000E+00
         0.00000E+00
         0.00000E+00
         0.00000E+00
         0.00000E+00
         0.00000E+00
         0.00000E+00
         0.00000E+00
         0.00000E+00
         0.00000E+00
         0.00000E+00
         0.00000E+00
         0.00000E+00
         0.00000E+00
         0.00000E+00
         0.00000E+00
         0.00000E+00
         0.00000E+00
         0.00000E+00
         0.00000E+00
         0.00000E+00
         0.00000E+00
         0.00000E+00
         0.00000E+00
         0.00000E+00
         0.00000E+00
         0.00000E+00
         0.00000E+00
         0.00000E+00
         0.00000E+00
         0.00000E+00
         0.00000E+00
         0.00000E+00
         0.00000E+00
         0.00000E+00
         0.00000E+00
         0.00000E+00
         0.00000E+00
         0.00000E+00
         0.00000E+00
         0.00000E+00
         0.00000E+00
         0.00000E+00
         0.00000E+00
         0.00000E+00
         0.00000E+00
         0.00000E+00
         0.00000E+00
         0.00000E+00
         0.00000E+00
         0.00000E+00
         0.00000E+00
         0.00000E+00
         0.00000E+00
         0.00000E+00
         0.00000E+00
         0.00000E+00
         0.00000E+00
         0.00000E+00
         0.00000E+00
         0.00000E+00
         0.00000E+00
         0.00000E+00
         0.00000E+00
         0.00000E+00
         0.00000E+00
         0.00000E+00
         0.00000E+00
         0.00000E+00
         0.00000E+00
         0.00000E+00
         0.00000E+00
         0.00000E+00
         0.00000E+00
         0.00000E+00
         0.00000E+00
         0.00000E+00
         0.00000E+00
         0.00000E+00
         0.00000E+00
         0.00000E+00
         0.00000E+00
         0.00000E+00
         0.00000E+00
         0.00000E+00
         0.00000E+00
         0.00000E+00
         0.00000E+00
         0.00000E+00
         0.00000E+00
         0.00000E+00
         0.00000E+00
         0.00000E+00
         0.00000E+00
         0.00000E+00
         0.00000E+00
         0.00000E+00
         0.00000E+00
         0.00000E+00
         0.00000E+00
         0.00000E+00
         0.00000E+00
         0.00000E+00
         0.00000E+00
         0.00000E+00
         0.00000E+00
         0.00000E+00
         0.00000E+00
         0.00000E+00
         0.00000E+00
         0.00000E+00
         0.00000E+00
         0.00000E+00
         0.00000E+00
         0.00000E+00
         0.00000E+00
         0.00000E+00
         0.00000E+00
         0.00000E+00
         0.00000E+00
         0.00000E+00
         0.00000E+00
         0.00000E+00
         0.00000E+00
         0.00000E+00
         0.00000E+00
         0.00000E+00
         0.00000E+00
         0.00000E+00
         0.00000E+00
         0.00000E+00
         0.00000E+00
         0.00000E+00
         0.00000E+00
         0.00000E+00
         0.00000E+00
         0.00000E+00
         0.00000E+00
         0.00000E+00
         0.00000E+00
         0.00000E+00
         0.00000E+00
         0.00000E+00
         0.00000E+00
         0.00000E+00
         0.00000E+00
         0.00000E+00
         0.00000E+00
         0.00000E+00
         0.00000E+00
         0.00000E+00
         0.00000E+00
         0.00000E+00
         0.00000E+00
         0.00000E+00
         0.00000E+00
         0.00000E+00
         0.00000E+00
         0.00000E+00
         0.00000E+00
         0.00000E+00
         0.00000E+00
         0.00000E+00
         0.00000E+00
         0.00000E+00
         0.00000E+00
         0.00000E+00
         0.00000E+00
         0.00000E+00
         0.00000E+00
         0.00000E+00
         0.00000E+00
         0.00000E+00
         0.00000E+00
         0.00000E+00
         0.00000E+00
         0.00000E+00
         0.00000E+00
         0.00000E+00
         0.00000E+00
         0.00000E+00
         0.00000E+00
         0.00000E+00
         0.00000E+00
         0.00000E+00
         0.00000E+00
         0.00000E+00
         0.00000E+00
         0.00000E+00
         0.00000E+00
         0.00000E+00
         0.00000E+00
         0.00000E+00
         0.00000E+00
         0.00000E+00
         0.00000E+00
         0.00000E+00
         0.00000E+00
         0.00000E+00
         0.00000E+00
         0.00000E+00
         0.00000E+00
         0.00000E+00
         0.00000E+00
         0.00000E+00
         0.00000E+00
         0.00000E+00
         0.00000E+00
         0.00000E+00
         0.00000E+00
         0.00000E+00
         0.00000E+00
         0.00000E+00
         0.00000E+00
         0.00000E+00
         0.00000E+00
         0.00000E+00
         0.00000E+00
         0.00000E+00
         0.00000E+00
         0.00000E+00
         0.00000E+00
         0.00000E+00
         0.00000E+00
         0.00000E+00
         0.00000E+00
         0.00000E+00
         0.00000E+00
         0.00000E+00
         0.00000E+00
         0.00000E+00
         0.00000E+00
         0.00000E+00
         0.00000E+00
         0.00000E+00
         0.00000E+00
         0.00000E+00
         0.00000E+00
         0.00000E+00
         0.00000E+00
         0.00000E+00
         0.00000E+00
         0.00000E+00
         0.00000E+00
         0.00000E+00
         0.00000E+00
         0.00000E+00
         0.00000E+00
         0.00000E+00
         0.00000E+00
         0.00000E+00
         0.00000E+00
         0.00000E+00
         0.00000E+00
         0.00000E+00
         0.00000E+00
         0.00000E+00
         0.00000E+00
         0.00000E+00
         0.00000E+00
         0.00000E+00
         0.00000E+00
         0.00000E+00
         0.00000E+00
         0.00000E+00
         0.00000E+00
         0.00000E+00
         0.00000E+00
         0.00000E+00
         0.00000E+00
         0.00000E+00
         0.00000E+00
         0.00000E+00
         0.00000E+00
         0.00000E+00
         0.00000E+00
         0.00000E+00
         0.00000E+00
         0.00000E+00
         0.00000E+00
         0.00000E+00
         0.00000E+00
         0.00000E+00
         0.00000E+00
         0.00000E+00
         0.00000E+00
         0.00000E+00
         0.00000E+00
         0.00000E+00
         0.00000E+00
         0.00000E+00
         0.00000E+00
         0.00000E+00
         0.00000E+00
         0.00000E+00
         0.00000E+00
         0.00000E+00
         0.00000E+00
         0.00000E+00
         0.00000E+00
         0.00000E+00
         0.00000E+00
         0.00000E+00
         0.00000E+00
         0.00000E+00
         0.00000E+00
         0.00000E+00
         0.00000E+00
         0.00000E+00
         0.00000E+00
         0.00000E+00
         0.00000E+00
         0.00000E+00
         0.00000E+00
         0.00000E+00
         0.00000E+00
         0.00000E+00
         0.00000E+00
         0.00000E+00
         0.00000E+00
         0.00000E+00
         0.00000E+00
         0.00000E+00
         0.00000E+00
         0.00000E+00
         0.00000E+00
         0.00000E+00
         0.00000E+00
         0.00000E+00
         0.00000E+00
         0.00000E+00
         0.00000E+00
         0.00000E+00
         0.00000E+00
         0.00000E+00
         0.00000E+00
         0.00000E+00
         0.00000E+00
         0.00000E+00
         0.00000E+00
         0.00000E+00
         0.00000E+00
         0.00000E+00
         0.00000E+00
         0.00000E+00
         0.00000E+00
         0.00000E+00
         0.00000E+00
         0.00000E+00
         0.00000E+00
         0.00000E+00
         0.00000E+00
         0.00000E+00
         0.00000E+00
         0.00000E+00
         0.00000E+00
         0.00000E+00
         0.00000E+00
         0.00000E+00
         0.00000E+00
         0.00000E+00
         0.00000E+00
         0.00000E+00
         0.00000E+00
         0.00000E+00
         0.00000E+00
         0.00000E+00
         0.00000E+00
         0.00000E+00
         0.00000E+00
         0.00000E+00
         0.00000E+00
         0.00000E+00
         0.00000E+00
         0.00000E+00
         0.00000E+00
         0.00000E+00
         0.00000E+00
         0.00000E+00
         0.00000E+00
         0.00000E+00
         0.00000E+00
         0.00000E+00
         0.00000E+00
         0.00000E+00
         0.00000E+00
         0.00000E+00
         0.00000E+00
         0.00000E+00
         0.00000E+00
         0.00000E+00
         0.00000E+00
         0.00000E+00
         0.00000E+00
         0.00000E+00
         0.00000E+00
         0.00000E+00
         0.00000E+00
         0.00000E+00
         0.00000E+00
         0.00000E+00
         0.00000E+00
         0.00000E+00
         0.00000E+00
         0.00000E+00
         0.00000E+00
         0.00000E+00
         0.00000E+00
         0.00000E+00
         0.00000E+00
         0.00000E+00
         0.00000E+00
         0.00000E+00
         0.00000E+00
         0.00000E+00
         0.00000E+00
         0.00000E+00
         0.00000E+00
         0.00000E+00
         0.00000E+00
         0.00000E+00
         0.00000E+00
         0.00000E+00
         0.00000E+00
         0.00000E+00
         0.00000E+00
         0.00000E+00
         0.00000E+00
         0.00000E+00
         0.00000E+00
         0.00000E+00
         0.00000E+00
         0.00000E+00
         0.00000E+00
         0.00000E+00
         0.00000E+00
         0.00000E+00
         0.00000E+00
         0.00000E+00
         0.00000E+00
         0.00000E+00
         0.00000E+00
         0.00000E+00
         0.00000E+00
         0.00000E+00
         0.00000E+00
         0.00000E+00
         0.00000E+00
         0.00000E+00
         0.00000E+00
         0.00000E+00
         0.00000E+00
         0.00000E+00
         0.00000E+00
         0.00000E+00
         0.00000E+00
         0.00000E+00
         0.00000E+00
         0.00000E+00
         0.00000E+00
         0.00000E+00
         0.00000E+00
         0.00000E+00
         0.00000E+00
         0.00000E+00
         0.00000E+00
         0.00000E+00
         0.00000E+00
         0.00000E+00
         0.00000E+00
         0.00000E+00
         0.00000E+00
         0.00000E+00
         0.00000E+00
         0.00000E+00
         0.00000E+00
         0.00000E+00
         0.00000E+00
         0.00000E+00
         0.00000E+00
         0.00000E+00
         0.00000E+00
         0.00000E+00
         0.00000E+00
         0.00000E+00
         0.00000E+00
         0.00000E+00
         0.00000E+00
         0.00000E+00
         0.00000E+00
         0.00000E+00
         0.00000E+00
         0.00000E+00
         0.00000E+00
         0.00000E+00
         0.00000E+00
         0.00000E+00
         0.00000E+00
         0.00000E+00
         0.00000E+00
         0.00000E+00
         0.00000E+00
         0.00000E+00
         0.00000E+00
         0.00000E+00
         0.00000E+00
         0.00000E+00
         0.00000E+00
         0.00000E+00
         0.00000E+00
         0.00000E+00
         0.00000E+00
         0.00000E+00
         0.00000E+00
         0.00000E+00
         0.00000E+00
         0.00000E+00
         0.00000E+00
         0.00000E+00
         0.00000E+00
         0.00000E+00
         0.00000E+00
         0.00000E+00
         0.00000E+00
         0.00000E+00
         0.00000E+00
         0.00000E+00
         0.00000E+00
         0.00000E+00
         0.00000E+00
         0.00000E+00
         0.00000E+00
         0.00000E+00
         0.00000E+00
         0.00000E+00
         0.00000E+00
         0.00000E+00
         0.00000E+00
         0.00000E+00
         0.00000E+00
         0.00000E+00
         0.00000E+00
         0.00000E+00
         0.00000E+00
         0.00000E+00
         0.00000E+00
         0.00000E+00
         0.00000E+00
         0.00000E+00
         0.00000E+00
         0.00000E+00
         0.00000E+00
         0.00000E+00
         0.00000E+00
         0.00000E+00
         0.00000E+00
         0.00000E+00
         0.00000E+00
         0.00000E+00
         0.00000E+00
         0.00000E+00
         0.00000E+00
         0.00000E+00
         0.00000E+00
         0.00000E+00
         0.00000E+00
         0.00000E+00
         0.00000E+00
         0.00000E+00
         0.00000E+00
         0.00000E+00
         0.00000E+00
         0.00000E+00
         0.00000E+00
         0.00000E+00
         0.00000E+00
         0.00000E+00
         0.00000E+00
         0.00000E+00
         0.00000E+00
         0.00000E+00
         0.00000E+00
         0.00000E+00
         0.00000E+00
  
SCALARS                 displacement_z  double 1
LOOKUP_TABLE default
        -0.42334E-02
        -0.42267E-02
        -0.42257E-02
        -0.42382E-02
        -0.26016E-16
        -0.29172E-16
        -0.27933E-16
        -0.25377E-16
        -0.42131E-02
        -0.42280E-02
        -0.26233E-16
        -0.25387E-16
        -0.42194E-02
        -0.42289E-02
        -0.31169E-16
        -0.29307E-16
        -0.42340E-02
        -0.42358E-02
        -0.23032E-16
        -0.25545E-16
        -0.42143E-02
        -0.42085E-02
        -0.42113E-02
        -0.30892E-16
        -0.26979E-16
        -0.27859E-16
        -0.42261E-02
        -0.42223E-02
        -0.29636E-16
        -0.24994E-16
        -0.42394E-02
        -0.42426E-02
        -0.42371E-02
        -0.25292E-16
        -0.23513E-16
        -0.22860E-16
        -0.42259E-02
        -0.42396E-02
        -0.26757E-16
        -0.24416E-16
        -0.42219E-02
        -0.42335E-02
        -0.23126E-16
        -0.20473E-16
        -0.42113E-02
        -0.42167E-02
        -0.25343E-16
        -0.28317E-16
        -0.42436E-02
        -0.24757E-16
        -0.42242E-02
        -0.29091E-16
        -0.42385E-02
        -0.26143E-16
        -0.42427E-02
        -0.25077E-16
        -0.42313E-02
        -0.42403E-02
        -0.25551E-16
        -0.24884E-16
        -0.42363E-02
        -0.42241E-02
        -0.25622E-16
        -0.28965E-16
        -0.42355E-02
        -0.24724E-16
        -0.42305E-02
        -0.26983E-16
        -0.41942E-02
        -0.42089E-02
        -0.25973E-16
        -0.27215E-16
        -0.42143E-02
        -0.27444E-16
        -0.42301E-02
        -0.21682E-16
        -0.42286E-02
        -0.21046E-16
        -0.42148E-02
        -0.22191E-16
        -0.41991E-02
        -0.42188E-02
        -0.21143E-16
        -0.22043E-16
        -0.42348E-02
        -0.20530E-16
        -0.42127E-02
        -0.26922E-16
        -0.42069E-02
        -0.27554E-16
        -0.41926E-02
        -0.42121E-02
        -0.26461E-16
        -0.26770E-16
        -0.42254E-02
        -0.24315E-16
        -0.42234E-02
        -0.23968E-16
        -0.42129E-02
        -0.25658E-16
        -0.41977E-02
        -0.42154E-02
        -0.25162E-16
        -0.25900E-16
        -0.41538E-02
        -0.41608E-02
        -0.19535E-16
        -0.18374E-16
        -0.41600E-02
        -0.18654E-16
        -0.41550E-02
        -0.17886E-16
        -0.41554E-02
        -0.17637E-16
        -0.41547E-02
        -0.16667E-16
        -0.41588E-02
        -0.14807E-16
        -0.41605E-02
        -0.13333E-16
        -0.41595E-02
        -0.13240E-16
        -0.41586E-02
        -0.14358E-16
        -0.41525E-02
        -0.15090E-16
        -0.41603E-02
        -0.13779E-16
        -0.41631E-02
        -0.12420E-16
        -0.41624E-02
        -0.12406E-16
        -0.41593E-02
        -0.13867E-16
        -0.41562E-02
        -0.15811E-16
        -0.41545E-02
        -0.16986E-16
        -0.41594E-02
        -0.18345E-16
        -0.41547E-02
        -0.19653E-16
        -0.41618E-02
        -0.18004E-16
        -0.41594E-02
        -0.15794E-16
        -0.41571E-02
        -0.15745E-16
        -0.41611E-02
        -0.17227E-16
        -0.41555E-02
        -0.18366E-16
        -0.41611E-02
        -0.17429E-16
        -0.41612E-02
        -0.16850E-16
        -0.59669E-02
        -0.59657E-02
        -0.59656E-02
        -0.59674E-02
        -0.59637E-02
        -0.59660E-02
        -0.59646E-02
        -0.59660E-02
        -0.59672E-02
        -0.59674E-02
        -0.59640E-02
        -0.59632E-02
        -0.59634E-02
        -0.59656E-02
        -0.59652E-02
        -0.59675E-02
        -0.59684E-02
        -0.59675E-02
        -0.59657E-02
        -0.59679E-02
        -0.59651E-02
        -0.59670E-02
        -0.59634E-02
        -0.59644E-02
        -0.59684E-02
        -0.59653E-02
        -0.59677E-02
        -0.59681E-02
        -0.59663E-02
        -0.59679E-02
        -0.59674E-02
        -0.59653E-02
        -0.59672E-02
        -0.59662E-02
        -0.59611E-02
        -0.59630E-02
        -0.59638E-02
        -0.59665E-02
        -0.59662E-02
        -0.59639E-02
        -0.59617E-02
        -0.59645E-02
        -0.59671E-02
        -0.59635E-02
        -0.59627E-02
        -0.59609E-02
        -0.59634E-02
        -0.59656E-02
        -0.59652E-02
        -0.59636E-02
        -0.59616E-02
        -0.59640E-02
        -0.59568E-02
        -0.59579E-02
        -0.59578E-02
        -0.59573E-02
        -0.59573E-02
        -0.59573E-02
        -0.59579E-02
        -0.59581E-02
        -0.59577E-02
        -0.59574E-02
        -0.59564E-02
        -0.59578E-02
        -0.59584E-02
        -0.59583E-02
        -0.59579E-02
        -0.59574E-02
        -0.59572E-02
        -0.59578E-02
        -0.59570E-02
        -0.59582E-02
        -0.59581E-02
        -0.59576E-02
        -0.59580E-02
        -0.59570E-02
        -0.59580E-02
        -0.59584E-02
        -0.61089E-02
        -0.61089E-02
        -0.61089E-02
        -0.61089E-02
        -0.61089E-02
        -0.61089E-02
        -0.61089E-02
        -0.61089E-02
        -0.61089E-02
        -0.61089E-02
        -0.61089E-02
        -0.61089E-02
        -0.61089E-02
        -0.61089E-02
        -0.61089E-02
        -0.61089E-02
        -0.61089E-02
        -0.61089E-02
        -0.61089E-02
        -0.61089E-02
        -0.61089E-02
        -0.61089E-02
        -0.61089E-02
        -0.61089E-02
        -0.61089E-02
        -0.61089E-02
        -0.61089E-02
        -0.61089E-02
        -0.61089E-02
        -0.61089E-02
        -0.61089E-02
        -0.61089E-02
        -0.61089E-02
        -0.61089E-02
        -0.61089E-02
        -0.61089E-02
        -0.61089E-02
        -0.61089E-02
        -0.61089E-02
        -0.61089E-02
        -0.61089E-02
        -0.61089E-02
        -0.61089E-02
        -0.61089E-02
        -0.61089E-02
        -0.61089E-02
        -0.61089E-02
        -0.61089E-02
        -0.61089E-02
        -0.61089E-02
        -0.61089E-02
        -0.61089E-02
        -0.61089E-02
        -0.61089E-02
        -0.61089E-02
        -0.61089E-02
        -0.61089E-02
        -0.61089E-02
        -0.61089E-02
        -0.61089E-02
        -0.61089E-02
        -0.61089E-02
        -0.61089E-02
        -0.61089E-02
        -0.61089E-02
        -0.61089E-02
        -0.61089E-02
        -0.61089E-02
        -0.61089E-02
        -0.61089E-02
        -0.61089E-02
        -0.61089E-02
        -0.61089E-02
        -0.61089E-02
        -0.61089E-02
        -0.61089E-02
        -0.61089E-02
        -0.61089E-02
        -0.61089E-02
        -0.61089E-02
        -0.61089E-02
        -0.61089E-02
        -0.61089E-02
        -0.61089E-02
        -0.61089E-02
        -0.61089E-02
        -0.61089E-02
        -0.61089E-02
        -0.61089E-02
        -0.61089E-02
        -0.61089E-02
        -0.61089E-02
        -0.61089E-02
        -0.61089E-02
        -0.61089E-02
        -0.61089E-02
        -0.61089E-02
        -0.61089E-02
        -0.61089E-02
        -0.61089E-02
        -0.61089E-02
        -0.61089E-02
        -0.61089E-02
        -0.61089E-02
        -0.61089E-02
        -0.61089E-02
        -0.61089E-02
        -0.61089E-02
        -0.61089E-02
        -0.61089E-02
        -0.61089E-02
        -0.61089E-02
        -0.61089E-02
        -0.61089E-02
        -0.61089E-02
        -0.61089E-02
        -0.61089E-02
        -0.61089E-02
        -0.61089E-02
        -0.61089E-02
        -0.61089E-02
        -0.61089E-02
        -0.61089E-02
        -0.61089E-02
        -0.61089E-02
        -0.61089E-02
        -0.61089E-02
        -0.61089E-02
        -0.61089E-02
        -0.61089E-02
        -0.61089E-02
        -0.61089E-02
        -0.61089E-02
        -0.61089E-02
        -0.61089E-02
        -0.61089E-02
        -0.61089E-02
        -0.61089E-02
        -0.61089E-02
        -0.61089E-02
        -0.61089E-02
        -0.61089E-02
        -0.61089E-02
        -0.61089E-02
        -0.61089E-02
        -0.61089E-02
        -0.61089E-02
        -0.61089E-02
        -0.61089E-02
        -0.61089E-02
        -0.61089E-02
        -0.61089E-02
        -0.61089E-02
        -0.61089E-02
        -0.61089E-02
        -0.61089E-02
        -0.61089E-02
        -0.61089E-02
        -0.61089E-02
        -0.61089E-02
        -0.61089E-02
        -0.61089E-02
        -0.61089E-02
        -0.61089E-02
        -0.61089E-02
        -0.61089E-02
        -0.61089E-02
        -0.61089E-02
        -0.61089E-02
        -0.61089E-02
        -0.61089E-02
        -0.61089E-02
        -0.61089E-02
        -0.61089E-02
        -0.61089E-02
        -0.61089E-02
        -0.61089E-02
        -0.61089E-02
        -0.61089E-02
        -0.61089E-02
        -0.61089E-02
        -0.61089E-02
        -0.61089E-02
        -0.61089E-02
        -0.61089E-02
        -0.61089E-02
        -0.61089E-02
        -0.61089E-02
        -0.61089E-02
        -0.61089E-02
        -0.61089E-02
        -0.61089E-02
        -0.61089E-02
        -0.61089E-02
        -0.61089E-02
        -0.61089E-02
        -0.61089E-02
        -0.61089E-02
        -0.61089E-02
        -0.61089E-02
        -0.61089E-02
        -0.61089E-02
        -0.61089E-02
        -0.61089E-02
        -0.61089E-02
        -0.61089E-02
        -0.61089E-02
        -0.61089E-02
        -0.61089E-02
        -0.61089E-02
        -0.61089E-02
        -0.61089E-02
        -0.61089E-02
        -0.61089E-02
        -0.61089E-02
        -0.61089E-02
        -0.61089E-02
        -0.61089E-02
        -0.61089E-02
        -0.61089E-02
        -0.61089E-02
        -0.61089E-02
        -0.61089E-02
        -0.61089E-02
        -0.61089E-02
        -0.61089E-02
        -0.61089E-02
        -0.61089E-02
        -0.61089E-02
        -0.61089E-02
        -0.61089E-02
        -0.61089E-02
        -0.61089E-02
        -0.61089E-02
        -0.61089E-02
        -0.61089E-02
        -0.61089E-02
        -0.61089E-02
        -0.61089E-02
        -0.61089E-02
        -0.61089E-02
        -0.61089E-02
        -0.61089E-02
        -0.61089E-02
        -0.61089E-02
        -0.61089E-02
        -0.61089E-02
        -0.61089E-02
        -0.61089E-02
        -0.61089E-02
        -0.61089E-02
        -0.61089E-02
        -0.61089E-02
        -0.61089E-02
        -0.61089E-02
        -0.61089E-02
        -0.61089E-02
        -0.61089E-02
        -0.61089E-02
        -0.61089E-02
        -0.61089E-02
        -0.61089E-02
        -0.61089E-02
        -0.61089E-02
        -0.61089E-02
        -0.61089E-02
        -0.61089E-02
        -0.61089E-02
        -0.61089E-02
        -0.61089E-02
        -0.61089E-02
        -0.61089E-02
        -0.61089E-02
        -0.61089E-02
        -0.61089E-02
        -0.61089E-02
        -0.61089E-02
        -0.61089E-02
        -0.61089E-02
        -0.61089E-02
        -0.61089E-02
        -0.61089E-02
        -0.61089E-02
        -0.61089E-02
        -0.61089E-02
        -0.61089E-02
        -0.61089E-02
        -0.61089E-02
        -0.61089E-02
        -0.61089E-02
        -0.61089E-02
        -0.61089E-02
        -0.61089E-02
        -0.61089E-02
        -0.61089E-02
        -0.61089E-02
        -0.61089E-02
        -0.61089E-02
        -0.61089E-02
        -0.61089E-02
        -0.61089E-02
        -0.61089E-02
        -0.61089E-02
        -0.61089E-02
        -0.61089E-02
        -0.61089E-02
        -0.61089E-02
        -0.61089E-02
        -0.61089E-02
        -0.61089E-02
        -0.61089E-02
        -0.61089E-02
        -0.61089E-02
        -0.61089E-02
        -0.61089E-02
        -0.61089E-02
        -0.61089E-02
        -0.61089E-02
        -0.61089E-02
        -0.61089E-02
        -0.61089E-02
        -0.61089E-02
        -0.61089E-02
        -0.61089E-02
        -0.61089E-02
        -0.61089E-02
        -0.61089E-02
        -0.61089E-02
        -0.61089E-02
        -0.61089E-02
        -0.61089E-02
        -0.61089E-02
        -0.61089E-02
        -0.61089E-02
        -0.61089E-02
        -0.61089E-02
        -0.61089E-02
        -0.61089E-02
        -0.61089E-02
        -0.61089E-02
        -0.61089E-02
        -0.61089E-02
        -0.61089E-02
        -0.61089E-02
        -0.61089E-02
        -0.61089E-02
        -0.61089E-02
        -0.61089E-02
        -0.61089E-02
        -0.61089E-02
        -0.61089E-02
        -0.61089E-02
        -0.61089E-02
        -0.61089E-02
        -0.61089E-02
        -0.61089E-02
        -0.61089E-02
        -0.61089E-02
        -0.61089E-02
        -0.61089E-02
        -0.61089E-02
        -0.61089E-02
        -0.61089E-02
        -0.61089E-02
        -0.61089E-02
        -0.61089E-02
        -0.61089E-02
        -0.61089E-02
        -0.61089E-02
        -0.61089E-02
        -0.61089E-02
        -0.61089E-02
        -0.61089E-02
        -0.61089E-02
        -0.61089E-02
        -0.61089E-02
        -0.61089E-02
        -0.61089E-02
        -0.61089E-02
        -0.61089E-02
        -0.61089E-02
        -0.61089E-02
        -0.61089E-02
        -0.61089E-02
        -0.61089E-02
        -0.61089E-02
        -0.61089E-02
        -0.61089E-02
        -0.61089E-02
        -0.61089E-02
        -0.61089E-02
        -0.61089E-02
        -0.61089E-02
        -0.61089E-02
        -0.61089E-02
        -0.61089E-02
        -0.61089E-02
        -0.61089E-02
        -0.61089E-02
        -0.61089E-02
        -0.61089E-02
        -0.61089E-02
        -0.61089E-02
        -0.61089E-02
        -0.61089E-02
        -0.61089E-02
        -0.61089E-02
        -0.61089E-02
        -0.61089E-02
        -0.61089E-02
        -0.61089E-02
        -0.61089E-02
        -0.61089E-02
        -0.61089E-02
        -0.61089E-02
        -0.61089E-02
        -0.61089E-02
        -0.61089E-02
        -0.61089E-02
        -0.61089E-02
        -0.61089E-02
        -0.61089E-02
        -0.61089E-02
        -0.61089E-02
        -0.61089E-02
        -0.61089E-02
        -0.61089E-02
        -0.61089E-02
        -0.61089E-02
        -0.61089E-02
        -0.61089E-02
        -0.61089E-02
        -0.61089E-02
        -0.61089E-02
        -0.61089E-02
        -0.61089E-02
        -0.61089E-02
        -0.61089E-02
        -0.61089E-02
        -0.61089E-02
        -0.61089E-02
        -0.61089E-02
        -0.61089E-02
        -0.61089E-02
        -0.61089E-02
        -0.61089E-02
        -0.61089E-02
        -0.61089E-02
        -0.61089E-02
        -0.61089E-02
        -0.61089E-02
        -0.61089E-02
        -0.61089E-02
        -0.61089E-02
        -0.61089E-02
        -0.61089E-02
        -0.61089E-02
        -0.61089E-02
        -0.61089E-02
        -0.61089E-02
        -0.61089E-02
        -0.61089E-02
        -0.61089E-02
        -0.61089E-02
        -0.61089E-02
        -0.61089E-02
        -0.61089E-02
        -0.61089E-02
        -0.61089E-02
        -0.61089E-02
        -0.61089E-02
        -0.61089E-02
        -0.61089E-02
        -0.61089E-02
        -0.61089E-02
        -0.61089E-02
        -0.61089E-02
        -0.61089E-02
        -0.61089E-02
        -0.61089E-02
        -0.61089E-02
        -0.61089E-02
        -0.61089E-02
        -0.61089E-02
        -0.61089E-02
        -0.61089E-02
        -0.61089E-02
        -0.61089E-02
        -0.61089E-02
        -0.61089E-02
        -0.61089E-02
        -0.61089E-02
        -0.61089E-02
        -0.61089E-02
        -0.61089E-02
        -0.61089E-02
        -0.61089E-02
        -0.61089E-02
        -0.61089E-02
        -0.61089E-02
        -0.61089E-02
        -0.61089E-02
        -0.61089E-02
        -0.61089E-02
        -0.61089E-02
        -0.61089E-02
        -0.61089E-02
        -0.61089E-02
        -0.61089E-02
        -0.61089E-02
        -0.61089E-02
        -0.61089E-02
        -0.61089E-02
        -0.61089E-02
        -0.61089E-02
        -0.61089E-02
        -0.61089E-02
        -0.61089E-02
        -0.61089E-02
        -0.61089E-02
        -0.61089E-02
        -0.61089E-02
        -0.61089E-02
        -0.61089E-02
        -0.61089E-02
        -0.61089E-02
        -0.61089E-02
        -0.61089E-02
        -0.61089E-02
        -0.61089E-02
        -0.61089E-02
        -0.61089E-02
        -0.61089E-02
        -0.61089E-02
        -0.61089E-02
        -0.61089E-02
        -0.61089E-02
        -0.61089E-02
        -0.61089E-02
        -0.61089E-02
        -0.61089E-02
        -0.61089E-02
        -0.61089E-02
        -0.61089E-02
        -0.61089E-02
        -0.61089E-02
        -0.61089E-02
        -0.61089E-02
        -0.61089E-02
        -0.61089E-02
        -0.61089E-02
        -0.61089E-02
        -0.61089E-02
        -0.61089E-02
        -0.61089E-02
        -0.61089E-02
        -0.61089E-02
        -0.61089E-02
        -0.61089E-02
        -0.61089E-02
        -0.61089E-02
        -0.61089E-02
        -0.61089E-02
        -0.61089E-02
        -0.61089E-02
        -0.61089E-02
        -0.61089E-02
        -0.61089E-02
        -0.61089E-02
        -0.61089E-02
        -0.61089E-02
        -0.61089E-02
        -0.61089E-02
        -0.61089E-02
        -0.61089E-02
        -0.61089E-02
        -0.61089E-02
        -0.61089E-02
        -0.61089E-02
        -0.61089E-02
        -0.61089E-02
        -0.61089E-02
        -0.61089E-02
        -0.61089E-02
        -0.61089E-02
        -0.61089E-02
        -0.61089E-02
        -0.61089E-02
        -0.61089E-02
        -0.61089E-02
        -0.61089E-02
        -0.61089E-02
        -0.61089E-02
        -0.61089E-02
        -0.61089E-02
        -0.61089E-02
        -0.61089E-02
        -0.61089E-02
        -0.61089E-02
        -0.61089E-02
        -0.61089E-02
        -0.61089E-02
        -0.61089E-02
        -0.61089E-02
        -0.61089E-02
        -0.61089E-02
        -0.61089E-02
        -0.61089E-02
        -0.61089E-02
        -0.61089E-02
        -0.61089E-02
        -0.61089E-02
        -0.61089E-02
        -0.61089E-02
        -0.61089E-02
        -0.61089E-02
        -0.61089E-02
        -0.61089E-02
        -0.61089E-02
        -0.61089E-02
        -0.61089E-02
        -0.61089E-02
        -0.61089E-02
        -0.61089E-02
        -0.61089E-02
        -0.61089E-02
        -0.61089E-02
        -0.61089E-02
        -0.61089E-02
        -0.61089E-02
        -0.61089E-02
        -0.61089E-02
        -0.61089E-02
        -0.61089E-02
        -0.61089E-02
        -0.61089E-02
        -0.61089E-02
        -0.61089E-02
        -0.61089E-02
        -0.61089E-02
        -0.61089E-02
        -0.61089E-02
        -0.61089E-02
        -0.61089E-02
        -0.61089E-02
        -0.61089E-02
        -0.61089E-02
        -0.61089E-02
        -0.61089E-02
        -0.61089E-02
        -0.61089E-02
        -0.61089E-02
        -0.61089E-02
        -0.61089E-02
        -0.61089E-02
        -0.61089E-02
        -0.61089E-02
        -0.61089E-02
        -0.61089E-02
        -0.61089E-02
        -0.61089E-02
        -0.61089E-02
        -0.61089E-02
        -0.61089E-02
        -0.61089E-02
        -0.61089E-02
        -0.61089E-02
        -0.61089E-02
        -0.61089E-02
        -0.61089E-02
        -0.61089E-02
        -0.61089E-02
        -0.61089E-02
        -0.61089E-02
        -0.61089E-02
        -0.61089E-02
        -0.61089E-02
        -0.61089E-02
        -0.61089E-02
        -0.61089E-02
        -0.61089E-02
        -0.61089E-02
        -0.61089E-02
        -0.61089E-02
        -0.61089E-02
        -0.61089E-02
        -0.61089E-02
        -0.61089E-02
        -0.61089E-02
        -0.61089E-02
        -0.61089E-02
        -0.61089E-02
        -0.61089E-02
        -0.61089E-02
        -0.61089E-02
        -0.61089E-02
        -0.61089E-02
        -0.61089E-02
        -0.61089E-02
        -0.61089E-02
        -0.61089E-02
        -0.61089E-02
        -0.61089E-02
        -0.61089E-02
        -0.61089E-02
        -0.61089E-02
        -0.61089E-02
        -0.61089E-02
        -0.61089E-02
        -0.61089E-02
        -0.61089E-02
        -0.61089E-02
        -0.61089E-02
        -0.61089E-02
        -0.61089E-02
        -0.61089E-02
        -0.61089E-02
        -0.61089E-02
        -0.61089E-02
        -0.61089E-02
        -0.61089E-02
        -0.61089E-02
        -0.61089E-02
        -0.61089E-02
        -0.61089E-02
        -0.61089E-02
        -0.61089E-02
        -0.61089E-02
        -0.61089E-02
        -0.61089E-02
        -0.61089E-02
        -0.61089E-02
        -0.61089E-02
        -0.61089E-02
        -0.61089E-02
        -0.61089E-02
        -0.61089E-02
        -0.61089E-02
        -0.61089E-02
        -0.61089E-02
        -0.61089E-02
        -0.61089E-02
        -0.61089E-02
        -0.61089E-02
        -0.61089E-02
        -0.61089E-02
        -0.61089E-02
        -0.61089E-02
        -0.61089E-02
        -0.61089E-02
        -0.61089E-02
        -0.61089E-02
        -0.61089E-02
        -0.61089E-02
        -0.61089E-02
        -0.61089E-02
        -0.61089E-02
        -0.61089E-02
        -0.61089E-02
        -0.61089E-02
        -0.61089E-02
        -0.61089E-02
        -0.61089E-02
        -0.61089E-02
        -0.61089E-02
        -0.61089E-02
        -0.61089E-02
        -0.61089E-02
        -0.61089E-02
        -0.61089E-02
        -0.61089E-02
        -0.61089E-02
        -0.61089E-02
        -0.61089E-02
        -0.61089E-02
        -0.61089E-02
        -0.61089E-02
        -0.61089E-02
        -0.61089E-02
        -0.61089E-02
        -0.61089E-02
        -0.61089E-02
        -0.61089E-02
        -0.61089E-02
        -0.61089E-02
        -0.61089E-02
        -0.61089E-02
        -0.61089E-02
        -0.61089E-02
        -0.61089E-02
        -0.61089E-02
        -0.61089E-02
        -0.61089E-02
        -0.61089E-02
        -0.61089E-02
        -0.61089E-02
        -0.61089E-02
        -0.61089E-02
        -0.61089E-02
        -0.61089E-02
        -0.61089E-02
        -0.61089E-02
        -0.61089E-02
        -0.61089E-02
        -0.61089E-02
        -0.61089E-02
        -0.61089E-02
        -0.61089E-02
        -0.61089E-02
        -0.61089E-02
        -0.61089E-02
        -0.61089E-02
        -0.61089E-02
        -0.61089E-02
        -0.61089E-02
        -0.61089E-02
        -0.61089E-02
        -0.61089E-02
        -0.61089E-02
        -0.61089E-02
        -0.61089E-02
        -0.61089E-02
        -0.61089E-02
        -0.61089E-02
        -0.61089E-02
        -0.61089E-02
        -0.61089E-02
        -0.61089E-02
        -0.61089E-02
        -0.61089E-02
        -0.61089E-02
        -0.61089E-02
        -0.61089E-02
        -0.61089E-02
        -0.61089E-02
        -0.61089E-02
        -0.61089E-02
        -0.61089E-02
        -0.61089E-02
        -0.61089E-02
        -0.61089E-02
        -0.61089E-02
        -0.61089E-02
        -0.61089E-02
        -0.61089E-02
        -0.61089E-02
        -0.61089E-02
        -0.61089E-02
        -0.61089E-02
        -0.61089E-02
        -0.61089E-02
        -0.61089E-02
        -0.61089E-02
        -0.61089E-02
        -0.61089E-02
        -0.61089E-02
        -0.61089E-02
        -0.61089E-02
        -0.61089E-02
        -0.61089E-02
        -0.61089E-02
        -0.61089E-02
        -0.61089E-02
        -0.61089E-02
        -0.61089E-02
        -0.61089E-02
        -0.61089E-02
        -0.61089E-02
        -0.61089E-02
        -0.61089E-02
        -0.61089E-02
        -0.61089E-02
        -0.61089E-02
        -0.61089E-02
        -0.61089E-02
        -0.61089E-02
        -0.61089E-02
        -0.61089E-02
        -0.61089E-02
        -0.61089E-02
        -0.61089E-02
        -0.61089E-02
        -0.61089E-02
        -0.61089E-02
        -0.61089E-02
        -0.61089E-02
        -0.61089E-02
        -0.61089E-02
        -0.61089E-02
        -0.61089E-02
        -0.61089E-02
        -0.61089E-02
        -0.61089E-02
        -0.61089E-02
        -0.61089E-02
        -0.61089E-02
        -0.61089E-02
        -0.61089E-02
        -0.61089E-02
        -0.61089E-02
        -0.61089E-02
        -0.61089E-02
        -0.61089E-02
        -0.61089E-02
        -0.61089E-02
        -0.61089E-02
        -0.61089E-02
        -0.61089E-02
        -0.61089E-02
        -0.61089E-02
        -0.61089E-02
        -0.61089E-02
        -0.61089E-02
        -0.61089E-02
        -0.61089E-02
        -0.61089E-02
        -0.61089E-02
        -0.61089E-02
        -0.61089E-02
        -0.61089E-02
        -0.61089E-02
        -0.61089E-02
        -0.61089E-02
        -0.61089E-02
        -0.61089E-02
        -0.61089E-02
        -0.61089E-02
        -0.61089E-02
        -0.61089E-02
        -0.61089E-02
        -0.61089E-02
        -0.61089E-02
        -0.61089E-02
        -0.61089E-02
        -0.61089E-02
        -0.61089E-02
        -0.61089E-02
        -0.61089E-02
        -0.61089E-02
        -0.61089E-02
        -0.61089E-02
        -0.61089E-02
        -0.61089E-02
        -0.61089E-02
        -0.61089E-02
        -0.61089E-02
        -0.61089E-02
        -0.61089E-02
        -0.61089E-02
        -0.61089E-02
        -0.61089E-02
        -0.61089E-02
        -0.61089E-02
        -0.61089E-02
        -0.61089E-02
        -0.61089E-02
        -0.61089E-02
        -0.61089E-02
        -0.61089E-02
        -0.61089E-02
        -0.61089E-02
        -0.61089E-02
        -0.61089E-02
        -0.61089E-02
        -0.61089E-02
        -0.61089E-02
        -0.61089E-02
        -0.61089E-02
        -0.61089E-02
        -0.61089E-02
        -0.61089E-02
        -0.61089E-02
        -0.61089E-02
        -0.61089E-02
        -0.61089E-02
        -0.61089E-02
        -0.61089E-02
        -0.61089E-02
        -0.61089E-02
        -0.61089E-02
        -0.61089E-02
        -0.61089E-02
        -0.61089E-02
        -0.61089E-02
        -0.61089E-02
        -0.61089E-02
        -0.61089E-02
        -0.61089E-02
        -0.61089E-02
        -0.61089E-02
        -0.61089E-02
        -0.61089E-02
        -0.61089E-02
        -0.61089E-02
        -0.61089E-02
        -0.61089E-02
        -0.61089E-02
        -0.61089E-02
        -0.61089E-02
        -0.61089E-02
        -0.61089E-02
        -0.61089E-02
        -0.61089E-02
        -0.61089E-02
        -0.61089E-02
        -0.61089E-02
        -0.61089E-02
        -0.61089E-02
        -0.61089E-02
        -0.61089E-02
        -0.61089E-02
        -0.61089E-02
        -0.61089E-02
        -0.61089E-02
        -0.61089E-02
        -0.61089E-02
        -0.61089E-02
        -0.61089E-02
        -0.61089E-02
        -0.61089E-02
        -0.61089E-02
        -0.61089E-02
        -0.61089E-02
        -0.61089E-02
        -0.61089E-02
        -0.61089E-02
        -0.61089E-02
        -0.61089E-02
        -0.61089E-02
        -0.61089E-02
        -0.61089E-02
        -0.61089E-02
        -0.61089E-02
        -0.61089E-02
        -0.61089E-02
        -0.61089E-02
        -0.61089E-02
        -0.61089E-02
        -0.61089E-02
        -0.61089E-02
        -0.61089E-02
        -0.61089E-02
        -0.61089E-02
        -0.61089E-02
        -0.61089E-02
        -0.61089E-02
        -0.61089E-02
        -0.61089E-02
        -0.61089E-02
        -0.61089E-02
        -0.61089E-02
        -0.61089E-02
        -0.61089E-02
        -0.61089E-02
        -0.61089E-02
        -0.61089E-02
        -0.61089E-02
        -0.61089E-02
        -0.61089E-02
        -0.61089E-02
        -0.61089E-02
        -0.61089E-02
        -0.61089E-02
        -0.61089E-02
        -0.61089E-02
        -0.61089E-02
        -0.61089E-02
        -0.61089E-02
        -0.61089E-02
        -0.61089E-02
        -0.61089E-02
        -0.61089E-02
        -0.61089E-02
        -0.61089E-02
        -0.61089E-02
        -0.61089E-02
        -0.61089E-02
        -0.61089E-02
        -0.61089E-02
        -0.61089E-02
        -0.61089E-02
        -0.61089E-02
        -0.61089E-02
        -0.61089E-02
        -0.61089E-02
        -0.61089E-02
        -0.61089E-02
        -0.61089E-02
        -0.61089E-02
        -0.61089E-02
        -0.61089E-02
        -0.61089E-02
        -0.61089E-02
        -0.61089E-02
        -0.61089E-02
        -0.61089E-02
        -0.61089E-02
        -0.61089E-02
        -0.61089E-02
        -0.61089E-02
        -0.61089E-02
        -0.61089E-02
        -0.61089E-02
        -0.61089E-02
        -0.61089E-02
        -0.61089E-02
        -0.61089E-02
        -0.61089E-02
        -0.61089E-02
        -0.61089E-02
        -0.61089E-02
        -0.61089E-02
        -0.61089E-02
        -0.61089E-02
        -0.61089E-02
        -0.61089E-02
        -0.61089E-02
        -0.61089E-02
        -0.61089E-02
        -0.61089E-02
        -0.61089E-02
        -0.61089E-02
        -0.61089E-02
        -0.61089E-02
        -0.61089E-02
        -0.61089E-02
        -0.61089E-02
        -0.61089E-02
        -0.61089E-02
        -0.61089E-02
        -0.61089E-02
        -0.61089E-02
        -0.61089E-02
        -0.61089E-02
        -0.61089E-02
        -0.61089E-02
        -0.61089E-02
        -0.61089E-02
        -0.61089E-02
        -0.61089E-02
        -0.61089E-02
        -0.61089E-02
        -0.61089E-02
        -0.61089E-02
        -0.61089E-02
        -0.61089E-02
        -0.61089E-02
        -0.61089E-02
        -0.61089E-02
        -0.61089E-02
        -0.61089E-02
        -0.61089E-02
        -0.61089E-02
        -0.61089E-02
        -0.61089E-02
        -0.61089E-02
        -0.61089E-02
        -0.61089E-02
        -0.61089E-02
        -0.61089E-02
        -0.61089E-02
        -0.61089E-02
        -0.61089E-02
        -0.61089E-02
        -0.61089E-02
        -0.61089E-02
        -0.61089E-02
        -0.61089E-02
        -0.61089E-02
        -0.61089E-02
        -0.61089E-02
        -0.61089E-02
        -0.61089E-02
        -0.61089E-02
        -0.61089E-02
        -0.61089E-02
        -0.61089E-02
        -0.61089E-02
        -0.61089E-02
        -0.61089E-02
        -0.61089E-02
        -0.61089E-02
        -0.61089E-02
        -0.61089E-02
        -0.61089E-02
        -0.61089E-02
        -0.61089E-02
        -0.61089E-02
        -0.61089E-02
        -0.61089E-02
        -0.61089E-02
        -0.61089E-02
        -0.61089E-02
        -0.61089E-02
        -0.61089E-02
        -0.61089E-02
        -0.61089E-02
        -0.61089E-02
        -0.61089E-02
        -0.61089E-02
        -0.61089E-02
        -0.61089E-02
        -0.61089E-02
        -0.61089E-02
        -0.61089E-02
        -0.61089E-02
        -0.61089E-02
        -0.61089E-02
        -0.61089E-02
        -0.61089E-02
        -0.61089E-02
        -0.61089E-02
        -0.61089E-02
        -0.61089E-02
        -0.61089E-02
        -0.61089E-02
        -0.61089E-02
        -0.61089E-02
        -0.61089E-02
        -0.61089E-02
        -0.61089E-02
        -0.61089E-02
        -0.61089E-02
        -0.61089E-02
        -0.61089E-02
        -0.61089E-02
        -0.61089E-02
        -0.61089E-02
        -0.61089E-02
        -0.61089E-02
        -0.61089E-02
        -0.61089E-02
        -0.61089E-02
        -0.61089E-02
        -0.61089E-02
        -0.61089E-02
        -0.61089E-02
        -0.61089E-02
        -0.61089E-02
        -0.61089E-02
        -0.61089E-02
        -0.61089E-02
        -0.61089E-02
        -0.61089E-02
        -0.61089E-02
        -0.61089E-02
        -0.61089E-02
        -0.61089E-02
        -0.61089E-02
        -0.61089E-02
        -0.61089E-02
        -0.61089E-02
        -0.61089E-02
        -0.61089E-02
        -0.61089E-02
        -0.61089E-02
        -0.61089E-02
        -0.61089E-02
        -0.61089E-02
        -0.61089E-02
        -0.61089E-02
        -0.61089E-02
        -0.61089E-02
        -0.61089E-02
        -0.61089E-02
        -0.61089E-02
        -0.61089E-02
        -0.61089E-02
        -0.61089E-02
        -0.61089E-02
        -0.61089E-02
        -0.61089E-02
        -0.61089E-02
        -0.61089E-02
        -0.61089E-02
        -0.61089E-02
        -0.61089E-02
        -0.61089E-02
        -0.61089E-02
        -0.61089E-02
        -0.61089E-02
        -0.61089E-02
        -0.61089E-02
        -0.61089E-02
        -0.61089E-02
        -0.61089E-02
        -0.61089E-02
        -0.61089E-02
        -0.61089E-02
        -0.61089E-02
        -0.61089E-02
        -0.61089E-02
        -0.61089E-02
        -0.61089E-02
        -0.61089E-02
        -0.61089E-02
        -0.61089E-02
        -0.61089E-02
        -0.61089E-02
        -0.61089E-02
        -0.61089E-02
        -0.61089E-02
        -0.61089E-02
        -0.61089E-02
        -0.61089E-02
        -0.61089E-02
        -0.61089E-02
        -0.61089E-02
        -0.61089E-02
        -0.61089E-02
        -0.61089E-02
        -0.61089E-02
        -0.61089E-02
        -0.61089E-02
        -0.61089E-02
        -0.61089E-02
        -0.61089E-02
        -0.61089E-02
        -0.61089E-02
        -0.61089E-02
        -0.61089E-02
        -0.61089E-02
        -0.61089E-02
        -0.61089E-02
        -0.61089E-02
        -0.61089E-02
        -0.61089E-02
        -0.61089E-02
        -0.61089E-02
        -0.61089E-02
        -0.61089E-02
        -0.61089E-02
        -0.61089E-02
        -0.61089E-02
        -0.61089E-02
        -0.61089E-02
        -0.61089E-02
        -0.61089E-02
        -0.61089E-02
        -0.61089E-02
        -0.61089E-02
        -0.61089E-02
        -0.61089E-02
        -0.61089E-02
        -0.61089E-02
        -0.61089E-02
        -0.61089E-02
        -0.61089E-02
        -0.61089E-02
        -0.61089E-02
        -0.61089E-02
        -0.61089E-02
        -0.61089E-02
        -0.61089E-02
        -0.61089E-02
        -0.61089E-02
        -0.61089E-02
        -0.61089E-02
        -0.61089E-02
        -0.61089E-02
        -0.61089E-02
        -0.61089E-02
        -0.61089E-02
        -0.61089E-02
        -0.61089E-02
        -0.61089E-02
        -0.61089E-02
        -0.61089E-02
        -0.61089E-02
        -0.61089E-02
        -0.61089E-02
        -0.61089E-02
        -0.61089E-02
        -0.61089E-02
        -0.61089E-02
        -0.61089E-02
        -0.61089E-02
        -0.61089E-02
        -0.61089E-02
        -0.61089E-02
        -0.61089E-02
        -0.61089E-02
        -0.61089E-02
        -0.61089E-02
        -0.61089E-02
        -0.61089E-02
        -0.61089E-02
        -0.61089E-02
        -0.61089E-02
        -0.61089E-02
        -0.61089E-02
        -0.61089E-02
        -0.61089E-02
        -0.61089E-02
        -0.61089E-02
        -0.61089E-02
        -0.61089E-02
        -0.61089E-02
        -0.61089E-02
        -0.61089E-02
        -0.61089E-02
        -0.61089E-02
        -0.61089E-02
        -0.61089E-02
        -0.61089E-02
        -0.61089E-02
        -0.61089E-02
        -0.61089E-02
        -0.61089E-02
        -0.61089E-02
        -0.61089E-02
        -0.61089E-02
        -0.61089E-02
        -0.61089E-02
        -0.61089E-02
        -0.61089E-02
        -0.61089E-02
        -0.61089E-02
        -0.61089E-02
        -0.61089E-02
        -0.61089E-02
        -0.61089E-02
        -0.61089E-02
        -0.61089E-02
        -0.61089E-02
        -0.61089E-02
        -0.61089E-02
        -0.61089E-02
        -0.61089E-02
        -0.61089E-02
        -0.61089E-02
        -0.61089E-02
        -0.61089E-02
        -0.61089E-02
        -0.61089E-02
        -0.61089E-02
        -0.61089E-02
        -0.61089E-02
        -0.61089E-02
        -0.61089E-02
        -0.61089E-02
        -0.61089E-02
        -0.61089E-02
        -0.61089E-02
        -0.61089E-02
        -0.61089E-02
        -0.61089E-02
        -0.61089E-02
        -0.61089E-02
        -0.61089E-02
        -0.61089E-02
        -0.61089E-02
        -0.61089E-02
        -0.61089E-02
        -0.61089E-02
        -0.61089E-02
        -0.61089E-02
        -0.61089E-02
        -0.61089E-02
        -0.61089E-02
        -0.61089E-02
        -0.61089E-02
        -0.61089E-02
        -0.61089E-02
        -0.61089E-02
        -0.61089E-02
        -0.61089E-02
        -0.61089E-02
        -0.61089E-02
        -0.61089E-02
        -0.61089E-02
        -0.61089E-02
        -0.61089E-02
        -0.61089E-02
        -0.61089E-02
        -0.61089E-02
        -0.61089E-02
        -0.61089E-02
        -0.61089E-02
        -0.61089E-02
        -0.61089E-02
        -0.61089E-02
        -0.61089E-02
        -0.61089E-02
        -0.61089E-02
        -0.61089E-02
        -0.61089E-02
        -0.61089E-02
        -0.61089E-02
        -0.61089E-02
        -0.61089E-02
        -0.61089E-02
        -0.61089E-02
        -0.61089E-02
        -0.61089E-02
        -0.61089E-02
        -0.61089E-02
        -0.61089E-02
        -0.61089E-02
        -0.61089E-02
        -0.61089E-02
        -0.61089E-02
        -0.61089E-02
        -0.61089E-02
        -0.61089E-02
        -0.61089E-02
        -0.61089E-02
        -0.61089E-02
        -0.61089E-02
        -0.61089E-02
        -0.61089E-02
        -0.61089E-02
        -0.61089E-02
        -0.61089E-02
        -0.61089E-02
        -0.61089E-02
        -0.61089E-02
        -0.61089E-02
        -0.61089E-02
        -0.61089E-02
        -0.61089E-02
        -0.61089E-02
        -0.61089E-02
        -0.61089E-02
        -0.61089E-02
        -0.61089E-02
        -0.61089E-02
        -0.61089E-02
        -0.61089E-02
        -0.61089E-02
        -0.61089E-02
        -0.61089E-02
        -0.61089E-02
        -0.61089E-02
        -0.61089E-02
        -0.61089E-02
        -0.61089E-02
        -0.61089E-02
        -0.61089E-02
        -0.61089E-02
        -0.61089E-02
        -0.61089E-02
        -0.61089E-02
        -0.61089E-02
        -0.61089E-02
        -0.61089E-02
        -0.61089E-02
        -0.61089E-02
        -0.61089E-02
        -0.61089E-02
        -0.61089E-02
        -0.61089E-02
        -0.61089E-02
        -0.61089E-02
        -0.61089E-02
        -0.61089E-02
        -0.61089E-02
        -0.61089E-02
        -0.61089E-02
        -0.61089E-02
        -0.61089E-02
        -0.61089E-02
        -0.61089E-02
        -0.61089E-02
        -0.61089E-02
        -0.61089E-02
        -0.61089E-02
        -0.61089E-02
        -0.61089E-02
        -0.61089E-02
        -0.61089E-02
        -0.61089E-02
        -0.61089E-02
        -0.61089E-02
        -0.61089E-02
        -0.61089E-02
        -0.61089E-02
        -0.61089E-02
        -0.61089E-02
        -0.61089E-02
        -0.61089E-02
        -0.61089E-02
        -0.61089E-02
        -0.61089E-02
        -0.61089E-02
        -0.61089E-02
        -0.61089E-02
        -0.61089E-02
        -0.61089E-02
        -0.61089E-02
        -0.61089E-02
        -0.61089E-02
        -0.61089E-02
        -0.61089E-02
        -0.61089E-02
        -0.61089E-02
        -0.61089E-02
        -0.61089E-02
        -0.61089E-02
        -0.61089E-02
        -0.61089E-02
        -0.61089E-02
        -0.61089E-02
        -0.61089E-02
        -0.61089E-02
        -0.61089E-02
        -0.61089E-02
        -0.61089E-02
        -0.61089E-02
        -0.61089E-02
        -0.61089E-02
        -0.61089E-02
        -0.61089E-02
        -0.61089E-02
        -0.61089E-02
        -0.61089E-02
        -0.61089E-02
        -0.61089E-02
        -0.61089E-02
        -0.61089E-02
        -0.61089E-02
        -0.61089E-02
        -0.61089E-02
        -0.61089E-02
        -0.61089E-02
        -0.61089E-02
        -0.61089E-02
        -0.61089E-02
        -0.61089E-02
        -0.61089E-02
        -0.61089E-02
        -0.61089E-02
        -0.61089E-02
        -0.61089E-02
        -0.61089E-02
        -0.61089E-02
        -0.61089E-02
        -0.61089E-02
        -0.61089E-02
        -0.61089E-02
        -0.61089E-02
        -0.61089E-02
        -0.61089E-02
        -0.61089E-02
        -0.61089E-02
        -0.61089E-02
        -0.61089E-02
        -0.61089E-02
        -0.61089E-02
        -0.61089E-02
        -0.61089E-02
        -0.61089E-02
        -0.61089E-02
        -0.61089E-02
        -0.61089E-02
        -0.61089E-02
        -0.61089E-02
        -0.61089E-02
        -0.61089E-02
        -0.61089E-02
        -0.61089E-02
        -0.61089E-02
        -0.61089E-02
        -0.61089E-02
        -0.61089E-02
        -0.61089E-02
        -0.61089E-02
        -0.61089E-02
        -0.61089E-02
        -0.61089E-02
        -0.61089E-02
        -0.61089E-02
        -0.61089E-02
        -0.61089E-02
        -0.61089E-02
        -0.61089E-02
        -0.61089E-02
        -0.61089E-02
        -0.61089E-02
        -0.61089E-02
        -0.61089E-02
        -0.61089E-02
        -0.61089E-02
        -0.61089E-02
        -0.61089E-02
        -0.61089E-02
        -0.61089E-02
        -0.61089E-02
        -0.61089E-02
        -0.61089E-02
        -0.61089E-02
        -0.61089E-02
        -0.61089E-02
        -0.61089E-02
        -0.61089E-02
        -0.61089E-02
        -0.61089E-02
        -0.61089E-02
        -0.61089E-02
        -0.61089E-02
        -0.61089E-02
        -0.61089E-02
        -0.61089E-02
        -0.61089E-02
        -0.61089E-02
        -0.61089E-02
        -0.61089E-02
        -0.61089E-02
        -0.61089E-02
        -0.61089E-02
        -0.61089E-02
        -0.61089E-02
        -0.61089E-02
        -0.61089E-02
        -0.61089E-02
        -0.61089E-02
  
SCALARS                     velocity_x  double 1
LOOKUP_TABLE default
         0.00000E+00
         0.00000E+00
         0.00000E+00
         0.00000E+00
         0.00000E+00
         0.00000E+00
         0.00000E+00
         0.00000E+00
         0.00000E+00
         0.00000E+00
         0.00000E+00
         0.00000E+00
         0.00000E+00
         0.00000E+00
         0.00000E+00
         0.00000E+00
         0.00000E+00
         0.00000E+00
         0.00000E+00
         0.00000E+00
         0.00000E+00
         0.00000E+00
         0.00000E+00
         0.00000E+00
         0.00000E+00
         0.00000E+00
         0.00000E+00
         0.00000E+00
         0.00000E+00
         0.00000E+00
         0.00000E+00
         0.00000E+00
         0.00000E+00
         0.00000E+00
         0.00000E+00
         0.00000E+00
         0.00000E+00
         0.00000E+00
         0.00000E+00
         0.00000E+00
         0.00000E+00
         0.00000E+00
         0.00000E+00
         0.00000E+00
         0.00000E+00
         0.00000E+00
         0.00000E+00
         0.00000E+00
         0.00000E+00
         0.00000E+00
         0.00000E+00
         0.00000E+00
         0.00000E+00
         0.00000E+00
         0.00000E+00
         0.00000E+00
         0.00000E+00
         0.00000E+00
         0.00000E+00
         0.00000E+00
         0.00000E+00
         0.00000E+00
         0.00000E+00
         0.00000E+00
         0.00000E+00
         0.00000E+00
         0.00000E+00
         0.00000E+00
         0.00000E+00
         0.00000E+00
         0.00000E+00
         0.00000E+00
         0.00000E+00
         0.00000E+00
         0.00000E+00
         0.00000E+00
         0.00000E+00
         0.00000E+00
         0.00000E+00
         0.00000E+00
         0.00000E+00
         0.00000E+00
         0.00000E+00
         0.00000E+00
         0.00000E+00
         0.00000E+00
         0.00000E+00
         0.00000E+00
         0.00000E+00
         0.00000E+00
         0.00000E+00
         0.00000E+00
         0.00000E+00
         0.00000E+00
         0.00000E+00
         0.00000E+00
         0.00000E+00
         0.00000E+00
         0.00000E+00
         0.00000E+00
         0.00000E+00
         0.00000E+00
         0.00000E+00
         0.00000E+00
         0.00000E+00
         0.00000E+00
         0.00000E+00
         0.00000E+00
         0.00000E+00
         0.00000E+00
         0.00000E+00
         0.00000E+00
         0.00000E+00
         0.00000E+00
         0.00000E+00
         0.00000E+00
         0.00000E+00
         0.00000E+00
         0.00000E+00
         0.00000E+00
         0.00000E+00
         0.00000E+00
         0.00000E+00
         0.00000E+00
         0.00000E+00
         0.00000E+00
         0.00000E+00
         0.00000E+00
         0.00000E+00
         0.00000E+00
         0.00000E+00
         0.00000E+00
         0.00000E+00
         0.00000E+00
         0.00000E+00
         0.00000E+00
         0.00000E+00
         0.00000E+00
         0.00000E+00
         0.00000E+00
         0.00000E+00
         0.00000E+00
         0.00000E+00
         0.00000E+00
         0.00000E+00
         0.00000E+00
         0.00000E+00
         0.00000E+00
         0.00000E+00
         0.00000E+00
         0.00000E+00
         0.00000E+00
         0.00000E+00
         0.00000E+00
         0.00000E+00
         0.00000E+00
         0.00000E+00
         0.00000E+00
         0.00000E+00
         0.00000E+00
         0.00000E+00
         0.00000E+00
         0.00000E+00
         0.00000E+00
         0.00000E+00
         0.00000E+00
         0.00000E+00
         0.00000E+00
         0.00000E+00
         0.00000E+00
         0.00000E+00
         0.00000E+00
         0.00000E+00
         0.00000E+00
         0.00000E+00
         0.00000E+00
         0.00000E+00
         0.00000E+00
         0.00000E+00
         0.00000E+00
         0.00000E+00
         0.00000E+00
         0.00000E+00
         0.00000E+00
         0.00000E+00
         0.00000E+00
         0.00000E+00
         0.00000E+00
         0.00000E+00
         0.00000E+00
         0.00000E+00
         0.00000E+00
         0.00000E+00
         0.00000E+00
         0.00000E+00
         0.00000E+00
         0.00000E+00
         0.00000E+00
         0.00000E+00
         0.00000E+00
         0.00000E+00
         0.00000E+00
         0.00000E+00
         0.00000E+00
         0.00000E+00
         0.00000E+00
         0.00000E+00
         0.00000E+00
         0.00000E+00
         0.00000E+00
         0.00000E+00
         0.00000E+00
         0.00000E+00
         0.00000E+00
         0.00000E+00
         0.00000E+00
         0.00000E+00
         0.00000E+00
         0.00000E+00
         0.00000E+00
         0.00000E+00
         0.00000E+00
         0.00000E+00
         0.00000E+00
         0.00000E+00
         0.00000E+00
         0.00000E+00
         0.00000E+00
         0.00000E+00
         0.00000E+00
         0.00000E+00
         0.00000E+00
         0.00000E+00
         0.00000E+00
         0.00000E+00
         0.00000E+00
         0.00000E+00
         0.00000E+00
         0.00000E+00
         0.00000E+00
         0.00000E+00
         0.00000E+00
         0.00000E+00
         0.00000E+00
         0.00000E+00
         0.00000E+00
         0.00000E+00
         0.00000E+00
         0.00000E+00
         0.00000E+00
         0.00000E+00
         0.00000E+00
         0.00000E+00
         0.00000E+00
         0.00000E+00
         0.00000E+00
         0.00000E+00
         0.00000E+00
         0.00000E+00
         0.00000E+00
         0.00000E+00
         0.00000E+00
         0.00000E+00
         0.00000E+00
         0.00000E+00
         0.00000E+00
         0.00000E+00
         0.00000E+00
         0.00000E+00
         0.00000E+00
         0.00000E+00
         0.00000E+00
         0.00000E+00
         0.00000E+00
         0.00000E+00
         0.00000E+00
         0.00000E+00
         0.00000E+00
         0.00000E+00
         0.00000E+00
         0.00000E+00
         0.00000E+00
         0.00000E+00
         0.00000E+00
         0.00000E+00
         0.00000E+00
         0.00000E+00
         0.00000E+00
         0.00000E+00
         0.00000E+00
         0.00000E+00
         0.00000E+00
         0.00000E+00
         0.00000E+00
         0.00000E+00
         0.00000E+00
         0.00000E+00
         0.00000E+00
         0.00000E+00
         0.00000E+00
         0.00000E+00
         0.00000E+00
         0.00000E+00
         0.00000E+00
         0.00000E+00
         0.00000E+00
         0.00000E+00
         0.00000E+00
         0.00000E+00
         0.00000E+00
         0.00000E+00
         0.00000E+00
         0.00000E+00
         0.00000E+00
         0.00000E+00
         0.00000E+00
         0.00000E+00
         0.00000E+00
         0.00000E+00
         0.00000E+00
         0.00000E+00
         0.00000E+00
         0.00000E+00
         0.00000E+00
         0.00000E+00
         0.00000E+00
         0.00000E+00
         0.00000E+00
         0.00000E+00
         0.00000E+00
         0.00000E+00
         0.00000E+00
         0.00000E+00
         0.00000E+00
         0.00000E+00
         0.00000E+00
         0.00000E+00
         0.00000E+00
         0.00000E+00
         0.00000E+00
         0.00000E+00
         0.00000E+00
         0.00000E+00
         0.00000E+00
         0.00000E+00
         0.00000E+00
         0.00000E+00
         0.00000E+00
         0.00000E+00
         0.00000E+00
         0.00000E+00
         0.00000E+00
         0.00000E+00
         0.00000E+00
         0.00000E+00
         0.00000E+00
         0.00000E+00
         0.00000E+00
         0.00000E+00
         0.00000E+00
         0.00000E+00
         0.00000E+00
         0.00000E+00
         0.00000E+00
         0.00000E+00
         0.00000E+00
         0.00000E+00
         0.00000E+00
         0.00000E+00
         0.00000E+00
         0.00000E+00
         0.00000E+00
         0.00000E+00
         0.00000E+00
         0.00000E+00
         0.00000E+00
         0.00000E+00
         0.00000E+00
         0.00000E+00
         0.00000E+00
         0.00000E+00
         0.00000E+00
         0.00000E+00
         0.00000E+00
         0.00000E+00
         0.00000E+00
         0.00000E+00
         0.00000E+00
         0.00000E+00
         0.00000E+00
         0.00000E+00
         0.00000E+00
         0.00000E+00
         0.00000E+00
         0.00000E+00
         0.00000E+00
         0.00000E+00
         0.00000E+00
         0.00000E+00
         0.00000E+00
         0.00000E+00
         0.00000E+00
         0.00000E+00
         0.00000E+00
         0.00000E+00
         0.00000E+00
         0.00000E+00
         0.00000E+00
         0.00000E+00
         0.00000E+00
         0.00000E+00
         0.00000E+00
         0.00000E+00
         0.00000E+00
         0.00000E+00
         0.00000E+00
         0.00000E+00
         0.00000E+00
         0.00000E+00
         0.00000E+00
         0.00000E+00
         0.00000E+00
         0.00000E+00
         0.00000E+00
         0.00000E+00
         0.00000E+00
         0.00000E+00
         0.00000E+00
         0.00000E+00
         0.00000E+00
         0.00000E+00
         0.00000E+00
         0.00000E+00
         0.00000E+00
         0.00000E+00
         0.00000E+00
         0.00000E+00
         0.00000E+00
         0.00000E+00
         0.00000E+00
         0.00000E+00
         0.00000E+00
         0.00000E+00
         0.00000E+00
         0.00000E+00
         0.00000E+00
         0.00000E+00
         0.00000E+00
         0.00000E+00
         0.00000E+00
         0.00000E+00
         0.00000E+00
         0.00000E+00
         0.00000E+00
         0.00000E+00
         0.00000E+00
         0.00000E+00
         0.00000E+00
         0.00000E+00
         0.00000E+00
         0.00000E+00
         0.00000E+00
         0.00000E+00
         0.00000E+00
         0.00000E+00
         0.00000E+00
         0.00000E+00
         0.00000E+00
         0.00000E+00
         0.00000E+00
         0.00000E+00
         0.00000E+00
         0.00000E+00
         0.00000E+00
         0.00000E+00
         0.00000E+00
         0.00000E+00
         0.00000E+00
         0.00000E+00
         0.00000E+00
         0.00000E+00
         0.00000E+00
         0.00000E+00
         0.00000E+00
         0.00000E+00
         0.00000E+00
         0.00000E+00
         0.00000E+00
         0.00000E+00
         0.00000E+00
         0.00000E+00
         0.00000E+00
         0.00000E+00
         0.00000E+00
         0.00000E+00
         0.00000E+00
         0.00000E+00
         0.00000E+00
         0.00000E+00
         0.00000E+00
         0.00000E+00
         0.00000E+00
         0.00000E+00
         0.00000E+00
         0.00000E+00
         0.00000E+00
         0.00000E+00
         0.00000E+00
         0.00000E+00
         0.00000E+00
         0.00000E+00
         0.00000E+00
         0.00000E+00
         0.00000E+00
         0.00000E+00
         0.00000E+00
         0.00000E+00
         0.00000E+00
         0.00000E+00
         0.00000E+00
         0.00000E+00
         0.00000E+00
         0.00000E+00
         0.00000E+00
         0.00000E+00
         0.00000E+00
         0.00000E+00
         0.00000E+00
         0.00000E+00
         0.00000E+00
         0.00000E+00
         0.00000E+00
         0.00000E+00
         0.00000E+00
         0.00000E+00
         0.00000E+00
         0.00000E+00
         0.00000E+00
         0.00000E+00
         0.00000E+00
         0.00000E+00
         0.00000E+00
         0.00000E+00
         0.00000E+00
         0.00000E+00
         0.00000E+00
         0.00000E+00
         0.00000E+00
         0.00000E+00
         0.00000E+00
         0.00000E+00
         0.00000E+00
         0.00000E+00
         0.00000E+00
         0.00000E+00
         0.00000E+00
         0.00000E+00
         0.00000E+00
         0.00000E+00
         0.00000E+00
         0.00000E+00
         0.00000E+00
         0.00000E+00
         0.00000E+00
         0.00000E+00
         0.00000E+00
         0.00000E+00
         0.00000E+00
         0.00000E+00
         0.00000E+00
         0.00000E+00
         0.00000E+00
         0.00000E+00
         0.00000E+00
         0.00000E+00
         0.00000E+00
         0.00000E+00
         0.00000E+00
         0.00000E+00
         0.00000E+00
         0.00000E+00
         0.00000E+00
         0.00000E+00
         0.00000E+00
         0.00000E+00
         0.00000E+00
         0.00000E+00
         0.00000E+00
         0.00000E+00
         0.00000E+00
         0.00000E+00
         0.00000E+00
         0.00000E+00
         0.00000E+00
         0.00000E+00
         0.00000E+00
         0.00000E+00
         0.00000E+00
         0.00000E+00
         0.00000E+00
         0.00000E+00
         0.00000E+00
         0.00000E+00
         0.00000E+00
         0.00000E+00
         0.00000E+00
         0.00000E+00
         0.00000E+00
         0.00000E+00
         0.00000E+00
         0.00000E+00
         0.00000E+00
         0.00000E+00
         0.00000E+00
         0.00000E+00
         0.00000E+00
         0.00000E+00
         0.00000E+00
         0.00000E+00
         0.00000E+00
         0.00000E+00
         0.00000E+00
         0.00000E+00
         0.00000E+00
         0.00000E+00
         0.00000E+00
         0.00000E+00
         0.00000E+00
         0.00000E+00
         0.00000E+00
         0.00000E+00
         0.00000E+00
         0.00000E+00
         0.00000E+00
         0.00000E+00
         0.00000E+00
         0.00000E+00
         0.00000E+00
         0.00000E+00
         0.00000E+00
         0.00000E+00
         0.00000E+00
         0.00000E+00
         0.00000E+00
         0.00000E+00
         0.00000E+00
         0.00000E+00
         0.00000E+00
         0.00000E+00
         0.00000E+00
         0.00000E+00
         0.00000E+00
         0.00000E+00
         0.00000E+00
         0.00000E+00
         0.00000E+00
         0.00000E+00
         0.00000E+00
         0.00000E+00
         0.00000E+00
         0.00000E+00
         0.00000E+00
         0.00000E+00
         0.00000E+00
         0.00000E+00
         0.00000E+00
         0.00000E+00
         0.00000E+00
         0.00000E+00
         0.00000E+00
         0.00000E+00
         0.00000E+00
         0.00000E+00
         0.00000E+00
         0.00000E+00
         0.00000E+00
         0.00000E+00
         0.00000E+00
         0.00000E+00
         0.00000E+00
         0.00000E+00
         0.00000E+00
         0.00000E+00
         0.00000E+00
         0.00000E+00
         0.00000E+00
         0.00000E+00
         0.00000E+00
         0.00000E+00
         0.00000E+00
         0.00000E+00
         0.00000E+00
         0.00000E+00
         0.00000E+00
         0.00000E+00
         0.00000E+00
         0.00000E+00
         0.00000E+00
         0.00000E+00
         0.00000E+00
         0.00000E+00
         0.00000E+00
         0.00000E+00
         0.00000E+00
         0.00000E+00
         0.00000E+00
         0.00000E+00
         0.00000E+00
         0.00000E+00
         0.00000E+00
         0.00000E+00
         0.00000E+00
         0.00000E+00
         0.00000E+00
         0.00000E+00
         0.00000E+00
         0.00000E+00
         0.00000E+00
         0.00000E+00
         0.00000E+00
         0.00000E+00
         0.00000E+00
         0.00000E+00
         0.00000E+00
         0.00000E+00
         0.00000E+00
         0.00000E+00
         0.00000E+00
         0.00000E+00
         0.00000E+00
         0.00000E+00
         0.00000E+00
         0.00000E+00
         0.00000E+00
         0.00000E+00
         0.00000E+00
         0.00000E+00
         0.00000E+00
         0.00000E+00
         0.00000E+00
         0.00000E+00
         0.00000E+00
         0.00000E+00
         0.00000E+00
         0.00000E+00
         0.00000E+00
         0.00000E+00
         0.00000E+00
         0.00000E+00
         0.00000E+00
         0.00000E+00
         0.00000E+00
         0.00000E+00
         0.00000E+00
         0.00000E+00
         0.00000E+00
         0.00000E+00
         0.00000E+00
         0.00000E+00
         0.00000E+00
         0.00000E+00
         0.00000E+00
         0.00000E+00
         0.00000E+00
         0.00000E+00
         0.00000E+00
         0.00000E+00
         0.00000E+00
         0.00000E+00
         0.00000E+00
         0.00000E+00
         0.00000E+00
         0.00000E+00
         0.00000E+00
         0.00000E+00
         0.00000E+00
         0.00000E+00
         0.00000E+00
         0.00000E+00
         0.00000E+00
         0.00000E+00
         0.00000E+00
         0.00000E+00
         0.00000E+00
         0.00000E+00
         0.00000E+00
         0.00000E+00
         0.00000E+00
         0.00000E+00
         0.00000E+00
         0.00000E+00
         0.00000E+00
         0.00000E+00
         0.00000E+00
         0.00000E+00
         0.00000E+00
         0.00000E+00
         0.00000E+00
         0.00000E+00
         0.00000E+00
         0.00000E+00
         0.00000E+00
         0.00000E+00
         0.00000E+00
         0.00000E+00
         0.00000E+00
         0.00000E+00
         0.00000E+00
         0.00000E+00
         0.00000E+00
         0.00000E+00
         0.00000E+00
         0.00000E+00
         0.00000E+00
         0.00000E+00
         0.00000E+00
         0.00000E+00
         0.00000E+00
         0.00000E+00
         0.00000E+00
         0.00000E+00
         0.00000E+00
         0.00000E+00
         0.00000E+00
         0.00000E+00
         0.00000E+00
         0.00000E+00
         0.00000E+00
         0.00000E+00
         0.00000E+00
         0.00000E+00
         0.00000E+00
         0.00000E+00
         0.00000E+00
         0.00000E+00
         0.00000E+00
         0.00000E+00
         0.00000E+00
         0.00000E+00
         0.00000E+00
         0.00000E+00
         0.00000E+00
         0.00000E+00
         0.00000E+00
         0.00000E+00
         0.00000E+00
         0.00000E+00
         0.00000E+00
         0.00000E+00
         0.00000E+00
         0.00000E+00
         0.00000E+00
         0.00000E+00
         0.00000E+00
         0.00000E+00
         0.00000E+00
         0.00000E+00
         0.00000E+00
         0.00000E+00
         0.00000E+00
         0.00000E+00
         0.00000E+00
         0.00000E+00
         0.00000E+00
         0.00000E+00
         0.00000E+00
         0.00000E+00
         0.00000E+00
         0.00000E+00
         0.00000E+00
         0.00000E+00
         0.00000E+00
         0.00000E+00
         0.00000E+00
         0.00000E+00
         0.00000E+00
         0.00000E+00
         0.00000E+00
         0.00000E+00
         0.00000E+00
         0.00000E+00
         0.00000E+00
         0.00000E+00
         0.00000E+00
         0.00000E+00
         0.00000E+00
         0.00000E+00
         0.00000E+00
         0.00000E+00
         0.00000E+00
         0.00000E+00
         0.00000E+00
         0.00000E+00
         0.00000E+00
         0.00000E+00
         0.00000E+00
         0.00000E+00
         0.00000E+00
         0.00000E+00
         0.00000E+00
         0.00000E+00
         0.00000E+00
         0.00000E+00
         0.00000E+00
         0.00000E+00
         0.00000E+00
         0.00000E+00
         0.00000E+00
         0.00000E+00
         0.00000E+00
         0.00000E+00
         0.00000E+00
         0.00000E+00
         0.00000E+00
         0.00000E+00
         0.00000E+00
         0.00000E+00
         0.00000E+00
         0.00000E+00
         0.00000E+00
         0.00000E+00
         0.00000E+00
         0.00000E+00
         0.00000E+00
         0.00000E+00
         0.00000E+00
         0.00000E+00
         0.00000E+00
         0.00000E+00
         0.00000E+00
         0.00000E+00
         0.00000E+00
         0.00000E+00
         0.00000E+00
         0.00000E+00
         0.00000E+00
         0.00000E+00
         0.00000E+00
         0.00000E+00
         0.00000E+00
         0.00000E+00
         0.00000E+00
         0.00000E+00
         0.00000E+00
         0.00000E+00
         0.00000E+00
         0.00000E+00
         0.00000E+00
         0.00000E+00
         0.00000E+00
         0.00000E+00
         0.00000E+00
         0.00000E+00
         0.00000E+00
         0.00000E+00
         0.00000E+00
         0.00000E+00
         0.00000E+00
         0.00000E+00
         0.00000E+00
         0.00000E+00
         0.00000E+00
         0.00000E+00
         0.00000E+00
         0.00000E+00
         0.00000E+00
         0.00000E+00
         0.00000E+00
         0.00000E+00
         0.00000E+00
         0.00000E+00
         0.00000E+00
         0.00000E+00
         0.00000E+00
         0.00000E+00
         0.00000E+00
         0.00000E+00
         0.00000E+00
         0.00000E+00
         0.00000E+00
         0.00000E+00
         0.00000E+00
         0.00000E+00
         0.00000E+00
         0.00000E+00
         0.00000E+00
         0.00000E+00
         0.00000E+00
         0.00000E+00
         0.00000E+00
         0.00000E+00
         0.00000E+00
         0.00000E+00
         0.00000E+00
         0.00000E+00
         0.00000E+00
         0.00000E+00
         0.00000E+00
         0.00000E+00
         0.00000E+00
         0.00000E+00
         0.00000E+00
         0.00000E+00
         0.00000E+00
         0.00000E+00
         0.00000E+00
         0.00000E+00
         0.00000E+00
         0.00000E+00
         0.00000E+00
         0.00000E+00
         0.00000E+00
         0.00000E+00
         0.00000E+00
         0.00000E+00
         0.00000E+00
         0.00000E+00
         0.00000E+00
         0.00000E+00
         0.00000E+00
         0.00000E+00
         0.00000E+00
         0.00000E+00
         0.00000E+00
         0.00000E+00
         0.00000E+00
         0.00000E+00
         0.00000E+00
         0.00000E+00
         0.00000E+00
         0.00000E+00
         0.00000E+00
         0.00000E+00
         0.00000E+00
         0.00000E+00
         0.00000E+00
         0.00000E+00
         0.00000E+00
         0.00000E+00
         0.00000E+00
         0.00000E+00
         0.00000E+00
         0.00000E+00
         0.00000E+00
         0.00000E+00
         0.00000E+00
         0.00000E+00
         0.00000E+00
         0.00000E+00
         0.00000E+00
         0.00000E+00
         0.00000E+00
         0.00000E+00
         0.00000E+00
         0.00000E+00
         0.00000E+00
         0.00000E+00
         0.00000E+00
         0.00000E+00
         0.00000E+00
         0.00000E+00
         0.00000E+00
         0.00000E+00
         0.00000E+00
         0.00000E+00
         0.00000E+00
         0.00000E+00
         0.00000E+00
         0.00000E+00
         0.00000E+00
         0.00000E+00
         0.00000E+00
         0.00000E+00
         0.00000E+00
         0.00000E+00
         0.00000E+00
         0.00000E+00
         0.00000E+00
         0.00000E+00
         0.00000E+00
         0.00000E+00
         0.00000E+00
         0.00000E+00
         0.00000E+00
         0.00000E+00
         0.00000E+00
         0.00000E+00
         0.00000E+00
         0.00000E+00
         0.00000E+00
         0.00000E+00
         0.00000E+00
         0.00000E+00
         0.00000E+00
         0.00000E+00
         0.00000E+00
         0.00000E+00
         0.00000E+00
         0.00000E+00
         0.00000E+00
         0.00000E+00
         0.00000E+00
         0.00000E+00
         0.00000E+00
         0.00000E+00
         0.00000E+00
         0.00000E+00
         0.00000E+00
         0.00000E+00
         0.00000E+00
         0.00000E+00
         0.00000E+00
         0.00000E+00
         0.00000E+00
         0.00000E+00
         0.00000E+00
         0.00000E+00
         0.00000E+00
         0.00000E+00
         0.00000E+00
         0.00000E+00
         0.00000E+00
         0.00000E+00
         0.00000E+00
         0.00000E+00
         0.00000E+00
         0.00000E+00
         0.00000E+00
         0.00000E+00
         0.00000E+00
         0.00000E+00
         0.00000E+00
         0.00000E+00
         0.00000E+00
         0.00000E+00
         0.00000E+00
         0.00000E+00
         0.00000E+00
         0.00000E+00
         0.00000E+00
         0.00000E+00
         0.00000E+00
         0.00000E+00
         0.00000E+00
         0.00000E+00
         0.00000E+00
         0.00000E+00
         0.00000E+00
         0.00000E+00
         0.00000E+00
         0.00000E+00
         0.00000E+00
         0.00000E+00
         0.00000E+00
         0.00000E+00
         0.00000E+00
         0.00000E+00
         0.00000E+00
         0.00000E+00
         0.00000E+00
         0.00000E+00
         0.00000E+00
         0.00000E+00
         0.00000E+00
         0.00000E+00
         0.00000E+00
         0.00000E+00
         0.00000E+00
         0.00000E+00
         0.00000E+00
         0.00000E+00
         0.00000E+00
         0.00000E+00
         0.00000E+00
         0.00000E+00
         0.00000E+00
         0.00000E+00
         0.00000E+00
         0.00000E+00
         0.00000E+00
         0.00000E+00
         0.00000E+00
         0.00000E+00
         0.00000E+00
         0.00000E+00
         0.00000E+00
         0.00000E+00
         0.00000E+00
         0.00000E+00
         0.00000E+00
         0.00000E+00
         0.00000E+00
         0.00000E+00
         0.00000E+00
         0.00000E+00
         0.00000E+00
         0.00000E+00
         0.00000E+00
         0.00000E+00
         0.00000E+00
         0.00000E+00
         0.00000E+00
         0.00000E+00
         0.00000E+00
         0.00000E+00
         0.00000E+00
         0.00000E+00
         0.00000E+00
         0.00000E+00
         0.00000E+00
         0.00000E+00
         0.00000E+00
         0.00000E+00
         0.00000E+00
         0.00000E+00
         0.00000E+00
         0.00000E+00
         0.00000E+00
         0.00000E+00
         0.00000E+00
         0.00000E+00
         0.00000E+00
         0.00000E+00
         0.00000E+00
         0.00000E+00
         0.00000E+00
         0.00000E+00
         0.00000E+00
         0.00000E+00
         0.00000E+00
         0.00000E+00
         0.00000E+00
         0.00000E+00
         0.00000E+00
         0.00000E+00
         0.00000E+00
         0.00000E+00
         0.00000E+00
         0.00000E+00
         0.00000E+00
         0.00000E+00
         0.00000E+00
         0.00000E+00
         0.00000E+00
         0.00000E+00
         0.00000E+00
         0.00000E+00
         0.00000E+00
         0.00000E+00
         0.00000E+00
         0.00000E+00
         0.00000E+00
         0.00000E+00
         0.00000E+00
         0.00000E+00
         0.00000E+00
         0.00000E+00
         0.00000E+00
         0.00000E+00
         0.00000E+00
         0.00000E+00
         0.00000E+00
         0.00000E+00
         0.00000E+00
         0.00000E+00
         0.00000E+00
         0.00000E+00
         0.00000E+00
         0.00000E+00
         0.00000E+00
         0.00000E+00
         0.00000E+00
         0.00000E+00
         0.00000E+00
         0.00000E+00
         0.00000E+00
         0.00000E+00
         0.00000E+00
         0.00000E+00
         0.00000E+00
         0.00000E+00
         0.00000E+00
         0.00000E+00
         0.00000E+00
         0.00000E+00
         0.00000E+00
         0.00000E+00
         0.00000E+00
         0.00000E+00
         0.00000E+00
         0.00000E+00
         0.00000E+00
         0.00000E+00
         0.00000E+00
         0.00000E+00
         0.00000E+00
         0.00000E+00
         0.00000E+00
         0.00000E+00
         0.00000E+00
         0.00000E+00
         0.00000E+00
         0.00000E+00
         0.00000E+00
         0.00000E+00
         0.00000E+00
         0.00000E+00
         0.00000E+00
         0.00000E+00
         0.00000E+00
         0.00000E+00
         0.00000E+00
         0.00000E+00
         0.00000E+00
         0.00000E+00
         0.00000E+00
         0.00000E+00
         0.00000E+00
         0.00000E+00
         0.00000E+00
         0.00000E+00
         0.00000E+00
         0.00000E+00
         0.00000E+00
         0.00000E+00
         0.00000E+00
         0.00000E+00
         0.00000E+00
         0.00000E+00
         0.00000E+00
         0.00000E+00
         0.00000E+00
         0.00000E+00
         0.00000E+00
         0.00000E+00
         0.00000E+00
         0.00000E+00
         0.00000E+00
         0.00000E+00
         0.00000E+00
         0.00000E+00
         0.00000E+00
         0.00000E+00
         0.00000E+00
         0.00000E+00
         0.00000E+00
         0.00000E+00
         0.00000E+00
         0.00000E+00
         0.00000E+00
         0.00000E+00
         0.00000E+00
         0.00000E+00
         0.00000E+00
         0.00000E+00
         0.00000E+00
         0.00000E+00
         0.00000E+00
         0.00000E+00
         0.00000E+00
         0.00000E+00
         0.00000E+00
         0.00000E+00
         0.00000E+00
         0.00000E+00
         0.00000E+00
         0.00000E+00
         0.00000E+00
         0.00000E+00
         0.00000E+00
         0.00000E+00
         0.00000E+00
         0.00000E+00
         0.00000E+00
         0.00000E+00
         0.00000E+00
         0.00000E+00
         0.00000E+00
         0.00000E+00
         0.00000E+00
         0.00000E+00
         0.00000E+00
         0.00000E+00
         0.00000E+00
         0.00000E+00
         0.00000E+00
         0.00000E+00
         0.00000E+00
         0.00000E+00
         0.00000E+00
         0.00000E+00
         0.00000E+00
         0.00000E+00
         0.00000E+00
         0.00000E+00
         0.00000E+00
         0.00000E+00
         0.00000E+00
         0.00000E+00
         0.00000E+00
         0.00000E+00
         0.00000E+00
         0.00000E+00
         0.00000E+00
         0.00000E+00
         0.00000E+00
         0.00000E+00
         0.00000E+00
         0.00000E+00
         0.00000E+00
         0.00000E+00
         0.00000E+00
         0.00000E+00
         0.00000E+00
         0.00000E+00
         0.00000E+00
         0.00000E+00
         0.00000E+00
         0.00000E+00
         0.00000E+00
         0.00000E+00
         0.00000E+00
         0.00000E+00
         0.00000E+00
         0.00000E+00
         0.00000E+00
         0.00000E+00
         0.00000E+00
         0.00000E+00
         0.00000E+00
         0.00000E+00
         0.00000E+00
         0.00000E+00
         0.00000E+00
         0.00000E+00
         0.00000E+00
         0.00000E+00
         0.00000E+00
         0.00000E+00
         0.00000E+00
         0.00000E+00
         0.00000E+00
         0.00000E+00
         0.00000E+00
         0.00000E+00
         0.00000E+00
         0.00000E+00
         0.00000E+00
         0.00000E+00
         0.00000E+00
         0.00000E+00
         0.00000E+00
         0.00000E+00
         0.00000E+00
         0.00000E+00
         0.00000E+00
         0.00000E+00
         0.00000E+00
         0.00000E+00
         0.00000E+00
         0.00000E+00
         0.00000E+00
         0.00000E+00
         0.00000E+00
         0.00000E+00
         0.00000E+00
         0.00000E+00
         0.00000E+00
         0.00000E+00
         0.00000E+00
         0.00000E+00
         0.00000E+00
         0.00000E+00
         0.00000E+00
         0.00000E+00
         0.00000E+00
         0.00000E+00
         0.00000E+00
         0.00000E+00
         0.00000E+00
         0.00000E+00
         0.00000E+00
         0.00000E+00
         0.00000E+00
         0.00000E+00
         0.00000E+00
         0.00000E+00
         0.00000E+00
         0.00000E+00
         0.00000E+00
         0.00000E+00
         0.00000E+00
         0.00000E+00
         0.00000E+00
         0.00000E+00
         0.00000E+00
         0.00000E+00
         0.00000E+00
         0.00000E+00
         0.00000E+00
         0.00000E+00
         0.00000E+00
         0.00000E+00
         0.00000E+00
         0.00000E+00
         0.00000E+00
         0.00000E+00
         0.00000E+00
         0.00000E+00
         0.00000E+00
         0.00000E+00
         0.00000E+00
         0.00000E+00
         0.00000E+00
         0.00000E+00
         0.00000E+00
         0.00000E+00
         0.00000E+00
         0.00000E+00
         0.00000E+00
         0.00000E+00
         0.00000E+00
         0.00000E+00
         0.00000E+00
         0.00000E+00
         0.00000E+00
         0.00000E+00
         0.00000E+00
         0.00000E+00
         0.00000E+00
         0.00000E+00
         0.00000E+00
         0.00000E+00
         0.00000E+00
         0.00000E+00
         0.00000E+00
         0.00000E+00
         0.00000E+00
         0.00000E+00
         0.00000E+00
         0.00000E+00
         0.00000E+00
         0.00000E+00
         0.00000E+00
         0.00000E+00
         0.00000E+00
         0.00000E+00
         0.00000E+00
         0.00000E+00
         0.00000E+00
         0.00000E+00
         0.00000E+00
         0.00000E+00
         0.00000E+00
         0.00000E+00
         0.00000E+00
         0.00000E+00
         0.00000E+00
         0.00000E+00
         0.00000E+00
         0.00000E+00
         0.00000E+00
         0.00000E+00
         0.00000E+00
         0.00000E+00
         0.00000E+00
         0.00000E+00
         0.00000E+00
         0.00000E+00
         0.00000E+00
         0.00000E+00
         0.00000E+00
         0.00000E+00
         0.00000E+00
         0.00000E+00
         0.00000E+00
         0.00000E+00
         0.00000E+00
         0.00000E+00
         0.00000E+00
         0.00000E+00
         0.00000E+00
         0.00000E+00
         0.00000E+00
         0.00000E+00
         0.00000E+00
         0.00000E+00
         0.00000E+00
         0.00000E+00
         0.00000E+00
         0.00000E+00
         0.00000E+00
         0.00000E+00
         0.00000E+00
         0.00000E+00
         0.00000E+00
         0.00000E+00
         0.00000E+00
         0.00000E+00
         0.00000E+00
         0.00000E+00
         0.00000E+00
         0.00000E+00
         0.00000E+00
         0.00000E+00
         0.00000E+00
         0.00000E+00
         0.00000E+00
         0.00000E+00
         0.00000E+00
         0.00000E+00
         0.00000E+00
         0.00000E+00
         0.00000E+00
         0.00000E+00
         0.00000E+00
         0.00000E+00
         0.00000E+00
         0.00000E+00
         0.00000E+00
         0.00000E+00
         0.00000E+00
         0.00000E+00
         0.00000E+00
         0.00000E+00
         0.00000E+00
         0.00000E+00
         0.00000E+00
         0.00000E+00
         0.00000E+00
         0.00000E+00
         0.00000E+00
         0.00000E+00
         0.00000E+00
         0.00000E+00
         0.00000E+00
         0.00000E+00
         0.00000E+00
         0.00000E+00
         0.00000E+00
         0.00000E+00
         0.00000E+00
         0.00000E+00
         0.00000E+00
         0.00000E+00
         0.00000E+00
         0.00000E+00
         0.00000E+00
         0.00000E+00
         0.00000E+00
         0.00000E+00
         0.00000E+00
         0.00000E+00
         0.00000E+00
         0.00000E+00
         0.00000E+00
         0.00000E+00
         0.00000E+00
         0.00000E+00
         0.00000E+00
         0.00000E+00
         0.00000E+00
         0.00000E+00
         0.00000E+00
         0.00000E+00
         0.00000E+00
         0.00000E+00
         0.00000E+00
         0.00000E+00
         0.00000E+00
         0.00000E+00
         0.00000E+00
         0.00000E+00
         0.00000E+00
         0.00000E+00
         0.00000E+00
         0.00000E+00
         0.00000E+00
         0.00000E+00
         0.00000E+00
         0.00000E+00
         0.00000E+00
         0.00000E+00
         0.00000E+00
         0.00000E+00
         0.00000E+00
         0.00000E+00
         0.00000E+00
         0.00000E+00
         0.00000E+00
         0.00000E+00
         0.00000E+00
         0.00000E+00
         0.00000E+00
         0.00000E+00
         0.00000E+00
         0.00000E+00
         0.00000E+00
         0.00000E+00
         0.00000E+00
         0.00000E+00
         0.00000E+00
         0.00000E+00
         0.00000E+00
         0.00000E+00
         0.00000E+00
         0.00000E+00
         0.00000E+00
         0.00000E+00
         0.00000E+00
         0.00000E+00
         0.00000E+00
         0.00000E+00
         0.00000E+00
         0.00000E+00
         0.00000E+00
         0.00000E+00
         0.00000E+00
         0.00000E+00
         0.00000E+00
         0.00000E+00
         0.00000E+00
         0.00000E+00
         0.00000E+00
         0.00000E+00
         0.00000E+00
         0.00000E+00
         0.00000E+00
         0.00000E+00
         0.00000E+00
         0.00000E+00
         0.00000E+00
         0.00000E+00
         0.00000E+00
         0.00000E+00
         0.00000E+00
         0.00000E+00
         0.00000E+00
         0.00000E+00
         0.00000E+00
         0.00000E+00
         0.00000E+00
         0.00000E+00
         0.00000E+00
         0.00000E+00
         0.00000E+00
         0.00000E+00
         0.00000E+00
         0.00000E+00
         0.00000E+00
         0.00000E+00
         0.00000E+00
         0.00000E+00
         0.00000E+00
         0.00000E+00
         0.00000E+00
         0.00000E+00
         0.00000E+00
         0.00000E+00
         0.00000E+00
         0.00000E+00
         0.00000E+00
         0.00000E+00
         0.00000E+00
         0.00000E+00
         0.00000E+00
         0.00000E+00
         0.00000E+00
         0.00000E+00
         0.00000E+00
         0.00000E+00
         0.00000E+00
         0.00000E+00
         0.00000E+00
         0.00000E+00
         0.00000E+00
         0.00000E+00
         0.00000E+00
         0.00000E+00
         0.00000E+00
         0.00000E+00
         0.00000E+00
         0.00000E+00
         0.00000E+00
         0.00000E+00
         0.00000E+00
         0.00000E+00
         0.00000E+00
         0.00000E+00
         0.00000E+00
         0.00000E+00
         0.00000E+00
         0.00000E+00
         0.00000E+00
         0.00000E+00
         0.00000E+00
         0.00000E+00
         0.00000E+00
         0.00000E+00
         0.00000E+00
         0.00000E+00
         0.00000E+00
         0.00000E+00
         0.00000E+00
         0.00000E+00
         0.00000E+00
         0.00000E+00
         0.00000E+00
         0.00000E+00
         0.00000E+00
         0.00000E+00
         0.00000E+00
         0.00000E+00
         0.00000E+00
         0.00000E+00
         0.00000E+00
         0.00000E+00
         0.00000E+00
         0.00000E+00
         0.00000E+00
         0.00000E+00
         0.00000E+00
         0.00000E+00
         0.00000E+00
         0.00000E+00
         0.00000E+00
         0.00000E+00
         0.00000E+00
         0.00000E+00
         0.00000E+00
         0.00000E+00
         0.00000E+00
         0.00000E+00
         0.00000E+00
         0.00000E+00
         0.00000E+00
         0.00000E+00
         0.00000E+00
         0.00000E+00
         0.00000E+00
         0.00000E+00
         0.00000E+00
         0.00000E+00
         0.00000E+00
         0.00000E+00
         0.00000E+00
         0.00000E+00
         0.00000E+00
         0.00000E+00
         0.00000E+00
         0.00000E+00
         0.00000E+00
         0.00000E+00
         0.00000E+00
         0.00000E+00
         0.00000E+00
         0.00000E+00
         0.00000E+00
         0.00000E+00
         0.00000E+00
         0.00000E+00
         0.00000E+00
         0.00000E+00
         0.00000E+00
         0.00000E+00
         0.00000E+00
         0.00000E+00
         0.00000E+00
         0.00000E+00
         0.00000E+00
         0.00000E+00
         0.00000E+00
         0.00000E+00
         0.00000E+00
         0.00000E+00
         0.00000E+00
         0.00000E+00
         0.00000E+00
         0.00000E+00
         0.00000E+00
         0.00000E+00
         0.00000E+00
         0.00000E+00
         0.00000E+00
         0.00000E+00
         0.00000E+00
         0.00000E+00
         0.00000E+00
         0.00000E+00
         0.00000E+00
         0.00000E+00
         0.00000E+00
         0.00000E+00
         0.00000E+00
         0.00000E+00
         0.00000E+00
         0.00000E+00
         0.00000E+00
         0.00000E+00
         0.00000E+00
         0.00000E+00
         0.00000E+00
         0.00000E+00
         0.00000E+00
         0.00000E+00
         0.00000E+00
         0.00000E+00
         0.00000E+00
         0.00000E+00
         0.00000E+00
         0.00000E+00
         0.00000E+00
         0.00000E+00
         0.00000E+00
         0.00000E+00
         0.00000E+00
         0.00000E+00
         0.00000E+00
         0.00000E+00
         0.00000E+00
         0.00000E+00
         0.00000E+00
         0.00000E+00
         0.00000E+00
         0.00000E+00
         0.00000E+00
         0.00000E+00
         0.00000E+00
         0.00000E+00
         0.00000E+00
         0.00000E+00
         0.00000E+00
         0.00000E+00
         0.00000E+00
         0.00000E+00
         0.00000E+00
         0.00000E+00
         0.00000E+00
         0.00000E+00
         0.00000E+00
         0.00000E+00
         0.00000E+00
         0.00000E+00
         0.00000E+00
         0.00000E+00
         0.00000E+00
         0.00000E+00
         0.00000E+00
         0.00000E+00
         0.00000E+00
  
SCALARS                     velocity_y  double 1
LOOKUP_TABLE default
         0.00000E+00
         0.00000E+00
         0.00000E+00
         0.00000E+00
         0.00000E+00
         0.00000E+00
         0.00000E+00
         0.00000E+00
         0.00000E+00
         0.00000E+00
         0.00000E+00
         0.00000E+00
         0.00000E+00
         0.00000E+00
         0.00000E+00
         0.00000E+00
         0.00000E+00
         0.00000E+00
         0.00000E+00
         0.00000E+00
         0.00000E+00
         0.00000E+00
         0.00000E+00
         0.00000E+00
         0.00000E+00
         0.00000E+00
         0.00000E+00
         0.00000E+00
         0.00000E+00
         0.00000E+00
         0.00000E+00
         0.00000E+00
         0.00000E+00
         0.00000E+00
         0.00000E+00
         0.00000E+00
         0.00000E+00
         0.00000E+00
         0.00000E+00
         0.00000E+00
         0.00000E+00
         0.00000E+00
         0.00000E+00
         0.00000E+00
         0.00000E+00
         0.00000E+00
         0.00000E+00
         0.00000E+00
         0.00000E+00
         0.00000E+00
         0.00000E+00
         0.00000E+00
         0.00000E+00
         0.00000E+00
         0.00000E+00
         0.00000E+00
         0.00000E+00
         0.00000E+00
         0.00000E+00
         0.00000E+00
         0.00000E+00
         0.00000E+00
         0.00000E+00
         0.00000E+00
         0.00000E+00
         0.00000E+00
         0.00000E+00
         0.00000E+00
         0.00000E+00
         0.00000E+00
         0.00000E+00
         0.00000E+00
         0.00000E+00
         0.00000E+00
         0.00000E+00
         0.00000E+00
         0.00000E+00
         0.00000E+00
         0.00000E+00
         0.00000E+00
         0.00000E+00
         0.00000E+00
         0.00000E+00
         0.00000E+00
         0.00000E+00
         0.00000E+00
         0.00000E+00
         0.00000E+00
         0.00000E+00
         0.00000E+00
         0.00000E+00
         0.00000E+00
         0.00000E+00
         0.00000E+00
         0.00000E+00
         0.00000E+00
         0.00000E+00
         0.00000E+00
         0.00000E+00
         0.00000E+00
         0.00000E+00
         0.00000E+00
         0.00000E+00
         0.00000E+00
         0.00000E+00
         0.00000E+00
         0.00000E+00
         0.00000E+00
         0.00000E+00
         0.00000E+00
         0.00000E+00
         0.00000E+00
         0.00000E+00
         0.00000E+00
         0.00000E+00
         0.00000E+00
         0.00000E+00
         0.00000E+00
         0.00000E+00
         0.00000E+00
         0.00000E+00
         0.00000E+00
         0.00000E+00
         0.00000E+00
         0.00000E+00
         0.00000E+00
         0.00000E+00
         0.00000E+00
         0.00000E+00
         0.00000E+00
         0.00000E+00
         0.00000E+00
         0.00000E+00
         0.00000E+00
         0.00000E+00
         0.00000E+00
         0.00000E+00
         0.00000E+00
         0.00000E+00
         0.00000E+00
         0.00000E+00
         0.00000E+00
         0.00000E+00
         0.00000E+00
         0.00000E+00
         0.00000E+00
         0.00000E+00
         0.00000E+00
         0.00000E+00
         0.00000E+00
         0.00000E+00
         0.00000E+00
         0.00000E+00
         0.00000E+00
         0.00000E+00
         0.00000E+00
         0.00000E+00
         0.00000E+00
         0.00000E+00
         0.00000E+00
         0.00000E+00
         0.00000E+00
         0.00000E+00
         0.00000E+00
         0.00000E+00
         0.00000E+00
         0.00000E+00
         0.00000E+00
         0.00000E+00
         0.00000E+00
         0.00000E+00
         0.00000E+00
         0.00000E+00
         0.00000E+00
         0.00000E+00
         0.00000E+00
         0.00000E+00
         0.00000E+00
         0.00000E+00
         0.00000E+00
         0.00000E+00
         0.00000E+00
         0.00000E+00
         0.00000E+00
         0.00000E+00
         0.00000E+00
         0.00000E+00
         0.00000E+00
         0.00000E+00
         0.00000E+00
         0.00000E+00
         0.00000E+00
         0.00000E+00
         0.00000E+00
         0.00000E+00
         0.00000E+00
         0.00000E+00
         0.00000E+00
         0.00000E+00
         0.00000E+00
         0.00000E+00
         0.00000E+00
         0.00000E+00
         0.00000E+00
         0.00000E+00
         0.00000E+00
         0.00000E+00
         0.00000E+00
         0.00000E+00
         0.00000E+00
         0.00000E+00
         0.00000E+00
         0.00000E+00
         0.00000E+00
         0.00000E+00
         0.00000E+00
         0.00000E+00
         0.00000E+00
         0.00000E+00
         0.00000E+00
         0.00000E+00
         0.00000E+00
         0.00000E+00
         0.00000E+00
         0.00000E+00
         0.00000E+00
         0.00000E+00
         0.00000E+00
         0.00000E+00
         0.00000E+00
         0.00000E+00
         0.00000E+00
         0.00000E+00
         0.00000E+00
         0.00000E+00
         0.00000E+00
         0.00000E+00
         0.00000E+00
         0.00000E+00
         0.00000E+00
         0.00000E+00
         0.00000E+00
         0.00000E+00
         0.00000E+00
         0.00000E+00
         0.00000E+00
         0.00000E+00
         0.00000E+00
         0.00000E+00
         0.00000E+00
         0.00000E+00
         0.00000E+00
         0.00000E+00
         0.00000E+00
         0.00000E+00
         0.00000E+00
         0.00000E+00
         0.00000E+00
         0.00000E+00
         0.00000E+00
         0.00000E+00
         0.00000E+00
         0.00000E+00
         0.00000E+00
         0.00000E+00
         0.00000E+00
         0.00000E+00
         0.00000E+00
         0.00000E+00
         0.00000E+00
         0.00000E+00
         0.00000E+00
         0.00000E+00
         0.00000E+00
         0.00000E+00
         0.00000E+00
         0.00000E+00
         0.00000E+00
         0.00000E+00
         0.00000E+00
         0.00000E+00
         0.00000E+00
         0.00000E+00
         0.00000E+00
         0.00000E+00
         0.00000E+00
         0.00000E+00
         0.00000E+00
         0.00000E+00
         0.00000E+00
         0.00000E+00
         0.00000E+00
         0.00000E+00
         0.00000E+00
         0.00000E+00
         0.00000E+00
         0.00000E+00
         0.00000E+00
         0.00000E+00
         0.00000E+00
         0.00000E+00
         0.00000E+00
         0.00000E+00
         0.00000E+00
         0.00000E+00
         0.00000E+00
         0.00000E+00
         0.00000E+00
         0.00000E+00
         0.00000E+00
         0.00000E+00
         0.00000E+00
         0.00000E+00
         0.00000E+00
         0.00000E+00
         0.00000E+00
         0.00000E+00
         0.00000E+00
         0.00000E+00
         0.00000E+00
         0.00000E+00
         0.00000E+00
         0.00000E+00
         0.00000E+00
         0.00000E+00
         0.00000E+00
         0.00000E+00
         0.00000E+00
         0.00000E+00
         0.00000E+00
         0.00000E+00
         0.00000E+00
         0.00000E+00
         0.00000E+00
         0.00000E+00
         0.00000E+00
         0.00000E+00
         0.00000E+00
         0.00000E+00
         0.00000E+00
         0.00000E+00
         0.00000E+00
         0.00000E+00
         0.00000E+00
         0.00000E+00
         0.00000E+00
         0.00000E+00
         0.00000E+00
         0.00000E+00
         0.00000E+00
         0.00000E+00
         0.00000E+00
         0.00000E+00
         0.00000E+00
         0.00000E+00
         0.00000E+00
         0.00000E+00
         0.00000E+00
         0.00000E+00
         0.00000E+00
         0.00000E+00
         0.00000E+00
         0.00000E+00
         0.00000E+00
         0.00000E+00
         0.00000E+00
         0.00000E+00
         0.00000E+00
         0.00000E+00
         0.00000E+00
         0.00000E+00
         0.00000E+00
         0.00000E+00
         0.00000E+00
         0.00000E+00
         0.00000E+00
         0.00000E+00
         0.00000E+00
         0.00000E+00
         0.00000E+00
         0.00000E+00
         0.00000E+00
         0.00000E+00
         0.00000E+00
         0.00000E+00
         0.00000E+00
         0.00000E+00
         0.00000E+00
         0.00000E+00
         0.00000E+00
         0.00000E+00
         0.00000E+00
         0.00000E+00
         0.00000E+00
         0.00000E+00
         0.00000E+00
         0.00000E+00
         0.00000E+00
         0.00000E+00
         0.00000E+00
         0.00000E+00
         0.00000E+00
         0.00000E+00
         0.00000E+00
         0.00000E+00
         0.00000E+00
         0.00000E+00
         0.00000E+00
         0.00000E+00
         0.00000E+00
         0.00000E+00
         0.00000E+00
         0.00000E+00
         0.00000E+00
         0.00000E+00
         0.00000E+00
         0.00000E+00
         0.00000E+00
         0.00000E+00
         0.00000E+00
         0.00000E+00
         0.00000E+00
         0.00000E+00
         0.00000E+00
         0.00000E+00
         0.00000E+00
         0.00000E+00
         0.00000E+00
         0.00000E+00
         0.00000E+00
         0.00000E+00
         0.00000E+00
         0.00000E+00
         0.00000E+00
         0.00000E+00
         0.00000E+00
         0.00000E+00
         0.00000E+00
         0.00000E+00
         0.00000E+00
         0.00000E+00
         0.00000E+00
         0.00000E+00
         0.00000E+00
         0.00000E+00
         0.00000E+00
         0.00000E+00
         0.00000E+00
         0.00000E+00
         0.00000E+00
         0.00000E+00
         0.00000E+00
         0.00000E+00
         0.00000E+00
         0.00000E+00
         0.00000E+00
         0.00000E+00
         0.00000E+00
         0.00000E+00
         0.00000E+00
         0.00000E+00
         0.00000E+00
         0.00000E+00
         0.00000E+00
         0.00000E+00
         0.00000E+00
         0.00000E+00
         0.00000E+00
         0.00000E+00
         0.00000E+00
         0.00000E+00
         0.00000E+00
         0.00000E+00
         0.00000E+00
         0.00000E+00
         0.00000E+00
         0.00000E+00
         0.00000E+00
         0.00000E+00
         0.00000E+00
         0.00000E+00
         0.00000E+00
         0.00000E+00
         0.00000E+00
         0.00000E+00
         0.00000E+00
         0.00000E+00
         0.00000E+00
         0.00000E+00
         0.00000E+00
         0.00000E+00
         0.00000E+00
         0.00000E+00
         0.00000E+00
         0.00000E+00
         0.00000E+00
         0.00000E+00
         0.00000E+00
         0.00000E+00
         0.00000E+00
         0.00000E+00
         0.00000E+00
         0.00000E+00
         0.00000E+00
         0.00000E+00
         0.00000E+00
         0.00000E+00
         0.00000E+00
         0.00000E+00
         0.00000E+00
         0.00000E+00
         0.00000E+00
         0.00000E+00
         0.00000E+00
         0.00000E+00
         0.00000E+00
         0.00000E+00
         0.00000E+00
         0.00000E+00
         0.00000E+00
         0.00000E+00
         0.00000E+00
         0.00000E+00
         0.00000E+00
         0.00000E+00
         0.00000E+00
         0.00000E+00
         0.00000E+00
         0.00000E+00
         0.00000E+00
         0.00000E+00
         0.00000E+00
         0.00000E+00
         0.00000E+00
         0.00000E+00
         0.00000E+00
         0.00000E+00
         0.00000E+00
         0.00000E+00
         0.00000E+00
         0.00000E+00
         0.00000E+00
         0.00000E+00
         0.00000E+00
         0.00000E+00
         0.00000E+00
         0.00000E+00
         0.00000E+00
         0.00000E+00
         0.00000E+00
         0.00000E+00
         0.00000E+00
         0.00000E+00
         0.00000E+00
         0.00000E+00
         0.00000E+00
         0.00000E+00
         0.00000E+00
         0.00000E+00
         0.00000E+00
         0.00000E+00
         0.00000E+00
         0.00000E+00
         0.00000E+00
         0.00000E+00
         0.00000E+00
         0.00000E+00
         0.00000E+00
         0.00000E+00
         0.00000E+00
         0.00000E+00
         0.00000E+00
         0.00000E+00
         0.00000E+00
         0.00000E+00
         0.00000E+00
         0.00000E+00
         0.00000E+00
         0.00000E+00
         0.00000E+00
         0.00000E+00
         0.00000E+00
         0.00000E+00
         0.00000E+00
         0.00000E+00
         0.00000E+00
         0.00000E+00
         0.00000E+00
         0.00000E+00
         0.00000E+00
         0.00000E+00
         0.00000E+00
         0.00000E+00
         0.00000E+00
         0.00000E+00
         0.00000E+00
         0.00000E+00
         0.00000E+00
         0.00000E+00
         0.00000E+00
         0.00000E+00
         0.00000E+00
         0.00000E+00
         0.00000E+00
         0.00000E+00
         0.00000E+00
         0.00000E+00
         0.00000E+00
         0.00000E+00
         0.00000E+00
         0.00000E+00
         0.00000E+00
         0.00000E+00
         0.00000E+00
         0.00000E+00
         0.00000E+00
         0.00000E+00
         0.00000E+00
         0.00000E+00
         0.00000E+00
         0.00000E+00
         0.00000E+00
         0.00000E+00
         0.00000E+00
         0.00000E+00
         0.00000E+00
         0.00000E+00
         0.00000E+00
         0.00000E+00
         0.00000E+00
         0.00000E+00
         0.00000E+00
         0.00000E+00
         0.00000E+00
         0.00000E+00
         0.00000E+00
         0.00000E+00
         0.00000E+00
         0.00000E+00
         0.00000E+00
         0.00000E+00
         0.00000E+00
         0.00000E+00
         0.00000E+00
         0.00000E+00
         0.00000E+00
         0.00000E+00
         0.00000E+00
         0.00000E+00
         0.00000E+00
         0.00000E+00
         0.00000E+00
         0.00000E+00
         0.00000E+00
         0.00000E+00
         0.00000E+00
         0.00000E+00
         0.00000E+00
         0.00000E+00
         0.00000E+00
         0.00000E+00
         0.00000E+00
         0.00000E+00
         0.00000E+00
         0.00000E+00
         0.00000E+00
         0.00000E+00
         0.00000E+00
         0.00000E+00
         0.00000E+00
         0.00000E+00
         0.00000E+00
         0.00000E+00
         0.00000E+00
         0.00000E+00
         0.00000E+00
         0.00000E+00
         0.00000E+00
         0.00000E+00
         0.00000E+00
         0.00000E+00
         0.00000E+00
         0.00000E+00
         0.00000E+00
         0.00000E+00
         0.00000E+00
         0.00000E+00
         0.00000E+00
         0.00000E+00
         0.00000E+00
         0.00000E+00
         0.00000E+00
         0.00000E+00
         0.00000E+00
         0.00000E+00
         0.00000E+00
         0.00000E+00
         0.00000E+00
         0.00000E+00
         0.00000E+00
         0.00000E+00
         0.00000E+00
         0.00000E+00
         0.00000E+00
         0.00000E+00
         0.00000E+00
         0.00000E+00
         0.00000E+00
         0.00000E+00
         0.00000E+00
         0.00000E+00
         0.00000E+00
         0.00000E+00
         0.00000E+00
         0.00000E+00
         0.00000E+00
         0.00000E+00
         0.00000E+00
         0.00000E+00
         0.00000E+00
         0.00000E+00
         0.00000E+00
         0.00000E+00
         0.00000E+00
         0.00000E+00
         0.00000E+00
         0.00000E+00
         0.00000E+00
         0.00000E+00
         0.00000E+00
         0.00000E+00
         0.00000E+00
         0.00000E+00
         0.00000E+00
         0.00000E+00
         0.00000E+00
         0.00000E+00
         0.00000E+00
         0.00000E+00
         0.00000E+00
         0.00000E+00
         0.00000E+00
         0.00000E+00
         0.00000E+00
         0.00000E+00
         0.00000E+00
         0.00000E+00
         0.00000E+00
         0.00000E+00
         0.00000E+00
         0.00000E+00
         0.00000E+00
         0.00000E+00
         0.00000E+00
         0.00000E+00
         0.00000E+00
         0.00000E+00
         0.00000E+00
         0.00000E+00
         0.00000E+00
         0.00000E+00
         0.00000E+00
         0.00000E+00
         0.00000E+00
         0.00000E+00
         0.00000E+00
         0.00000E+00
         0.00000E+00
         0.00000E+00
         0.00000E+00
         0.00000E+00
         0.00000E+00
         0.00000E+00
         0.00000E+00
         0.00000E+00
         0.00000E+00
         0.00000E+00
         0.00000E+00
         0.00000E+00
         0.00000E+00
         0.00000E+00
         0.00000E+00
         0.00000E+00
         0.00000E+00
         0.00000E+00
         0.00000E+00
         0.00000E+00
         0.00000E+00
         0.00000E+00
         0.00000E+00
         0.00000E+00
         0.00000E+00
         0.00000E+00
         0.00000E+00
         0.00000E+00
         0.00000E+00
         0.00000E+00
         0.00000E+00
         0.00000E+00
         0.00000E+00
         0.00000E+00
         0.00000E+00
         0.00000E+00
         0.00000E+00
         0.00000E+00
         0.00000E+00
         0.00000E+00
         0.00000E+00
         0.00000E+00
         0.00000E+00
         0.00000E+00
         0.00000E+00
         0.00000E+00
         0.00000E+00
         0.00000E+00
         0.00000E+00
         0.00000E+00
         0.00000E+00
         0.00000E+00
         0.00000E+00
         0.00000E+00
         0.00000E+00
         0.00000E+00
         0.00000E+00
         0.00000E+00
         0.00000E+00
         0.00000E+00
         0.00000E+00
         0.00000E+00
         0.00000E+00
         0.00000E+00
         0.00000E+00
         0.00000E+00
         0.00000E+00
         0.00000E+00
         0.00000E+00
         0.00000E+00
         0.00000E+00
         0.00000E+00
         0.00000E+00
         0.00000E+00
         0.00000E+00
         0.00000E+00
         0.00000E+00
         0.00000E+00
         0.00000E+00
         0.00000E+00
         0.00000E+00
         0.00000E+00
         0.00000E+00
         0.00000E+00
         0.00000E+00
         0.00000E+00
         0.00000E+00
         0.00000E+00
         0.00000E+00
         0.00000E+00
         0.00000E+00
         0.00000E+00
         0.00000E+00
         0.00000E+00
         0.00000E+00
         0.00000E+00
         0.00000E+00
         0.00000E+00
         0.00000E+00
         0.00000E+00
         0.00000E+00
         0.00000E+00
         0.00000E+00
         0.00000E+00
         0.00000E+00
         0.00000E+00
         0.00000E+00
         0.00000E+00
         0.00000E+00
         0.00000E+00
         0.00000E+00
         0.00000E+00
         0.00000E+00
         0.00000E+00
         0.00000E+00
         0.00000E+00
         0.00000E+00
         0.00000E+00
         0.00000E+00
         0.00000E+00
         0.00000E+00
         0.00000E+00
         0.00000E+00
         0.00000E+00
         0.00000E+00
         0.00000E+00
         0.00000E+00
         0.00000E+00
         0.00000E+00
         0.00000E+00
         0.00000E+00
         0.00000E+00
         0.00000E+00
         0.00000E+00
         0.00000E+00
         0.00000E+00
         0.00000E+00
         0.00000E+00
         0.00000E+00
         0.00000E+00
         0.00000E+00
         0.00000E+00
         0.00000E+00
         0.00000E+00
         0.00000E+00
         0.00000E+00
         0.00000E+00
         0.00000E+00
         0.00000E+00
         0.00000E+00
         0.00000E+00
         0.00000E+00
         0.00000E+00
         0.00000E+00
         0.00000E+00
         0.00000E+00
         0.00000E+00
         0.00000E+00
         0.00000E+00
         0.00000E+00
         0.00000E+00
         0.00000E+00
         0.00000E+00
         0.00000E+00
         0.00000E+00
         0.00000E+00
         0.00000E+00
         0.00000E+00
         0.00000E+00
         0.00000E+00
         0.00000E+00
         0.00000E+00
         0.00000E+00
         0.00000E+00
         0.00000E+00
         0.00000E+00
         0.00000E+00
         0.00000E+00
         0.00000E+00
         0.00000E+00
         0.00000E+00
         0.00000E+00
         0.00000E+00
         0.00000E+00
         0.00000E+00
         0.00000E+00
         0.00000E+00
         0.00000E+00
         0.00000E+00
         0.00000E+00
         0.00000E+00
         0.00000E+00
         0.00000E+00
         0.00000E+00
         0.00000E+00
         0.00000E+00
         0.00000E+00
         0.00000E+00
         0.00000E+00
         0.00000E+00
         0.00000E+00
         0.00000E+00
         0.00000E+00
         0.00000E+00
         0.00000E+00
         0.00000E+00
         0.00000E+00
         0.00000E+00
         0.00000E+00
         0.00000E+00
         0.00000E+00
         0.00000E+00
         0.00000E+00
         0.00000E+00
         0.00000E+00
         0.00000E+00
         0.00000E+00
         0.00000E+00
         0.00000E+00
         0.00000E+00
         0.00000E+00
         0.00000E+00
         0.00000E+00
         0.00000E+00
         0.00000E+00
         0.00000E+00
         0.00000E+00
         0.00000E+00
         0.00000E+00
         0.00000E+00
         0.00000E+00
         0.00000E+00
         0.00000E+00
         0.00000E+00
         0.00000E+00
         0.00000E+00
         0.00000E+00
         0.00000E+00
         0.00000E+00
         0.00000E+00
         0.00000E+00
         0.00000E+00
         0.00000E+00
         0.00000E+00
         0.00000E+00
         0.00000E+00
         0.00000E+00
         0.00000E+00
         0.00000E+00
         0.00000E+00
         0.00000E+00
         0.00000E+00
         0.00000E+00
         0.00000E+00
         0.00000E+00
         0.00000E+00
         0.00000E+00
         0.00000E+00
         0.00000E+00
         0.00000E+00
         0.00000E+00
         0.00000E+00
         0.00000E+00
         0.00000E+00
         0.00000E+00
         0.00000E+00
         0.00000E+00
         0.00000E+00
         0.00000E+00
         0.00000E+00
         0.00000E+00
         0.00000E+00
         0.00000E+00
         0.00000E+00
         0.00000E+00
         0.00000E+00
         0.00000E+00
         0.00000E+00
         0.00000E+00
         0.00000E+00
         0.00000E+00
         0.00000E+00
         0.00000E+00
         0.00000E+00
         0.00000E+00
         0.00000E+00
         0.00000E+00
         0.00000E+00
         0.00000E+00
         0.00000E+00
         0.00000E+00
         0.00000E+00
         0.00000E+00
         0.00000E+00
         0.00000E+00
         0.00000E+00
         0.00000E+00
         0.00000E+00
         0.00000E+00
         0.00000E+00
         0.00000E+00
         0.00000E+00
         0.00000E+00
         0.00000E+00
         0.00000E+00
         0.00000E+00
         0.00000E+00
         0.00000E+00
         0.00000E+00
         0.00000E+00
         0.00000E+00
         0.00000E+00
         0.00000E+00
         0.00000E+00
         0.00000E+00
         0.00000E+00
         0.00000E+00
         0.00000E+00
         0.00000E+00
         0.00000E+00
         0.00000E+00
         0.00000E+00
         0.00000E+00
         0.00000E+00
         0.00000E+00
         0.00000E+00
         0.00000E+00
         0.00000E+00
         0.00000E+00
         0.00000E+00
         0.00000E+00
         0.00000E+00
         0.00000E+00
         0.00000E+00
         0.00000E+00
         0.00000E+00
         0.00000E+00
         0.00000E+00
         0.00000E+00
         0.00000E+00
         0.00000E+00
         0.00000E+00
         0.00000E+00
         0.00000E+00
         0.00000E+00
         0.00000E+00
         0.00000E+00
         0.00000E+00
         0.00000E+00
         0.00000E+00
         0.00000E+00
         0.00000E+00
         0.00000E+00
         0.00000E+00
         0.00000E+00
         0.00000E+00
         0.00000E+00
         0.00000E+00
         0.00000E+00
         0.00000E+00
         0.00000E+00
         0.00000E+00
         0.00000E+00
         0.00000E+00
         0.00000E+00
         0.00000E+00
         0.00000E+00
         0.00000E+00
         0.00000E+00
         0.00000E+00
         0.00000E+00
         0.00000E+00
         0.00000E+00
         0.00000E+00
         0.00000E+00
         0.00000E+00
         0.00000E+00
         0.00000E+00
         0.00000E+00
         0.00000E+00
         0.00000E+00
         0.00000E+00
         0.00000E+00
         0.00000E+00
         0.00000E+00
         0.00000E+00
         0.00000E+00
         0.00000E+00
         0.00000E+00
         0.00000E+00
         0.00000E+00
         0.00000E+00
         0.00000E+00
         0.00000E+00
         0.00000E+00
         0.00000E+00
         0.00000E+00
         0.00000E+00
         0.00000E+00
         0.00000E+00
         0.00000E+00
         0.00000E+00
         0.00000E+00
         0.00000E+00
         0.00000E+00
         0.00000E+00
         0.00000E+00
         0.00000E+00
         0.00000E+00
         0.00000E+00
         0.00000E+00
         0.00000E+00
         0.00000E+00
         0.00000E+00
         0.00000E+00
         0.00000E+00
         0.00000E+00
         0.00000E+00
         0.00000E+00
         0.00000E+00
         0.00000E+00
         0.00000E+00
         0.00000E+00
         0.00000E+00
         0.00000E+00
         0.00000E+00
         0.00000E+00
         0.00000E+00
         0.00000E+00
         0.00000E+00
         0.00000E+00
         0.00000E+00
         0.00000E+00
         0.00000E+00
         0.00000E+00
         0.00000E+00
         0.00000E+00
         0.00000E+00
         0.00000E+00
         0.00000E+00
         0.00000E+00
         0.00000E+00
         0.00000E+00
         0.00000E+00
         0.00000E+00
         0.00000E+00
         0.00000E+00
         0.00000E+00
         0.00000E+00
         0.00000E+00
         0.00000E+00
         0.00000E+00
         0.00000E+00
         0.00000E+00
         0.00000E+00
         0.00000E+00
         0.00000E+00
         0.00000E+00
         0.00000E+00
         0.00000E+00
         0.00000E+00
         0.00000E+00
         0.00000E+00
         0.00000E+00
         0.00000E+00
         0.00000E+00
         0.00000E+00
         0.00000E+00
         0.00000E+00
         0.00000E+00
         0.00000E+00
         0.00000E+00
         0.00000E+00
         0.00000E+00
         0.00000E+00
         0.00000E+00
         0.00000E+00
         0.00000E+00
         0.00000E+00
         0.00000E+00
         0.00000E+00
         0.00000E+00
         0.00000E+00
         0.00000E+00
         0.00000E+00
         0.00000E+00
         0.00000E+00
         0.00000E+00
         0.00000E+00
         0.00000E+00
         0.00000E+00
         0.00000E+00
         0.00000E+00
         0.00000E+00
         0.00000E+00
         0.00000E+00
         0.00000E+00
         0.00000E+00
         0.00000E+00
         0.00000E+00
         0.00000E+00
         0.00000E+00
         0.00000E+00
         0.00000E+00
         0.00000E+00
         0.00000E+00
         0.00000E+00
         0.00000E+00
         0.00000E+00
         0.00000E+00
         0.00000E+00
         0.00000E+00
         0.00000E+00
         0.00000E+00
         0.00000E+00
         0.00000E+00
         0.00000E+00
         0.00000E+00
         0.00000E+00
         0.00000E+00
         0.00000E+00
         0.00000E+00
         0.00000E+00
         0.00000E+00
         0.00000E+00
         0.00000E+00
         0.00000E+00
         0.00000E+00
         0.00000E+00
         0.00000E+00
         0.00000E+00
         0.00000E+00
         0.00000E+00
         0.00000E+00
         0.00000E+00
         0.00000E+00
         0.00000E+00
         0.00000E+00
         0.00000E+00
         0.00000E+00
         0.00000E+00
         0.00000E+00
         0.00000E+00
         0.00000E+00
         0.00000E+00
         0.00000E+00
         0.00000E+00
         0.00000E+00
         0.00000E+00
         0.00000E+00
         0.00000E+00
         0.00000E+00
         0.00000E+00
         0.00000E+00
         0.00000E+00
         0.00000E+00
         0.00000E+00
         0.00000E+00
         0.00000E+00
         0.00000E+00
         0.00000E+00
         0.00000E+00
         0.00000E+00
         0.00000E+00
         0.00000E+00
         0.00000E+00
         0.00000E+00
         0.00000E+00
         0.00000E+00
         0.00000E+00
         0.00000E+00
         0.00000E+00
         0.00000E+00
         0.00000E+00
         0.00000E+00
         0.00000E+00
         0.00000E+00
         0.00000E+00
         0.00000E+00
         0.00000E+00
         0.00000E+00
         0.00000E+00
         0.00000E+00
         0.00000E+00
         0.00000E+00
         0.00000E+00
         0.00000E+00
         0.00000E+00
         0.00000E+00
         0.00000E+00
         0.00000E+00
         0.00000E+00
         0.00000E+00
         0.00000E+00
         0.00000E+00
         0.00000E+00
         0.00000E+00
         0.00000E+00
         0.00000E+00
         0.00000E+00
         0.00000E+00
         0.00000E+00
         0.00000E+00
         0.00000E+00
         0.00000E+00
         0.00000E+00
         0.00000E+00
         0.00000E+00
         0.00000E+00
         0.00000E+00
         0.00000E+00
         0.00000E+00
         0.00000E+00
         0.00000E+00
         0.00000E+00
         0.00000E+00
         0.00000E+00
         0.00000E+00
         0.00000E+00
         0.00000E+00
         0.00000E+00
         0.00000E+00
         0.00000E+00
         0.00000E+00
         0.00000E+00
         0.00000E+00
         0.00000E+00
         0.00000E+00
         0.00000E+00
         0.00000E+00
         0.00000E+00
         0.00000E+00
         0.00000E+00
         0.00000E+00
         0.00000E+00
         0.00000E+00
         0.00000E+00
         0.00000E+00
         0.00000E+00
         0.00000E+00
         0.00000E+00
         0.00000E+00
         0.00000E+00
         0.00000E+00
         0.00000E+00
         0.00000E+00
         0.00000E+00
         0.00000E+00
         0.00000E+00
         0.00000E+00
         0.00000E+00
         0.00000E+00
         0.00000E+00
         0.00000E+00
         0.00000E+00
         0.00000E+00
         0.00000E+00
         0.00000E+00
         0.00000E+00
         0.00000E+00
         0.00000E+00
         0.00000E+00
         0.00000E+00
         0.00000E+00
         0.00000E+00
         0.00000E+00
         0.00000E+00
         0.00000E+00
         0.00000E+00
         0.00000E+00
         0.00000E+00
         0.00000E+00
         0.00000E+00
         0.00000E+00
         0.00000E+00
         0.00000E+00
         0.00000E+00
         0.00000E+00
         0.00000E+00
         0.00000E+00
         0.00000E+00
         0.00000E+00
         0.00000E+00
         0.00000E+00
         0.00000E+00
         0.00000E+00
         0.00000E+00
         0.00000E+00
         0.00000E+00
         0.00000E+00
         0.00000E+00
         0.00000E+00
         0.00000E+00
         0.00000E+00
         0.00000E+00
         0.00000E+00
         0.00000E+00
         0.00000E+00
         0.00000E+00
         0.00000E+00
         0.00000E+00
         0.00000E+00
         0.00000E+00
         0.00000E+00
         0.00000E+00
         0.00000E+00
         0.00000E+00
         0.00000E+00
         0.00000E+00
         0.00000E+00
         0.00000E+00
         0.00000E+00
         0.00000E+00
         0.00000E+00
         0.00000E+00
         0.00000E+00
         0.00000E+00
         0.00000E+00
         0.00000E+00
         0.00000E+00
         0.00000E+00
         0.00000E+00
         0.00000E+00
         0.00000E+00
         0.00000E+00
         0.00000E+00
         0.00000E+00
         0.00000E+00
         0.00000E+00
         0.00000E+00
         0.00000E+00
         0.00000E+00
         0.00000E+00
         0.00000E+00
         0.00000E+00
         0.00000E+00
         0.00000E+00
         0.00000E+00
         0.00000E+00
         0.00000E+00
         0.00000E+00
         0.00000E+00
         0.00000E+00
         0.00000E+00
         0.00000E+00
         0.00000E+00
         0.00000E+00
         0.00000E+00
         0.00000E+00
         0.00000E+00
         0.00000E+00
         0.00000E+00
         0.00000E+00
         0.00000E+00
         0.00000E+00
         0.00000E+00
         0.00000E+00
         0.00000E+00
         0.00000E+00
         0.00000E+00
         0.00000E+00
         0.00000E+00
         0.00000E+00
         0.00000E+00
         0.00000E+00
         0.00000E+00
         0.00000E+00
         0.00000E+00
         0.00000E+00
         0.00000E+00
         0.00000E+00
         0.00000E+00
         0.00000E+00
         0.00000E+00
         0.00000E+00
         0.00000E+00
         0.00000E+00
         0.00000E+00
         0.00000E+00
         0.00000E+00
         0.00000E+00
         0.00000E+00
         0.00000E+00
         0.00000E+00
         0.00000E+00
         0.00000E+00
         0.00000E+00
         0.00000E+00
         0.00000E+00
         0.00000E+00
         0.00000E+00
         0.00000E+00
         0.00000E+00
         0.00000E+00
         0.00000E+00
         0.00000E+00
         0.00000E+00
         0.00000E+00
         0.00000E+00
         0.00000E+00
         0.00000E+00
         0.00000E+00
         0.00000E+00
         0.00000E+00
         0.00000E+00
         0.00000E+00
         0.00000E+00
         0.00000E+00
         0.00000E+00
         0.00000E+00
         0.00000E+00
         0.00000E+00
         0.00000E+00
         0.00000E+00
         0.00000E+00
         0.00000E+00
         0.00000E+00
         0.00000E+00
         0.00000E+00
         0.00000E+00
         0.00000E+00
         0.00000E+00
         0.00000E+00
         0.00000E+00
         0.00000E+00
         0.00000E+00
         0.00000E+00
         0.00000E+00
         0.00000E+00
         0.00000E+00
         0.00000E+00
         0.00000E+00
         0.00000E+00
         0.00000E+00
         0.00000E+00
         0.00000E+00
         0.00000E+00
         0.00000E+00
         0.00000E+00
         0.00000E+00
         0.00000E+00
         0.00000E+00
         0.00000E+00
         0.00000E+00
         0.00000E+00
         0.00000E+00
         0.00000E+00
         0.00000E+00
         0.00000E+00
         0.00000E+00
         0.00000E+00
         0.00000E+00
         0.00000E+00
         0.00000E+00
         0.00000E+00
         0.00000E+00
         0.00000E+00
         0.00000E+00
         0.00000E+00
         0.00000E+00
         0.00000E+00
         0.00000E+00
         0.00000E+00
         0.00000E+00
         0.00000E+00
         0.00000E+00
         0.00000E+00
         0.00000E+00
         0.00000E+00
         0.00000E+00
         0.00000E+00
         0.00000E+00
         0.00000E+00
         0.00000E+00
         0.00000E+00
         0.00000E+00
         0.00000E+00
         0.00000E+00
         0.00000E+00
         0.00000E+00
         0.00000E+00
         0.00000E+00
         0.00000E+00
         0.00000E+00
         0.00000E+00
         0.00000E+00
         0.00000E+00
         0.00000E+00
         0.00000E+00
         0.00000E+00
         0.00000E+00
         0.00000E+00
         0.00000E+00
         0.00000E+00
         0.00000E+00
         0.00000E+00
         0.00000E+00
         0.00000E+00
         0.00000E+00
         0.00000E+00
         0.00000E+00
         0.00000E+00
         0.00000E+00
         0.00000E+00
         0.00000E+00
         0.00000E+00
         0.00000E+00
         0.00000E+00
         0.00000E+00
         0.00000E+00
         0.00000E+00
         0.00000E+00
         0.00000E+00
         0.00000E+00
         0.00000E+00
         0.00000E+00
         0.00000E+00
         0.00000E+00
         0.00000E+00
         0.00000E+00
         0.00000E+00
         0.00000E+00
         0.00000E+00
         0.00000E+00
         0.00000E+00
         0.00000E+00
         0.00000E+00
         0.00000E+00
         0.00000E+00
         0.00000E+00
         0.00000E+00
         0.00000E+00
         0.00000E+00
         0.00000E+00
         0.00000E+00
         0.00000E+00
         0.00000E+00
         0.00000E+00
         0.00000E+00
         0.00000E+00
         0.00000E+00
         0.00000E+00
         0.00000E+00
         0.00000E+00
         0.00000E+00
         0.00000E+00
         0.00000E+00
         0.00000E+00
         0.00000E+00
         0.00000E+00
         0.00000E+00
         0.00000E+00
         0.00000E+00
         0.00000E+00
         0.00000E+00
         0.00000E+00
         0.00000E+00
         0.00000E+00
         0.00000E+00
         0.00000E+00
         0.00000E+00
         0.00000E+00
         0.00000E+00
         0.00000E+00
         0.00000E+00
         0.00000E+00
         0.00000E+00
         0.00000E+00
         0.00000E+00
         0.00000E+00
         0.00000E+00
         0.00000E+00
         0.00000E+00
         0.00000E+00
         0.00000E+00
         0.00000E+00
         0.00000E+00
         0.00000E+00
         0.00000E+00
         0.00000E+00
         0.00000E+00
         0.00000E+00
         0.00000E+00
         0.00000E+00
         0.00000E+00
         0.00000E+00
         0.00000E+00
         0.00000E+00
         0.00000E+00
         0.00000E+00
         0.00000E+00
         0.00000E+00
         0.00000E+00
         0.00000E+00
         0.00000E+00
         0.00000E+00
         0.00000E+00
         0.00000E+00
         0.00000E+00
         0.00000E+00
         0.00000E+00
         0.00000E+00
         0.00000E+00
         0.00000E+00
         0.00000E+00
         0.00000E+00
         0.00000E+00
         0.00000E+00
         0.00000E+00
         0.00000E+00
         0.00000E+00
         0.00000E+00
         0.00000E+00
         0.00000E+00
         0.00000E+00
         0.00000E+00
         0.00000E+00
         0.00000E+00
         0.00000E+00
         0.00000E+00
         0.00000E+00
         0.00000E+00
         0.00000E+00
         0.00000E+00
         0.00000E+00
         0.00000E+00
         0.00000E+00
         0.00000E+00
         0.00000E+00
         0.00000E+00
         0.00000E+00
         0.00000E+00
         0.00000E+00
         0.00000E+00
         0.00000E+00
         0.00000E+00
         0.00000E+00
         0.00000E+00
         0.00000E+00
         0.00000E+00
         0.00000E+00
         0.00000E+00
         0.00000E+00
         0.00000E+00
         0.00000E+00
         0.00000E+00
         0.00000E+00
         0.00000E+00
         0.00000E+00
         0.00000E+00
         0.00000E+00
         0.00000E+00
         0.00000E+00
         0.00000E+00
         0.00000E+00
         0.00000E+00
         0.00000E+00
         0.00000E+00
         0.00000E+00
         0.00000E+00
         0.00000E+00
         0.00000E+00
         0.00000E+00
         0.00000E+00
         0.00000E+00
         0.00000E+00
         0.00000E+00
         0.00000E+00
         0.00000E+00
         0.00000E+00
         0.00000E+00
         0.00000E+00
         0.00000E+00
         0.00000E+00
         0.00000E+00
         0.00000E+00
         0.00000E+00
         0.00000E+00
         0.00000E+00
         0.00000E+00
         0.00000E+00
         0.00000E+00
         0.00000E+00
         0.00000E+00
         0.00000E+00
         0.00000E+00
         0.00000E+00
         0.00000E+00
         0.00000E+00
         0.00000E+00
         0.00000E+00
         0.00000E+00
         0.00000E+00
         0.00000E+00
         0.00000E+00
         0.00000E+00
         0.00000E+00
         0.00000E+00
         0.00000E+00
         0.00000E+00
         0.00000E+00
         0.00000E+00
         0.00000E+00
         0.00000E+00
         0.00000E+00
         0.00000E+00
         0.00000E+00
         0.00000E+00
         0.00000E+00
         0.00000E+00
         0.00000E+00
         0.00000E+00
         0.00000E+00
         0.00000E+00
         0.00000E+00
         0.00000E+00
         0.00000E+00
         0.00000E+00
         0.00000E+00
         0.00000E+00
         0.00000E+00
         0.00000E+00
         0.00000E+00
         0.00000E+00
         0.00000E+00
         0.00000E+00
         0.00000E+00
         0.00000E+00
         0.00000E+00
         0.00000E+00
         0.00000E+00
         0.00000E+00
         0.00000E+00
         0.00000E+00
         0.00000E+00
         0.00000E+00
         0.00000E+00
         0.00000E+00
         0.00000E+00
         0.00000E+00
         0.00000E+00
         0.00000E+00
         0.00000E+00
         0.00000E+00
         0.00000E+00
         0.00000E+00
         0.00000E+00
         0.00000E+00
         0.00000E+00
         0.00000E+00
         0.00000E+00
         0.00000E+00
         0.00000E+00
         0.00000E+00
         0.00000E+00
         0.00000E+00
         0.00000E+00
         0.00000E+00
         0.00000E+00
         0.00000E+00
         0.00000E+00
         0.00000E+00
         0.00000E+00
         0.00000E+00
         0.00000E+00
         0.00000E+00
         0.00000E+00
         0.00000E+00
         0.00000E+00
         0.00000E+00
         0.00000E+00
         0.00000E+00
         0.00000E+00
         0.00000E+00
         0.00000E+00
         0.00000E+00
         0.00000E+00
         0.00000E+00
         0.00000E+00
         0.00000E+00
         0.00000E+00
         0.00000E+00
         0.00000E+00
  
SCALARS                     velocity_z  double 1
LOOKUP_TABLE default
        -0.37300E+03
        -0.37300E+03
        -0.37300E+03
        -0.37300E+03
         0.00000E+00
         0.00000E+00
         0.00000E+00
         0.00000E+00
        -0.37300E+03
        -0.37300E+03
         0.00000E+00
         0.00000E+00
        -0.37300E+03
        -0.37300E+03
         0.00000E+00
         0.00000E+00
        -0.37300E+03
        -0.37300E+03
         0.00000E+00
         0.00000E+00
        -0.37300E+03
        -0.37300E+03
        -0.37300E+03
         0.00000E+00
         0.00000E+00
         0.00000E+00
        -0.37300E+03
        -0.37300E+03
         0.00000E+00
         0.00000E+00
        -0.37300E+03
        -0.37300E+03
        -0.37300E+03
         0.00000E+00
         0.00000E+00
         0.00000E+00
        -0.37300E+03
        -0.37300E+03
         0.00000E+00
         0.00000E+00
        -0.37300E+03
        -0.37300E+03
         0.00000E+00
         0.00000E+00
        -0.37300E+03
        -0.37300E+03
         0.00000E+00
         0.00000E+00
        -0.37300E+03
         0.00000E+00
        -0.37300E+03
         0.00000E+00
        -0.37300E+03
         0.00000E+00
        -0.37300E+03
         0.00000E+00
        -0.37300E+03
        -0.37300E+03
         0.00000E+00
         0.00000E+00
        -0.37300E+03
        -0.37300E+03
         0.00000E+00
         0.00000E+00
        -0.37300E+03
         0.00000E+00
        -0.37300E+03
         0.00000E+00
        -0.37300E+03
        -0.37300E+03
         0.00000E+00
         0.00000E+00
        -0.37300E+03
         0.00000E+00
        -0.37300E+03
         0.00000E+00
        -0.37300E+03
         0.00000E+00
        -0.37300E+03
         0.00000E+00
        -0.37300E+03
        -0.37300E+03
         0.00000E+00
         0.00000E+00
        -0.37300E+03
         0.00000E+00
        -0.37300E+03
         0.00000E+00
        -0.37300E+03
         0.00000E+00
        -0.37300E+03
        -0.37300E+03
         0.00000E+00
         0.00000E+00
        -0.37300E+03
         0.00000E+00
        -0.37300E+03
         0.00000E+00
        -0.37300E+03
         0.00000E+00
        -0.37300E+03
        -0.37300E+03
         0.00000E+00
         0.00000E+00
        -0.37300E+03
        -0.37300E+03
         0.00000E+00
         0.00000E+00
        -0.37300E+03
         0.00000E+00
        -0.37300E+03
         0.00000E+00
        -0.37300E+03
         0.00000E+00
        -0.37300E+03
         0.00000E+00
        -0.37300E+03
         0.00000E+00
        -0.37300E+03
         0.00000E+00
        -0.37300E+03
         0.00000E+00
        -0.37300E+03
         0.00000E+00
        -0.37300E+03
         0.00000E+00
        -0.37300E+03
         0.00000E+00
        -0.37300E+03
         0.00000E+00
        -0.37300E+03
         0.00000E+00
        -0.37300E+03
         0.00000E+00
        -0.37300E+03
         0.00000E+00
        -0.37300E+03
         0.00000E+00
        -0.37300E+03
         0.00000E+00
        -0.37300E+03
         0.00000E+00
        -0.37300E+03
         0.00000E+00
        -0.37300E+03
         0.00000E+00
        -0.37300E+03
         0.00000E+00
        -0.37300E+03
         0.00000E+00
        -0.37300E+03
         0.00000E+00
        -0.37300E+03
         0.00000E+00
        -0.37300E+03
         0.00000E+00
        -0.37300E+03
        -0.37300E+03
        -0.37300E+03
        -0.37300E+03
        -0.37300E+03
        -0.37300E+03
        -0.37300E+03
        -0.37300E+03
        -0.37300E+03
        -0.37300E+03
        -0.37300E+03
        -0.37300E+03
        -0.37300E+03
        -0.37300E+03
        -0.37300E+03
        -0.37300E+03
        -0.37300E+03
        -0.37300E+03
        -0.37300E+03
        -0.37300E+03
        -0.37300E+03
        -0.37300E+03
        -0.37300E+03
        -0.37300E+03
        -0.37300E+03
        -0.37300E+03
        -0.37300E+03
        -0.37300E+03
        -0.37300E+03
        -0.37300E+03
        -0.37300E+03
        -0.37300E+03
        -0.37300E+03
        -0.37300E+03
        -0.37300E+03
        -0.37300E+03
        -0.37300E+03
        -0.37300E+03
        -0.37300E+03
        -0.37300E+03
        -0.37300E+03
        -0.37300E+03
        -0.37300E+03
        -0.37300E+03
        -0.37300E+03
        -0.37300E+03
        -0.37300E+03
        -0.37300E+03
        -0.37300E+03
        -0.37300E+03
        -0.37300E+03
        -0.37300E+03
        -0.37300E+03
        -0.37300E+03
        -0.37300E+03
        -0.37300E+03
        -0.37300E+03
        -0.37300E+03
        -0.37300E+03
        -0.37300E+03
        -0.37300E+03
        -0.37300E+03
        -0.37300E+03
        -0.37300E+03
        -0.37300E+03
        -0.37300E+03
        -0.37300E+03
        -0.37300E+03
        -0.37300E+03
        -0.37300E+03
        -0.37300E+03
        -0.37300E+03
        -0.37300E+03
        -0.37300E+03
        -0.37300E+03
        -0.37300E+03
        -0.37300E+03
        -0.37300E+03
        -0.37300E+03
        -0.37300E+03
        -0.37300E+03
        -0.37300E+03
        -0.37300E+03
        -0.37300E+03
        -0.37300E+03
        -0.37300E+03
        -0.37300E+03
        -0.37300E+03
        -0.37300E+03
        -0.37300E+03
        -0.37300E+03
        -0.37300E+03
        -0.37300E+03
        -0.37300E+03
        -0.37300E+03
        -0.37300E+03
        -0.37300E+03
        -0.37300E+03
        -0.37300E+03
        -0.37300E+03
        -0.37300E+03
        -0.37300E+03
        -0.37300E+03
        -0.37300E+03
        -0.37300E+03
        -0.37300E+03
        -0.37300E+03
        -0.37300E+03
        -0.37300E+03
        -0.37300E+03
        -0.37300E+03
        -0.37300E+03
        -0.37300E+03
        -0.37300E+03
        -0.37300E+03
        -0.37300E+03
        -0.37300E+03
        -0.37300E+03
        -0.37300E+03
        -0.37300E+03
        -0.37300E+03
        -0.37300E+03
        -0.37300E+03
        -0.37300E+03
        -0.37300E+03
        -0.37300E+03
        -0.37300E+03
        -0.37300E+03
        -0.37300E+03
        -0.37300E+03
        -0.37300E+03
        -0.37300E+03
        -0.37300E+03
        -0.37300E+03
        -0.37300E+03
        -0.37300E+03
        -0.37300E+03
        -0.37300E+03
        -0.37300E+03
        -0.37300E+03
        -0.37300E+03
        -0.37300E+03
        -0.37300E+03
        -0.37300E+03
        -0.37300E+03
        -0.37300E+03
        -0.37300E+03
        -0.37300E+03
        -0.37300E+03
        -0.37300E+03
        -0.37300E+03
        -0.37300E+03
        -0.37300E+03
        -0.37300E+03
        -0.37300E+03
        -0.37300E+03
        -0.37300E+03
        -0.37300E+03
        -0.37300E+03
        -0.37300E+03
        -0.37300E+03
        -0.37300E+03
        -0.37300E+03
        -0.37300E+03
        -0.37300E+03
        -0.37300E+03
        -0.37300E+03
        -0.37300E+03
        -0.37300E+03
        -0.37300E+03
        -0.37300E+03
        -0.37300E+03
        -0.37300E+03
        -0.37300E+03
        -0.37300E+03
        -0.37300E+03
        -0.37300E+03
        -0.37300E+03
        -0.37300E+03
        -0.37300E+03
        -0.37300E+03
        -0.37300E+03
        -0.37300E+03
        -0.37300E+03
        -0.37300E+03
        -0.37300E+03
        -0.37300E+03
        -0.37300E+03
        -0.37300E+03
        -0.37300E+03
        -0.37300E+03
        -0.37300E+03
        -0.37300E+03
        -0.37300E+03
        -0.37300E+03
        -0.37300E+03
        -0.37300E+03
        -0.37300E+03
        -0.37300E+03
        -0.37300E+03
        -0.37300E+03
        -0.37300E+03
        -0.37300E+03
        -0.37300E+03
        -0.37300E+03
        -0.37300E+03
        -0.37300E+03
        -0.37300E+03
        -0.37300E+03
        -0.37300E+03
        -0.37300E+03
        -0.37300E+03
        -0.37300E+03
        -0.37300E+03
        -0.37300E+03
        -0.37300E+03
        -0.37300E+03
        -0.37300E+03
        -0.37300E+03
        -0.37300E+03
        -0.37300E+03
        -0.37300E+03
        -0.37300E+03
        -0.37300E+03
        -0.37300E+03
        -0.37300E+03
        -0.37300E+03
        -0.37300E+03
        -0.37300E+03
        -0.37300E+03
        -0.37300E+03
        -0.37300E+03
        -0.37300E+03
        -0.37300E+03
        -0.37300E+03
        -0.37300E+03
        -0.37300E+03
        -0.37300E+03
        -0.37300E+03
        -0.37300E+03
        -0.37300E+03
        -0.37300E+03
        -0.37300E+03
        -0.37300E+03
        -0.37300E+03
        -0.37300E+03
        -0.37300E+03
        -0.37300E+03
        -0.37300E+03
        -0.37300E+03
        -0.37300E+03
        -0.37300E+03
        -0.37300E+03
        -0.37300E+03
        -0.37300E+03
        -0.37300E+03
        -0.37300E+03
        -0.37300E+03
        -0.37300E+03
        -0.37300E+03
        -0.37300E+03
        -0.37300E+03
        -0.37300E+03
        -0.37300E+03
        -0.37300E+03
        -0.37300E+03
        -0.37300E+03
        -0.37300E+03
        -0.37300E+03
        -0.37300E+03
        -0.37300E+03
        -0.37300E+03
        -0.37300E+03
        -0.37300E+03
        -0.37300E+03
        -0.37300E+03
        -0.37300E+03
        -0.37300E+03
        -0.37300E+03
        -0.37300E+03
        -0.37300E+03
        -0.37300E+03
        -0.37300E+03
        -0.37300E+03
        -0.37300E+03
        -0.37300E+03
        -0.37300E+03
        -0.37300E+03
        -0.37300E+03
        -0.37300E+03
        -0.37300E+03
        -0.37300E+03
        -0.37300E+03
        -0.37300E+03
        -0.37300E+03
        -0.37300E+03
        -0.37300E+03
        -0.37300E+03
        -0.37300E+03
        -0.37300E+03
        -0.37300E+03
        -0.37300E+03
        -0.37300E+03
        -0.37300E+03
        -0.37300E+03
        -0.37300E+03
        -0.37300E+03
        -0.37300E+03
        -0.37300E+03
        -0.37300E+03
        -0.37300E+03
        -0.37300E+03
        -0.37300E+03
        -0.37300E+03
        -0.37300E+03
        -0.37300E+03
        -0.37300E+03
        -0.37300E+03
        -0.37300E+03
        -0.37300E+03
        -0.37300E+03
        -0.37300E+03
        -0.37300E+03
        -0.37300E+03
        -0.37300E+03
        -0.37300E+03
        -0.37300E+03
        -0.37300E+03
        -0.37300E+03
        -0.37300E+03
        -0.37300E+03
        -0.37300E+03
        -0.37300E+03
        -0.37300E+03
        -0.37300E+03
        -0.37300E+03
        -0.37300E+03
        -0.37300E+03
        -0.37300E+03
        -0.37300E+03
        -0.37300E+03
        -0.37300E+03
        -0.37300E+03
        -0.37300E+03
        -0.37300E+03
        -0.37300E+03
        -0.37300E+03
        -0.37300E+03
        -0.37300E+03
        -0.37300E+03
        -0.37300E+03
        -0.37300E+03
        -0.37300E+03
        -0.37300E+03
        -0.37300E+03
        -0.37300E+03
        -0.37300E+03
        -0.37300E+03
        -0.37300E+03
        -0.37300E+03
        -0.37300E+03
        -0.37300E+03
        -0.37300E+03
        -0.37300E+03
        -0.37300E+03
        -0.37300E+03
        -0.37300E+03
        -0.37300E+03
        -0.37300E+03
        -0.37300E+03
        -0.37300E+03
        -0.37300E+03
        -0.37300E+03
        -0.37300E+03
        -0.37300E+03
        -0.37300E+03
        -0.37300E+03
        -0.37300E+03
        -0.37300E+03
        -0.37300E+03
        -0.37300E+03
        -0.37300E+03
        -0.37300E+03
        -0.37300E+03
        -0.37300E+03
        -0.37300E+03
        -0.37300E+03
        -0.37300E+03
        -0.37300E+03
        -0.37300E+03
        -0.37300E+03
        -0.37300E+03
        -0.37300E+03
        -0.37300E+03
        -0.37300E+03
        -0.37300E+03
        -0.37300E+03
        -0.37300E+03
        -0.37300E+03
        -0.37300E+03
        -0.37300E+03
        -0.37300E+03
        -0.37300E+03
        -0.37300E+03
        -0.37300E+03
        -0.37300E+03
        -0.37300E+03
        -0.37300E+03
        -0.37300E+03
        -0.37300E+03
        -0.37300E+03
        -0.37300E+03
        -0.37300E+03
        -0.37300E+03
        -0.37300E+03
        -0.37300E+03
        -0.37300E+03
        -0.37300E+03
        -0.37300E+03
        -0.37300E+03
        -0.37300E+03
        -0.37300E+03
        -0.37300E+03
        -0.37300E+03
        -0.37300E+03
        -0.37300E+03
        -0.37300E+03
        -0.37300E+03
        -0.37300E+03
        -0.37300E+03
        -0.37300E+03
        -0.37300E+03
        -0.37300E+03
        -0.37300E+03
        -0.37300E+03
        -0.37300E+03
        -0.37300E+03
        -0.37300E+03
        -0.37300E+03
        -0.37300E+03
        -0.37300E+03
        -0.37300E+03
        -0.37300E+03
        -0.37300E+03
        -0.37300E+03
        -0.37300E+03
        -0.37300E+03
        -0.37300E+03
        -0.37300E+03
        -0.37300E+03
        -0.37300E+03
        -0.37300E+03
        -0.37300E+03
        -0.37300E+03
        -0.37300E+03
        -0.37300E+03
        -0.37300E+03
        -0.37300E+03
        -0.37300E+03
        -0.37300E+03
        -0.37300E+03
        -0.37300E+03
        -0.37300E+03
        -0.37300E+03
        -0.37300E+03
        -0.37300E+03
        -0.37300E+03
        -0.37300E+03
        -0.37300E+03
        -0.37300E+03
        -0.37300E+03
        -0.37300E+03
        -0.37300E+03
        -0.37300E+03
        -0.37300E+03
        -0.37300E+03
        -0.37300E+03
        -0.37300E+03
        -0.37300E+03
        -0.37300E+03
        -0.37300E+03
        -0.37300E+03
        -0.37300E+03
        -0.37300E+03
        -0.37300E+03
        -0.37300E+03
        -0.37300E+03
        -0.37300E+03
        -0.37300E+03
        -0.37300E+03
        -0.37300E+03
        -0.37300E+03
        -0.37300E+03
        -0.37300E+03
        -0.37300E+03
        -0.37300E+03
        -0.37300E+03
        -0.37300E+03
        -0.37300E+03
        -0.37300E+03
        -0.37300E+03
        -0.37300E+03
        -0.37300E+03
        -0.37300E+03
        -0.37300E+03
        -0.37300E+03
        -0.37300E+03
        -0.37300E+03
        -0.37300E+03
        -0.37300E+03
        -0.37300E+03
        -0.37300E+03
        -0.37300E+03
        -0.37300E+03
        -0.37300E+03
        -0.37300E+03
        -0.37300E+03
        -0.37300E+03
        -0.37300E+03
        -0.37300E+03
        -0.37300E+03
        -0.37300E+03
        -0.37300E+03
        -0.37300E+03
        -0.37300E+03
        -0.37300E+03
        -0.37300E+03
        -0.37300E+03
        -0.37300E+03
        -0.37300E+03
        -0.37300E+03
        -0.37300E+03
        -0.37300E+03
        -0.37300E+03
        -0.37300E+03
        -0.37300E+03
        -0.37300E+03
        -0.37300E+03
        -0.37300E+03
        -0.37300E+03
        -0.37300E+03
        -0.37300E+03
        -0.37300E+03
        -0.37300E+03
        -0.37300E+03
        -0.37300E+03
        -0.37300E+03
        -0.37300E+03
        -0.37300E+03
        -0.37300E+03
        -0.37300E+03
        -0.37300E+03
        -0.37300E+03
        -0.37300E+03
        -0.37300E+03
        -0.37300E+03
        -0.37300E+03
        -0.37300E+03
        -0.37300E+03
        -0.37300E+03
        -0.37300E+03
        -0.37300E+03
        -0.37300E+03
        -0.37300E+03
        -0.37300E+03
        -0.37300E+03
        -0.37300E+03
        -0.37300E+03
        -0.37300E+03
        -0.37300E+03
        -0.37300E+03
        -0.37300E+03
        -0.37300E+03
        -0.37300E+03
        -0.37300E+03
        -0.37300E+03
        -0.37300E+03
        -0.37300E+03
        -0.37300E+03
        -0.37300E+03
        -0.37300E+03
        -0.37300E+03
        -0.37300E+03
        -0.37300E+03
        -0.37300E+03
        -0.37300E+03
        -0.37300E+03
        -0.37300E+03
        -0.37300E+03
        -0.37300E+03
        -0.37300E+03
        -0.37300E+03
        -0.37300E+03
        -0.37300E+03
        -0.37300E+03
        -0.37300E+03
        -0.37300E+03
        -0.37300E+03
        -0.37300E+03
        -0.37300E+03
        -0.37300E+03
        -0.37300E+03
        -0.37300E+03
        -0.37300E+03
        -0.37300E+03
        -0.37300E+03
        -0.37300E+03
        -0.37300E+03
        -0.37300E+03
        -0.37300E+03
        -0.37300E+03
        -0.37300E+03
        -0.37300E+03
        -0.37300E+03
        -0.37300E+03
        -0.37300E+03
        -0.37300E+03
        -0.37300E+03
        -0.37300E+03
        -0.37300E+03
        -0.37300E+03
        -0.37300E+03
        -0.37300E+03
        -0.37300E+03
        -0.37300E+03
        -0.37300E+03
        -0.37300E+03
        -0.37300E+03
        -0.37300E+03
        -0.37300E+03
        -0.37300E+03
        -0.37300E+03
        -0.37300E+03
        -0.37300E+03
        -0.37300E+03
        -0.37300E+03
        -0.37300E+03
        -0.37300E+03
        -0.37300E+03
        -0.37300E+03
        -0.37300E+03
        -0.37300E+03
        -0.37300E+03
        -0.37300E+03
        -0.37300E+03
        -0.37300E+03
        -0.37300E+03
        -0.37300E+03
        -0.37300E+03
        -0.37300E+03
        -0.37300E+03
        -0.37300E+03
        -0.37300E+03
        -0.37300E+03
        -0.37300E+03
        -0.37300E+03
        -0.37300E+03
        -0.37300E+03
        -0.37300E+03
        -0.37300E+03
        -0.37300E+03
        -0.37300E+03
        -0.37300E+03
        -0.37300E+03
        -0.37300E+03
        -0.37300E+03
        -0.37300E+03
        -0.37300E+03
        -0.37300E+03
        -0.37300E+03
        -0.37300E+03
        -0.37300E+03
        -0.37300E+03
        -0.37300E+03
        -0.37300E+03
        -0.37300E+03
        -0.37300E+03
        -0.37300E+03
        -0.37300E+03
        -0.37300E+03
        -0.37300E+03
        -0.37300E+03
        -0.37300E+03
        -0.37300E+03
        -0.37300E+03
        -0.37300E+03
        -0.37300E+03
        -0.37300E+03
        -0.37300E+03
        -0.37300E+03
        -0.37300E+03
        -0.37300E+03
        -0.37300E+03
        -0.37300E+03
        -0.37300E+03
        -0.37300E+03
        -0.37300E+03
        -0.37300E+03
        -0.37300E+03
        -0.37300E+03
        -0.37300E+03
        -0.37300E+03
        -0.37300E+03
        -0.37300E+03
        -0.37300E+03
        -0.37300E+03
        -0.37300E+03
        -0.37300E+03
        -0.37300E+03
        -0.37300E+03
        -0.37300E+03
        -0.37300E+03
        -0.37300E+03
        -0.37300E+03
        -0.37300E+03
        -0.37300E+03
        -0.37300E+03
        -0.37300E+03
        -0.37300E+03
        -0.37300E+03
        -0.37300E+03
        -0.37300E+03
        -0.37300E+03
        -0.37300E+03
        -0.37300E+03
        -0.37300E+03
        -0.37300E+03
        -0.37300E+03
        -0.37300E+03
        -0.37300E+03
        -0.37300E+03
        -0.37300E+03
        -0.37300E+03
        -0.37300E+03
        -0.37300E+03
        -0.37300E+03
        -0.37300E+03
        -0.37300E+03
        -0.37300E+03
        -0.37300E+03
        -0.37300E+03
        -0.37300E+03
        -0.37300E+03
        -0.37300E+03
        -0.37300E+03
        -0.37300E+03
        -0.37300E+03
        -0.37300E+03
        -0.37300E+03
        -0.37300E+03
        -0.37300E+03
        -0.37300E+03
        -0.37300E+03
        -0.37300E+03
        -0.37300E+03
        -0.37300E+03
        -0.37300E+03
        -0.37300E+03
        -0.37300E+03
        -0.37300E+03
        -0.37300E+03
        -0.37300E+03
        -0.37300E+03
        -0.37300E+03
        -0.37300E+03
        -0.37300E+03
        -0.37300E+03
        -0.37300E+03
        -0.37300E+03
        -0.37300E+03
        -0.37300E+03
        -0.37300E+03
        -0.37300E+03
        -0.37300E+03
        -0.37300E+03
        -0.37300E+03
        -0.37300E+03
        -0.37300E+03
        -0.37300E+03
        -0.37300E+03
        -0.37300E+03
        -0.37300E+03
        -0.37300E+03
        -0.37300E+03
        -0.37300E+03
        -0.37300E+03
        -0.37300E+03
        -0.37300E+03
        -0.37300E+03
        -0.37300E+03
        -0.37300E+03
        -0.37300E+03
        -0.37300E+03
        -0.37300E+03
        -0.37300E+03
        -0.37300E+03
        -0.37300E+03
        -0.37300E+03
        -0.37300E+03
        -0.37300E+03
        -0.37300E+03
        -0.37300E+03
        -0.37300E+03
        -0.37300E+03
        -0.37300E+03
        -0.37300E+03
        -0.37300E+03
        -0.37300E+03
        -0.37300E+03
        -0.37300E+03
        -0.37300E+03
        -0.37300E+03
        -0.37300E+03
        -0.37300E+03
        -0.37300E+03
        -0.37300E+03
        -0.37300E+03
        -0.37300E+03
        -0.37300E+03
        -0.37300E+03
        -0.37300E+03
        -0.37300E+03
        -0.37300E+03
        -0.37300E+03
        -0.37300E+03
        -0.37300E+03
        -0.37300E+03
        -0.37300E+03
        -0.37300E+03
        -0.37300E+03
        -0.37300E+03
        -0.37300E+03
        -0.37300E+03
        -0.37300E+03
        -0.37300E+03
        -0.37300E+03
        -0.37300E+03
        -0.37300E+03
        -0.37300E+03
        -0.37300E+03
        -0.37300E+03
        -0.37300E+03
        -0.37300E+03
        -0.37300E+03
        -0.37300E+03
        -0.37300E+03
        -0.37300E+03
        -0.37300E+03
        -0.37300E+03
        -0.37300E+03
        -0.37300E+03
        -0.37300E+03
        -0.37300E+03
        -0.37300E+03
        -0.37300E+03
        -0.37300E+03
        -0.37300E+03
        -0.37300E+03
        -0.37300E+03
        -0.37300E+03
        -0.37300E+03
        -0.37300E+03
        -0.37300E+03
        -0.37300E+03
        -0.37300E+03
        -0.37300E+03
        -0.37300E+03
        -0.37300E+03
        -0.37300E+03
        -0.37300E+03
        -0.37300E+03
        -0.37300E+03
        -0.37300E+03
        -0.37300E+03
        -0.37300E+03
        -0.37300E+03
        -0.37300E+03
        -0.37300E+03
        -0.37300E+03
        -0.37300E+03
        -0.37300E+03
        -0.37300E+03
        -0.37300E+03
        -0.37300E+03
        -0.37300E+03
        -0.37300E+03
        -0.37300E+03
        -0.37300E+03
        -0.37300E+03
        -0.37300E+03
        -0.37300E+03
        -0.37300E+03
        -0.37300E+03
        -0.37300E+03
        -0.37300E+03
        -0.37300E+03
        -0.37300E+03
        -0.37300E+03
        -0.37300E+03
        -0.37300E+03
        -0.37300E+03
        -0.37300E+03
        -0.37300E+03
        -0.37300E+03
        -0.37300E+03
        -0.37300E+03
        -0.37300E+03
        -0.37300E+03
        -0.37300E+03
        -0.37300E+03
        -0.37300E+03
        -0.37300E+03
        -0.37300E+03
        -0.37300E+03
        -0.37300E+03
        -0.37300E+03
        -0.37300E+03
        -0.37300E+03
        -0.37300E+03
        -0.37300E+03
        -0.37300E+03
        -0.37300E+03
        -0.37300E+03
        -0.37300E+03
        -0.37300E+03
        -0.37300E+03
        -0.37300E+03
        -0.37300E+03
        -0.37300E+03
        -0.37300E+03
        -0.37300E+03
        -0.37300E+03
        -0.37300E+03
        -0.37300E+03
        -0.37300E+03
        -0.37300E+03
        -0.37300E+03
        -0.37300E+03
        -0.37300E+03
        -0.37300E+03
        -0.37300E+03
        -0.37300E+03
        -0.37300E+03
        -0.37300E+03
        -0.37300E+03
        -0.37300E+03
        -0.37300E+03
        -0.37300E+03
        -0.37300E+03
        -0.37300E+03
        -0.37300E+03
        -0.37300E+03
        -0.37300E+03
        -0.37300E+03
        -0.37300E+03
        -0.37300E+03
        -0.37300E+03
        -0.37300E+03
        -0.37300E+03
        -0.37300E+03
        -0.37300E+03
        -0.37300E+03
        -0.37300E+03
        -0.37300E+03
        -0.37300E+03
        -0.37300E+03
        -0.37300E+03
        -0.37300E+03
        -0.37300E+03
        -0.37300E+03
        -0.37300E+03
        -0.37300E+03
        -0.37300E+03
        -0.37300E+03
        -0.37300E+03
        -0.37300E+03
        -0.37300E+03
        -0.37300E+03
        -0.37300E+03
        -0.37300E+03
        -0.37300E+03
        -0.37300E+03
        -0.37300E+03
        -0.37300E+03
        -0.37300E+03
        -0.37300E+03
        -0.37300E+03
        -0.37300E+03
        -0.37300E+03
        -0.37300E+03
        -0.37300E+03
        -0.37300E+03
        -0.37300E+03
        -0.37300E+03
        -0.37300E+03
        -0.37300E+03
        -0.37300E+03
        -0.37300E+03
        -0.37300E+03
        -0.37300E+03
        -0.37300E+03
        -0.37300E+03
        -0.37300E+03
        -0.37300E+03
        -0.37300E+03
        -0.37300E+03
        -0.37300E+03
        -0.37300E+03
        -0.37300E+03
        -0.37300E+03
        -0.37300E+03
        -0.37300E+03
        -0.37300E+03
        -0.37300E+03
        -0.37300E+03
        -0.37300E+03
        -0.37300E+03
        -0.37300E+03
        -0.37300E+03
        -0.37300E+03
        -0.37300E+03
        -0.37300E+03
        -0.37300E+03
        -0.37300E+03
        -0.37300E+03
        -0.37300E+03
        -0.37300E+03
        -0.37300E+03
        -0.37300E+03
        -0.37300E+03
        -0.37300E+03
        -0.37300E+03
        -0.37300E+03
        -0.37300E+03
        -0.37300E+03
        -0.37300E+03
        -0.37300E+03
        -0.37300E+03
        -0.37300E+03
        -0.37300E+03
        -0.37300E+03
        -0.37300E+03
        -0.37300E+03
        -0.37300E+03
        -0.37300E+03
        -0.37300E+03
        -0.37300E+03
        -0.37300E+03
        -0.37300E+03
        -0.37300E+03
        -0.37300E+03
        -0.37300E+03
        -0.37300E+03
        -0.37300E+03
        -0.37300E+03
        -0.37300E+03
        -0.37300E+03
        -0.37300E+03
        -0.37300E+03
        -0.37300E+03
        -0.37300E+03
        -0.37300E+03
        -0.37300E+03
        -0.37300E+03
        -0.37300E+03
        -0.37300E+03
        -0.37300E+03
        -0.37300E+03
        -0.37300E+03
        -0.37300E+03
        -0.37300E+03
        -0.37300E+03
        -0.37300E+03
        -0.37300E+03
        -0.37300E+03
        -0.37300E+03
        -0.37300E+03
        -0.37300E+03
        -0.37300E+03
        -0.37300E+03
        -0.37300E+03
        -0.37300E+03
        -0.37300E+03
        -0.37300E+03
        -0.37300E+03
        -0.37300E+03
        -0.37300E+03
        -0.37300E+03
        -0.37300E+03
        -0.37300E+03
        -0.37300E+03
        -0.37300E+03
        -0.37300E+03
        -0.37300E+03
        -0.37300E+03
        -0.37300E+03
        -0.37300E+03
        -0.37300E+03
        -0.37300E+03
        -0.37300E+03
        -0.37300E+03
        -0.37300E+03
        -0.37300E+03
        -0.37300E+03
        -0.37300E+03
        -0.37300E+03
        -0.37300E+03
        -0.37300E+03
        -0.37300E+03
        -0.37300E+03
        -0.37300E+03
        -0.37300E+03
        -0.37300E+03
        -0.37300E+03
        -0.37300E+03
        -0.37300E+03
        -0.37300E+03
        -0.37300E+03
        -0.37300E+03
        -0.37300E+03
        -0.37300E+03
        -0.37300E+03
        -0.37300E+03
        -0.37300E+03
        -0.37300E+03
        -0.37300E+03
        -0.37300E+03
        -0.37300E+03
        -0.37300E+03
        -0.37300E+03
        -0.37300E+03
        -0.37300E+03
        -0.37300E+03
        -0.37300E+03
        -0.37300E+03
        -0.37300E+03
        -0.37300E+03
        -0.37300E+03
        -0.37300E+03
        -0.37300E+03
        -0.37300E+03
        -0.37300E+03
        -0.37300E+03
        -0.37300E+03
        -0.37300E+03
        -0.37300E+03
        -0.37300E+03
        -0.37300E+03
        -0.37300E+03
        -0.37300E+03
        -0.37300E+03
        -0.37300E+03
        -0.37300E+03
        -0.37300E+03
        -0.37300E+03
        -0.37300E+03
        -0.37300E+03
        -0.37300E+03
        -0.37300E+03
        -0.37300E+03
        -0.37300E+03
        -0.37300E+03
        -0.37300E+03
        -0.37300E+03
        -0.37300E+03
        -0.37300E+03
        -0.37300E+03
        -0.37300E+03
        -0.37300E+03
        -0.37300E+03
        -0.37300E+03
        -0.37300E+03
        -0.37300E+03
        -0.37300E+03
        -0.37300E+03
        -0.37300E+03
        -0.37300E+03
        -0.37300E+03
        -0.37300E+03
        -0.37300E+03
        -0.37300E+03
        -0.37300E+03
        -0.37300E+03
        -0.37300E+03
        -0.37300E+03
        -0.37300E+03
        -0.37300E+03
        -0.37300E+03
        -0.37300E+03
        -0.37300E+03
        -0.37300E+03
        -0.37300E+03
        -0.37300E+03
        -0.37300E+03
        -0.37300E+03
        -0.37300E+03
        -0.37300E+03
        -0.37300E+03
        -0.37300E+03
        -0.37300E+03
        -0.37300E+03
        -0.37300E+03
        -0.37300E+03
        -0.37300E+03
        -0.37300E+03
        -0.37300E+03
        -0.37300E+03
        -0.37300E+03
        -0.37300E+03
        -0.37300E+03
        -0.37300E+03
        -0.37300E+03
        -0.37300E+03
        -0.37300E+03
        -0.37300E+03
        -0.37300E+03
        -0.37300E+03
        -0.37300E+03
        -0.37300E+03
        -0.37300E+03
        -0.37300E+03
        -0.37300E+03
        -0.37300E+03
        -0.37300E+03
        -0.37300E+03
        -0.37300E+03
        -0.37300E+03
        -0.37300E+03
        -0.37300E+03
        -0.37300E+03
        -0.37300E+03
        -0.37300E+03
        -0.37300E+03
        -0.37300E+03
        -0.37300E+03
        -0.37300E+03
        -0.37300E+03
        -0.37300E+03
        -0.37300E+03
        -0.37300E+03
        -0.37300E+03
        -0.37300E+03
        -0.37300E+03
        -0.37300E+03
        -0.37300E+03
        -0.37300E+03
        -0.37300E+03
        -0.37300E+03
        -0.37300E+03
        -0.37300E+03
        -0.37300E+03
        -0.37300E+03
        -0.37300E+03
        -0.37300E+03
        -0.37300E+03
        -0.37300E+03
        -0.37300E+03
        -0.37300E+03
        -0.37300E+03
        -0.37300E+03
        -0.37300E+03
        -0.37300E+03
        -0.37300E+03
        -0.37300E+03
        -0.37300E+03
        -0.37300E+03
        -0.37300E+03
        -0.37300E+03
        -0.37300E+03
        -0.37300E+03
        -0.37300E+03
        -0.37300E+03
        -0.37300E+03
        -0.37300E+03
        -0.37300E+03
        -0.37300E+03
        -0.37300E+03
        -0.37300E+03
        -0.37300E+03
        -0.37300E+03
        -0.37300E+03
        -0.37300E+03
        -0.37300E+03
        -0.37300E+03
        -0.37300E+03
        -0.37300E+03
        -0.37300E+03
        -0.37300E+03
        -0.37300E+03
        -0.37300E+03
        -0.37300E+03
        -0.37300E+03
        -0.37300E+03
        -0.37300E+03
        -0.37300E+03
        -0.37300E+03
        -0.37300E+03
        -0.37300E+03
        -0.37300E+03
        -0.37300E+03
        -0.37300E+03
        -0.37300E+03
        -0.37300E+03
        -0.37300E+03
        -0.37300E+03
        -0.37300E+03
        -0.37300E+03
        -0.37300E+03
        -0.37300E+03
        -0.37300E+03
        -0.37300E+03
        -0.37300E+03
        -0.37300E+03
        -0.37300E+03
        -0.37300E+03
        -0.37300E+03
        -0.37300E+03
        -0.37300E+03
        -0.37300E+03
        -0.37300E+03
        -0.37300E+03
        -0.37300E+03
        -0.37300E+03
        -0.37300E+03
        -0.37300E+03
        -0.37300E+03
        -0.37300E+03
        -0.37300E+03
        -0.37300E+03
        -0.37300E+03
        -0.37300E+03
        -0.37300E+03
        -0.37300E+03
        -0.37300E+03
        -0.37300E+03
        -0.37300E+03
        -0.37300E+03
        -0.37300E+03
        -0.37300E+03
        -0.37300E+03
        -0.37300E+03
        -0.37300E+03
        -0.37300E+03
        -0.37300E+03
        -0.37300E+03
        -0.37300E+03
        -0.37300E+03
        -0.37300E+03
        -0.37300E+03
        -0.37300E+03
        -0.37300E+03
        -0.37300E+03
        -0.37300E+03
        -0.37300E+03
        -0.37300E+03
        -0.37300E+03
        -0.37300E+03
        -0.37300E+03
        -0.37300E+03
        -0.37300E+03
        -0.37300E+03
        -0.37300E+03
        -0.37300E+03
        -0.37300E+03
        -0.37300E+03
        -0.37300E+03
        -0.37300E+03
        -0.37300E+03
        -0.37300E+03
        -0.37300E+03
        -0.37300E+03
        -0.37300E+03
        -0.37300E+03
        -0.37300E+03
        -0.37300E+03
        -0.37300E+03
        -0.37300E+03
        -0.37300E+03
        -0.37300E+03
        -0.37300E+03
        -0.37300E+03
        -0.37300E+03
        -0.37300E+03
        -0.37300E+03
        -0.37300E+03
        -0.37300E+03
        -0.37300E+03
        -0.37300E+03
        -0.37300E+03
        -0.37300E+03
        -0.37300E+03
        -0.37300E+03
        -0.37300E+03
        -0.37300E+03
        -0.37300E+03
        -0.37300E+03
        -0.37300E+03
        -0.37300E+03
        -0.37300E+03
        -0.37300E+03
        -0.37300E+03
        -0.37300E+03
        -0.37300E+03
        -0.37300E+03
        -0.37300E+03
        -0.37300E+03
        -0.37300E+03
        -0.37300E+03
        -0.37300E+03
        -0.37300E+03
        -0.37300E+03
        -0.37300E+03
        -0.37300E+03
        -0.37300E+03
        -0.37300E+03
        -0.37300E+03
        -0.37300E+03
        -0.37300E+03
        -0.37300E+03
        -0.37300E+03
        -0.37300E+03
        -0.37300E+03
        -0.37300E+03
        -0.37300E+03
        -0.37300E+03
        -0.37300E+03
        -0.37300E+03
        -0.37300E+03
        -0.37300E+03
        -0.37300E+03
        -0.37300E+03
        -0.37300E+03
        -0.37300E+03
        -0.37300E+03
        -0.37300E+03
        -0.37300E+03
        -0.37300E+03
        -0.37300E+03
        -0.37300E+03
        -0.37300E+03
        -0.37300E+03
        -0.37300E+03
        -0.37300E+03
        -0.37300E+03
        -0.37300E+03
        -0.37300E+03
        -0.37300E+03
        -0.37300E+03
        -0.37300E+03
        -0.37300E+03
        -0.37300E+03
        -0.37300E+03
        -0.37300E+03
        -0.37300E+03
        -0.37300E+03
        -0.37300E+03
        -0.37300E+03
        -0.37300E+03
        -0.37300E+03
        -0.37300E+03
        -0.37300E+03
        -0.37300E+03
        -0.37300E+03
        -0.37300E+03
        -0.37300E+03
        -0.37300E+03
        -0.37300E+03
        -0.37300E+03
        -0.37300E+03
        -0.37300E+03
        -0.37300E+03
        -0.37300E+03
        -0.37300E+03
        -0.37300E+03
        -0.37300E+03
        -0.37300E+03
        -0.37300E+03
        -0.37300E+03
        -0.37300E+03
        -0.37300E+03
        -0.37300E+03
        -0.37300E+03
        -0.37300E+03
        -0.37300E+03
        -0.37300E+03
        -0.37300E+03
        -0.37300E+03
        -0.37300E+03
        -0.37300E+03
        -0.37300E+03
        -0.37300E+03
        -0.37300E+03
        -0.37300E+03
        -0.37300E+03
        -0.37300E+03
        -0.37300E+03
        -0.37300E+03
        -0.37300E+03
        -0.37300E+03
        -0.37300E+03
        -0.37300E+03
        -0.37300E+03
        -0.37300E+03
        -0.37300E+03
        -0.37300E+03
        -0.37300E+03
        -0.37300E+03
        -0.37300E+03
        -0.37300E+03
        -0.37300E+03
        -0.37300E+03
        -0.37300E+03
        -0.37300E+03
        -0.37300E+03
        -0.37300E+03
        -0.37300E+03
        -0.37300E+03
        -0.37300E+03
        -0.37300E+03
        -0.37300E+03
        -0.37300E+03
        -0.37300E+03
        -0.37300E+03
        -0.37300E+03
        -0.37300E+03
        -0.37300E+03
        -0.37300E+03
        -0.37300E+03
        -0.37300E+03
        -0.37300E+03
        -0.37300E+03
        -0.37300E+03
        -0.37300E+03
        -0.37300E+03
        -0.37300E+03
        -0.37300E+03
        -0.37300E+03
        -0.37300E+03
        -0.37300E+03
        -0.37300E+03
        -0.37300E+03
        -0.37300E+03
        -0.37300E+03
        -0.37300E+03
        -0.37300E+03
        -0.37300E+03
        -0.37300E+03
        -0.37300E+03
        -0.37300E+03
        -0.37300E+03
        -0.37300E+03
        -0.37300E+03
        -0.37300E+03
        -0.37300E+03
        -0.37300E+03
        -0.37300E+03
        -0.37300E+03
        -0.37300E+03
        -0.37300E+03
        -0.37300E+03
        -0.37300E+03
        -0.37300E+03
        -0.37300E+03
        -0.37300E+03
        -0.37300E+03
        -0.37300E+03
        -0.37300E+03
        -0.37300E+03
        -0.37300E+03
        -0.37300E+03
        -0.37300E+03
        -0.37300E+03
        -0.37300E+03
        -0.37300E+03
        -0.37300E+03
        -0.37300E+03
        -0.37300E+03
        -0.37300E+03
        -0.37300E+03
        -0.37300E+03
        -0.37300E+03
        -0.37300E+03
        -0.37300E+03
        -0.37300E+03
        -0.37300E+03
        -0.37300E+03
        -0.37300E+03
        -0.37300E+03
        -0.37300E+03
        -0.37300E+03
        -0.37300E+03
        -0.37300E+03
        -0.37300E+03
        -0.37300E+03
        -0.37300E+03
        -0.37300E+03
        -0.37300E+03
        -0.37300E+03
        -0.37300E+03
        -0.37300E+03
        -0.37300E+03
        -0.37300E+03
        -0.37300E+03
        -0.37300E+03
        -0.37300E+03
        -0.37300E+03
        -0.37300E+03
        -0.37300E+03
        -0.37300E+03
        -0.37300E+03
        -0.37300E+03
        -0.37300E+03
        -0.37300E+03
        -0.37300E+03
        -0.37300E+03
        -0.37300E+03
        -0.37300E+03
        -0.37300E+03
        -0.37300E+03
        -0.37300E+03
        -0.37300E+03
        -0.37300E+03
        -0.37300E+03
        -0.37300E+03
        -0.37300E+03
        -0.37300E+03
        -0.37300E+03
        -0.37300E+03
        -0.37300E+03
        -0.37300E+03
        -0.37300E+03
        -0.37300E+03
        -0.37300E+03
        -0.37300E+03
        -0.37300E+03
        -0.37300E+03
        -0.37300E+03
        -0.37300E+03
        -0.37300E+03
        -0.37300E+03
        -0.37300E+03
        -0.37300E+03
        -0.37300E+03
        -0.37300E+03
        -0.37300E+03
        -0.37300E+03
        -0.37300E+03
        -0.37300E+03
        -0.37300E+03
        -0.37300E+03
        -0.37300E+03
        -0.37300E+03
        -0.37300E+03
        -0.37300E+03
        -0.37300E+03
        -0.37300E+03
        -0.37300E+03
        -0.37300E+03
        -0.37300E+03
        -0.37300E+03
        -0.37300E+03
        -0.37300E+03
        -0.37300E+03
        -0.37300E+03
        -0.37300E+03
        -0.37300E+03
        -0.37300E+03
        -0.37300E+03
        -0.37300E+03
        -0.37300E+03
        -0.37300E+03
        -0.37300E+03
        -0.37300E+03
        -0.37300E+03
        -0.37300E+03
        -0.37300E+03
        -0.37300E+03
        -0.37300E+03
        -0.37300E+03
        -0.37300E+03
        -0.37300E+03
        -0.37300E+03
        -0.37300E+03
        -0.37300E+03
        -0.37300E+03
        -0.37300E+03
        -0.37300E+03
        -0.37300E+03
        -0.37300E+03
        -0.37300E+03
        -0.37300E+03
        -0.37300E+03
        -0.37300E+03
        -0.37300E+03
        -0.37300E+03
        -0.37300E+03
        -0.37300E+03
        -0.37300E+03
        -0.37300E+03
        -0.37300E+03
        -0.37300E+03
        -0.37300E+03
        -0.37300E+03
        -0.37300E+03
        -0.37300E+03
        -0.37300E+03
        -0.37300E+03
        -0.37300E+03
        -0.37300E+03
        -0.37300E+03
        -0.37300E+03
        -0.37300E+03
        -0.37300E+03
        -0.37300E+03
        -0.37300E+03
        -0.37300E+03
        -0.37300E+03
        -0.37300E+03
        -0.37300E+03
        -0.37300E+03
        -0.37300E+03
        -0.37300E+03
        -0.37300E+03
        -0.37300E+03
        -0.37300E+03
        -0.37300E+03
        -0.37300E+03
        -0.37300E+03
        -0.37300E+03
        -0.37300E+03
        -0.37300E+03
        -0.37300E+03
        -0.37300E+03
        -0.37300E+03
        -0.37300E+03
        -0.37300E+03
        -0.37300E+03
        -0.37300E+03
        -0.37300E+03
        -0.37300E+03
        -0.37300E+03
        -0.37300E+03
        -0.37300E+03
        -0.37300E+03
        -0.37300E+03
        -0.37300E+03
        -0.37300E+03
        -0.37300E+03
        -0.37300E+03
        -0.37300E+03
        -0.37300E+03
        -0.37300E+03
        -0.37300E+03
        -0.37300E+03
        -0.37300E+03
        -0.37300E+03
        -0.37300E+03
        -0.37300E+03
        -0.37300E+03
        -0.37300E+03
        -0.37300E+03
        -0.37300E+03
        -0.37300E+03
        -0.37300E+03
        -0.37300E+03
        -0.37300E+03
        -0.37300E+03
        -0.37300E+03
        -0.37300E+03
        -0.37300E+03
        -0.37300E+03
        -0.37300E+03
        -0.37300E+03
        -0.37300E+03
        -0.37300E+03
        -0.37300E+03
        -0.37300E+03
        -0.37300E+03
        -0.37300E+03
        -0.37300E+03
        -0.37300E+03
        -0.37300E+03
        -0.37300E+03
        -0.37300E+03
        -0.37300E+03
        -0.37300E+03
        -0.37300E+03
        -0.37300E+03
        -0.37300E+03
        -0.37300E+03
        -0.37300E+03
        -0.37300E+03
        -0.37300E+03
        -0.37300E+03
  
SCALARS                 acceleration_x  double 1
LOOKUP_TABLE default
         0.00000E+00
         0.00000E+00
         0.00000E+00
         0.00000E+00
         0.00000E+00
         0.00000E+00
         0.00000E+00
         0.00000E+00
         0.00000E+00
         0.00000E+00
         0.00000E+00
         0.00000E+00
         0.00000E+00
         0.00000E+00
         0.00000E+00
         0.00000E+00
         0.00000E+00
         0.00000E+00
         0.00000E+00
         0.00000E+00
         0.00000E+00
         0.00000E+00
         0.00000E+00
         0.00000E+00
         0.00000E+00
         0.00000E+00
         0.00000E+00
         0.00000E+00
         0.00000E+00
         0.00000E+00
         0.00000E+00
         0.00000E+00
         0.00000E+00
         0.00000E+00
         0.00000E+00
         0.00000E+00
         0.00000E+00
         0.00000E+00
         0.00000E+00
         0.00000E+00
         0.00000E+00
         0.00000E+00
         0.00000E+00
         0.00000E+00
         0.00000E+00
         0.00000E+00
         0.00000E+00
         0.00000E+00
         0.00000E+00
         0.00000E+00
         0.00000E+00
         0.00000E+00
         0.00000E+00
         0.00000E+00
         0.00000E+00
         0.00000E+00
         0.00000E+00
         0.00000E+00
         0.00000E+00
         0.00000E+00
         0.00000E+00
         0.00000E+00
         0.00000E+00
         0.00000E+00
         0.00000E+00
         0.00000E+00
         0.00000E+00
         0.00000E+00
         0.00000E+00
         0.00000E+00
         0.00000E+00
         0.00000E+00
         0.00000E+00
         0.00000E+00
         0.00000E+00
         0.00000E+00
         0.00000E+00
         0.00000E+00
         0.00000E+00
         0.00000E+00
         0.00000E+00
         0.00000E+00
         0.00000E+00
         0.00000E+00
         0.00000E+00
         0.00000E+00
         0.00000E+00
         0.00000E+00
         0.00000E+00
         0.00000E+00
         0.00000E+00
         0.00000E+00
         0.00000E+00
         0.00000E+00
         0.00000E+00
         0.00000E+00
         0.00000E+00
         0.00000E+00
         0.00000E+00
         0.00000E+00
         0.00000E+00
         0.00000E+00
         0.00000E+00
         0.00000E+00
         0.00000E+00
         0.00000E+00
         0.00000E+00
         0.00000E+00
         0.00000E+00
         0.00000E+00
         0.00000E+00
         0.00000E+00
         0.00000E+00
         0.00000E+00
         0.00000E+00
         0.00000E+00
         0.00000E+00
         0.00000E+00
         0.00000E+00
         0.00000E+00
         0.00000E+00
         0.00000E+00
         0.00000E+00
         0.00000E+00
         0.00000E+00
         0.00000E+00
         0.00000E+00
         0.00000E+00
         0.00000E+00
         0.00000E+00
         0.00000E+00
         0.00000E+00
         0.00000E+00
         0.00000E+00
         0.00000E+00
         0.00000E+00
         0.00000E+00
         0.00000E+00
         0.00000E+00
         0.00000E+00
         0.00000E+00
         0.00000E+00
         0.00000E+00
         0.00000E+00
         0.00000E+00
         0.00000E+00
         0.00000E+00
         0.00000E+00
         0.00000E+00
         0.00000E+00
         0.00000E+00
         0.00000E+00
         0.00000E+00
         0.00000E+00
         0.00000E+00
         0.00000E+00
         0.00000E+00
         0.00000E+00
         0.00000E+00
         0.00000E+00
         0.00000E+00
         0.00000E+00
         0.00000E+00
         0.00000E+00
         0.00000E+00
         0.00000E+00
         0.00000E+00
         0.00000E+00
         0.00000E+00
         0.00000E+00
         0.00000E+00
         0.00000E+00
         0.00000E+00
         0.00000E+00
         0.00000E+00
         0.00000E+00
         0.00000E+00
         0.00000E+00
         0.00000E+00
         0.00000E+00
         0.00000E+00
         0.00000E+00
         0.00000E+00
         0.00000E+00
         0.00000E+00
         0.00000E+00
         0.00000E+00
         0.00000E+00
         0.00000E+00
         0.00000E+00
         0.00000E+00
         0.00000E+00
         0.00000E+00
         0.00000E+00
         0.00000E+00
         0.00000E+00
         0.00000E+00
         0.00000E+00
         0.00000E+00
         0.00000E+00
         0.00000E+00
         0.00000E+00
         0.00000E+00
         0.00000E+00
         0.00000E+00
         0.00000E+00
         0.00000E+00
         0.00000E+00
         0.00000E+00
         0.00000E+00
         0.00000E+00
         0.00000E+00
         0.00000E+00
         0.00000E+00
         0.00000E+00
         0.00000E+00
         0.00000E+00
         0.00000E+00
         0.00000E+00
         0.00000E+00
         0.00000E+00
         0.00000E+00
         0.00000E+00
         0.00000E+00
         0.00000E+00
         0.00000E+00
         0.00000E+00
         0.00000E+00
         0.00000E+00
         0.00000E+00
         0.00000E+00
         0.00000E+00
         0.00000E+00
         0.00000E+00
         0.00000E+00
         0.00000E+00
         0.00000E+00
         0.00000E+00
         0.00000E+00
         0.00000E+00
         0.00000E+00
         0.00000E+00
         0.00000E+00
         0.00000E+00
         0.00000E+00
         0.00000E+00
         0.00000E+00
         0.00000E+00
         0.00000E+00
         0.00000E+00
         0.00000E+00
         0.00000E+00
         0.00000E+00
         0.00000E+00
         0.00000E+00
         0.00000E+00
         0.00000E+00
         0.00000E+00
         0.00000E+00
         0.00000E+00
         0.00000E+00
         0.00000E+00
         0.00000E+00
         0.00000E+00
         0.00000E+00
         0.00000E+00
         0.00000E+00
         0.00000E+00
         0.00000E+00
         0.00000E+00
         0.00000E+00
         0.00000E+00
         0.00000E+00
         0.00000E+00
         0.00000E+00
         0.00000E+00
         0.00000E+00
         0.00000E+00
         0.00000E+00
         0.00000E+00
         0.00000E+00
         0.00000E+00
         0.00000E+00
         0.00000E+00
         0.00000E+00
         0.00000E+00
         0.00000E+00
         0.00000E+00
         0.00000E+00
         0.00000E+00
         0.00000E+00
         0.00000E+00
         0.00000E+00
         0.00000E+00
         0.00000E+00
         0.00000E+00
         0.00000E+00
         0.00000E+00
         0.00000E+00
         0.00000E+00
         0.00000E+00
         0.00000E+00
         0.00000E+00
         0.00000E+00
         0.00000E+00
         0.00000E+00
         0.00000E+00
         0.00000E+00
         0.00000E+00
         0.00000E+00
         0.00000E+00
         0.00000E+00
         0.00000E+00
         0.00000E+00
         0.00000E+00
         0.00000E+00
         0.00000E+00
         0.00000E+00
         0.00000E+00
         0.00000E+00
         0.00000E+00
         0.00000E+00
         0.00000E+00
         0.00000E+00
         0.00000E+00
         0.00000E+00
         0.00000E+00
         0.00000E+00
         0.00000E+00
         0.00000E+00
         0.00000E+00
         0.00000E+00
         0.00000E+00
         0.00000E+00
         0.00000E+00
         0.00000E+00
         0.00000E+00
         0.00000E+00
         0.00000E+00
         0.00000E+00
         0.00000E+00
         0.00000E+00
         0.00000E+00
         0.00000E+00
         0.00000E+00
         0.00000E+00
         0.00000E+00
         0.00000E+00
         0.00000E+00
         0.00000E+00
         0.00000E+00
         0.00000E+00
         0.00000E+00
         0.00000E+00
         0.00000E+00
         0.00000E+00
         0.00000E+00
         0.00000E+00
         0.00000E+00
         0.00000E+00
         0.00000E+00
         0.00000E+00
         0.00000E+00
         0.00000E+00
         0.00000E+00
         0.00000E+00
         0.00000E+00
         0.00000E+00
         0.00000E+00
         0.00000E+00
         0.00000E+00
         0.00000E+00
         0.00000E+00
         0.00000E+00
         0.00000E+00
         0.00000E+00
         0.00000E+00
         0.00000E+00
         0.00000E+00
         0.00000E+00
         0.00000E+00
         0.00000E+00
         0.00000E+00
         0.00000E+00
         0.00000E+00
         0.00000E+00
         0.00000E+00
         0.00000E+00
         0.00000E+00
         0.00000E+00
         0.00000E+00
         0.00000E+00
         0.00000E+00
         0.00000E+00
         0.00000E+00
         0.00000E+00
         0.00000E+00
         0.00000E+00
         0.00000E+00
         0.00000E+00
         0.00000E+00
         0.00000E+00
         0.00000E+00
         0.00000E+00
         0.00000E+00
         0.00000E+00
         0.00000E+00
         0.00000E+00
         0.00000E+00
         0.00000E+00
         0.00000E+00
         0.00000E+00
         0.00000E+00
         0.00000E+00
         0.00000E+00
         0.00000E+00
         0.00000E+00
         0.00000E+00
         0.00000E+00
         0.00000E+00
         0.00000E+00
         0.00000E+00
         0.00000E+00
         0.00000E+00
         0.00000E+00
         0.00000E+00
         0.00000E+00
         0.00000E+00
         0.00000E+00
         0.00000E+00
         0.00000E+00
         0.00000E+00
         0.00000E+00
         0.00000E+00
         0.00000E+00
         0.00000E+00
         0.00000E+00
         0.00000E+00
         0.00000E+00
         0.00000E+00
         0.00000E+00
         0.00000E+00
         0.00000E+00
         0.00000E+00
         0.00000E+00
         0.00000E+00
         0.00000E+00
         0.00000E+00
         0.00000E+00
         0.00000E+00
         0.00000E+00
         0.00000E+00
         0.00000E+00
         0.00000E+00
         0.00000E+00
         0.00000E+00
         0.00000E+00
         0.00000E+00
         0.00000E+00
         0.00000E+00
         0.00000E+00
         0.00000E+00
         0.00000E+00
         0.00000E+00
         0.00000E+00
         0.00000E+00
         0.00000E+00
         0.00000E+00
         0.00000E+00
         0.00000E+00
         0.00000E+00
         0.00000E+00
         0.00000E+00
         0.00000E+00
         0.00000E+00
         0.00000E+00
         0.00000E+00
         0.00000E+00
         0.00000E+00
         0.00000E+00
         0.00000E+00
         0.00000E+00
         0.00000E+00
         0.00000E+00
         0.00000E+00
         0.00000E+00
         0.00000E+00
         0.00000E+00
         0.00000E+00
         0.00000E+00
         0.00000E+00
         0.00000E+00
         0.00000E+00
         0.00000E+00
         0.00000E+00
         0.00000E+00
         0.00000E+00
         0.00000E+00
         0.00000E+00
         0.00000E+00
         0.00000E+00
         0.00000E+00
         0.00000E+00
         0.00000E+00
         0.00000E+00
         0.00000E+00
         0.00000E+00
         0.00000E+00
         0.00000E+00
         0.00000E+00
         0.00000E+00
         0.00000E+00
         0.00000E+00
         0.00000E+00
         0.00000E+00
         0.00000E+00
         0.00000E+00
         0.00000E+00
         0.00000E+00
         0.00000E+00
         0.00000E+00
         0.00000E+00
         0.00000E+00
         0.00000E+00
         0.00000E+00
         0.00000E+00
         0.00000E+00
         0.00000E+00
         0.00000E+00
         0.00000E+00
         0.00000E+00
         0.00000E+00
         0.00000E+00
         0.00000E+00
         0.00000E+00
         0.00000E+00
         0.00000E+00
         0.00000E+00
         0.00000E+00
         0.00000E+00
         0.00000E+00
         0.00000E+00
         0.00000E+00
         0.00000E+00
         0.00000E+00
         0.00000E+00
         0.00000E+00
         0.00000E+00
         0.00000E+00
         0.00000E+00
         0.00000E+00
         0.00000E+00
         0.00000E+00
         0.00000E+00
         0.00000E+00
         0.00000E+00
         0.00000E+00
         0.00000E+00
         0.00000E+00
         0.00000E+00
         0.00000E+00
         0.00000E+00
         0.00000E+00
         0.00000E+00
         0.00000E+00
         0.00000E+00
         0.00000E+00
         0.00000E+00
         0.00000E+00
         0.00000E+00
         0.00000E+00
         0.00000E+00
         0.00000E+00
         0.00000E+00
         0.00000E+00
         0.00000E+00
         0.00000E+00
         0.00000E+00
         0.00000E+00
         0.00000E+00
         0.00000E+00
         0.00000E+00
         0.00000E+00
         0.00000E+00
         0.00000E+00
         0.00000E+00
         0.00000E+00
         0.00000E+00
         0.00000E+00
         0.00000E+00
         0.00000E+00
         0.00000E+00
         0.00000E+00
         0.00000E+00
         0.00000E+00
         0.00000E+00
         0.00000E+00
         0.00000E+00
         0.00000E+00
         0.00000E+00
         0.00000E+00
         0.00000E+00
         0.00000E+00
         0.00000E+00
         0.00000E+00
         0.00000E+00
         0.00000E+00
         0.00000E+00
         0.00000E+00
         0.00000E+00
         0.00000E+00
         0.00000E+00
         0.00000E+00
         0.00000E+00
         0.00000E+00
         0.00000E+00
         0.00000E+00
         0.00000E+00
         0.00000E+00
         0.00000E+00
         0.00000E+00
         0.00000E+00
         0.00000E+00
         0.00000E+00
         0.00000E+00
         0.00000E+00
         0.00000E+00
         0.00000E+00
         0.00000E+00
         0.00000E+00
         0.00000E+00
         0.00000E+00
         0.00000E+00
         0.00000E+00
         0.00000E+00
         0.00000E+00
         0.00000E+00
         0.00000E+00
         0.00000E+00
         0.00000E+00
         0.00000E+00
         0.00000E+00
         0.00000E+00
         0.00000E+00
         0.00000E+00
         0.00000E+00
         0.00000E+00
         0.00000E+00
         0.00000E+00
         0.00000E+00
         0.00000E+00
         0.00000E+00
         0.00000E+00
         0.00000E+00
         0.00000E+00
         0.00000E+00
         0.00000E+00
         0.00000E+00
         0.00000E+00
         0.00000E+00
         0.00000E+00
         0.00000E+00
         0.00000E+00
         0.00000E+00
         0.00000E+00
         0.00000E+00
         0.00000E+00
         0.00000E+00
         0.00000E+00
         0.00000E+00
         0.00000E+00
         0.00000E+00
         0.00000E+00
         0.00000E+00
         0.00000E+00
         0.00000E+00
         0.00000E+00
         0.00000E+00
         0.00000E+00
         0.00000E+00
         0.00000E+00
         0.00000E+00
         0.00000E+00
         0.00000E+00
         0.00000E+00
         0.00000E+00
         0.00000E+00
         0.00000E+00
         0.00000E+00
         0.00000E+00
         0.00000E+00
         0.00000E+00
         0.00000E+00
         0.00000E+00
         0.00000E+00
         0.00000E+00
         0.00000E+00
         0.00000E+00
         0.00000E+00
         0.00000E+00
         0.00000E+00
         0.00000E+00
         0.00000E+00
         0.00000E+00
         0.00000E+00
         0.00000E+00
         0.00000E+00
         0.00000E+00
         0.00000E+00
         0.00000E+00
         0.00000E+00
         0.00000E+00
         0.00000E+00
         0.00000E+00
         0.00000E+00
         0.00000E+00
         0.00000E+00
         0.00000E+00
         0.00000E+00
         0.00000E+00
         0.00000E+00
         0.00000E+00
         0.00000E+00
         0.00000E+00
         0.00000E+00
         0.00000E+00
         0.00000E+00
         0.00000E+00
         0.00000E+00
         0.00000E+00
         0.00000E+00
         0.00000E+00
         0.00000E+00
         0.00000E+00
         0.00000E+00
         0.00000E+00
         0.00000E+00
         0.00000E+00
         0.00000E+00
         0.00000E+00
         0.00000E+00
         0.00000E+00
         0.00000E+00
         0.00000E+00
         0.00000E+00
         0.00000E+00
         0.00000E+00
         0.00000E+00
         0.00000E+00
         0.00000E+00
         0.00000E+00
         0.00000E+00
         0.00000E+00
         0.00000E+00
         0.00000E+00
         0.00000E+00
         0.00000E+00
         0.00000E+00
         0.00000E+00
         0.00000E+00
         0.00000E+00
         0.00000E+00
         0.00000E+00
         0.00000E+00
         0.00000E+00
         0.00000E+00
         0.00000E+00
         0.00000E+00
         0.00000E+00
         0.00000E+00
         0.00000E+00
         0.00000E+00
         0.00000E+00
         0.00000E+00
         0.00000E+00
         0.00000E+00
         0.00000E+00
         0.00000E+00
         0.00000E+00
         0.00000E+00
         0.00000E+00
         0.00000E+00
         0.00000E+00
         0.00000E+00
         0.00000E+00
         0.00000E+00
         0.00000E+00
         0.00000E+00
         0.00000E+00
         0.00000E+00
         0.00000E+00
         0.00000E+00
         0.00000E+00
         0.00000E+00
         0.00000E+00
         0.00000E+00
         0.00000E+00
         0.00000E+00
         0.00000E+00
         0.00000E+00
         0.00000E+00
         0.00000E+00
         0.00000E+00
         0.00000E+00
         0.00000E+00
         0.00000E+00
         0.00000E+00
         0.00000E+00
         0.00000E+00
         0.00000E+00
         0.00000E+00
         0.00000E+00
         0.00000E+00
         0.00000E+00
         0.00000E+00
         0.00000E+00
         0.00000E+00
         0.00000E+00
         0.00000E+00
         0.00000E+00
         0.00000E+00
         0.00000E+00
         0.00000E+00
         0.00000E+00
         0.00000E+00
         0.00000E+00
         0.00000E+00
         0.00000E+00
         0.00000E+00
         0.00000E+00
         0.00000E+00
         0.00000E+00
         0.00000E+00
         0.00000E+00
         0.00000E+00
         0.00000E+00
         0.00000E+00
         0.00000E+00
         0.00000E+00
         0.00000E+00
         0.00000E+00
         0.00000E+00
         0.00000E+00
         0.00000E+00
         0.00000E+00
         0.00000E+00
         0.00000E+00
         0.00000E+00
         0.00000E+00
         0.00000E+00
         0.00000E+00
         0.00000E+00
         0.00000E+00
         0.00000E+00
         0.00000E+00
         0.00000E+00
         0.00000E+00
         0.00000E+00
         0.00000E+00
         0.00000E+00
         0.00000E+00
         0.00000E+00
         0.00000E+00
         0.00000E+00
         0.00000E+00
         0.00000E+00
         0.00000E+00
         0.00000E+00
         0.00000E+00
         0.00000E+00
         0.00000E+00
         0.00000E+00
         0.00000E+00
         0.00000E+00
         0.00000E+00
         0.00000E+00
         0.00000E+00
         0.00000E+00
         0.00000E+00
         0.00000E+00
         0.00000E+00
         0.00000E+00
         0.00000E+00
         0.00000E+00
         0.00000E+00
         0.00000E+00
         0.00000E+00
         0.00000E+00
         0.00000E+00
         0.00000E+00
         0.00000E+00
         0.00000E+00
         0.00000E+00
         0.00000E+00
         0.00000E+00
         0.00000E+00
         0.00000E+00
         0.00000E+00
         0.00000E+00
         0.00000E+00
         0.00000E+00
         0.00000E+00
         0.00000E+00
         0.00000E+00
         0.00000E+00
         0.00000E+00
         0.00000E+00
         0.00000E+00
         0.00000E+00
         0.00000E+00
         0.00000E+00
         0.00000E+00
         0.00000E+00
         0.00000E+00
         0.00000E+00
         0.00000E+00
         0.00000E+00
         0.00000E+00
         0.00000E+00
         0.00000E+00
         0.00000E+00
         0.00000E+00
         0.00000E+00
         0.00000E+00
         0.00000E+00
         0.00000E+00
         0.00000E+00
         0.00000E+00
         0.00000E+00
         0.00000E+00
         0.00000E+00
         0.00000E+00
         0.00000E+00
         0.00000E+00
         0.00000E+00
         0.00000E+00
         0.00000E+00
         0.00000E+00
         0.00000E+00
         0.00000E+00
         0.00000E+00
         0.00000E+00
         0.00000E+00
         0.00000E+00
         0.00000E+00
         0.00000E+00
         0.00000E+00
         0.00000E+00
         0.00000E+00
         0.00000E+00
         0.00000E+00
         0.00000E+00
         0.00000E+00
         0.00000E+00
         0.00000E+00
         0.00000E+00
         0.00000E+00
         0.00000E+00
         0.00000E+00
         0.00000E+00
         0.00000E+00
         0.00000E+00
         0.00000E+00
         0.00000E+00
         0.00000E+00
         0.00000E+00
         0.00000E+00
         0.00000E+00
         0.00000E+00
         0.00000E+00
         0.00000E+00
         0.00000E+00
         0.00000E+00
         0.00000E+00
         0.00000E+00
         0.00000E+00
         0.00000E+00
         0.00000E+00
         0.00000E+00
         0.00000E+00
         0.00000E+00
         0.00000E+00
         0.00000E+00
         0.00000E+00
         0.00000E+00
         0.00000E+00
         0.00000E+00
         0.00000E+00
         0.00000E+00
         0.00000E+00
         0.00000E+00
         0.00000E+00
         0.00000E+00
         0.00000E+00
         0.00000E+00
         0.00000E+00
         0.00000E+00
         0.00000E+00
         0.00000E+00
         0.00000E+00
         0.00000E+00
         0.00000E+00
         0.00000E+00
         0.00000E+00
         0.00000E+00
         0.00000E+00
         0.00000E+00
         0.00000E+00
         0.00000E+00
         0.00000E+00
         0.00000E+00
         0.00000E+00
         0.00000E+00
         0.00000E+00
         0.00000E+00
         0.00000E+00
         0.00000E+00
         0.00000E+00
         0.00000E+00
         0.00000E+00
         0.00000E+00
         0.00000E+00
         0.00000E+00
         0.00000E+00
         0.00000E+00
         0.00000E+00
         0.00000E+00
         0.00000E+00
         0.00000E+00
         0.00000E+00
         0.00000E+00
         0.00000E+00
         0.00000E+00
         0.00000E+00
         0.00000E+00
         0.00000E+00
         0.00000E+00
         0.00000E+00
         0.00000E+00
         0.00000E+00
         0.00000E+00
         0.00000E+00
         0.00000E+00
         0.00000E+00
         0.00000E+00
         0.00000E+00
         0.00000E+00
         0.00000E+00
         0.00000E+00
         0.00000E+00
         0.00000E+00
         0.00000E+00
         0.00000E+00
         0.00000E+00
         0.00000E+00
         0.00000E+00
         0.00000E+00
         0.00000E+00
         0.00000E+00
         0.00000E+00
         0.00000E+00
         0.00000E+00
         0.00000E+00
         0.00000E+00
         0.00000E+00
         0.00000E+00
         0.00000E+00
         0.00000E+00
         0.00000E+00
         0.00000E+00
         0.00000E+00
         0.00000E+00
         0.00000E+00
         0.00000E+00
         0.00000E+00
         0.00000E+00
         0.00000E+00
         0.00000E+00
         0.00000E+00
         0.00000E+00
         0.00000E+00
         0.00000E+00
         0.00000E+00
         0.00000E+00
         0.00000E+00
         0.00000E+00
         0.00000E+00
         0.00000E+00
         0.00000E+00
         0.00000E+00
         0.00000E+00
         0.00000E+00
         0.00000E+00
         0.00000E+00
         0.00000E+00
         0.00000E+00
         0.00000E+00
         0.00000E+00
         0.00000E+00
         0.00000E+00
         0.00000E+00
         0.00000E+00
         0.00000E+00
         0.00000E+00
         0.00000E+00
         0.00000E+00
         0.00000E+00
         0.00000E+00
         0.00000E+00
         0.00000E+00
         0.00000E+00
         0.00000E+00
         0.00000E+00
         0.00000E+00
         0.00000E+00
         0.00000E+00
         0.00000E+00
         0.00000E+00
         0.00000E+00
         0.00000E+00
         0.00000E+00
         0.00000E+00
         0.00000E+00
         0.00000E+00
         0.00000E+00
         0.00000E+00
         0.00000E+00
         0.00000E+00
         0.00000E+00
         0.00000E+00
         0.00000E+00
         0.00000E+00
         0.00000E+00
         0.00000E+00
         0.00000E+00
         0.00000E+00
         0.00000E+00
         0.00000E+00
         0.00000E+00
         0.00000E+00
         0.00000E+00
         0.00000E+00
         0.00000E+00
         0.00000E+00
         0.00000E+00
         0.00000E+00
         0.00000E+00
         0.00000E+00
         0.00000E+00
         0.00000E+00
         0.00000E+00
         0.00000E+00
         0.00000E+00
         0.00000E+00
         0.00000E+00
         0.00000E+00
         0.00000E+00
         0.00000E+00
         0.00000E+00
         0.00000E+00
         0.00000E+00
         0.00000E+00
         0.00000E+00
         0.00000E+00
         0.00000E+00
         0.00000E+00
         0.00000E+00
         0.00000E+00
         0.00000E+00
         0.00000E+00
         0.00000E+00
         0.00000E+00
         0.00000E+00
         0.00000E+00
         0.00000E+00
         0.00000E+00
         0.00000E+00
         0.00000E+00
         0.00000E+00
         0.00000E+00
         0.00000E+00
         0.00000E+00
         0.00000E+00
         0.00000E+00
         0.00000E+00
         0.00000E+00
         0.00000E+00
         0.00000E+00
         0.00000E+00
         0.00000E+00
         0.00000E+00
         0.00000E+00
         0.00000E+00
         0.00000E+00
         0.00000E+00
         0.00000E+00
         0.00000E+00
         0.00000E+00
         0.00000E+00
         0.00000E+00
         0.00000E+00
         0.00000E+00
         0.00000E+00
         0.00000E+00
         0.00000E+00
         0.00000E+00
         0.00000E+00
         0.00000E+00
         0.00000E+00
         0.00000E+00
         0.00000E+00
         0.00000E+00
         0.00000E+00
         0.00000E+00
         0.00000E+00
         0.00000E+00
         0.00000E+00
         0.00000E+00
         0.00000E+00
         0.00000E+00
         0.00000E+00
         0.00000E+00
         0.00000E+00
         0.00000E+00
         0.00000E+00
         0.00000E+00
         0.00000E+00
         0.00000E+00
         0.00000E+00
         0.00000E+00
         0.00000E+00
         0.00000E+00
         0.00000E+00
         0.00000E+00
         0.00000E+00
         0.00000E+00
         0.00000E+00
         0.00000E+00
         0.00000E+00
         0.00000E+00
         0.00000E+00
         0.00000E+00
         0.00000E+00
         0.00000E+00
         0.00000E+00
         0.00000E+00
         0.00000E+00
         0.00000E+00
         0.00000E+00
         0.00000E+00
         0.00000E+00
         0.00000E+00
         0.00000E+00
         0.00000E+00
         0.00000E+00
         0.00000E+00
         0.00000E+00
         0.00000E+00
         0.00000E+00
         0.00000E+00
         0.00000E+00
         0.00000E+00
         0.00000E+00
         0.00000E+00
         0.00000E+00
         0.00000E+00
         0.00000E+00
         0.00000E+00
         0.00000E+00
         0.00000E+00
         0.00000E+00
         0.00000E+00
         0.00000E+00
         0.00000E+00
         0.00000E+00
         0.00000E+00
         0.00000E+00
         0.00000E+00
         0.00000E+00
         0.00000E+00
         0.00000E+00
         0.00000E+00
         0.00000E+00
         0.00000E+00
         0.00000E+00
         0.00000E+00
         0.00000E+00
         0.00000E+00
         0.00000E+00
         0.00000E+00
         0.00000E+00
         0.00000E+00
         0.00000E+00
         0.00000E+00
         0.00000E+00
         0.00000E+00
         0.00000E+00
         0.00000E+00
         0.00000E+00
         0.00000E+00
         0.00000E+00
         0.00000E+00
         0.00000E+00
         0.00000E+00
         0.00000E+00
         0.00000E+00
         0.00000E+00
         0.00000E+00
         0.00000E+00
         0.00000E+00
         0.00000E+00
         0.00000E+00
         0.00000E+00
         0.00000E+00
         0.00000E+00
         0.00000E+00
         0.00000E+00
         0.00000E+00
         0.00000E+00
         0.00000E+00
         0.00000E+00
         0.00000E+00
         0.00000E+00
         0.00000E+00
         0.00000E+00
         0.00000E+00
         0.00000E+00
         0.00000E+00
         0.00000E+00
         0.00000E+00
         0.00000E+00
         0.00000E+00
         0.00000E+00
         0.00000E+00
         0.00000E+00
         0.00000E+00
         0.00000E+00
         0.00000E+00
         0.00000E+00
         0.00000E+00
         0.00000E+00
         0.00000E+00
         0.00000E+00
         0.00000E+00
         0.00000E+00
         0.00000E+00
         0.00000E+00
         0.00000E+00
         0.00000E+00
         0.00000E+00
         0.00000E+00
         0.00000E+00
         0.00000E+00
         0.00000E+00
         0.00000E+00
         0.00000E+00
         0.00000E+00
         0.00000E+00
         0.00000E+00
         0.00000E+00
         0.00000E+00
         0.00000E+00
         0.00000E+00
         0.00000E+00
         0.00000E+00
         0.00000E+00
         0.00000E+00
         0.00000E+00
         0.00000E+00
         0.00000E+00
         0.00000E+00
         0.00000E+00
         0.00000E+00
         0.00000E+00
         0.00000E+00
         0.00000E+00
         0.00000E+00
         0.00000E+00
         0.00000E+00
         0.00000E+00
         0.00000E+00
         0.00000E+00
         0.00000E+00
         0.00000E+00
         0.00000E+00
         0.00000E+00
         0.00000E+00
         0.00000E+00
         0.00000E+00
         0.00000E+00
         0.00000E+00
         0.00000E+00
         0.00000E+00
         0.00000E+00
         0.00000E+00
         0.00000E+00
         0.00000E+00
         0.00000E+00
         0.00000E+00
         0.00000E+00
         0.00000E+00
         0.00000E+00
         0.00000E+00
         0.00000E+00
         0.00000E+00
         0.00000E+00
         0.00000E+00
         0.00000E+00
         0.00000E+00
         0.00000E+00
         0.00000E+00
         0.00000E+00
         0.00000E+00
         0.00000E+00
         0.00000E+00
         0.00000E+00
         0.00000E+00
         0.00000E+00
         0.00000E+00
         0.00000E+00
         0.00000E+00
         0.00000E+00
         0.00000E+00
         0.00000E+00
         0.00000E+00
         0.00000E+00
         0.00000E+00
         0.00000E+00
         0.00000E+00
         0.00000E+00
         0.00000E+00
         0.00000E+00
         0.00000E+00
         0.00000E+00
         0.00000E+00
         0.00000E+00
         0.00000E+00
         0.00000E+00
         0.00000E+00
         0.00000E+00
         0.00000E+00
         0.00000E+00
         0.00000E+00
         0.00000E+00
         0.00000E+00
         0.00000E+00
         0.00000E+00
         0.00000E+00
         0.00000E+00
         0.00000E+00
         0.00000E+00
         0.00000E+00
         0.00000E+00
         0.00000E+00
         0.00000E+00
         0.00000E+00
         0.00000E+00
         0.00000E+00
         0.00000E+00
         0.00000E+00
         0.00000E+00
         0.00000E+00
         0.00000E+00
         0.00000E+00
         0.00000E+00
         0.00000E+00
         0.00000E+00
         0.00000E+00
         0.00000E+00
         0.00000E+00
         0.00000E+00
         0.00000E+00
         0.00000E+00
         0.00000E+00
         0.00000E+00
         0.00000E+00
         0.00000E+00
         0.00000E+00
         0.00000E+00
         0.00000E+00
         0.00000E+00
         0.00000E+00
         0.00000E+00
         0.00000E+00
         0.00000E+00
         0.00000E+00
         0.00000E+00
         0.00000E+00
         0.00000E+00
         0.00000E+00
         0.00000E+00
         0.00000E+00
         0.00000E+00
         0.00000E+00
         0.00000E+00
         0.00000E+00
         0.00000E+00
         0.00000E+00
         0.00000E+00
         0.00000E+00
         0.00000E+00
         0.00000E+00
         0.00000E+00
         0.00000E+00
         0.00000E+00
         0.00000E+00
         0.00000E+00
         0.00000E+00
         0.00000E+00
         0.00000E+00
         0.00000E+00
         0.00000E+00
         0.00000E+00
         0.00000E+00
         0.00000E+00
         0.00000E+00
         0.00000E+00
         0.00000E+00
         0.00000E+00
         0.00000E+00
         0.00000E+00
         0.00000E+00
         0.00000E+00
         0.00000E+00
         0.00000E+00
         0.00000E+00
         0.00000E+00
         0.00000E+00
         0.00000E+00
         0.00000E+00
         0.00000E+00
         0.00000E+00
         0.00000E+00
         0.00000E+00
         0.00000E+00
         0.00000E+00
         0.00000E+00
         0.00000E+00
         0.00000E+00
         0.00000E+00
         0.00000E+00
         0.00000E+00
         0.00000E+00
         0.00000E+00
         0.00000E+00
         0.00000E+00
         0.00000E+00
         0.00000E+00
         0.00000E+00
         0.00000E+00
         0.00000E+00
         0.00000E+00
         0.00000E+00
         0.00000E+00
         0.00000E+00
         0.00000E+00
         0.00000E+00
         0.00000E+00
         0.00000E+00
         0.00000E+00
         0.00000E+00
         0.00000E+00
         0.00000E+00
         0.00000E+00
         0.00000E+00
         0.00000E+00
         0.00000E+00
         0.00000E+00
         0.00000E+00
         0.00000E+00
         0.00000E+00
         0.00000E+00
         0.00000E+00
         0.00000E+00
         0.00000E+00
         0.00000E+00
         0.00000E+00
         0.00000E+00
         0.00000E+00
         0.00000E+00
         0.00000E+00
         0.00000E+00
         0.00000E+00
         0.00000E+00
         0.00000E+00
         0.00000E+00
         0.00000E+00
         0.00000E+00
         0.00000E+00
         0.00000E+00
         0.00000E+00
         0.00000E+00
         0.00000E+00
         0.00000E+00
         0.00000E+00
         0.00000E+00
         0.00000E+00
         0.00000E+00
         0.00000E+00
         0.00000E+00
         0.00000E+00
         0.00000E+00
         0.00000E+00
         0.00000E+00
         0.00000E+00
         0.00000E+00
         0.00000E+00
         0.00000E+00
         0.00000E+00
         0.00000E+00
         0.00000E+00
         0.00000E+00
         0.00000E+00
         0.00000E+00
         0.00000E+00
         0.00000E+00
         0.00000E+00
         0.00000E+00
         0.00000E+00
         0.00000E+00
         0.00000E+00
         0.00000E+00
         0.00000E+00
         0.00000E+00
         0.00000E+00
         0.00000E+00
         0.00000E+00
         0.00000E+00
         0.00000E+00
         0.00000E+00
         0.00000E+00
         0.00000E+00
         0.00000E+00
         0.00000E+00
         0.00000E+00
         0.00000E+00
         0.00000E+00
         0.00000E+00
         0.00000E+00
         0.00000E+00
         0.00000E+00
         0.00000E+00
         0.00000E+00
         0.00000E+00
         0.00000E+00
         0.00000E+00
         0.00000E+00
         0.00000E+00
         0.00000E+00
         0.00000E+00
         0.00000E+00
         0.00000E+00
         0.00000E+00
         0.00000E+00
         0.00000E+00
         0.00000E+00
         0.00000E+00
         0.00000E+00
         0.00000E+00
         0.00000E+00
         0.00000E+00
         0.00000E+00
         0.00000E+00
         0.00000E+00
         0.00000E+00
         0.00000E+00
         0.00000E+00
         0.00000E+00
         0.00000E+00
         0.00000E+00
         0.00000E+00
         0.00000E+00
         0.00000E+00
         0.00000E+00
         0.00000E+00
         0.00000E+00
         0.00000E+00
         0.00000E+00
         0.00000E+00
         0.00000E+00
         0.00000E+00
         0.00000E+00
         0.00000E+00
         0.00000E+00
         0.00000E+00
         0.00000E+00
         0.00000E+00
         0.00000E+00
         0.00000E+00
         0.00000E+00
         0.00000E+00
         0.00000E+00
         0.00000E+00
         0.00000E+00
         0.00000E+00
         0.00000E+00
         0.00000E+00
         0.00000E+00
         0.00000E+00
         0.00000E+00
         0.00000E+00
         0.00000E+00
         0.00000E+00
         0.00000E+00
         0.00000E+00
         0.00000E+00
         0.00000E+00
         0.00000E+00
         0.00000E+00
         0.00000E+00
         0.00000E+00
         0.00000E+00
         0.00000E+00
         0.00000E+00
         0.00000E+00
         0.00000E+00
         0.00000E+00
         0.00000E+00
         0.00000E+00
         0.00000E+00
         0.00000E+00
         0.00000E+00
         0.00000E+00
         0.00000E+00
         0.00000E+00
         0.00000E+00
         0.00000E+00
         0.00000E+00
         0.00000E+00
         0.00000E+00
         0.00000E+00
         0.00000E+00
         0.00000E+00
         0.00000E+00
         0.00000E+00
         0.00000E+00
         0.00000E+00
         0.00000E+00
         0.00000E+00
         0.00000E+00
         0.00000E+00
         0.00000E+00
         0.00000E+00
         0.00000E+00
         0.00000E+00
         0.00000E+00
         0.00000E+00
         0.00000E+00
         0.00000E+00
         0.00000E+00
         0.00000E+00
         0.00000E+00
         0.00000E+00
         0.00000E+00
         0.00000E+00
         0.00000E+00
         0.00000E+00
         0.00000E+00
         0.00000E+00
         0.00000E+00
         0.00000E+00
         0.00000E+00
         0.00000E+00
         0.00000E+00
         0.00000E+00
         0.00000E+00
         0.00000E+00
         0.00000E+00
         0.00000E+00
         0.00000E+00
         0.00000E+00
         0.00000E+00
         0.00000E+00
         0.00000E+00
         0.00000E+00
         0.00000E+00
         0.00000E+00
         0.00000E+00
         0.00000E+00
         0.00000E+00
         0.00000E+00
         0.00000E+00
         0.00000E+00
         0.00000E+00
         0.00000E+00
         0.00000E+00
         0.00000E+00
         0.00000E+00
         0.00000E+00
         0.00000E+00
         0.00000E+00
         0.00000E+00
         0.00000E+00
         0.00000E+00
         0.00000E+00
         0.00000E+00
         0.00000E+00
         0.00000E+00
         0.00000E+00
         0.00000E+00
         0.00000E+00
         0.00000E+00
         0.00000E+00
         0.00000E+00
         0.00000E+00
         0.00000E+00
         0.00000E+00
         0.00000E+00
         0.00000E+00
         0.00000E+00
         0.00000E+00
         0.00000E+00
         0.00000E+00
         0.00000E+00
         0.00000E+00
         0.00000E+00
         0.00000E+00
         0.00000E+00
         0.00000E+00
         0.00000E+00
         0.00000E+00
         0.00000E+00
         0.00000E+00
         0.00000E+00
         0.00000E+00
         0.00000E+00
         0.00000E+00
         0.00000E+00
         0.00000E+00
         0.00000E+00
         0.00000E+00
         0.00000E+00
         0.00000E+00
         0.00000E+00
         0.00000E+00
         0.00000E+00
         0.00000E+00
         0.00000E+00
         0.00000E+00
         0.00000E+00
         0.00000E+00
         0.00000E+00
         0.00000E+00
         0.00000E+00
         0.00000E+00
         0.00000E+00
         0.00000E+00
         0.00000E+00
         0.00000E+00
         0.00000E+00
         0.00000E+00
         0.00000E+00
         0.00000E+00
         0.00000E+00
         0.00000E+00
         0.00000E+00
         0.00000E+00
         0.00000E+00
         0.00000E+00
         0.00000E+00
         0.00000E+00
         0.00000E+00
         0.00000E+00
         0.00000E+00
         0.00000E+00
         0.00000E+00
         0.00000E+00
         0.00000E+00
         0.00000E+00
         0.00000E+00
         0.00000E+00
         0.00000E+00
         0.00000E+00
         0.00000E+00
         0.00000E+00
         0.00000E+00
         0.00000E+00
         0.00000E+00
         0.00000E+00
         0.00000E+00
         0.00000E+00
         0.00000E+00
         0.00000E+00
         0.00000E+00
         0.00000E+00
         0.00000E+00
         0.00000E+00
         0.00000E+00
         0.00000E+00
         0.00000E+00
         0.00000E+00
         0.00000E+00
         0.00000E+00
         0.00000E+00
         0.00000E+00
         0.00000E+00
         0.00000E+00
         0.00000E+00
         0.00000E+00
         0.00000E+00
         0.00000E+00
         0.00000E+00
         0.00000E+00
         0.00000E+00
         0.00000E+00
         0.00000E+00
         0.00000E+00
         0.00000E+00
         0.00000E+00
         0.00000E+00
         0.00000E+00
         0.00000E+00
         0.00000E+00
         0.00000E+00
         0.00000E+00
         0.00000E+00
         0.00000E+00
         0.00000E+00
         0.00000E+00
         0.00000E+00
         0.00000E+00
         0.00000E+00
         0.00000E+00
         0.00000E+00
         0.00000E+00
         0.00000E+00
         0.00000E+00
         0.00000E+00
         0.00000E+00
         0.00000E+00
         0.00000E+00
         0.00000E+00
         0.00000E+00
         0.00000E+00
         0.00000E+00
         0.00000E+00
         0.00000E+00
         0.00000E+00
         0.00000E+00
         0.00000E+00
         0.00000E+00
         0.00000E+00
         0.00000E+00
         0.00000E+00
         0.00000E+00
         0.00000E+00
         0.00000E+00
         0.00000E+00
         0.00000E+00
         0.00000E+00
  
SCALARS                 acceleration_y  double 1
LOOKUP_TABLE default
         0.00000E+00
         0.00000E+00
         0.00000E+00
         0.00000E+00
         0.00000E+00
         0.00000E+00
         0.00000E+00
         0.00000E+00
         0.00000E+00
         0.00000E+00
         0.00000E+00
         0.00000E+00
         0.00000E+00
         0.00000E+00
         0.00000E+00
         0.00000E+00
         0.00000E+00
         0.00000E+00
         0.00000E+00
         0.00000E+00
         0.00000E+00
         0.00000E+00
         0.00000E+00
         0.00000E+00
         0.00000E+00
         0.00000E+00
         0.00000E+00
         0.00000E+00
         0.00000E+00
         0.00000E+00
         0.00000E+00
         0.00000E+00
         0.00000E+00
         0.00000E+00
         0.00000E+00
         0.00000E+00
         0.00000E+00
         0.00000E+00
         0.00000E+00
         0.00000E+00
         0.00000E+00
         0.00000E+00
         0.00000E+00
         0.00000E+00
         0.00000E+00
         0.00000E+00
         0.00000E+00
         0.00000E+00
         0.00000E+00
         0.00000E+00
         0.00000E+00
         0.00000E+00
         0.00000E+00
         0.00000E+00
         0.00000E+00
         0.00000E+00
         0.00000E+00
         0.00000E+00
         0.00000E+00
         0.00000E+00
         0.00000E+00
         0.00000E+00
         0.00000E+00
         0.00000E+00
         0.00000E+00
         0.00000E+00
         0.00000E+00
         0.00000E+00
         0.00000E+00
         0.00000E+00
         0.00000E+00
         0.00000E+00
         0.00000E+00
         0.00000E+00
         0.00000E+00
         0.00000E+00
         0.00000E+00
         0.00000E+00
         0.00000E+00
         0.00000E+00
         0.00000E+00
         0.00000E+00
         0.00000E+00
         0.00000E+00
         0.00000E+00
         0.00000E+00
         0.00000E+00
         0.00000E+00
         0.00000E+00
         0.00000E+00
         0.00000E+00
         0.00000E+00
         0.00000E+00
         0.00000E+00
         0.00000E+00
         0.00000E+00
         0.00000E+00
         0.00000E+00
         0.00000E+00
         0.00000E+00
         0.00000E+00
         0.00000E+00
         0.00000E+00
         0.00000E+00
         0.00000E+00
         0.00000E+00
         0.00000E+00
         0.00000E+00
         0.00000E+00
         0.00000E+00
         0.00000E+00
         0.00000E+00
         0.00000E+00
         0.00000E+00
         0.00000E+00
         0.00000E+00
         0.00000E+00
         0.00000E+00
         0.00000E+00
         0.00000E+00
         0.00000E+00
         0.00000E+00
         0.00000E+00
         0.00000E+00
         0.00000E+00
         0.00000E+00
         0.00000E+00
         0.00000E+00
         0.00000E+00
         0.00000E+00
         0.00000E+00
         0.00000E+00
         0.00000E+00
         0.00000E+00
         0.00000E+00
         0.00000E+00
         0.00000E+00
         0.00000E+00
         0.00000E+00
         0.00000E+00
         0.00000E+00
         0.00000E+00
         0.00000E+00
         0.00000E+00
         0.00000E+00
         0.00000E+00
         0.00000E+00
         0.00000E+00
         0.00000E+00
         0.00000E+00
         0.00000E+00
         0.00000E+00
         0.00000E+00
         0.00000E+00
         0.00000E+00
         0.00000E+00
         0.00000E+00
         0.00000E+00
         0.00000E+00
         0.00000E+00
         0.00000E+00
         0.00000E+00
         0.00000E+00
         0.00000E+00
         0.00000E+00
         0.00000E+00
         0.00000E+00
         0.00000E+00
         0.00000E+00
         0.00000E+00
         0.00000E+00
         0.00000E+00
         0.00000E+00
         0.00000E+00
         0.00000E+00
         0.00000E+00
         0.00000E+00
         0.00000E+00
         0.00000E+00
         0.00000E+00
         0.00000E+00
         0.00000E+00
         0.00000E+00
         0.00000E+00
         0.00000E+00
         0.00000E+00
         0.00000E+00
         0.00000E+00
         0.00000E+00
         0.00000E+00
         0.00000E+00
         0.00000E+00
         0.00000E+00
         0.00000E+00
         0.00000E+00
         0.00000E+00
         0.00000E+00
         0.00000E+00
         0.00000E+00
         0.00000E+00
         0.00000E+00
         0.00000E+00
         0.00000E+00
         0.00000E+00
         0.00000E+00
         0.00000E+00
         0.00000E+00
         0.00000E+00
         0.00000E+00
         0.00000E+00
         0.00000E+00
         0.00000E+00
         0.00000E+00
         0.00000E+00
         0.00000E+00
         0.00000E+00
         0.00000E+00
         0.00000E+00
         0.00000E+00
         0.00000E+00
         0.00000E+00
         0.00000E+00
         0.00000E+00
         0.00000E+00
         0.00000E+00
         0.00000E+00
         0.00000E+00
         0.00000E+00
         0.00000E+00
         0.00000E+00
         0.00000E+00
         0.00000E+00
         0.00000E+00
         0.00000E+00
         0.00000E+00
         0.00000E+00
         0.00000E+00
         0.00000E+00
         0.00000E+00
         0.00000E+00
         0.00000E+00
         0.00000E+00
         0.00000E+00
         0.00000E+00
         0.00000E+00
         0.00000E+00
         0.00000E+00
         0.00000E+00
         0.00000E+00
         0.00000E+00
         0.00000E+00
         0.00000E+00
         0.00000E+00
         0.00000E+00
         0.00000E+00
         0.00000E+00
         0.00000E+00
         0.00000E+00
         0.00000E+00
         0.00000E+00
         0.00000E+00
         0.00000E+00
         0.00000E+00
         0.00000E+00
         0.00000E+00
         0.00000E+00
         0.00000E+00
         0.00000E+00
         0.00000E+00
         0.00000E+00
         0.00000E+00
         0.00000E+00
         0.00000E+00
         0.00000E+00
         0.00000E+00
         0.00000E+00
         0.00000E+00
         0.00000E+00
         0.00000E+00
         0.00000E+00
         0.00000E+00
         0.00000E+00
         0.00000E+00
         0.00000E+00
         0.00000E+00
         0.00000E+00
         0.00000E+00
         0.00000E+00
         0.00000E+00
         0.00000E+00
         0.00000E+00
         0.00000E+00
         0.00000E+00
         0.00000E+00
         0.00000E+00
         0.00000E+00
         0.00000E+00
         0.00000E+00
         0.00000E+00
         0.00000E+00
         0.00000E+00
         0.00000E+00
         0.00000E+00
         0.00000E+00
         0.00000E+00
         0.00000E+00
         0.00000E+00
         0.00000E+00
         0.00000E+00
         0.00000E+00
         0.00000E+00
         0.00000E+00
         0.00000E+00
         0.00000E+00
         0.00000E+00
         0.00000E+00
         0.00000E+00
         0.00000E+00
         0.00000E+00
         0.00000E+00
         0.00000E+00
         0.00000E+00
         0.00000E+00
         0.00000E+00
         0.00000E+00
         0.00000E+00
         0.00000E+00
         0.00000E+00
         0.00000E+00
         0.00000E+00
         0.00000E+00
         0.00000E+00
         0.00000E+00
         0.00000E+00
         0.00000E+00
         0.00000E+00
         0.00000E+00
         0.00000E+00
         0.00000E+00
         0.00000E+00
         0.00000E+00
         0.00000E+00
         0.00000E+00
         0.00000E+00
         0.00000E+00
         0.00000E+00
         0.00000E+00
         0.00000E+00
         0.00000E+00
         0.00000E+00
         0.00000E+00
         0.00000E+00
         0.00000E+00
         0.00000E+00
         0.00000E+00
         0.00000E+00
         0.00000E+00
         0.00000E+00
         0.00000E+00
         0.00000E+00
         0.00000E+00
         0.00000E+00
         0.00000E+00
         0.00000E+00
         0.00000E+00
         0.00000E+00
         0.00000E+00
         0.00000E+00
         0.00000E+00
         0.00000E+00
         0.00000E+00
         0.00000E+00
         0.00000E+00
         0.00000E+00
         0.00000E+00
         0.00000E+00
         0.00000E+00
         0.00000E+00
         0.00000E+00
         0.00000E+00
         0.00000E+00
         0.00000E+00
         0.00000E+00
         0.00000E+00
         0.00000E+00
         0.00000E+00
         0.00000E+00
         0.00000E+00
         0.00000E+00
         0.00000E+00
         0.00000E+00
         0.00000E+00
         0.00000E+00
         0.00000E+00
         0.00000E+00
         0.00000E+00
         0.00000E+00
         0.00000E+00
         0.00000E+00
         0.00000E+00
         0.00000E+00
         0.00000E+00
         0.00000E+00
         0.00000E+00
         0.00000E+00
         0.00000E+00
         0.00000E+00
         0.00000E+00
         0.00000E+00
         0.00000E+00
         0.00000E+00
         0.00000E+00
         0.00000E+00
         0.00000E+00
         0.00000E+00
         0.00000E+00
         0.00000E+00
         0.00000E+00
         0.00000E+00
         0.00000E+00
         0.00000E+00
         0.00000E+00
         0.00000E+00
         0.00000E+00
         0.00000E+00
         0.00000E+00
         0.00000E+00
         0.00000E+00
         0.00000E+00
         0.00000E+00
         0.00000E+00
         0.00000E+00
         0.00000E+00
         0.00000E+00
         0.00000E+00
         0.00000E+00
         0.00000E+00
         0.00000E+00
         0.00000E+00
         0.00000E+00
         0.00000E+00
         0.00000E+00
         0.00000E+00
         0.00000E+00
         0.00000E+00
         0.00000E+00
         0.00000E+00
         0.00000E+00
         0.00000E+00
         0.00000E+00
         0.00000E+00
         0.00000E+00
         0.00000E+00
         0.00000E+00
         0.00000E+00
         0.00000E+00
         0.00000E+00
         0.00000E+00
         0.00000E+00
         0.00000E+00
         0.00000E+00
         0.00000E+00
         0.00000E+00
         0.00000E+00
         0.00000E+00
         0.00000E+00
         0.00000E+00
         0.00000E+00
         0.00000E+00
         0.00000E+00
         0.00000E+00
         0.00000E+00
         0.00000E+00
         0.00000E+00
         0.00000E+00
         0.00000E+00
         0.00000E+00
         0.00000E+00
         0.00000E+00
         0.00000E+00
         0.00000E+00
         0.00000E+00
         0.00000E+00
         0.00000E+00
         0.00000E+00
         0.00000E+00
         0.00000E+00
         0.00000E+00
         0.00000E+00
         0.00000E+00
         0.00000E+00
         0.00000E+00
         0.00000E+00
         0.00000E+00
         0.00000E+00
         0.00000E+00
         0.00000E+00
         0.00000E+00
         0.00000E+00
         0.00000E+00
         0.00000E+00
         0.00000E+00
         0.00000E+00
         0.00000E+00
         0.00000E+00
         0.00000E+00
         0.00000E+00
         0.00000E+00
         0.00000E+00
         0.00000E+00
         0.00000E+00
         0.00000E+00
         0.00000E+00
         0.00000E+00
         0.00000E+00
         0.00000E+00
         0.00000E+00
         0.00000E+00
         0.00000E+00
         0.00000E+00
         0.00000E+00
         0.00000E+00
         0.00000E+00
         0.00000E+00
         0.00000E+00
         0.00000E+00
         0.00000E+00
         0.00000E+00
         0.00000E+00
         0.00000E+00
         0.00000E+00
         0.00000E+00
         0.00000E+00
         0.00000E+00
         0.00000E+00
         0.00000E+00
         0.00000E+00
         0.00000E+00
         0.00000E+00
         0.00000E+00
         0.00000E+00
         0.00000E+00
         0.00000E+00
         0.00000E+00
         0.00000E+00
         0.00000E+00
         0.00000E+00
         0.00000E+00
         0.00000E+00
         0.00000E+00
         0.00000E+00
         0.00000E+00
         0.00000E+00
         0.00000E+00
         0.00000E+00
         0.00000E+00
         0.00000E+00
         0.00000E+00
         0.00000E+00
         0.00000E+00
         0.00000E+00
         0.00000E+00
         0.00000E+00
         0.00000E+00
         0.00000E+00
         0.00000E+00
         0.00000E+00
         0.00000E+00
         0.00000E+00
         0.00000E+00
         0.00000E+00
         0.00000E+00
         0.00000E+00
         0.00000E+00
         0.00000E+00
         0.00000E+00
         0.00000E+00
         0.00000E+00
         0.00000E+00
         0.00000E+00
         0.00000E+00
         0.00000E+00
         0.00000E+00
         0.00000E+00
         0.00000E+00
         0.00000E+00
         0.00000E+00
         0.00000E+00
         0.00000E+00
         0.00000E+00
         0.00000E+00
         0.00000E+00
         0.00000E+00
         0.00000E+00
         0.00000E+00
         0.00000E+00
         0.00000E+00
         0.00000E+00
         0.00000E+00
         0.00000E+00
         0.00000E+00
         0.00000E+00
         0.00000E+00
         0.00000E+00
         0.00000E+00
         0.00000E+00
         0.00000E+00
         0.00000E+00
         0.00000E+00
         0.00000E+00
         0.00000E+00
         0.00000E+00
         0.00000E+00
         0.00000E+00
         0.00000E+00
         0.00000E+00
         0.00000E+00
         0.00000E+00
         0.00000E+00
         0.00000E+00
         0.00000E+00
         0.00000E+00
         0.00000E+00
         0.00000E+00
         0.00000E+00
         0.00000E+00
         0.00000E+00
         0.00000E+00
         0.00000E+00
         0.00000E+00
         0.00000E+00
         0.00000E+00
         0.00000E+00
         0.00000E+00
         0.00000E+00
         0.00000E+00
         0.00000E+00
         0.00000E+00
         0.00000E+00
         0.00000E+00
         0.00000E+00
         0.00000E+00
         0.00000E+00
         0.00000E+00
         0.00000E+00
         0.00000E+00
         0.00000E+00
         0.00000E+00
         0.00000E+00
         0.00000E+00
         0.00000E+00
         0.00000E+00
         0.00000E+00
         0.00000E+00
         0.00000E+00
         0.00000E+00
         0.00000E+00
         0.00000E+00
         0.00000E+00
         0.00000E+00
         0.00000E+00
         0.00000E+00
         0.00000E+00
         0.00000E+00
         0.00000E+00
         0.00000E+00
         0.00000E+00
         0.00000E+00
         0.00000E+00
         0.00000E+00
         0.00000E+00
         0.00000E+00
         0.00000E+00
         0.00000E+00
         0.00000E+00
         0.00000E+00
         0.00000E+00
         0.00000E+00
         0.00000E+00
         0.00000E+00
         0.00000E+00
         0.00000E+00
         0.00000E+00
         0.00000E+00
         0.00000E+00
         0.00000E+00
         0.00000E+00
         0.00000E+00
         0.00000E+00
         0.00000E+00
         0.00000E+00
         0.00000E+00
         0.00000E+00
         0.00000E+00
         0.00000E+00
         0.00000E+00
         0.00000E+00
         0.00000E+00
         0.00000E+00
         0.00000E+00
         0.00000E+00
         0.00000E+00
         0.00000E+00
         0.00000E+00
         0.00000E+00
         0.00000E+00
         0.00000E+00
         0.00000E+00
         0.00000E+00
         0.00000E+00
         0.00000E+00
         0.00000E+00
         0.00000E+00
         0.00000E+00
         0.00000E+00
         0.00000E+00
         0.00000E+00
         0.00000E+00
         0.00000E+00
         0.00000E+00
         0.00000E+00
         0.00000E+00
         0.00000E+00
         0.00000E+00
         0.00000E+00
         0.00000E+00
         0.00000E+00
         0.00000E+00
         0.00000E+00
         0.00000E+00
         0.00000E+00
         0.00000E+00
         0.00000E+00
         0.00000E+00
         0.00000E+00
         0.00000E+00
         0.00000E+00
         0.00000E+00
         0.00000E+00
         0.00000E+00
         0.00000E+00
         0.00000E+00
         0.00000E+00
         0.00000E+00
         0.00000E+00
         0.00000E+00
         0.00000E+00
         0.00000E+00
         0.00000E+00
         0.00000E+00
         0.00000E+00
         0.00000E+00
         0.00000E+00
         0.00000E+00
         0.00000E+00
         0.00000E+00
         0.00000E+00
         0.00000E+00
         0.00000E+00
         0.00000E+00
         0.00000E+00
         0.00000E+00
         0.00000E+00
         0.00000E+00
         0.00000E+00
         0.00000E+00
         0.00000E+00
         0.00000E+00
         0.00000E+00
         0.00000E+00
         0.00000E+00
         0.00000E+00
         0.00000E+00
         0.00000E+00
         0.00000E+00
         0.00000E+00
         0.00000E+00
         0.00000E+00
         0.00000E+00
         0.00000E+00
         0.00000E+00
         0.00000E+00
         0.00000E+00
         0.00000E+00
         0.00000E+00
         0.00000E+00
         0.00000E+00
         0.00000E+00
         0.00000E+00
         0.00000E+00
         0.00000E+00
         0.00000E+00
         0.00000E+00
         0.00000E+00
         0.00000E+00
         0.00000E+00
         0.00000E+00
         0.00000E+00
         0.00000E+00
         0.00000E+00
         0.00000E+00
         0.00000E+00
         0.00000E+00
         0.00000E+00
         0.00000E+00
         0.00000E+00
         0.00000E+00
         0.00000E+00
         0.00000E+00
         0.00000E+00
         0.00000E+00
         0.00000E+00
         0.00000E+00
         0.00000E+00
         0.00000E+00
         0.00000E+00
         0.00000E+00
         0.00000E+00
         0.00000E+00
         0.00000E+00
         0.00000E+00
         0.00000E+00
         0.00000E+00
         0.00000E+00
         0.00000E+00
         0.00000E+00
         0.00000E+00
         0.00000E+00
         0.00000E+00
         0.00000E+00
         0.00000E+00
         0.00000E+00
         0.00000E+00
         0.00000E+00
         0.00000E+00
         0.00000E+00
         0.00000E+00
         0.00000E+00
         0.00000E+00
         0.00000E+00
         0.00000E+00
         0.00000E+00
         0.00000E+00
         0.00000E+00
         0.00000E+00
         0.00000E+00
         0.00000E+00
         0.00000E+00
         0.00000E+00
         0.00000E+00
         0.00000E+00
         0.00000E+00
         0.00000E+00
         0.00000E+00
         0.00000E+00
         0.00000E+00
         0.00000E+00
         0.00000E+00
         0.00000E+00
         0.00000E+00
         0.00000E+00
         0.00000E+00
         0.00000E+00
         0.00000E+00
         0.00000E+00
         0.00000E+00
         0.00000E+00
         0.00000E+00
         0.00000E+00
         0.00000E+00
         0.00000E+00
         0.00000E+00
         0.00000E+00
         0.00000E+00
         0.00000E+00
         0.00000E+00
         0.00000E+00
         0.00000E+00
         0.00000E+00
         0.00000E+00
         0.00000E+00
         0.00000E+00
         0.00000E+00
         0.00000E+00
         0.00000E+00
         0.00000E+00
         0.00000E+00
         0.00000E+00
         0.00000E+00
         0.00000E+00
         0.00000E+00
         0.00000E+00
         0.00000E+00
         0.00000E+00
         0.00000E+00
         0.00000E+00
         0.00000E+00
         0.00000E+00
         0.00000E+00
         0.00000E+00
         0.00000E+00
         0.00000E+00
         0.00000E+00
         0.00000E+00
         0.00000E+00
         0.00000E+00
         0.00000E+00
         0.00000E+00
         0.00000E+00
         0.00000E+00
         0.00000E+00
         0.00000E+00
         0.00000E+00
         0.00000E+00
         0.00000E+00
         0.00000E+00
         0.00000E+00
         0.00000E+00
         0.00000E+00
         0.00000E+00
         0.00000E+00
         0.00000E+00
         0.00000E+00
         0.00000E+00
         0.00000E+00
         0.00000E+00
         0.00000E+00
         0.00000E+00
         0.00000E+00
         0.00000E+00
         0.00000E+00
         0.00000E+00
         0.00000E+00
         0.00000E+00
         0.00000E+00
         0.00000E+00
         0.00000E+00
         0.00000E+00
         0.00000E+00
         0.00000E+00
         0.00000E+00
         0.00000E+00
         0.00000E+00
         0.00000E+00
         0.00000E+00
         0.00000E+00
         0.00000E+00
         0.00000E+00
         0.00000E+00
         0.00000E+00
         0.00000E+00
         0.00000E+00
         0.00000E+00
         0.00000E+00
         0.00000E+00
         0.00000E+00
         0.00000E+00
         0.00000E+00
         0.00000E+00
         0.00000E+00
         0.00000E+00
         0.00000E+00
         0.00000E+00
         0.00000E+00
         0.00000E+00
         0.00000E+00
         0.00000E+00
         0.00000E+00
         0.00000E+00
         0.00000E+00
         0.00000E+00
         0.00000E+00
         0.00000E+00
         0.00000E+00
         0.00000E+00
         0.00000E+00
         0.00000E+00
         0.00000E+00
         0.00000E+00
         0.00000E+00
         0.00000E+00
         0.00000E+00
         0.00000E+00
         0.00000E+00
         0.00000E+00
         0.00000E+00
         0.00000E+00
         0.00000E+00
         0.00000E+00
         0.00000E+00
         0.00000E+00
         0.00000E+00
         0.00000E+00
         0.00000E+00
         0.00000E+00
         0.00000E+00
         0.00000E+00
         0.00000E+00
         0.00000E+00
         0.00000E+00
         0.00000E+00
         0.00000E+00
         0.00000E+00
         0.00000E+00
         0.00000E+00
         0.00000E+00
         0.00000E+00
         0.00000E+00
         0.00000E+00
         0.00000E+00
         0.00000E+00
         0.00000E+00
         0.00000E+00
         0.00000E+00
         0.00000E+00
         0.00000E+00
         0.00000E+00
         0.00000E+00
         0.00000E+00
         0.00000E+00
         0.00000E+00
         0.00000E+00
         0.00000E+00
         0.00000E+00
         0.00000E+00
         0.00000E+00
         0.00000E+00
         0.00000E+00
         0.00000E+00
         0.00000E+00
         0.00000E+00
         0.00000E+00
         0.00000E+00
         0.00000E+00
         0.00000E+00
         0.00000E+00
         0.00000E+00
         0.00000E+00
         0.00000E+00
         0.00000E+00
         0.00000E+00
         0.00000E+00
         0.00000E+00
         0.00000E+00
         0.00000E+00
         0.00000E+00
         0.00000E+00
         0.00000E+00
         0.00000E+00
         0.00000E+00
         0.00000E+00
         0.00000E+00
         0.00000E+00
         0.00000E+00
         0.00000E+00
         0.00000E+00
         0.00000E+00
         0.00000E+00
         0.00000E+00
         0.00000E+00
         0.00000E+00
         0.00000E+00
         0.00000E+00
         0.00000E+00
         0.00000E+00
         0.00000E+00
         0.00000E+00
         0.00000E+00
         0.00000E+00
         0.00000E+00
         0.00000E+00
         0.00000E+00
         0.00000E+00
         0.00000E+00
         0.00000E+00
         0.00000E+00
         0.00000E+00
         0.00000E+00
         0.00000E+00
         0.00000E+00
         0.00000E+00
         0.00000E+00
         0.00000E+00
         0.00000E+00
         0.00000E+00
         0.00000E+00
         0.00000E+00
         0.00000E+00
         0.00000E+00
         0.00000E+00
         0.00000E+00
         0.00000E+00
         0.00000E+00
         0.00000E+00
         0.00000E+00
         0.00000E+00
         0.00000E+00
         0.00000E+00
         0.00000E+00
         0.00000E+00
         0.00000E+00
         0.00000E+00
         0.00000E+00
         0.00000E+00
         0.00000E+00
         0.00000E+00
         0.00000E+00
         0.00000E+00
         0.00000E+00
         0.00000E+00
         0.00000E+00
         0.00000E+00
         0.00000E+00
         0.00000E+00
         0.00000E+00
         0.00000E+00
         0.00000E+00
         0.00000E+00
         0.00000E+00
         0.00000E+00
         0.00000E+00
         0.00000E+00
         0.00000E+00
         0.00000E+00
         0.00000E+00
         0.00000E+00
         0.00000E+00
         0.00000E+00
         0.00000E+00
         0.00000E+00
         0.00000E+00
         0.00000E+00
         0.00000E+00
         0.00000E+00
         0.00000E+00
         0.00000E+00
         0.00000E+00
         0.00000E+00
         0.00000E+00
         0.00000E+00
         0.00000E+00
         0.00000E+00
         0.00000E+00
         0.00000E+00
         0.00000E+00
         0.00000E+00
         0.00000E+00
         0.00000E+00
         0.00000E+00
         0.00000E+00
         0.00000E+00
         0.00000E+00
         0.00000E+00
         0.00000E+00
         0.00000E+00
         0.00000E+00
         0.00000E+00
         0.00000E+00
         0.00000E+00
         0.00000E+00
         0.00000E+00
         0.00000E+00
         0.00000E+00
         0.00000E+00
         0.00000E+00
         0.00000E+00
         0.00000E+00
         0.00000E+00
         0.00000E+00
         0.00000E+00
         0.00000E+00
         0.00000E+00
         0.00000E+00
         0.00000E+00
         0.00000E+00
         0.00000E+00
         0.00000E+00
         0.00000E+00
         0.00000E+00
         0.00000E+00
         0.00000E+00
         0.00000E+00
         0.00000E+00
         0.00000E+00
         0.00000E+00
         0.00000E+00
         0.00000E+00
         0.00000E+00
         0.00000E+00
         0.00000E+00
         0.00000E+00
         0.00000E+00
         0.00000E+00
         0.00000E+00
         0.00000E+00
         0.00000E+00
         0.00000E+00
         0.00000E+00
         0.00000E+00
         0.00000E+00
         0.00000E+00
         0.00000E+00
         0.00000E+00
         0.00000E+00
         0.00000E+00
         0.00000E+00
         0.00000E+00
         0.00000E+00
         0.00000E+00
         0.00000E+00
         0.00000E+00
         0.00000E+00
         0.00000E+00
         0.00000E+00
         0.00000E+00
         0.00000E+00
         0.00000E+00
         0.00000E+00
         0.00000E+00
         0.00000E+00
         0.00000E+00
         0.00000E+00
         0.00000E+00
         0.00000E+00
         0.00000E+00
         0.00000E+00
         0.00000E+00
         0.00000E+00
         0.00000E+00
         0.00000E+00
         0.00000E+00
         0.00000E+00
         0.00000E+00
         0.00000E+00
         0.00000E+00
         0.00000E+00
         0.00000E+00
         0.00000E+00
         0.00000E+00
         0.00000E+00
         0.00000E+00
         0.00000E+00
         0.00000E+00
         0.00000E+00
         0.00000E+00
         0.00000E+00
         0.00000E+00
         0.00000E+00
         0.00000E+00
         0.00000E+00
         0.00000E+00
         0.00000E+00
         0.00000E+00
         0.00000E+00
         0.00000E+00
         0.00000E+00
         0.00000E+00
         0.00000E+00
         0.00000E+00
         0.00000E+00
         0.00000E+00
         0.00000E+00
         0.00000E+00
         0.00000E+00
         0.00000E+00
         0.00000E+00
         0.00000E+00
         0.00000E+00
         0.00000E+00
         0.00000E+00
         0.00000E+00
         0.00000E+00
         0.00000E+00
         0.00000E+00
         0.00000E+00
         0.00000E+00
         0.00000E+00
         0.00000E+00
         0.00000E+00
         0.00000E+00
         0.00000E+00
         0.00000E+00
         0.00000E+00
         0.00000E+00
         0.00000E+00
         0.00000E+00
         0.00000E+00
         0.00000E+00
         0.00000E+00
         0.00000E+00
         0.00000E+00
         0.00000E+00
         0.00000E+00
         0.00000E+00
         0.00000E+00
         0.00000E+00
         0.00000E+00
         0.00000E+00
         0.00000E+00
         0.00000E+00
         0.00000E+00
         0.00000E+00
         0.00000E+00
         0.00000E+00
         0.00000E+00
         0.00000E+00
         0.00000E+00
         0.00000E+00
         0.00000E+00
         0.00000E+00
         0.00000E+00
         0.00000E+00
         0.00000E+00
         0.00000E+00
         0.00000E+00
         0.00000E+00
         0.00000E+00
         0.00000E+00
         0.00000E+00
         0.00000E+00
         0.00000E+00
         0.00000E+00
         0.00000E+00
         0.00000E+00
         0.00000E+00
         0.00000E+00
         0.00000E+00
         0.00000E+00
         0.00000E+00
         0.00000E+00
         0.00000E+00
         0.00000E+00
         0.00000E+00
         0.00000E+00
         0.00000E+00
         0.00000E+00
         0.00000E+00
         0.00000E+00
         0.00000E+00
         0.00000E+00
         0.00000E+00
         0.00000E+00
         0.00000E+00
         0.00000E+00
         0.00000E+00
         0.00000E+00
         0.00000E+00
         0.00000E+00
         0.00000E+00
         0.00000E+00
         0.00000E+00
         0.00000E+00
         0.00000E+00
         0.00000E+00
         0.00000E+00
         0.00000E+00
         0.00000E+00
         0.00000E+00
         0.00000E+00
         0.00000E+00
         0.00000E+00
         0.00000E+00
         0.00000E+00
         0.00000E+00
         0.00000E+00
         0.00000E+00
         0.00000E+00
         0.00000E+00
         0.00000E+00
         0.00000E+00
         0.00000E+00
         0.00000E+00
         0.00000E+00
         0.00000E+00
         0.00000E+00
         0.00000E+00
         0.00000E+00
         0.00000E+00
         0.00000E+00
         0.00000E+00
         0.00000E+00
         0.00000E+00
         0.00000E+00
         0.00000E+00
         0.00000E+00
         0.00000E+00
         0.00000E+00
         0.00000E+00
         0.00000E+00
         0.00000E+00
         0.00000E+00
         0.00000E+00
         0.00000E+00
         0.00000E+00
         0.00000E+00
         0.00000E+00
         0.00000E+00
         0.00000E+00
         0.00000E+00
         0.00000E+00
         0.00000E+00
         0.00000E+00
         0.00000E+00
         0.00000E+00
         0.00000E+00
         0.00000E+00
         0.00000E+00
         0.00000E+00
         0.00000E+00
         0.00000E+00
         0.00000E+00
         0.00000E+00
         0.00000E+00
         0.00000E+00
         0.00000E+00
         0.00000E+00
         0.00000E+00
         0.00000E+00
         0.00000E+00
         0.00000E+00
         0.00000E+00
         0.00000E+00
         0.00000E+00
         0.00000E+00
         0.00000E+00
         0.00000E+00
         0.00000E+00
         0.00000E+00
         0.00000E+00
         0.00000E+00
         0.00000E+00
         0.00000E+00
         0.00000E+00
         0.00000E+00
         0.00000E+00
         0.00000E+00
         0.00000E+00
         0.00000E+00
         0.00000E+00
         0.00000E+00
         0.00000E+00
         0.00000E+00
         0.00000E+00
         0.00000E+00
         0.00000E+00
         0.00000E+00
         0.00000E+00
         0.00000E+00
         0.00000E+00
         0.00000E+00
         0.00000E+00
         0.00000E+00
         0.00000E+00
         0.00000E+00
         0.00000E+00
         0.00000E+00
         0.00000E+00
         0.00000E+00
         0.00000E+00
         0.00000E+00
         0.00000E+00
         0.00000E+00
         0.00000E+00
         0.00000E+00
         0.00000E+00
         0.00000E+00
         0.00000E+00
         0.00000E+00
         0.00000E+00
         0.00000E+00
         0.00000E+00
         0.00000E+00
         0.00000E+00
         0.00000E+00
         0.00000E+00
         0.00000E+00
         0.00000E+00
         0.00000E+00
         0.00000E+00
         0.00000E+00
         0.00000E+00
         0.00000E+00
         0.00000E+00
         0.00000E+00
         0.00000E+00
         0.00000E+00
         0.00000E+00
         0.00000E+00
         0.00000E+00
         0.00000E+00
         0.00000E+00
         0.00000E+00
         0.00000E+00
         0.00000E+00
         0.00000E+00
         0.00000E+00
         0.00000E+00
         0.00000E+00
         0.00000E+00
         0.00000E+00
         0.00000E+00
         0.00000E+00
         0.00000E+00
         0.00000E+00
         0.00000E+00
         0.00000E+00
         0.00000E+00
         0.00000E+00
         0.00000E+00
         0.00000E+00
         0.00000E+00
         0.00000E+00
         0.00000E+00
         0.00000E+00
         0.00000E+00
         0.00000E+00
         0.00000E+00
         0.00000E+00
         0.00000E+00
         0.00000E+00
         0.00000E+00
         0.00000E+00
         0.00000E+00
         0.00000E+00
         0.00000E+00
         0.00000E+00
         0.00000E+00
         0.00000E+00
         0.00000E+00
         0.00000E+00
         0.00000E+00
         0.00000E+00
         0.00000E+00
         0.00000E+00
         0.00000E+00
         0.00000E+00
         0.00000E+00
         0.00000E+00
         0.00000E+00
         0.00000E+00
         0.00000E+00
         0.00000E+00
         0.00000E+00
         0.00000E+00
         0.00000E+00
         0.00000E+00
         0.00000E+00
         0.00000E+00
         0.00000E+00
         0.00000E+00
         0.00000E+00
         0.00000E+00
         0.00000E+00
         0.00000E+00
         0.00000E+00
         0.00000E+00
         0.00000E+00
         0.00000E+00
         0.00000E+00
         0.00000E+00
         0.00000E+00
         0.00000E+00
         0.00000E+00
         0.00000E+00
         0.00000E+00
         0.00000E+00
         0.00000E+00
         0.00000E+00
         0.00000E+00
         0.00000E+00
         0.00000E+00
         0.00000E+00
         0.00000E+00
         0.00000E+00
         0.00000E+00
         0.00000E+00
         0.00000E+00
         0.00000E+00
         0.00000E+00
         0.00000E+00
         0.00000E+00
         0.00000E+00
         0.00000E+00
         0.00000E+00
         0.00000E+00
         0.00000E+00
         0.00000E+00
         0.00000E+00
         0.00000E+00
         0.00000E+00
         0.00000E+00
         0.00000E+00
         0.00000E+00
         0.00000E+00
         0.00000E+00
         0.00000E+00
         0.00000E+00
         0.00000E+00
         0.00000E+00
         0.00000E+00
         0.00000E+00
         0.00000E+00
         0.00000E+00
         0.00000E+00
         0.00000E+00
         0.00000E+00
         0.00000E+00
         0.00000E+00
         0.00000E+00
         0.00000E+00
         0.00000E+00
         0.00000E+00
         0.00000E+00
         0.00000E+00
         0.00000E+00
         0.00000E+00
         0.00000E+00
         0.00000E+00
         0.00000E+00
         0.00000E+00
         0.00000E+00
         0.00000E+00
         0.00000E+00
         0.00000E+00
         0.00000E+00
         0.00000E+00
         0.00000E+00
         0.00000E+00
         0.00000E+00
         0.00000E+00
         0.00000E+00
         0.00000E+00
         0.00000E+00
         0.00000E+00
         0.00000E+00
         0.00000E+00
         0.00000E+00
         0.00000E+00
         0.00000E+00
         0.00000E+00
         0.00000E+00
         0.00000E+00
         0.00000E+00
         0.00000E+00
         0.00000E+00
         0.00000E+00
         0.00000E+00
         0.00000E+00
         0.00000E+00
         0.00000E+00
         0.00000E+00
         0.00000E+00
         0.00000E+00
         0.00000E+00
         0.00000E+00
         0.00000E+00
         0.00000E+00
         0.00000E+00
         0.00000E+00
         0.00000E+00
         0.00000E+00
         0.00000E+00
         0.00000E+00
         0.00000E+00
         0.00000E+00
         0.00000E+00
         0.00000E+00
         0.00000E+00
         0.00000E+00
         0.00000E+00
         0.00000E+00
         0.00000E+00
         0.00000E+00
         0.00000E+00
         0.00000E+00
         0.00000E+00
         0.00000E+00
         0.00000E+00
         0.00000E+00
         0.00000E+00
         0.00000E+00
         0.00000E+00
         0.00000E+00
         0.00000E+00
         0.00000E+00
         0.00000E+00
         0.00000E+00
         0.00000E+00
         0.00000E+00
         0.00000E+00
         0.00000E+00
         0.00000E+00
         0.00000E+00
         0.00000E+00
         0.00000E+00
         0.00000E+00
         0.00000E+00
         0.00000E+00
         0.00000E+00
         0.00000E+00
         0.00000E+00
         0.00000E+00
         0.00000E+00
         0.00000E+00
         0.00000E+00
         0.00000E+00
         0.00000E+00
         0.00000E+00
         0.00000E+00
         0.00000E+00
         0.00000E+00
         0.00000E+00
         0.00000E+00
         0.00000E+00
         0.00000E+00
         0.00000E+00
         0.00000E+00
         0.00000E+00
         0.00000E+00
         0.00000E+00
         0.00000E+00
         0.00000E+00
         0.00000E+00
         0.00000E+00
         0.00000E+00
         0.00000E+00
         0.00000E+00
         0.00000E+00
         0.00000E+00
         0.00000E+00
         0.00000E+00
         0.00000E+00
         0.00000E+00
         0.00000E+00
         0.00000E+00
         0.00000E+00
         0.00000E+00
         0.00000E+00
         0.00000E+00
         0.00000E+00
         0.00000E+00
         0.00000E+00
         0.00000E+00
         0.00000E+00
         0.00000E+00
         0.00000E+00
         0.00000E+00
         0.00000E+00
         0.00000E+00
         0.00000E+00
         0.00000E+00
         0.00000E+00
         0.00000E+00
         0.00000E+00
         0.00000E+00
         0.00000E+00
         0.00000E+00
         0.00000E+00
         0.00000E+00
         0.00000E+00
         0.00000E+00
         0.00000E+00
         0.00000E+00
         0.00000E+00
         0.00000E+00
         0.00000E+00
         0.00000E+00
         0.00000E+00
         0.00000E+00
         0.00000E+00
         0.00000E+00
         0.00000E+00
         0.00000E+00
         0.00000E+00
         0.00000E+00
         0.00000E+00
         0.00000E+00
         0.00000E+00
         0.00000E+00
         0.00000E+00
         0.00000E+00
         0.00000E+00
         0.00000E+00
         0.00000E+00
         0.00000E+00
         0.00000E+00
         0.00000E+00
         0.00000E+00
         0.00000E+00
         0.00000E+00
         0.00000E+00
         0.00000E+00
         0.00000E+00
         0.00000E+00
         0.00000E+00
         0.00000E+00
         0.00000E+00
         0.00000E+00
         0.00000E+00
         0.00000E+00
         0.00000E+00
         0.00000E+00
         0.00000E+00
         0.00000E+00
         0.00000E+00
         0.00000E+00
         0.00000E+00
         0.00000E+00
         0.00000E+00
         0.00000E+00
         0.00000E+00
         0.00000E+00
         0.00000E+00
         0.00000E+00
         0.00000E+00
         0.00000E+00
         0.00000E+00
         0.00000E+00
         0.00000E+00
         0.00000E+00
         0.00000E+00
         0.00000E+00
         0.00000E+00
         0.00000E+00
         0.00000E+00
         0.00000E+00
         0.00000E+00
         0.00000E+00
         0.00000E+00
         0.00000E+00
         0.00000E+00
         0.00000E+00
         0.00000E+00
         0.00000E+00
         0.00000E+00
         0.00000E+00
         0.00000E+00
         0.00000E+00
         0.00000E+00
         0.00000E+00
         0.00000E+00
         0.00000E+00
         0.00000E+00
         0.00000E+00
         0.00000E+00
         0.00000E+00
         0.00000E+00
         0.00000E+00
         0.00000E+00
         0.00000E+00
         0.00000E+00
         0.00000E+00
         0.00000E+00
         0.00000E+00
         0.00000E+00
         0.00000E+00
         0.00000E+00
         0.00000E+00
         0.00000E+00
         0.00000E+00
         0.00000E+00
         0.00000E+00
         0.00000E+00
         0.00000E+00
         0.00000E+00
         0.00000E+00
         0.00000E+00
         0.00000E+00
         0.00000E+00
         0.00000E+00
         0.00000E+00
         0.00000E+00
         0.00000E+00
         0.00000E+00
         0.00000E+00
         0.00000E+00
         0.00000E+00
         0.00000E+00
         0.00000E+00
         0.00000E+00
         0.00000E+00
         0.00000E+00
         0.00000E+00
         0.00000E+00
         0.00000E+00
         0.00000E+00
         0.00000E+00
         0.00000E+00
         0.00000E+00
         0.00000E+00
         0.00000E+00
         0.00000E+00
         0.00000E+00
         0.00000E+00
         0.00000E+00
         0.00000E+00
         0.00000E+00
         0.00000E+00
         0.00000E+00
         0.00000E+00
         0.00000E+00
         0.00000E+00
         0.00000E+00
         0.00000E+00
         0.00000E+00
         0.00000E+00
         0.00000E+00
         0.00000E+00
         0.00000E+00
         0.00000E+00
         0.00000E+00
         0.00000E+00
         0.00000E+00
         0.00000E+00
         0.00000E+00
         0.00000E+00
         0.00000E+00
         0.00000E+00
         0.00000E+00
         0.00000E+00
         0.00000E+00
         0.00000E+00
         0.00000E+00
         0.00000E+00
         0.00000E+00
         0.00000E+00
         0.00000E+00
         0.00000E+00
         0.00000E+00
         0.00000E+00
         0.00000E+00
         0.00000E+00
         0.00000E+00
         0.00000E+00
         0.00000E+00
         0.00000E+00
         0.00000E+00
         0.00000E+00
         0.00000E+00
         0.00000E+00
         0.00000E+00
         0.00000E+00
         0.00000E+00
         0.00000E+00
         0.00000E+00
         0.00000E+00
         0.00000E+00
         0.00000E+00
         0.00000E+00
         0.00000E+00
  
SCALARS                 acceleration_z  double 1
LOOKUP_TABLE default
         0.00000E+00
         0.00000E+00
         0.00000E+00
         0.00000E+00
         0.00000E+00
         0.00000E+00
         0.00000E+00
         0.00000E+00
         0.00000E+00
         0.00000E+00
         0.00000E+00
         0.00000E+00
         0.00000E+00
         0.00000E+00
         0.00000E+00
         0.00000E+00
         0.00000E+00
         0.00000E+00
         0.00000E+00
         0.00000E+00
         0.00000E+00
         0.00000E+00
         0.00000E+00
         0.00000E+00
         0.00000E+00
         0.00000E+00
         0.00000E+00
         0.00000E+00
         0.00000E+00
         0.00000E+00
         0.00000E+00
         0.00000E+00
         0.00000E+00
         0.00000E+00
         0.00000E+00
         0.00000E+00
         0.00000E+00
         0.00000E+00
         0.00000E+00
         0.00000E+00
         0.00000E+00
         0.00000E+00
         0.00000E+00
         0.00000E+00
         0.00000E+00
         0.00000E+00
         0.00000E+00
         0.00000E+00
         0.00000E+00
         0.00000E+00
         0.00000E+00
         0.00000E+00
         0.00000E+00
         0.00000E+00
         0.00000E+00
         0.00000E+00
         0.00000E+00
         0.00000E+00
         0.00000E+00
         0.00000E+00
         0.00000E+00
         0.00000E+00
         0.00000E+00
         0.00000E+00
         0.00000E+00
         0.00000E+00
         0.00000E+00
         0.00000E+00
         0.00000E+00
         0.00000E+00
         0.00000E+00
         0.00000E+00
         0.00000E+00
         0.00000E+00
         0.00000E+00
         0.00000E+00
         0.00000E+00
         0.00000E+00
         0.00000E+00
         0.00000E+00
         0.00000E+00
         0.00000E+00
         0.00000E+00
         0.00000E+00
         0.00000E+00
         0.00000E+00
         0.00000E+00
         0.00000E+00
         0.00000E+00
         0.00000E+00
         0.00000E+00
         0.00000E+00
         0.00000E+00
         0.00000E+00
         0.00000E+00
         0.00000E+00
         0.00000E+00
         0.00000E+00
         0.00000E+00
         0.00000E+00
         0.00000E+00
         0.00000E+00
         0.00000E+00
         0.00000E+00
         0.00000E+00
         0.00000E+00
         0.00000E+00
         0.00000E+00
         0.00000E+00
         0.00000E+00
         0.00000E+00
         0.00000E+00
         0.00000E+00
         0.00000E+00
         0.00000E+00
         0.00000E+00
         0.00000E+00
         0.00000E+00
         0.00000E+00
         0.00000E+00
         0.00000E+00
         0.00000E+00
         0.00000E+00
         0.00000E+00
         0.00000E+00
         0.00000E+00
         0.00000E+00
         0.00000E+00
         0.00000E+00
         0.00000E+00
         0.00000E+00
         0.00000E+00
         0.00000E+00
         0.00000E+00
         0.00000E+00
         0.00000E+00
         0.00000E+00
         0.00000E+00
         0.00000E+00
         0.00000E+00
         0.00000E+00
         0.00000E+00
         0.00000E+00
         0.00000E+00
         0.00000E+00
         0.00000E+00
         0.00000E+00
         0.00000E+00
         0.00000E+00
         0.00000E+00
         0.00000E+00
         0.00000E+00
         0.00000E+00
         0.00000E+00
         0.00000E+00
         0.00000E+00
         0.00000E+00
         0.00000E+00
         0.00000E+00
         0.00000E+00
         0.00000E+00
         0.00000E+00
         0.00000E+00
         0.00000E+00
         0.00000E+00
         0.00000E+00
         0.00000E+00
         0.00000E+00
         0.00000E+00
         0.00000E+00
         0.00000E+00
         0.00000E+00
         0.00000E+00
         0.00000E+00
         0.00000E+00
         0.00000E+00
         0.00000E+00
         0.00000E+00
         0.00000E+00
         0.00000E+00
         0.00000E+00
         0.00000E+00
         0.00000E+00
         0.00000E+00
         0.00000E+00
         0.00000E+00
         0.00000E+00
         0.00000E+00
         0.00000E+00
         0.00000E+00
         0.00000E+00
         0.00000E+00
         0.00000E+00
         0.00000E+00
         0.00000E+00
         0.00000E+00
         0.00000E+00
         0.00000E+00
         0.00000E+00
         0.00000E+00
         0.00000E+00
         0.00000E+00
         0.00000E+00
         0.00000E+00
         0.00000E+00
         0.00000E+00
         0.00000E+00
         0.00000E+00
         0.00000E+00
         0.00000E+00
         0.00000E+00
         0.00000E+00
         0.00000E+00
         0.00000E+00
         0.00000E+00
         0.00000E+00
         0.00000E+00
         0.00000E+00
         0.00000E+00
         0.00000E+00
         0.00000E+00
         0.00000E+00
         0.00000E+00
         0.00000E+00
         0.00000E+00
         0.00000E+00
         0.00000E+00
         0.00000E+00
         0.00000E+00
         0.00000E+00
         0.00000E+00
         0.00000E+00
         0.00000E+00
         0.00000E+00
         0.00000E+00
         0.00000E+00
         0.00000E+00
         0.00000E+00
         0.00000E+00
         0.00000E+00
         0.00000E+00
         0.00000E+00
         0.00000E+00
         0.00000E+00
         0.00000E+00
         0.00000E+00
         0.00000E+00
         0.00000E+00
         0.00000E+00
         0.00000E+00
         0.00000E+00
         0.00000E+00
         0.00000E+00
         0.00000E+00
         0.00000E+00
         0.00000E+00
         0.00000E+00
         0.00000E+00
         0.00000E+00
         0.00000E+00
         0.00000E+00
         0.00000E+00
         0.00000E+00
         0.00000E+00
         0.00000E+00
         0.00000E+00
         0.00000E+00
         0.00000E+00
         0.00000E+00
         0.00000E+00
         0.00000E+00
         0.00000E+00
         0.00000E+00
         0.00000E+00
         0.00000E+00
         0.00000E+00
         0.00000E+00
         0.00000E+00
         0.00000E+00
         0.00000E+00
         0.00000E+00
         0.00000E+00
         0.00000E+00
         0.00000E+00
         0.00000E+00
         0.00000E+00
         0.00000E+00
         0.00000E+00
         0.00000E+00
         0.00000E+00
         0.00000E+00
         0.00000E+00
         0.00000E+00
         0.00000E+00
         0.00000E+00
         0.00000E+00
         0.00000E+00
         0.00000E+00
         0.00000E+00
         0.00000E+00
         0.00000E+00
         0.00000E+00
         0.00000E+00
         0.00000E+00
         0.00000E+00
         0.00000E+00
         0.00000E+00
         0.00000E+00
         0.00000E+00
         0.00000E+00
         0.00000E+00
         0.00000E+00
         0.00000E+00
         0.00000E+00
         0.00000E+00
         0.00000E+00
         0.00000E+00
         0.00000E+00
         0.00000E+00
         0.00000E+00
         0.00000E+00
         0.00000E+00
         0.00000E+00
         0.00000E+00
         0.00000E+00
         0.00000E+00
         0.00000E+00
         0.00000E+00
         0.00000E+00
         0.00000E+00
         0.00000E+00
         0.00000E+00
         0.00000E+00
         0.00000E+00
         0.00000E+00
         0.00000E+00
         0.00000E+00
         0.00000E+00
         0.00000E+00
         0.00000E+00
         0.00000E+00
         0.00000E+00
         0.00000E+00
         0.00000E+00
         0.00000E+00
         0.00000E+00
         0.00000E+00
         0.00000E+00
         0.00000E+00
         0.00000E+00
         0.00000E+00
         0.00000E+00
         0.00000E+00
         0.00000E+00
         0.00000E+00
         0.00000E+00
         0.00000E+00
         0.00000E+00
         0.00000E+00
         0.00000E+00
         0.00000E+00
         0.00000E+00
         0.00000E+00
         0.00000E+00
         0.00000E+00
         0.00000E+00
         0.00000E+00
         0.00000E+00
         0.00000E+00
         0.00000E+00
         0.00000E+00
         0.00000E+00
         0.00000E+00
         0.00000E+00
         0.00000E+00
         0.00000E+00
         0.00000E+00
         0.00000E+00
         0.00000E+00
         0.00000E+00
         0.00000E+00
         0.00000E+00
         0.00000E+00
         0.00000E+00
         0.00000E+00
         0.00000E+00
         0.00000E+00
         0.00000E+00
         0.00000E+00
         0.00000E+00
         0.00000E+00
         0.00000E+00
         0.00000E+00
         0.00000E+00
         0.00000E+00
         0.00000E+00
         0.00000E+00
         0.00000E+00
         0.00000E+00
         0.00000E+00
         0.00000E+00
         0.00000E+00
         0.00000E+00
         0.00000E+00
         0.00000E+00
         0.00000E+00
         0.00000E+00
         0.00000E+00
         0.00000E+00
         0.00000E+00
         0.00000E+00
         0.00000E+00
         0.00000E+00
         0.00000E+00
         0.00000E+00
         0.00000E+00
         0.00000E+00
         0.00000E+00
         0.00000E+00
         0.00000E+00
         0.00000E+00
         0.00000E+00
         0.00000E+00
         0.00000E+00
         0.00000E+00
         0.00000E+00
         0.00000E+00
         0.00000E+00
         0.00000E+00
         0.00000E+00
         0.00000E+00
         0.00000E+00
         0.00000E+00
         0.00000E+00
         0.00000E+00
         0.00000E+00
         0.00000E+00
         0.00000E+00
         0.00000E+00
         0.00000E+00
         0.00000E+00
         0.00000E+00
         0.00000E+00
         0.00000E+00
         0.00000E+00
         0.00000E+00
         0.00000E+00
         0.00000E+00
         0.00000E+00
         0.00000E+00
         0.00000E+00
         0.00000E+00
         0.00000E+00
         0.00000E+00
         0.00000E+00
         0.00000E+00
         0.00000E+00
         0.00000E+00
         0.00000E+00
         0.00000E+00
         0.00000E+00
         0.00000E+00
         0.00000E+00
         0.00000E+00
         0.00000E+00
         0.00000E+00
         0.00000E+00
         0.00000E+00
         0.00000E+00
         0.00000E+00
         0.00000E+00
         0.00000E+00
         0.00000E+00
         0.00000E+00
         0.00000E+00
         0.00000E+00
         0.00000E+00
         0.00000E+00
         0.00000E+00
         0.00000E+00
         0.00000E+00
         0.00000E+00
         0.00000E+00
         0.00000E+00
         0.00000E+00
         0.00000E+00
         0.00000E+00
         0.00000E+00
         0.00000E+00
         0.00000E+00
         0.00000E+00
         0.00000E+00
         0.00000E+00
         0.00000E+00
         0.00000E+00
         0.00000E+00
         0.00000E+00
         0.00000E+00
         0.00000E+00
         0.00000E+00
         0.00000E+00
         0.00000E+00
         0.00000E+00
         0.00000E+00
         0.00000E+00
         0.00000E+00
         0.00000E+00
         0.00000E+00
         0.00000E+00
         0.00000E+00
         0.00000E+00
         0.00000E+00
         0.00000E+00
         0.00000E+00
         0.00000E+00
         0.00000E+00
         0.00000E+00
         0.00000E+00
         0.00000E+00
         0.00000E+00
         0.00000E+00
         0.00000E+00
         0.00000E+00
         0.00000E+00
         0.00000E+00
         0.00000E+00
         0.00000E+00
         0.00000E+00
         0.00000E+00
         0.00000E+00
         0.00000E+00
         0.00000E+00
         0.00000E+00
         0.00000E+00
         0.00000E+00
         0.00000E+00
         0.00000E+00
         0.00000E+00
         0.00000E+00
         0.00000E+00
         0.00000E+00
         0.00000E+00
         0.00000E+00
         0.00000E+00
         0.00000E+00
         0.00000E+00
         0.00000E+00
         0.00000E+00
         0.00000E+00
         0.00000E+00
         0.00000E+00
         0.00000E+00
         0.00000E+00
         0.00000E+00
         0.00000E+00
         0.00000E+00
         0.00000E+00
         0.00000E+00
         0.00000E+00
         0.00000E+00
         0.00000E+00
         0.00000E+00
         0.00000E+00
         0.00000E+00
         0.00000E+00
         0.00000E+00
         0.00000E+00
         0.00000E+00
         0.00000E+00
         0.00000E+00
         0.00000E+00
         0.00000E+00
         0.00000E+00
         0.00000E+00
         0.00000E+00
         0.00000E+00
         0.00000E+00
         0.00000E+00
         0.00000E+00
         0.00000E+00
         0.00000E+00
         0.00000E+00
         0.00000E+00
         0.00000E+00
         0.00000E+00
         0.00000E+00
         0.00000E+00
         0.00000E+00
         0.00000E+00
         0.00000E+00
         0.00000E+00
         0.00000E+00
         0.00000E+00
         0.00000E+00
         0.00000E+00
         0.00000E+00
         0.00000E+00
         0.00000E+00
         0.00000E+00
         0.00000E+00
         0.00000E+00
         0.00000E+00
         0.00000E+00
         0.00000E+00
         0.00000E+00
         0.00000E+00
         0.00000E+00
         0.00000E+00
         0.00000E+00
         0.00000E+00
         0.00000E+00
         0.00000E+00
         0.00000E+00
         0.00000E+00
         0.00000E+00
         0.00000E+00
         0.00000E+00
         0.00000E+00
         0.00000E+00
         0.00000E+00
         0.00000E+00
         0.00000E+00
         0.00000E+00
         0.00000E+00
         0.00000E+00
         0.00000E+00
         0.00000E+00
         0.00000E+00
         0.00000E+00
         0.00000E+00
         0.00000E+00
         0.00000E+00
         0.00000E+00
         0.00000E+00
         0.00000E+00
         0.00000E+00
         0.00000E+00
         0.00000E+00
         0.00000E+00
         0.00000E+00
         0.00000E+00
         0.00000E+00
         0.00000E+00
         0.00000E+00
         0.00000E+00
         0.00000E+00
         0.00000E+00
         0.00000E+00
         0.00000E+00
         0.00000E+00
         0.00000E+00
         0.00000E+00
         0.00000E+00
         0.00000E+00
         0.00000E+00
         0.00000E+00
         0.00000E+00
         0.00000E+00
         0.00000E+00
         0.00000E+00
         0.00000E+00
         0.00000E+00
         0.00000E+00
         0.00000E+00
         0.00000E+00
         0.00000E+00
         0.00000E+00
         0.00000E+00
         0.00000E+00
         0.00000E+00
         0.00000E+00
         0.00000E+00
         0.00000E+00
         0.00000E+00
         0.00000E+00
         0.00000E+00
         0.00000E+00
         0.00000E+00
         0.00000E+00
         0.00000E+00
         0.00000E+00
         0.00000E+00
         0.00000E+00
         0.00000E+00
         0.00000E+00
         0.00000E+00
         0.00000E+00
         0.00000E+00
         0.00000E+00
         0.00000E+00
         0.00000E+00
         0.00000E+00
         0.00000E+00
         0.00000E+00
         0.00000E+00
         0.00000E+00
         0.00000E+00
         0.00000E+00
         0.00000E+00
         0.00000E+00
         0.00000E+00
         0.00000E+00
         0.00000E+00
         0.00000E+00
         0.00000E+00
         0.00000E+00
         0.00000E+00
         0.00000E+00
         0.00000E+00
         0.00000E+00
         0.00000E+00
         0.00000E+00
         0.00000E+00
         0.00000E+00
         0.00000E+00
         0.00000E+00
         0.00000E+00
         0.00000E+00
         0.00000E+00
         0.00000E+00
         0.00000E+00
         0.00000E+00
         0.00000E+00
         0.00000E+00
         0.00000E+00
         0.00000E+00
         0.00000E+00
         0.00000E+00
         0.00000E+00
         0.00000E+00
         0.00000E+00
         0.00000E+00
         0.00000E+00
         0.00000E+00
         0.00000E+00
         0.00000E+00
         0.00000E+00
         0.00000E+00
         0.00000E+00
         0.00000E+00
         0.00000E+00
         0.00000E+00
         0.00000E+00
         0.00000E+00
         0.00000E+00
         0.00000E+00
         0.00000E+00
         0.00000E+00
         0.00000E+00
         0.00000E+00
         0.00000E+00
         0.00000E+00
         0.00000E+00
         0.00000E+00
         0.00000E+00
         0.00000E+00
         0.00000E+00
         0.00000E+00
         0.00000E+00
         0.00000E+00
         0.00000E+00
         0.00000E+00
         0.00000E+00
         0.00000E+00
         0.00000E+00
         0.00000E+00
         0.00000E+00
         0.00000E+00
         0.00000E+00
         0.00000E+00
         0.00000E+00
         0.00000E+00
         0.00000E+00
         0.00000E+00
         0.00000E+00
         0.00000E+00
         0.00000E+00
         0.00000E+00
         0.00000E+00
         0.00000E+00
         0.00000E+00
         0.00000E+00
         0.00000E+00
         0.00000E+00
         0.00000E+00
         0.00000E+00
         0.00000E+00
         0.00000E+00
         0.00000E+00
         0.00000E+00
         0.00000E+00
         0.00000E+00
         0.00000E+00
         0.00000E+00
         0.00000E+00
         0.00000E+00
         0.00000E+00
         0.00000E+00
         0.00000E+00
         0.00000E+00
         0.00000E+00
         0.00000E+00
         0.00000E+00
         0.00000E+00
         0.00000E+00
         0.00000E+00
         0.00000E+00
         0.00000E+00
         0.00000E+00
         0.00000E+00
         0.00000E+00
         0.00000E+00
         0.00000E+00
         0.00000E+00
         0.00000E+00
         0.00000E+00
         0.00000E+00
         0.00000E+00
         0.00000E+00
         0.00000E+00
         0.00000E+00
         0.00000E+00
         0.00000E+00
         0.00000E+00
         0.00000E+00
         0.00000E+00
         0.00000E+00
         0.00000E+00
         0.00000E+00
         0.00000E+00
         0.00000E+00
         0.00000E+00
         0.00000E+00
         0.00000E+00
         0.00000E+00
         0.00000E+00
         0.00000E+00
         0.00000E+00
         0.00000E+00
         0.00000E+00
         0.00000E+00
         0.00000E+00
         0.00000E+00
         0.00000E+00
         0.00000E+00
         0.00000E+00
         0.00000E+00
         0.00000E+00
         0.00000E+00
         0.00000E+00
         0.00000E+00
         0.00000E+00
         0.00000E+00
         0.00000E+00
         0.00000E+00
         0.00000E+00
         0.00000E+00
         0.00000E+00
         0.00000E+00
         0.00000E+00
         0.00000E+00
         0.00000E+00
         0.00000E+00
         0.00000E+00
         0.00000E+00
         0.00000E+00
         0.00000E+00
         0.00000E+00
         0.00000E+00
         0.00000E+00
         0.00000E+00
         0.00000E+00
         0.00000E+00
         0.00000E+00
         0.00000E+00
         0.00000E+00
         0.00000E+00
         0.00000E+00
         0.00000E+00
         0.00000E+00
         0.00000E+00
         0.00000E+00
         0.00000E+00
         0.00000E+00
         0.00000E+00
         0.00000E+00
         0.00000E+00
         0.00000E+00
         0.00000E+00
         0.00000E+00
         0.00000E+00
         0.00000E+00
         0.00000E+00
         0.00000E+00
         0.00000E+00
         0.00000E+00
         0.00000E+00
         0.00000E+00
         0.00000E+00
         0.00000E+00
         0.00000E+00
         0.00000E+00
         0.00000E+00
         0.00000E+00
         0.00000E+00
         0.00000E+00
         0.00000E+00
         0.00000E+00
         0.00000E+00
         0.00000E+00
         0.00000E+00
         0.00000E+00
         0.00000E+00
         0.00000E+00
         0.00000E+00
         0.00000E+00
         0.00000E+00
         0.00000E+00
         0.00000E+00
         0.00000E+00
         0.00000E+00
         0.00000E+00
         0.00000E+00
         0.00000E+00
         0.00000E+00
         0.00000E+00
         0.00000E+00
         0.00000E+00
         0.00000E+00
         0.00000E+00
         0.00000E+00
         0.00000E+00
         0.00000E+00
         0.00000E+00
         0.00000E+00
         0.00000E+00
         0.00000E+00
         0.00000E+00
         0.00000E+00
         0.00000E+00
         0.00000E+00
         0.00000E+00
         0.00000E+00
         0.00000E+00
         0.00000E+00
         0.00000E+00
         0.00000E+00
         0.00000E+00
         0.00000E+00
         0.00000E+00
         0.00000E+00
         0.00000E+00
         0.00000E+00
         0.00000E+00
         0.00000E+00
         0.00000E+00
         0.00000E+00
         0.00000E+00
         0.00000E+00
         0.00000E+00
         0.00000E+00
         0.00000E+00
         0.00000E+00
         0.00000E+00
         0.00000E+00
         0.00000E+00
         0.00000E+00
         0.00000E+00
         0.00000E+00
         0.00000E+00
         0.00000E+00
         0.00000E+00
         0.00000E+00
         0.00000E+00
         0.00000E+00
         0.00000E+00
         0.00000E+00
         0.00000E+00
         0.00000E+00
         0.00000E+00
         0.00000E+00
         0.00000E+00
         0.00000E+00
         0.00000E+00
         0.00000E+00
         0.00000E+00
         0.00000E+00
         0.00000E+00
         0.00000E+00
         0.00000E+00
         0.00000E+00
         0.00000E+00
         0.00000E+00
         0.00000E+00
         0.00000E+00
         0.00000E+00
         0.00000E+00
         0.00000E+00
         0.00000E+00
         0.00000E+00
         0.00000E+00
         0.00000E+00
         0.00000E+00
         0.00000E+00
         0.00000E+00
         0.00000E+00
         0.00000E+00
         0.00000E+00
         0.00000E+00
         0.00000E+00
         0.00000E+00
         0.00000E+00
         0.00000E+00
         0.00000E+00
         0.00000E+00
         0.00000E+00
         0.00000E+00
         0.00000E+00
         0.00000E+00
         0.00000E+00
         0.00000E+00
         0.00000E+00
         0.00000E+00
         0.00000E+00
         0.00000E+00
         0.00000E+00
         0.00000E+00
         0.00000E+00
         0.00000E+00
         0.00000E+00
         0.00000E+00
         0.00000E+00
         0.00000E+00
         0.00000E+00
         0.00000E+00
         0.00000E+00
         0.00000E+00
         0.00000E+00
         0.00000E+00
         0.00000E+00
         0.00000E+00
         0.00000E+00
         0.00000E+00
         0.00000E+00
         0.00000E+00
         0.00000E+00
         0.00000E+00
         0.00000E+00
         0.00000E+00
         0.00000E+00
         0.00000E+00
         0.00000E+00
         0.00000E+00
         0.00000E+00
         0.00000E+00
         0.00000E+00
         0.00000E+00
         0.00000E+00
         0.00000E+00
         0.00000E+00
         0.00000E+00
         0.00000E+00
         0.00000E+00
         0.00000E+00
         0.00000E+00
         0.00000E+00
         0.00000E+00
         0.00000E+00
         0.00000E+00
         0.00000E+00
         0.00000E+00
         0.00000E+00
         0.00000E+00
         0.00000E+00
         0.00000E+00
         0.00000E+00
         0.00000E+00
         0.00000E+00
         0.00000E+00
         0.00000E+00
         0.00000E+00
         0.00000E+00
         0.00000E+00
         0.00000E+00
         0.00000E+00
         0.00000E+00
         0.00000E+00
         0.00000E+00
         0.00000E+00
         0.00000E+00
         0.00000E+00
         0.00000E+00
         0.00000E+00
         0.00000E+00
         0.00000E+00
         0.00000E+00
         0.00000E+00
         0.00000E+00
         0.00000E+00
         0.00000E+00
         0.00000E+00
         0.00000E+00
         0.00000E+00
         0.00000E+00
         0.00000E+00
         0.00000E+00
         0.00000E+00
         0.00000E+00
         0.00000E+00
         0.00000E+00
         0.00000E+00
         0.00000E+00
         0.00000E+00
         0.00000E+00
         0.00000E+00
         0.00000E+00
         0.00000E+00
         0.00000E+00
         0.00000E+00
         0.00000E+00
         0.00000E+00
         0.00000E+00
         0.00000E+00
         0.00000E+00
         0.00000E+00
         0.00000E+00
         0.00000E+00
         0.00000E+00
         0.00000E+00
         0.00000E+00
         0.00000E+00
         0.00000E+00
         0.00000E+00
         0.00000E+00
         0.00000E+00
         0.00000E+00
         0.00000E+00
         0.00000E+00
         0.00000E+00
         0.00000E+00
         0.00000E+00
         0.00000E+00
         0.00000E+00
         0.00000E+00
         0.00000E+00
         0.00000E+00
         0.00000E+00
         0.00000E+00
         0.00000E+00
         0.00000E+00
         0.00000E+00
         0.00000E+00
         0.00000E+00
         0.00000E+00
         0.00000E+00
         0.00000E+00
         0.00000E+00
         0.00000E+00
         0.00000E+00
         0.00000E+00
         0.00000E+00
         0.00000E+00
         0.00000E+00
         0.00000E+00
         0.00000E+00
         0.00000E+00
         0.00000E+00
         0.00000E+00
         0.00000E+00
         0.00000E+00
         0.00000E+00
         0.00000E+00
         0.00000E+00
         0.00000E+00
         0.00000E+00
         0.00000E+00
         0.00000E+00
         0.00000E+00
         0.00000E+00
         0.00000E+00
         0.00000E+00
         0.00000E+00
         0.00000E+00
         0.00000E+00
         0.00000E+00
         0.00000E+00
         0.00000E+00
         0.00000E+00
         0.00000E+00
         0.00000E+00
         0.00000E+00
         0.00000E+00
         0.00000E+00
         0.00000E+00
         0.00000E+00
         0.00000E+00
         0.00000E+00
         0.00000E+00
         0.00000E+00
         0.00000E+00
         0.00000E+00
         0.00000E+00
         0.00000E+00
         0.00000E+00
         0.00000E+00
         0.00000E+00
         0.00000E+00
         0.00000E+00
         0.00000E+00
         0.00000E+00
         0.00000E+00
         0.00000E+00
         0.00000E+00
         0.00000E+00
         0.00000E+00
         0.00000E+00
         0.00000E+00
         0.00000E+00
         0.00000E+00
         0.00000E+00
         0.00000E+00
         0.00000E+00
         0.00000E+00
         0.00000E+00
         0.00000E+00
         0.00000E+00
         0.00000E+00
         0.00000E+00
         0.00000E+00
         0.00000E+00
         0.00000E+00
         0.00000E+00
         0.00000E+00
         0.00000E+00
         0.00000E+00
         0.00000E+00
         0.00000E+00
         0.00000E+00
         0.00000E+00
         0.00000E+00
         0.00000E+00
         0.00000E+00
         0.00000E+00
         0.00000E+00
         0.00000E+00
         0.00000E+00
         0.00000E+00
         0.00000E+00
         0.00000E+00
         0.00000E+00
         0.00000E+00
         0.00000E+00
         0.00000E+00
         0.00000E+00
         0.00000E+00
         0.00000E+00
         0.00000E+00
         0.00000E+00
         0.00000E+00
         0.00000E+00
         0.00000E+00
         0.00000E+00
         0.00000E+00
         0.00000E+00
         0.00000E+00
         0.00000E+00
         0.00000E+00
         0.00000E+00
         0.00000E+00
         0.00000E+00
         0.00000E+00
         0.00000E+00
         0.00000E+00
         0.00000E+00
         0.00000E+00
         0.00000E+00
         0.00000E+00
         0.00000E+00
         0.00000E+00
         0.00000E+00
         0.00000E+00
         0.00000E+00
         0.00000E+00
         0.00000E+00
         0.00000E+00
         0.00000E+00
         0.00000E+00
         0.00000E+00
         0.00000E+00
         0.00000E+00
         0.00000E+00
         0.00000E+00
         0.00000E+00
         0.00000E+00
         0.00000E+00
         0.00000E+00
         0.00000E+00
         0.00000E+00
         0.00000E+00
         0.00000E+00
         0.00000E+00
         0.00000E+00
         0.00000E+00
         0.00000E+00
         0.00000E+00
         0.00000E+00
         0.00000E+00
         0.00000E+00
         0.00000E+00
         0.00000E+00
         0.00000E+00
         0.00000E+00
         0.00000E+00
         0.00000E+00
         0.00000E+00
         0.00000E+00
         0.00000E+00
         0.00000E+00
         0.00000E+00
         0.00000E+00
         0.00000E+00
         0.00000E+00
         0.00000E+00
         0.00000E+00
         0.00000E+00
         0.00000E+00
         0.00000E+00
         0.00000E+00
         0.00000E+00
         0.00000E+00
         0.00000E+00
         0.00000E+00
         0.00000E+00
         0.00000E+00
         0.00000E+00
         0.00000E+00
         0.00000E+00
         0.00000E+00
         0.00000E+00
         0.00000E+00
         0.00000E+00
         0.00000E+00
         0.00000E+00
         0.00000E+00
         0.00000E+00
         0.00000E+00
         0.00000E+00
         0.00000E+00
         0.00000E+00
         0.00000E+00
         0.00000E+00
         0.00000E+00
         0.00000E+00
         0.00000E+00
         0.00000E+00
         0.00000E+00
         0.00000E+00
         0.00000E+00
         0.00000E+00
         0.00000E+00
         0.00000E+00
         0.00000E+00
         0.00000E+00
         0.00000E+00
         0.00000E+00
         0.00000E+00
         0.00000E+00
         0.00000E+00
         0.00000E+00
         0.00000E+00
         0.00000E+00
         0.00000E+00
         0.00000E+00
         0.00000E+00
         0.00000E+00
         0.00000E+00
         0.00000E+00
         0.00000E+00
         0.00000E+00
         0.00000E+00
         0.00000E+00
         0.00000E+00
         0.00000E+00
         0.00000E+00
         0.00000E+00
         0.00000E+00
         0.00000E+00
         0.00000E+00
         0.00000E+00
         0.00000E+00
         0.00000E+00
         0.00000E+00
         0.00000E+00
         0.00000E+00
         0.00000E+00
         0.00000E+00
         0.00000E+00
         0.00000E+00
         0.00000E+00
         0.00000E+00
         0.00000E+00
         0.00000E+00
         0.00000E+00
         0.00000E+00
         0.00000E+00
         0.00000E+00
         0.00000E+00
         0.00000E+00
         0.00000E+00
         0.00000E+00
         0.00000E+00
         0.00000E+00
         0.00000E+00
         0.00000E+00
         0.00000E+00
         0.00000E+00
         0.00000E+00
         0.00000E+00
         0.00000E+00
         0.00000E+00
         0.00000E+00
         0.00000E+00
         0.00000E+00
         0.00000E+00
         0.00000E+00
         0.00000E+00
         0.00000E+00
         0.00000E+00
         0.00000E+00
         0.00000E+00
         0.00000E+00
         0.00000E+00
         0.00000E+00
         0.00000E+00
         0.00000E+00
         0.00000E+00
         0.00000E+00
         0.00000E+00
         0.00000E+00
         0.00000E+00
         0.00000E+00
         0.00000E+00
         0.00000E+00
         0.00000E+00
         0.00000E+00
         0.00000E+00
         0.00000E+00
         0.00000E+00
         0.00000E+00
         0.00000E+00
         0.00000E+00
         0.00000E+00
         0.00000E+00
         0.00000E+00
         0.00000E+00
         0.00000E+00
         0.00000E+00
         0.00000E+00
         0.00000E+00
         0.00000E+00
         0.00000E+00
         0.00000E+00
         0.00000E+00
         0.00000E+00
         0.00000E+00
         0.00000E+00
         0.00000E+00
         0.00000E+00
         0.00000E+00
         0.00000E+00
         0.00000E+00
         0.00000E+00
         0.00000E+00
         0.00000E+00
         0.00000E+00
         0.00000E+00
         0.00000E+00
         0.00000E+00
         0.00000E+00
         0.00000E+00
         0.00000E+00
         0.00000E+00
         0.00000E+00
         0.00000E+00
         0.00000E+00
         0.00000E+00
         0.00000E+00
         0.00000E+00
         0.00000E+00
         0.00000E+00
         0.00000E+00
         0.00000E+00
         0.00000E+00
         0.00000E+00
         0.00000E+00
         0.00000E+00
         0.00000E+00
         0.00000E+00
         0.00000E+00
         0.00000E+00
         0.00000E+00
         0.00000E+00
         0.00000E+00
         0.00000E+00
         0.00000E+00
         0.00000E+00
         0.00000E+00
         0.00000E+00
         0.00000E+00
         0.00000E+00
         0.00000E+00
         0.00000E+00
         0.00000E+00
         0.00000E+00
         0.00000E+00
         0.00000E+00
         0.00000E+00
         0.00000E+00
         0.00000E+00
         0.00000E+00
         0.00000E+00
         0.00000E+00
         0.00000E+00
         0.00000E+00
         0.00000E+00
         0.00000E+00
         0.00000E+00
         0.00000E+00
         0.00000E+00
         0.00000E+00
         0.00000E+00
         0.00000E+00
         0.00000E+00
         0.00000E+00
         0.00000E+00
         0.00000E+00
         0.00000E+00
         0.00000E+00
         0.00000E+00
         0.00000E+00
         0.00000E+00
         0.00000E+00
         0.00000E+00
         0.00000E+00
         0.00000E+00
         0.00000E+00
         0.00000E+00
         0.00000E+00
         0.00000E+00
         0.00000E+00
         0.00000E+00
         0.00000E+00
         0.00000E+00
         0.00000E+00
         0.00000E+00
         0.00000E+00
         0.00000E+00
         0.00000E+00
         0.00000E+00
         0.00000E+00
         0.00000E+00
         0.00000E+00
         0.00000E+00
         0.00000E+00
         0.00000E+00
         0.00000E+00
         0.00000E+00
         0.00000E+00
         0.00000E+00
         0.00000E+00
         0.00000E+00
         0.00000E+00
         0.00000E+00
         0.00000E+00
         0.00000E+00
         0.00000E+00
         0.00000E+00
         0.00000E+00
         0.00000E+00
         0.00000E+00
         0.00000E+00
         0.00000E+00
         0.00000E+00
         0.00000E+00
         0.00000E+00
         0.00000E+00
         0.00000E+00
         0.00000E+00
         0.00000E+00
         0.00000E+00
         0.00000E+00
         0.00000E+00
         0.00000E+00
         0.00000E+00
         0.00000E+00
         0.00000E+00
         0.00000E+00
         0.00000E+00
         0.00000E+00
         0.00000E+00
         0.00000E+00
         0.00000E+00
         0.00000E+00
         0.00000E+00
         0.00000E+00
         0.00000E+00
         0.00000E+00
         0.00000E+00
         0.00000E+00
         0.00000E+00
         0.00000E+00
         0.00000E+00
         0.00000E+00
         0.00000E+00
         0.00000E+00
         0.00000E+00
         0.00000E+00
         0.00000E+00
         0.00000E+00
         0.00000E+00
         0.00000E+00
         0.00000E+00
         0.00000E+00
         0.00000E+00
         0.00000E+00
         0.00000E+00
         0.00000E+00
         0.00000E+00
         0.00000E+00
         0.00000E+00
         0.00000E+00
         0.00000E+00
         0.00000E+00
         0.00000E+00
         0.00000E+00
         0.00000E+00
         0.00000E+00
         0.00000E+00
         0.00000E+00
         0.00000E+00
         0.00000E+00
         0.00000E+00
         0.00000E+00
         0.00000E+00
         0.00000E+00
         0.00000E+00
         0.00000E+00
         0.00000E+00
         0.00000E+00
         0.00000E+00
         0.00000E+00
         0.00000E+00
         0.00000E+00
         0.00000E+00
         0.00000E+00
         0.00000E+00
         0.00000E+00
         0.00000E+00
         0.00000E+00
         0.00000E+00
         0.00000E+00
         0.00000E+00
         0.00000E+00
         0.00000E+00
         0.00000E+00
         0.00000E+00
         0.00000E+00
         0.00000E+00
         0.00000E+00
         0.00000E+00
         0.00000E+00
         0.00000E+00
         0.00000E+00
         0.00000E+00
         0.00000E+00
         0.00000E+00
         0.00000E+00
         0.00000E+00
         0.00000E+00
         0.00000E+00
         0.00000E+00
         0.00000E+00
         0.00000E+00
         0.00000E+00
         0.00000E+00
         0.00000E+00
         0.00000E+00
         0.00000E+00
         0.00000E+00
         0.00000E+00
         0.00000E+00
         0.00000E+00
         0.00000E+00
         0.00000E+00
         0.00000E+00
         0.00000E+00
         0.00000E+00
         0.00000E+00
         0.00000E+00
         0.00000E+00
         0.00000E+00
         0.00000E+00
         0.00000E+00
         0.00000E+00
         0.00000E+00
         0.00000E+00
         0.00000E+00
         0.00000E+00
         0.00000E+00
         0.00000E+00
         0.00000E+00
         0.00000E+00
         0.00000E+00
         0.00000E+00
         0.00000E+00
         0.00000E+00
         0.00000E+00
         0.00000E+00
         0.00000E+00
         0.00000E+00
         0.00000E+00
         0.00000E+00
         0.00000E+00
         0.00000E+00
         0.00000E+00
         0.00000E+00
         0.00000E+00
         0.00000E+00
         0.00000E+00
         0.00000E+00
         0.00000E+00
         0.00000E+00
         0.00000E+00
         0.00000E+00
         0.00000E+00
         0.00000E+00
         0.00000E+00
         0.00000E+00
         0.00000E+00
         0.00000E+00
         0.00000E+00
         0.00000E+00
         0.00000E+00
         0.00000E+00
         0.00000E+00
         0.00000E+00
         0.00000E+00
         0.00000E+00
         0.00000E+00
         0.00000E+00
         0.00000E+00
         0.00000E+00
         0.00000E+00
         0.00000E+00
         0.00000E+00
         0.00000E+00
         0.00000E+00
         0.00000E+00
         0.00000E+00
         0.00000E+00
         0.00000E+00
         0.00000E+00
         0.00000E+00
         0.00000E+00
         0.00000E+00
         0.00000E+00
         0.00000E+00
         0.00000E+00
         0.00000E+00
         0.00000E+00
         0.00000E+00
         0.00000E+00
         0.00000E+00
         0.00000E+00
         0.00000E+00
         0.00000E+00
         0.00000E+00
         0.00000E+00
         0.00000E+00
         0.00000E+00
         0.00000E+00
         0.00000E+00
         0.00000E+00
         0.00000E+00
         0.00000E+00
         0.00000E+00
         0.00000E+00
         0.00000E+00
         0.00000E+00
         0.00000E+00
         0.00000E+00
         0.00000E+00
         0.00000E+00
         0.00000E+00
         0.00000E+00
         0.00000E+00
         0.00000E+00
         0.00000E+00
         0.00000E+00
         0.00000E+00
         0.00000E+00
         0.00000E+00
         0.00000E+00
         0.00000E+00
         0.00000E+00
         0.00000E+00
         0.00000E+00
         0.00000E+00
         0.00000E+00
         0.00000E+00
         0.00000E+00
         0.00000E+00
         0.00000E+00
         0.00000E+00
         0.00000E+00
         0.00000E+00
         0.00000E+00
         0.00000E+00
         0.00000E+00
         0.00000E+00
         0.00000E+00
         0.00000E+00
         0.00000E+00
         0.00000E+00
         0.00000E+00
         0.00000E+00
         0.00000E+00
         0.00000E+00
         0.00000E+00
         0.00000E+00
         0.00000E+00
         0.00000E+00
         0.00000E+00
         0.00000E+00
         0.00000E+00
         0.00000E+00
         0.00000E+00
         0.00000E+00
         0.00000E+00
         0.00000E+00
         0.00000E+00
         0.00000E+00
         0.00000E+00
         0.00000E+00
         0.00000E+00
         0.00000E+00
         0.00000E+00
         0.00000E+00
         0.00000E+00
         0.00000E+00
         0.00000E+00
         0.00000E+00
         0.00000E+00
         0.00000E+00
         0.00000E+00
         0.00000E+00
         0.00000E+00
         0.00000E+00
         0.00000E+00
         0.00000E+00
         0.00000E+00
         0.00000E+00
         0.00000E+00
         0.00000E+00
         0.00000E+00
         0.00000E+00
         0.00000E+00
         0.00000E+00
         0.00000E+00
         0.00000E+00
         0.00000E+00
         0.00000E+00
         0.00000E+00
         0.00000E+00
         0.00000E+00
         0.00000E+00
         0.00000E+00
         0.00000E+00
         0.00000E+00
         0.00000E+00
         0.00000E+00
         0.00000E+00
         0.00000E+00
         0.00000E+00
         0.00000E+00
         0.00000E+00
         0.00000E+00
         0.00000E+00
         0.00000E+00
         0.00000E+00
         0.00000E+00
         0.00000E+00
         0.00000E+00
         0.00000E+00
         0.00000E+00
         0.00000E+00
         0.00000E+00
         0.00000E+00
         0.00000E+00
         0.00000E+00
         0.00000E+00
         0.00000E+00
         0.00000E+00
         0.00000E+00
         0.00000E+00
         0.00000E+00
         0.00000E+00
         0.00000E+00
         0.00000E+00
         0.00000E+00
         0.00000E+00
         0.00000E+00
         0.00000E+00
         0.00000E+00
         0.00000E+00
         0.00000E+00
         0.00000E+00
         0.00000E+00
         0.00000E+00
         0.00000E+00
         0.00000E+00
         0.00000E+00
         0.00000E+00
         0.00000E+00
         0.00000E+00
         0.00000E+00
         0.00000E+00
         0.00000E+00
         0.00000E+00
         0.00000E+00
         0.00000E+00
         0.00000E+00
         0.00000E+00
         0.00000E+00
         0.00000E+00
         0.00000E+00
         0.00000E+00
         0.00000E+00
         0.00000E+00
         0.00000E+00
         0.00000E+00
         0.00000E+00
         0.00000E+00
         0.00000E+00
         0.00000E+00
         0.00000E+00
         0.00000E+00
         0.00000E+00
         0.00000E+00
         0.00000E+00
  
SCALARS                         fint_x  double 1
LOOKUP_TABLE default
         0.00000E+00
         0.00000E+00
         0.00000E+00
         0.00000E+00
         0.00000E+00
         0.00000E+00
         0.00000E+00
         0.00000E+00
         0.00000E+00
         0.00000E+00
         0.00000E+00
         0.00000E+00
         0.00000E+00
         0.00000E+00
         0.00000E+00
         0.00000E+00
         0.00000E+00
         0.00000E+00
         0.00000E+00
         0.00000E+00
         0.00000E+00
         0.00000E+00
         0.00000E+00
         0.00000E+00
         0.00000E+00
         0.00000E+00
         0.00000E+00
         0.00000E+00
         0.00000E+00
         0.00000E+00
         0.00000E+00
         0.00000E+00
         0.00000E+00
         0.00000E+00
         0.00000E+00
         0.00000E+00
         0.00000E+00
         0.00000E+00
         0.00000E+00
         0.00000E+00
         0.00000E+00
         0.00000E+00
         0.00000E+00
         0.00000E+00
         0.00000E+00
         0.00000E+00
         0.00000E+00
         0.00000E+00
         0.00000E+00
         0.00000E+00
         0.00000E+00
         0.00000E+00
         0.00000E+00
         0.00000E+00
         0.00000E+00
         0.00000E+00
         0.00000E+00
         0.00000E+00
         0.00000E+00
         0.00000E+00
         0.00000E+00
         0.00000E+00
         0.00000E+00
         0.00000E+00
         0.00000E+00
         0.00000E+00
         0.00000E+00
         0.00000E+00
         0.00000E+00
         0.00000E+00
         0.00000E+00
         0.00000E+00
         0.00000E+00
         0.00000E+00
         0.00000E+00
         0.00000E+00
         0.00000E+00
         0.00000E+00
         0.00000E+00
         0.00000E+00
         0.00000E+00
         0.00000E+00
         0.00000E+00
         0.00000E+00
         0.00000E+00
         0.00000E+00
         0.00000E+00
         0.00000E+00
         0.00000E+00
         0.00000E+00
         0.00000E+00
         0.00000E+00
         0.00000E+00
         0.00000E+00
         0.00000E+00
         0.00000E+00
         0.00000E+00
         0.00000E+00
         0.00000E+00
         0.00000E+00
         0.00000E+00
         0.00000E+00
         0.00000E+00
         0.00000E+00
         0.00000E+00
         0.00000E+00
         0.00000E+00
         0.00000E+00
         0.00000E+00
         0.00000E+00
         0.00000E+00
         0.00000E+00
         0.00000E+00
         0.00000E+00
         0.00000E+00
         0.00000E+00
         0.00000E+00
         0.00000E+00
         0.00000E+00
         0.00000E+00
         0.00000E+00
         0.00000E+00
         0.00000E+00
         0.00000E+00
         0.00000E+00
         0.00000E+00
         0.00000E+00
         0.00000E+00
         0.00000E+00
         0.00000E+00
         0.00000E+00
         0.00000E+00
         0.00000E+00
         0.00000E+00
         0.00000E+00
         0.00000E+00
         0.00000E+00
         0.00000E+00
         0.00000E+00
         0.00000E+00
         0.00000E+00
         0.00000E+00
         0.00000E+00
         0.00000E+00
         0.00000E+00
         0.00000E+00
         0.00000E+00
         0.00000E+00
         0.00000E+00
         0.00000E+00
         0.00000E+00
         0.00000E+00
         0.00000E+00
         0.00000E+00
         0.00000E+00
         0.00000E+00
         0.00000E+00
         0.00000E+00
         0.00000E+00
         0.00000E+00
         0.00000E+00
         0.00000E+00
         0.00000E+00
         0.00000E+00
         0.00000E+00
         0.00000E+00
         0.00000E+00
         0.00000E+00
         0.00000E+00
         0.00000E+00
         0.00000E+00
         0.00000E+00
         0.00000E+00
         0.00000E+00
         0.00000E+00
         0.00000E+00
         0.00000E+00
         0.00000E+00
         0.00000E+00
         0.00000E+00
         0.00000E+00
         0.00000E+00
         0.00000E+00
         0.00000E+00
         0.00000E+00
         0.00000E+00
         0.00000E+00
         0.00000E+00
         0.00000E+00
         0.00000E+00
         0.00000E+00
         0.00000E+00
         0.00000E+00
         0.00000E+00
         0.00000E+00
         0.00000E+00
         0.00000E+00
         0.00000E+00
         0.00000E+00
         0.00000E+00
         0.00000E+00
         0.00000E+00
         0.00000E+00
         0.00000E+00
         0.00000E+00
         0.00000E+00
         0.00000E+00
         0.00000E+00
         0.00000E+00
         0.00000E+00
         0.00000E+00
         0.00000E+00
         0.00000E+00
         0.00000E+00
         0.00000E+00
         0.00000E+00
         0.00000E+00
         0.00000E+00
         0.00000E+00
         0.00000E+00
         0.00000E+00
         0.00000E+00
         0.00000E+00
         0.00000E+00
         0.00000E+00
         0.00000E+00
         0.00000E+00
         0.00000E+00
         0.00000E+00
         0.00000E+00
         0.00000E+00
         0.00000E+00
         0.00000E+00
         0.00000E+00
         0.00000E+00
         0.00000E+00
         0.00000E+00
         0.00000E+00
         0.00000E+00
         0.00000E+00
         0.00000E+00
         0.00000E+00
         0.00000E+00
         0.00000E+00
         0.00000E+00
         0.00000E+00
         0.00000E+00
         0.00000E+00
         0.00000E+00
         0.00000E+00
         0.00000E+00
         0.00000E+00
         0.00000E+00
         0.00000E+00
         0.00000E+00
         0.00000E+00
         0.00000E+00
         0.00000E+00
         0.00000E+00
         0.00000E+00
         0.00000E+00
         0.00000E+00
         0.00000E+00
         0.00000E+00
         0.00000E+00
         0.00000E+00
         0.00000E+00
         0.00000E+00
         0.00000E+00
         0.00000E+00
         0.00000E+00
         0.00000E+00
         0.00000E+00
         0.00000E+00
         0.00000E+00
         0.00000E+00
         0.00000E+00
         0.00000E+00
         0.00000E+00
         0.00000E+00
         0.00000E+00
         0.00000E+00
         0.00000E+00
         0.00000E+00
         0.00000E+00
         0.00000E+00
         0.00000E+00
         0.00000E+00
         0.00000E+00
         0.00000E+00
         0.00000E+00
         0.00000E+00
         0.00000E+00
         0.00000E+00
         0.00000E+00
         0.00000E+00
         0.00000E+00
         0.00000E+00
         0.00000E+00
         0.00000E+00
         0.00000E+00
         0.00000E+00
         0.00000E+00
         0.00000E+00
         0.00000E+00
         0.00000E+00
         0.00000E+00
         0.00000E+00
         0.00000E+00
         0.00000E+00
         0.00000E+00
         0.00000E+00
         0.00000E+00
         0.00000E+00
         0.00000E+00
         0.00000E+00
         0.00000E+00
         0.00000E+00
         0.00000E+00
         0.00000E+00
         0.00000E+00
         0.00000E+00
         0.00000E+00
         0.00000E+00
         0.00000E+00
         0.00000E+00
         0.00000E+00
         0.00000E+00
         0.00000E+00
         0.00000E+00
         0.00000E+00
         0.00000E+00
         0.00000E+00
         0.00000E+00
         0.00000E+00
         0.00000E+00
         0.00000E+00
         0.00000E+00
         0.00000E+00
         0.00000E+00
         0.00000E+00
         0.00000E+00
         0.00000E+00
         0.00000E+00
         0.00000E+00
         0.00000E+00
         0.00000E+00
         0.00000E+00
         0.00000E+00
         0.00000E+00
         0.00000E+00
         0.00000E+00
         0.00000E+00
         0.00000E+00
         0.00000E+00
         0.00000E+00
         0.00000E+00
         0.00000E+00
         0.00000E+00
         0.00000E+00
         0.00000E+00
         0.00000E+00
         0.00000E+00
         0.00000E+00
         0.00000E+00
         0.00000E+00
         0.00000E+00
         0.00000E+00
         0.00000E+00
         0.00000E+00
         0.00000E+00
         0.00000E+00
         0.00000E+00
         0.00000E+00
         0.00000E+00
         0.00000E+00
         0.00000E+00
         0.00000E+00
         0.00000E+00
         0.00000E+00
         0.00000E+00
         0.00000E+00
         0.00000E+00
         0.00000E+00
         0.00000E+00
         0.00000E+00
         0.00000E+00
         0.00000E+00
         0.00000E+00
         0.00000E+00
         0.00000E+00
         0.00000E+00
         0.00000E+00
         0.00000E+00
         0.00000E+00
         0.00000E+00
         0.00000E+00
         0.00000E+00
         0.00000E+00
         0.00000E+00
         0.00000E+00
         0.00000E+00
         0.00000E+00
         0.00000E+00
         0.00000E+00
         0.00000E+00
         0.00000E+00
         0.00000E+00
         0.00000E+00
         0.00000E+00
         0.00000E+00
         0.00000E+00
         0.00000E+00
         0.00000E+00
         0.00000E+00
         0.00000E+00
         0.00000E+00
         0.00000E+00
         0.00000E+00
         0.00000E+00
         0.00000E+00
         0.00000E+00
         0.00000E+00
         0.00000E+00
         0.00000E+00
         0.00000E+00
         0.00000E+00
         0.00000E+00
         0.00000E+00
         0.00000E+00
         0.00000E+00
         0.00000E+00
         0.00000E+00
         0.00000E+00
         0.00000E+00
         0.00000E+00
         0.00000E+00
         0.00000E+00
         0.00000E+00
         0.00000E+00
         0.00000E+00
         0.00000E+00
         0.00000E+00
         0.00000E+00
         0.00000E+00
         0.00000E+00
         0.00000E+00
         0.00000E+00
         0.00000E+00
         0.00000E+00
         0.00000E+00
         0.00000E+00
         0.00000E+00
         0.00000E+00
         0.00000E+00
         0.00000E+00
         0.00000E+00
         0.00000E+00
         0.00000E+00
         0.00000E+00
         0.00000E+00
         0.00000E+00
         0.00000E+00
         0.00000E+00
         0.00000E+00
         0.00000E+00
         0.00000E+00
         0.00000E+00
         0.00000E+00
         0.00000E+00
         0.00000E+00
         0.00000E+00
         0.00000E+00
         0.00000E+00
         0.00000E+00
         0.00000E+00
         0.00000E+00
         0.00000E+00
         0.00000E+00
         0.00000E+00
         0.00000E+00
         0.00000E+00
         0.00000E+00
         0.00000E+00
         0.00000E+00
         0.00000E+00
         0.00000E+00
         0.00000E+00
         0.00000E+00
         0.00000E+00
         0.00000E+00
         0.00000E+00
         0.00000E+00
         0.00000E+00
         0.00000E+00
         0.00000E+00
         0.00000E+00
         0.00000E+00
         0.00000E+00
         0.00000E+00
         0.00000E+00
         0.00000E+00
         0.00000E+00
         0.00000E+00
         0.00000E+00
         0.00000E+00
         0.00000E+00
         0.00000E+00
         0.00000E+00
         0.00000E+00
         0.00000E+00
         0.00000E+00
         0.00000E+00
         0.00000E+00
         0.00000E+00
         0.00000E+00
         0.00000E+00
         0.00000E+00
         0.00000E+00
         0.00000E+00
         0.00000E+00
         0.00000E+00
         0.00000E+00
         0.00000E+00
         0.00000E+00
         0.00000E+00
         0.00000E+00
         0.00000E+00
         0.00000E+00
         0.00000E+00
         0.00000E+00
         0.00000E+00
         0.00000E+00
         0.00000E+00
         0.00000E+00
         0.00000E+00
         0.00000E+00
         0.00000E+00
         0.00000E+00
         0.00000E+00
         0.00000E+00
         0.00000E+00
         0.00000E+00
         0.00000E+00
         0.00000E+00
         0.00000E+00
         0.00000E+00
         0.00000E+00
         0.00000E+00
         0.00000E+00
         0.00000E+00
         0.00000E+00
         0.00000E+00
         0.00000E+00
         0.00000E+00
         0.00000E+00
         0.00000E+00
         0.00000E+00
         0.00000E+00
         0.00000E+00
         0.00000E+00
         0.00000E+00
         0.00000E+00
         0.00000E+00
         0.00000E+00
         0.00000E+00
         0.00000E+00
         0.00000E+00
         0.00000E+00
         0.00000E+00
         0.00000E+00
         0.00000E+00
         0.00000E+00
         0.00000E+00
         0.00000E+00
         0.00000E+00
         0.00000E+00
         0.00000E+00
         0.00000E+00
         0.00000E+00
         0.00000E+00
         0.00000E+00
         0.00000E+00
         0.00000E+00
         0.00000E+00
         0.00000E+00
         0.00000E+00
         0.00000E+00
         0.00000E+00
         0.00000E+00
         0.00000E+00
         0.00000E+00
         0.00000E+00
         0.00000E+00
         0.00000E+00
         0.00000E+00
         0.00000E+00
         0.00000E+00
         0.00000E+00
         0.00000E+00
         0.00000E+00
         0.00000E+00
         0.00000E+00
         0.00000E+00
         0.00000E+00
         0.00000E+00
         0.00000E+00
         0.00000E+00
         0.00000E+00
         0.00000E+00
         0.00000E+00
         0.00000E+00
         0.00000E+00
         0.00000E+00
         0.00000E+00
         0.00000E+00
         0.00000E+00
         0.00000E+00
         0.00000E+00
         0.00000E+00
         0.00000E+00
         0.00000E+00
         0.00000E+00
         0.00000E+00
         0.00000E+00
         0.00000E+00
         0.00000E+00
         0.00000E+00
         0.00000E+00
         0.00000E+00
         0.00000E+00
         0.00000E+00
         0.00000E+00
         0.00000E+00
         0.00000E+00
         0.00000E+00
         0.00000E+00
         0.00000E+00
         0.00000E+00
         0.00000E+00
         0.00000E+00
         0.00000E+00
         0.00000E+00
         0.00000E+00
         0.00000E+00
         0.00000E+00
         0.00000E+00
         0.00000E+00
         0.00000E+00
         0.00000E+00
         0.00000E+00
         0.00000E+00
         0.00000E+00
         0.00000E+00
         0.00000E+00
         0.00000E+00
         0.00000E+00
         0.00000E+00
         0.00000E+00
         0.00000E+00
         0.00000E+00
         0.00000E+00
         0.00000E+00
         0.00000E+00
         0.00000E+00
         0.00000E+00
         0.00000E+00
         0.00000E+00
         0.00000E+00
         0.00000E+00
         0.00000E+00
         0.00000E+00
         0.00000E+00
         0.00000E+00
         0.00000E+00
         0.00000E+00
         0.00000E+00
         0.00000E+00
         0.00000E+00
         0.00000E+00
         0.00000E+00
         0.00000E+00
         0.00000E+00
         0.00000E+00
         0.00000E+00
         0.00000E+00
         0.00000E+00
         0.00000E+00
         0.00000E+00
         0.00000E+00
         0.00000E+00
         0.00000E+00
         0.00000E+00
         0.00000E+00
         0.00000E+00
         0.00000E+00
         0.00000E+00
         0.00000E+00
         0.00000E+00
         0.00000E+00
         0.00000E+00
         0.00000E+00
         0.00000E+00
         0.00000E+00
         0.00000E+00
         0.00000E+00
         0.00000E+00
         0.00000E+00
         0.00000E+00
         0.00000E+00
         0.00000E+00
         0.00000E+00
         0.00000E+00
         0.00000E+00
         0.00000E+00
         0.00000E+00
         0.00000E+00
         0.00000E+00
         0.00000E+00
         0.00000E+00
         0.00000E+00
         0.00000E+00
         0.00000E+00
         0.00000E+00
         0.00000E+00
         0.00000E+00
         0.00000E+00
         0.00000E+00
         0.00000E+00
         0.00000E+00
         0.00000E+00
         0.00000E+00
         0.00000E+00
         0.00000E+00
         0.00000E+00
         0.00000E+00
         0.00000E+00
         0.00000E+00
         0.00000E+00
         0.00000E+00
         0.00000E+00
         0.00000E+00
         0.00000E+00
         0.00000E+00
         0.00000E+00
         0.00000E+00
         0.00000E+00
         0.00000E+00
         0.00000E+00
         0.00000E+00
         0.00000E+00
         0.00000E+00
         0.00000E+00
         0.00000E+00
         0.00000E+00
         0.00000E+00
         0.00000E+00
         0.00000E+00
         0.00000E+00
         0.00000E+00
         0.00000E+00
         0.00000E+00
         0.00000E+00
         0.00000E+00
         0.00000E+00
         0.00000E+00
         0.00000E+00
         0.00000E+00
         0.00000E+00
         0.00000E+00
         0.00000E+00
         0.00000E+00
         0.00000E+00
         0.00000E+00
         0.00000E+00
         0.00000E+00
         0.00000E+00
         0.00000E+00
         0.00000E+00
         0.00000E+00
         0.00000E+00
         0.00000E+00
         0.00000E+00
         0.00000E+00
         0.00000E+00
         0.00000E+00
         0.00000E+00
         0.00000E+00
         0.00000E+00
         0.00000E+00
         0.00000E+00
         0.00000E+00
         0.00000E+00
         0.00000E+00
         0.00000E+00
         0.00000E+00
         0.00000E+00
         0.00000E+00
         0.00000E+00
         0.00000E+00
         0.00000E+00
         0.00000E+00
         0.00000E+00
         0.00000E+00
         0.00000E+00
         0.00000E+00
         0.00000E+00
         0.00000E+00
         0.00000E+00
         0.00000E+00
         0.00000E+00
         0.00000E+00
         0.00000E+00
         0.00000E+00
         0.00000E+00
         0.00000E+00
         0.00000E+00
         0.00000E+00
         0.00000E+00
         0.00000E+00
         0.00000E+00
         0.00000E+00
         0.00000E+00
         0.00000E+00
         0.00000E+00
         0.00000E+00
         0.00000E+00
         0.00000E+00
         0.00000E+00
         0.00000E+00
         0.00000E+00
         0.00000E+00
         0.00000E+00
         0.00000E+00
         0.00000E+00
         0.00000E+00
         0.00000E+00
         0.00000E+00
         0.00000E+00
         0.00000E+00
         0.00000E+00
         0.00000E+00
         0.00000E+00
         0.00000E+00
         0.00000E+00
         0.00000E+00
         0.00000E+00
         0.00000E+00
         0.00000E+00
         0.00000E+00
         0.00000E+00
         0.00000E+00
         0.00000E+00
         0.00000E+00
         0.00000E+00
         0.00000E+00
         0.00000E+00
         0.00000E+00
         0.00000E+00
         0.00000E+00
         0.00000E+00
         0.00000E+00
         0.00000E+00
         0.00000E+00
         0.00000E+00
         0.00000E+00
         0.00000E+00
         0.00000E+00
         0.00000E+00
         0.00000E+00
         0.00000E+00
         0.00000E+00
         0.00000E+00
         0.00000E+00
         0.00000E+00
         0.00000E+00
         0.00000E+00
         0.00000E+00
         0.00000E+00
         0.00000E+00
         0.00000E+00
         0.00000E+00
         0.00000E+00
         0.00000E+00
         0.00000E+00
         0.00000E+00
         0.00000E+00
         0.00000E+00
         0.00000E+00
         0.00000E+00
         0.00000E+00
         0.00000E+00
         0.00000E+00
         0.00000E+00
         0.00000E+00
         0.00000E+00
         0.00000E+00
         0.00000E+00
         0.00000E+00
         0.00000E+00
         0.00000E+00
         0.00000E+00
         0.00000E+00
         0.00000E+00
         0.00000E+00
         0.00000E+00
         0.00000E+00
         0.00000E+00
         0.00000E+00
         0.00000E+00
         0.00000E+00
         0.00000E+00
         0.00000E+00
         0.00000E+00
         0.00000E+00
         0.00000E+00
         0.00000E+00
         0.00000E+00
         0.00000E+00
         0.00000E+00
         0.00000E+00
         0.00000E+00
         0.00000E+00
         0.00000E+00
         0.00000E+00
         0.00000E+00
         0.00000E+00
         0.00000E+00
         0.00000E+00
         0.00000E+00
         0.00000E+00
         0.00000E+00
         0.00000E+00
         0.00000E+00
         0.00000E+00
         0.00000E+00
         0.00000E+00
         0.00000E+00
         0.00000E+00
         0.00000E+00
         0.00000E+00
         0.00000E+00
         0.00000E+00
         0.00000E+00
         0.00000E+00
         0.00000E+00
         0.00000E+00
         0.00000E+00
         0.00000E+00
         0.00000E+00
         0.00000E+00
         0.00000E+00
         0.00000E+00
         0.00000E+00
         0.00000E+00
         0.00000E+00
         0.00000E+00
         0.00000E+00
         0.00000E+00
         0.00000E+00
         0.00000E+00
         0.00000E+00
         0.00000E+00
         0.00000E+00
         0.00000E+00
         0.00000E+00
         0.00000E+00
         0.00000E+00
         0.00000E+00
         0.00000E+00
         0.00000E+00
         0.00000E+00
         0.00000E+00
         0.00000E+00
         0.00000E+00
         0.00000E+00
         0.00000E+00
         0.00000E+00
         0.00000E+00
         0.00000E+00
         0.00000E+00
         0.00000E+00
         0.00000E+00
         0.00000E+00
         0.00000E+00
         0.00000E+00
         0.00000E+00
         0.00000E+00
         0.00000E+00
         0.00000E+00
         0.00000E+00
         0.00000E+00
         0.00000E+00
         0.00000E+00
         0.00000E+00
         0.00000E+00
         0.00000E+00
         0.00000E+00
         0.00000E+00
         0.00000E+00
         0.00000E+00
         0.00000E+00
         0.00000E+00
         0.00000E+00
         0.00000E+00
         0.00000E+00
         0.00000E+00
         0.00000E+00
         0.00000E+00
         0.00000E+00
         0.00000E+00
         0.00000E+00
         0.00000E+00
         0.00000E+00
         0.00000E+00
         0.00000E+00
         0.00000E+00
         0.00000E+00
         0.00000E+00
         0.00000E+00
         0.00000E+00
         0.00000E+00
         0.00000E+00
         0.00000E+00
         0.00000E+00
         0.00000E+00
         0.00000E+00
         0.00000E+00
         0.00000E+00
         0.00000E+00
         0.00000E+00
         0.00000E+00
         0.00000E+00
         0.00000E+00
         0.00000E+00
         0.00000E+00
         0.00000E+00
         0.00000E+00
         0.00000E+00
         0.00000E+00
         0.00000E+00
         0.00000E+00
         0.00000E+00
         0.00000E+00
         0.00000E+00
         0.00000E+00
         0.00000E+00
         0.00000E+00
         0.00000E+00
         0.00000E+00
         0.00000E+00
         0.00000E+00
         0.00000E+00
         0.00000E+00
         0.00000E+00
         0.00000E+00
         0.00000E+00
         0.00000E+00
         0.00000E+00
         0.00000E+00
         0.00000E+00
         0.00000E+00
         0.00000E+00
         0.00000E+00
         0.00000E+00
         0.00000E+00
         0.00000E+00
         0.00000E+00
         0.00000E+00
         0.00000E+00
         0.00000E+00
         0.00000E+00
         0.00000E+00
         0.00000E+00
         0.00000E+00
         0.00000E+00
         0.00000E+00
         0.00000E+00
         0.00000E+00
         0.00000E+00
         0.00000E+00
         0.00000E+00
         0.00000E+00
         0.00000E+00
         0.00000E+00
         0.00000E+00
         0.00000E+00
         0.00000E+00
         0.00000E+00
         0.00000E+00
         0.00000E+00
         0.00000E+00
         0.00000E+00
         0.00000E+00
         0.00000E+00
         0.00000E+00
         0.00000E+00
         0.00000E+00
         0.00000E+00
         0.00000E+00
         0.00000E+00
         0.00000E+00
         0.00000E+00
         0.00000E+00
         0.00000E+00
         0.00000E+00
         0.00000E+00
         0.00000E+00
         0.00000E+00
         0.00000E+00
         0.00000E+00
         0.00000E+00
         0.00000E+00
         0.00000E+00
         0.00000E+00
         0.00000E+00
         0.00000E+00
         0.00000E+00
         0.00000E+00
         0.00000E+00
         0.00000E+00
         0.00000E+00
         0.00000E+00
         0.00000E+00
         0.00000E+00
         0.00000E+00
         0.00000E+00
         0.00000E+00
         0.00000E+00
         0.00000E+00
         0.00000E+00
         0.00000E+00
         0.00000E+00
         0.00000E+00
         0.00000E+00
         0.00000E+00
         0.00000E+00
         0.00000E+00
         0.00000E+00
         0.00000E+00
         0.00000E+00
         0.00000E+00
         0.00000E+00
         0.00000E+00
         0.00000E+00
         0.00000E+00
         0.00000E+00
         0.00000E+00
         0.00000E+00
         0.00000E+00
         0.00000E+00
         0.00000E+00
         0.00000E+00
         0.00000E+00
         0.00000E+00
         0.00000E+00
         0.00000E+00
         0.00000E+00
         0.00000E+00
         0.00000E+00
         0.00000E+00
         0.00000E+00
         0.00000E+00
         0.00000E+00
         0.00000E+00
         0.00000E+00
         0.00000E+00
         0.00000E+00
         0.00000E+00
         0.00000E+00
         0.00000E+00
         0.00000E+00
         0.00000E+00
         0.00000E+00
         0.00000E+00
         0.00000E+00
         0.00000E+00
         0.00000E+00
         0.00000E+00
         0.00000E+00
         0.00000E+00
         0.00000E+00
         0.00000E+00
         0.00000E+00
         0.00000E+00
         0.00000E+00
         0.00000E+00
         0.00000E+00
         0.00000E+00
         0.00000E+00
         0.00000E+00
         0.00000E+00
         0.00000E+00
         0.00000E+00
         0.00000E+00
         0.00000E+00
         0.00000E+00
         0.00000E+00
         0.00000E+00
         0.00000E+00
         0.00000E+00
         0.00000E+00
         0.00000E+00
         0.00000E+00
         0.00000E+00
         0.00000E+00
         0.00000E+00
         0.00000E+00
         0.00000E+00
         0.00000E+00
         0.00000E+00
         0.00000E+00
         0.00000E+00
         0.00000E+00
         0.00000E+00
         0.00000E+00
         0.00000E+00
         0.00000E+00
         0.00000E+00
         0.00000E+00
         0.00000E+00
         0.00000E+00
         0.00000E+00
         0.00000E+00
         0.00000E+00
         0.00000E+00
         0.00000E+00
         0.00000E+00
         0.00000E+00
         0.00000E+00
         0.00000E+00
         0.00000E+00
         0.00000E+00
         0.00000E+00
         0.00000E+00
         0.00000E+00
         0.00000E+00
         0.00000E+00
         0.00000E+00
         0.00000E+00
         0.00000E+00
         0.00000E+00
         0.00000E+00
         0.00000E+00
         0.00000E+00
         0.00000E+00
         0.00000E+00
         0.00000E+00
         0.00000E+00
         0.00000E+00
         0.00000E+00
         0.00000E+00
         0.00000E+00
         0.00000E+00
         0.00000E+00
         0.00000E+00
         0.00000E+00
         0.00000E+00
         0.00000E+00
         0.00000E+00
         0.00000E+00
         0.00000E+00
         0.00000E+00
         0.00000E+00
         0.00000E+00
         0.00000E+00
         0.00000E+00
         0.00000E+00
         0.00000E+00
         0.00000E+00
         0.00000E+00
         0.00000E+00
         0.00000E+00
         0.00000E+00
         0.00000E+00
         0.00000E+00
         0.00000E+00
         0.00000E+00
         0.00000E+00
         0.00000E+00
         0.00000E+00
         0.00000E+00
         0.00000E+00
         0.00000E+00
         0.00000E+00
         0.00000E+00
         0.00000E+00
         0.00000E+00
         0.00000E+00
         0.00000E+00
         0.00000E+00
         0.00000E+00
         0.00000E+00
         0.00000E+00
         0.00000E+00
         0.00000E+00
         0.00000E+00
         0.00000E+00
         0.00000E+00
         0.00000E+00
         0.00000E+00
         0.00000E+00
         0.00000E+00
         0.00000E+00
         0.00000E+00
         0.00000E+00
         0.00000E+00
         0.00000E+00
         0.00000E+00
         0.00000E+00
         0.00000E+00
         0.00000E+00
         0.00000E+00
         0.00000E+00
         0.00000E+00
         0.00000E+00
         0.00000E+00
         0.00000E+00
         0.00000E+00
         0.00000E+00
         0.00000E+00
         0.00000E+00
         0.00000E+00
         0.00000E+00
         0.00000E+00
         0.00000E+00
         0.00000E+00
         0.00000E+00
         0.00000E+00
         0.00000E+00
         0.00000E+00
         0.00000E+00
         0.00000E+00
         0.00000E+00
         0.00000E+00
         0.00000E+00
         0.00000E+00
         0.00000E+00
         0.00000E+00
         0.00000E+00
         0.00000E+00
         0.00000E+00
         0.00000E+00
         0.00000E+00
         0.00000E+00
         0.00000E+00
         0.00000E+00
         0.00000E+00
         0.00000E+00
         0.00000E+00
         0.00000E+00
         0.00000E+00
         0.00000E+00
         0.00000E+00
         0.00000E+00
         0.00000E+00
         0.00000E+00
         0.00000E+00
         0.00000E+00
         0.00000E+00
         0.00000E+00
         0.00000E+00
         0.00000E+00
         0.00000E+00
         0.00000E+00
         0.00000E+00
         0.00000E+00
         0.00000E+00
         0.00000E+00
         0.00000E+00
         0.00000E+00
         0.00000E+00
         0.00000E+00
         0.00000E+00
         0.00000E+00
         0.00000E+00
         0.00000E+00
         0.00000E+00
         0.00000E+00
         0.00000E+00
         0.00000E+00
         0.00000E+00
         0.00000E+00
         0.00000E+00
         0.00000E+00
         0.00000E+00
         0.00000E+00
         0.00000E+00
         0.00000E+00
         0.00000E+00
         0.00000E+00
         0.00000E+00
         0.00000E+00
         0.00000E+00
         0.00000E+00
         0.00000E+00
         0.00000E+00
         0.00000E+00
         0.00000E+00
         0.00000E+00
         0.00000E+00
         0.00000E+00
         0.00000E+00
         0.00000E+00
         0.00000E+00
         0.00000E+00
         0.00000E+00
         0.00000E+00
         0.00000E+00
         0.00000E+00
         0.00000E+00
         0.00000E+00
         0.00000E+00
         0.00000E+00
         0.00000E+00
         0.00000E+00
         0.00000E+00
         0.00000E+00
         0.00000E+00
         0.00000E+00
         0.00000E+00
         0.00000E+00
         0.00000E+00
         0.00000E+00
         0.00000E+00
         0.00000E+00
         0.00000E+00
         0.00000E+00
         0.00000E+00
         0.00000E+00
         0.00000E+00
         0.00000E+00
         0.00000E+00
         0.00000E+00
         0.00000E+00
         0.00000E+00
         0.00000E+00
         0.00000E+00
         0.00000E+00
         0.00000E+00
         0.00000E+00
         0.00000E+00
         0.00000E+00
         0.00000E+00
         0.00000E+00
         0.00000E+00
         0.00000E+00
         0.00000E+00
         0.00000E+00
         0.00000E+00
         0.00000E+00
         0.00000E+00
         0.00000E+00
         0.00000E+00
         0.00000E+00
         0.00000E+00
         0.00000E+00
         0.00000E+00
         0.00000E+00
         0.00000E+00
         0.00000E+00
         0.00000E+00
         0.00000E+00
         0.00000E+00
         0.00000E+00
         0.00000E+00
         0.00000E+00
         0.00000E+00
         0.00000E+00
         0.00000E+00
         0.00000E+00
         0.00000E+00
         0.00000E+00
         0.00000E+00
         0.00000E+00
         0.00000E+00
         0.00000E+00
         0.00000E+00
         0.00000E+00
         0.00000E+00
         0.00000E+00
         0.00000E+00
         0.00000E+00
         0.00000E+00
         0.00000E+00
         0.00000E+00
         0.00000E+00
         0.00000E+00
         0.00000E+00
         0.00000E+00
         0.00000E+00
         0.00000E+00
         0.00000E+00
         0.00000E+00
         0.00000E+00
         0.00000E+00
         0.00000E+00
         0.00000E+00
         0.00000E+00
         0.00000E+00
         0.00000E+00
         0.00000E+00
         0.00000E+00
         0.00000E+00
         0.00000E+00
         0.00000E+00
         0.00000E+00
         0.00000E+00
         0.00000E+00
         0.00000E+00
         0.00000E+00
         0.00000E+00
         0.00000E+00
         0.00000E+00
         0.00000E+00
         0.00000E+00
         0.00000E+00
         0.00000E+00
         0.00000E+00
         0.00000E+00
         0.00000E+00
         0.00000E+00
         0.00000E+00
         0.00000E+00
         0.00000E+00
         0.00000E+00
         0.00000E+00
         0.00000E+00
         0.00000E+00
         0.00000E+00
         0.00000E+00
         0.00000E+00
         0.00000E+00
         0.00000E+00
         0.00000E+00
         0.00000E+00
         0.00000E+00
         0.00000E+00
         0.00000E+00
         0.00000E+00
         0.00000E+00
         0.00000E+00
         0.00000E+00
         0.00000E+00
         0.00000E+00
         0.00000E+00
         0.00000E+00
         0.00000E+00
         0.00000E+00
         0.00000E+00
         0.00000E+00
         0.00000E+00
         0.00000E+00
         0.00000E+00
         0.00000E+00
         0.00000E+00
         0.00000E+00
         0.00000E+00
         0.00000E+00
         0.00000E+00
         0.00000E+00
         0.00000E+00
         0.00000E+00
         0.00000E+00
         0.00000E+00
         0.00000E+00
         0.00000E+00
         0.00000E+00
         0.00000E+00
         0.00000E+00
         0.00000E+00
         0.00000E+00
         0.00000E+00
         0.00000E+00
         0.00000E+00
         0.00000E+00
         0.00000E+00
         0.00000E+00
         0.00000E+00
         0.00000E+00
         0.00000E+00
         0.00000E+00
         0.00000E+00
         0.00000E+00
         0.00000E+00
         0.00000E+00
         0.00000E+00
         0.00000E+00
         0.00000E+00
         0.00000E+00
         0.00000E+00
         0.00000E+00
         0.00000E+00
         0.00000E+00
         0.00000E+00
         0.00000E+00
         0.00000E+00
         0.00000E+00
         0.00000E+00
         0.00000E+00
         0.00000E+00
         0.00000E+00
         0.00000E+00
         0.00000E+00
         0.00000E+00
         0.00000E+00
         0.00000E+00
         0.00000E+00
         0.00000E+00
         0.00000E+00
         0.00000E+00
         0.00000E+00
         0.00000E+00
         0.00000E+00
         0.00000E+00
         0.00000E+00
         0.00000E+00
         0.00000E+00
         0.00000E+00
         0.00000E+00
         0.00000E+00
         0.00000E+00
         0.00000E+00
         0.00000E+00
         0.00000E+00
         0.00000E+00
         0.00000E+00
         0.00000E+00
         0.00000E+00
         0.00000E+00
         0.00000E+00
         0.00000E+00
         0.00000E+00
         0.00000E+00
         0.00000E+00
         0.00000E+00
         0.00000E+00
         0.00000E+00
         0.00000E+00
         0.00000E+00
         0.00000E+00
         0.00000E+00
         0.00000E+00
         0.00000E+00
         0.00000E+00
         0.00000E+00
         0.00000E+00
         0.00000E+00
         0.00000E+00
         0.00000E+00
         0.00000E+00
         0.00000E+00
         0.00000E+00
         0.00000E+00
         0.00000E+00
         0.00000E+00
         0.00000E+00
         0.00000E+00
         0.00000E+00
         0.00000E+00
         0.00000E+00
         0.00000E+00
         0.00000E+00
         0.00000E+00
         0.00000E+00
         0.00000E+00
         0.00000E+00
         0.00000E+00
         0.00000E+00
         0.00000E+00
         0.00000E+00
         0.00000E+00
         0.00000E+00
         0.00000E+00
         0.00000E+00
         0.00000E+00
         0.00000E+00
         0.00000E+00
         0.00000E+00
         0.00000E+00
         0.00000E+00
         0.00000E+00
         0.00000E+00
         0.00000E+00
         0.00000E+00
         0.00000E+00
         0.00000E+00
         0.00000E+00
         0.00000E+00
         0.00000E+00
         0.00000E+00
         0.00000E+00
         0.00000E+00
         0.00000E+00
         0.00000E+00
         0.00000E+00
         0.00000E+00
         0.00000E+00
         0.00000E+00
         0.00000E+00
         0.00000E+00
         0.00000E+00
         0.00000E+00
         0.00000E+00
         0.00000E+00
         0.00000E+00
         0.00000E+00
         0.00000E+00
         0.00000E+00
         0.00000E+00
         0.00000E+00
         0.00000E+00
         0.00000E+00
         0.00000E+00
         0.00000E+00
         0.00000E+00
         0.00000E+00
         0.00000E+00
         0.00000E+00
         0.00000E+00
         0.00000E+00
         0.00000E+00
         0.00000E+00
         0.00000E+00
         0.00000E+00
         0.00000E+00
         0.00000E+00
         0.00000E+00
         0.00000E+00
         0.00000E+00
         0.00000E+00
         0.00000E+00
         0.00000E+00
         0.00000E+00
         0.00000E+00
         0.00000E+00
         0.00000E+00
         0.00000E+00
         0.00000E+00
         0.00000E+00
         0.00000E+00
         0.00000E+00
         0.00000E+00
         0.00000E+00
         0.00000E+00
         0.00000E+00
         0.00000E+00
         0.00000E+00
         0.00000E+00
         0.00000E+00
         0.00000E+00
         0.00000E+00
         0.00000E+00
         0.00000E+00
         0.00000E+00
         0.00000E+00
         0.00000E+00
         0.00000E+00
         0.00000E+00
         0.00000E+00
         0.00000E+00
         0.00000E+00
         0.00000E+00
         0.00000E+00
         0.00000E+00
         0.00000E+00
         0.00000E+00
         0.00000E+00
         0.00000E+00
         0.00000E+00
         0.00000E+00
         0.00000E+00
         0.00000E+00
         0.00000E+00
         0.00000E+00
         0.00000E+00
         0.00000E+00
         0.00000E+00
         0.00000E+00
         0.00000E+00
         0.00000E+00
         0.00000E+00
         0.00000E+00
         0.00000E+00
         0.00000E+00
         0.00000E+00
         0.00000E+00
         0.00000E+00
         0.00000E+00
         0.00000E+00
         0.00000E+00
         0.00000E+00
         0.00000E+00
         0.00000E+00
         0.00000E+00
         0.00000E+00
         0.00000E+00
         0.00000E+00
         0.00000E+00
         0.00000E+00
         0.00000E+00
         0.00000E+00
         0.00000E+00
         0.00000E+00
         0.00000E+00
         0.00000E+00
         0.00000E+00
         0.00000E+00
         0.00000E+00
         0.00000E+00
         0.00000E+00
         0.00000E+00
         0.00000E+00
         0.00000E+00
         0.00000E+00
         0.00000E+00
         0.00000E+00
         0.00000E+00
         0.00000E+00
         0.00000E+00
         0.00000E+00
         0.00000E+00
         0.00000E+00
         0.00000E+00
         0.00000E+00
         0.00000E+00
         0.00000E+00
         0.00000E+00
         0.00000E+00
         0.00000E+00
         0.00000E+00
         0.00000E+00
         0.00000E+00
         0.00000E+00
         0.00000E+00
         0.00000E+00
         0.00000E+00
         0.00000E+00
         0.00000E+00
         0.00000E+00
         0.00000E+00
         0.00000E+00
         0.00000E+00
         0.00000E+00
         0.00000E+00
         0.00000E+00
         0.00000E+00
         0.00000E+00
         0.00000E+00
         0.00000E+00
         0.00000E+00
         0.00000E+00
         0.00000E+00
         0.00000E+00
         0.00000E+00
         0.00000E+00
         0.00000E+00
         0.00000E+00
         0.00000E+00
         0.00000E+00
         0.00000E+00
         0.00000E+00
         0.00000E+00
         0.00000E+00
         0.00000E+00
         0.00000E+00
         0.00000E+00
         0.00000E+00
         0.00000E+00
         0.00000E+00
         0.00000E+00
         0.00000E+00
         0.00000E+00
         0.00000E+00
         0.00000E+00
         0.00000E+00
         0.00000E+00
         0.00000E+00
         0.00000E+00
         0.00000E+00
         0.00000E+00
         0.00000E+00
         0.00000E+00
         0.00000E+00
         0.00000E+00
         0.00000E+00
         0.00000E+00
         0.00000E+00
         0.00000E+00
         0.00000E+00
         0.00000E+00
         0.00000E+00
         0.00000E+00
         0.00000E+00
         0.00000E+00
         0.00000E+00
         0.00000E+00
         0.00000E+00
         0.00000E+00
         0.00000E+00
         0.00000E+00
         0.00000E+00
         0.00000E+00
         0.00000E+00
         0.00000E+00
         0.00000E+00
         0.00000E+00
         0.00000E+00
         0.00000E+00
         0.00000E+00
         0.00000E+00
         0.00000E+00
         0.00000E+00
         0.00000E+00
         0.00000E+00
         0.00000E+00
         0.00000E+00
         0.00000E+00
         0.00000E+00
         0.00000E+00
         0.00000E+00
         0.00000E+00
         0.00000E+00
         0.00000E+00
         0.00000E+00
         0.00000E+00
         0.00000E+00
         0.00000E+00
         0.00000E+00
         0.00000E+00
         0.00000E+00
         0.00000E+00
         0.00000E+00
         0.00000E+00
         0.00000E+00
         0.00000E+00
         0.00000E+00
         0.00000E+00
         0.00000E+00
         0.00000E+00
         0.00000E+00
         0.00000E+00
         0.00000E+00
         0.00000E+00
         0.00000E+00
         0.00000E+00
         0.00000E+00
         0.00000E+00
         0.00000E+00
         0.00000E+00
  
SCALARS                         fint_y  double 1
LOOKUP_TABLE default
         0.00000E+00
         0.00000E+00
         0.00000E+00
         0.00000E+00
         0.00000E+00
         0.00000E+00
         0.00000E+00
         0.00000E+00
         0.00000E+00
         0.00000E+00
         0.00000E+00
         0.00000E+00
         0.00000E+00
         0.00000E+00
         0.00000E+00
         0.00000E+00
         0.00000E+00
         0.00000E+00
         0.00000E+00
         0.00000E+00
         0.00000E+00
         0.00000E+00
         0.00000E+00
         0.00000E+00
         0.00000E+00
         0.00000E+00
         0.00000E+00
         0.00000E+00
         0.00000E+00
         0.00000E+00
         0.00000E+00
         0.00000E+00
         0.00000E+00
         0.00000E+00
         0.00000E+00
         0.00000E+00
         0.00000E+00
         0.00000E+00
         0.00000E+00
         0.00000E+00
         0.00000E+00
         0.00000E+00
         0.00000E+00
         0.00000E+00
         0.00000E+00
         0.00000E+00
         0.00000E+00
         0.00000E+00
         0.00000E+00
         0.00000E+00
         0.00000E+00
         0.00000E+00
         0.00000E+00
         0.00000E+00
         0.00000E+00
         0.00000E+00
         0.00000E+00
         0.00000E+00
         0.00000E+00
         0.00000E+00
         0.00000E+00
         0.00000E+00
         0.00000E+00
         0.00000E+00
         0.00000E+00
         0.00000E+00
         0.00000E+00
         0.00000E+00
         0.00000E+00
         0.00000E+00
         0.00000E+00
         0.00000E+00
         0.00000E+00
         0.00000E+00
         0.00000E+00
         0.00000E+00
         0.00000E+00
         0.00000E+00
         0.00000E+00
         0.00000E+00
         0.00000E+00
         0.00000E+00
         0.00000E+00
         0.00000E+00
         0.00000E+00
         0.00000E+00
         0.00000E+00
         0.00000E+00
         0.00000E+00
         0.00000E+00
         0.00000E+00
         0.00000E+00
         0.00000E+00
         0.00000E+00
         0.00000E+00
         0.00000E+00
         0.00000E+00
         0.00000E+00
         0.00000E+00
         0.00000E+00
         0.00000E+00
         0.00000E+00
         0.00000E+00
         0.00000E+00
         0.00000E+00
         0.00000E+00
         0.00000E+00
         0.00000E+00
         0.00000E+00
         0.00000E+00
         0.00000E+00
         0.00000E+00
         0.00000E+00
         0.00000E+00
         0.00000E+00
         0.00000E+00
         0.00000E+00
         0.00000E+00
         0.00000E+00
         0.00000E+00
         0.00000E+00
         0.00000E+00
         0.00000E+00
         0.00000E+00
         0.00000E+00
         0.00000E+00
         0.00000E+00
         0.00000E+00
         0.00000E+00
         0.00000E+00
         0.00000E+00
         0.00000E+00
         0.00000E+00
         0.00000E+00
         0.00000E+00
         0.00000E+00
         0.00000E+00
         0.00000E+00
         0.00000E+00
         0.00000E+00
         0.00000E+00
         0.00000E+00
         0.00000E+00
         0.00000E+00
         0.00000E+00
         0.00000E+00
         0.00000E+00
         0.00000E+00
         0.00000E+00
         0.00000E+00
         0.00000E+00
         0.00000E+00
         0.00000E+00
         0.00000E+00
         0.00000E+00
         0.00000E+00
         0.00000E+00
         0.00000E+00
         0.00000E+00
         0.00000E+00
         0.00000E+00
         0.00000E+00
         0.00000E+00
         0.00000E+00
         0.00000E+00
         0.00000E+00
         0.00000E+00
         0.00000E+00
         0.00000E+00
         0.00000E+00
         0.00000E+00
         0.00000E+00
         0.00000E+00
         0.00000E+00
         0.00000E+00
         0.00000E+00
         0.00000E+00
         0.00000E+00
         0.00000E+00
         0.00000E+00
         0.00000E+00
         0.00000E+00
         0.00000E+00
         0.00000E+00
         0.00000E+00
         0.00000E+00
         0.00000E+00
         0.00000E+00
         0.00000E+00
         0.00000E+00
         0.00000E+00
         0.00000E+00
         0.00000E+00
         0.00000E+00
         0.00000E+00
         0.00000E+00
         0.00000E+00
         0.00000E+00
         0.00000E+00
         0.00000E+00
         0.00000E+00
         0.00000E+00
         0.00000E+00
         0.00000E+00
         0.00000E+00
         0.00000E+00
         0.00000E+00
         0.00000E+00
         0.00000E+00
         0.00000E+00
         0.00000E+00
         0.00000E+00
         0.00000E+00
         0.00000E+00
         0.00000E+00
         0.00000E+00
         0.00000E+00
         0.00000E+00
         0.00000E+00
         0.00000E+00
         0.00000E+00
         0.00000E+00
         0.00000E+00
         0.00000E+00
         0.00000E+00
         0.00000E+00
         0.00000E+00
         0.00000E+00
         0.00000E+00
         0.00000E+00
         0.00000E+00
         0.00000E+00
         0.00000E+00
         0.00000E+00
         0.00000E+00
         0.00000E+00
         0.00000E+00
         0.00000E+00
         0.00000E+00
         0.00000E+00
         0.00000E+00
         0.00000E+00
         0.00000E+00
         0.00000E+00
         0.00000E+00
         0.00000E+00
         0.00000E+00
         0.00000E+00
         0.00000E+00
         0.00000E+00
         0.00000E+00
         0.00000E+00
         0.00000E+00
         0.00000E+00
         0.00000E+00
         0.00000E+00
         0.00000E+00
         0.00000E+00
         0.00000E+00
         0.00000E+00
         0.00000E+00
         0.00000E+00
         0.00000E+00
         0.00000E+00
         0.00000E+00
         0.00000E+00
         0.00000E+00
         0.00000E+00
         0.00000E+00
         0.00000E+00
         0.00000E+00
         0.00000E+00
         0.00000E+00
         0.00000E+00
         0.00000E+00
         0.00000E+00
         0.00000E+00
         0.00000E+00
         0.00000E+00
         0.00000E+00
         0.00000E+00
         0.00000E+00
         0.00000E+00
         0.00000E+00
         0.00000E+00
         0.00000E+00
         0.00000E+00
         0.00000E+00
         0.00000E+00
         0.00000E+00
         0.00000E+00
         0.00000E+00
         0.00000E+00
         0.00000E+00
         0.00000E+00
         0.00000E+00
         0.00000E+00
         0.00000E+00
         0.00000E+00
         0.00000E+00
         0.00000E+00
         0.00000E+00
         0.00000E+00
         0.00000E+00
         0.00000E+00
         0.00000E+00
         0.00000E+00
         0.00000E+00
         0.00000E+00
         0.00000E+00
         0.00000E+00
         0.00000E+00
         0.00000E+00
         0.00000E+00
         0.00000E+00
         0.00000E+00
         0.00000E+00
         0.00000E+00
         0.00000E+00
         0.00000E+00
         0.00000E+00
         0.00000E+00
         0.00000E+00
         0.00000E+00
         0.00000E+00
         0.00000E+00
         0.00000E+00
         0.00000E+00
         0.00000E+00
         0.00000E+00
         0.00000E+00
         0.00000E+00
         0.00000E+00
         0.00000E+00
         0.00000E+00
         0.00000E+00
         0.00000E+00
         0.00000E+00
         0.00000E+00
         0.00000E+00
         0.00000E+00
         0.00000E+00
         0.00000E+00
         0.00000E+00
         0.00000E+00
         0.00000E+00
         0.00000E+00
         0.00000E+00
         0.00000E+00
         0.00000E+00
         0.00000E+00
         0.00000E+00
         0.00000E+00
         0.00000E+00
         0.00000E+00
         0.00000E+00
         0.00000E+00
         0.00000E+00
         0.00000E+00
         0.00000E+00
         0.00000E+00
         0.00000E+00
         0.00000E+00
         0.00000E+00
         0.00000E+00
         0.00000E+00
         0.00000E+00
         0.00000E+00
         0.00000E+00
         0.00000E+00
         0.00000E+00
         0.00000E+00
         0.00000E+00
         0.00000E+00
         0.00000E+00
         0.00000E+00
         0.00000E+00
         0.00000E+00
         0.00000E+00
         0.00000E+00
         0.00000E+00
         0.00000E+00
         0.00000E+00
         0.00000E+00
         0.00000E+00
         0.00000E+00
         0.00000E+00
         0.00000E+00
         0.00000E+00
         0.00000E+00
         0.00000E+00
         0.00000E+00
         0.00000E+00
         0.00000E+00
         0.00000E+00
         0.00000E+00
         0.00000E+00
         0.00000E+00
         0.00000E+00
         0.00000E+00
         0.00000E+00
         0.00000E+00
         0.00000E+00
         0.00000E+00
         0.00000E+00
         0.00000E+00
         0.00000E+00
         0.00000E+00
         0.00000E+00
         0.00000E+00
         0.00000E+00
         0.00000E+00
         0.00000E+00
         0.00000E+00
         0.00000E+00
         0.00000E+00
         0.00000E+00
         0.00000E+00
         0.00000E+00
         0.00000E+00
         0.00000E+00
         0.00000E+00
         0.00000E+00
         0.00000E+00
         0.00000E+00
         0.00000E+00
         0.00000E+00
         0.00000E+00
         0.00000E+00
         0.00000E+00
         0.00000E+00
         0.00000E+00
         0.00000E+00
         0.00000E+00
         0.00000E+00
         0.00000E+00
         0.00000E+00
         0.00000E+00
         0.00000E+00
         0.00000E+00
         0.00000E+00
         0.00000E+00
         0.00000E+00
         0.00000E+00
         0.00000E+00
         0.00000E+00
         0.00000E+00
         0.00000E+00
         0.00000E+00
         0.00000E+00
         0.00000E+00
         0.00000E+00
         0.00000E+00
         0.00000E+00
         0.00000E+00
         0.00000E+00
         0.00000E+00
         0.00000E+00
         0.00000E+00
         0.00000E+00
         0.00000E+00
         0.00000E+00
         0.00000E+00
         0.00000E+00
         0.00000E+00
         0.00000E+00
         0.00000E+00
         0.00000E+00
         0.00000E+00
         0.00000E+00
         0.00000E+00
         0.00000E+00
         0.00000E+00
         0.00000E+00
         0.00000E+00
         0.00000E+00
         0.00000E+00
         0.00000E+00
         0.00000E+00
         0.00000E+00
         0.00000E+00
         0.00000E+00
         0.00000E+00
         0.00000E+00
         0.00000E+00
         0.00000E+00
         0.00000E+00
         0.00000E+00
         0.00000E+00
         0.00000E+00
         0.00000E+00
         0.00000E+00
         0.00000E+00
         0.00000E+00
         0.00000E+00
         0.00000E+00
         0.00000E+00
         0.00000E+00
         0.00000E+00
         0.00000E+00
         0.00000E+00
         0.00000E+00
         0.00000E+00
         0.00000E+00
         0.00000E+00
         0.00000E+00
         0.00000E+00
         0.00000E+00
         0.00000E+00
         0.00000E+00
         0.00000E+00
         0.00000E+00
         0.00000E+00
         0.00000E+00
         0.00000E+00
         0.00000E+00
         0.00000E+00
         0.00000E+00
         0.00000E+00
         0.00000E+00
         0.00000E+00
         0.00000E+00
         0.00000E+00
         0.00000E+00
         0.00000E+00
         0.00000E+00
         0.00000E+00
         0.00000E+00
         0.00000E+00
         0.00000E+00
         0.00000E+00
         0.00000E+00
         0.00000E+00
         0.00000E+00
         0.00000E+00
         0.00000E+00
         0.00000E+00
         0.00000E+00
         0.00000E+00
         0.00000E+00
         0.00000E+00
         0.00000E+00
         0.00000E+00
         0.00000E+00
         0.00000E+00
         0.00000E+00
         0.00000E+00
         0.00000E+00
         0.00000E+00
         0.00000E+00
         0.00000E+00
         0.00000E+00
         0.00000E+00
         0.00000E+00
         0.00000E+00
         0.00000E+00
         0.00000E+00
         0.00000E+00
         0.00000E+00
         0.00000E+00
         0.00000E+00
         0.00000E+00
         0.00000E+00
         0.00000E+00
         0.00000E+00
         0.00000E+00
         0.00000E+00
         0.00000E+00
         0.00000E+00
         0.00000E+00
         0.00000E+00
         0.00000E+00
         0.00000E+00
         0.00000E+00
         0.00000E+00
         0.00000E+00
         0.00000E+00
         0.00000E+00
         0.00000E+00
         0.00000E+00
         0.00000E+00
         0.00000E+00
         0.00000E+00
         0.00000E+00
         0.00000E+00
         0.00000E+00
         0.00000E+00
         0.00000E+00
         0.00000E+00
         0.00000E+00
         0.00000E+00
         0.00000E+00
         0.00000E+00
         0.00000E+00
         0.00000E+00
         0.00000E+00
         0.00000E+00
         0.00000E+00
         0.00000E+00
         0.00000E+00
         0.00000E+00
         0.00000E+00
         0.00000E+00
         0.00000E+00
         0.00000E+00
         0.00000E+00
         0.00000E+00
         0.00000E+00
         0.00000E+00
         0.00000E+00
         0.00000E+00
         0.00000E+00
         0.00000E+00
         0.00000E+00
         0.00000E+00
         0.00000E+00
         0.00000E+00
         0.00000E+00
         0.00000E+00
         0.00000E+00
         0.00000E+00
         0.00000E+00
         0.00000E+00
         0.00000E+00
         0.00000E+00
         0.00000E+00
         0.00000E+00
         0.00000E+00
         0.00000E+00
         0.00000E+00
         0.00000E+00
         0.00000E+00
         0.00000E+00
         0.00000E+00
         0.00000E+00
         0.00000E+00
         0.00000E+00
         0.00000E+00
         0.00000E+00
         0.00000E+00
         0.00000E+00
         0.00000E+00
         0.00000E+00
         0.00000E+00
         0.00000E+00
         0.00000E+00
         0.00000E+00
         0.00000E+00
         0.00000E+00
         0.00000E+00
         0.00000E+00
         0.00000E+00
         0.00000E+00
         0.00000E+00
         0.00000E+00
         0.00000E+00
         0.00000E+00
         0.00000E+00
         0.00000E+00
         0.00000E+00
         0.00000E+00
         0.00000E+00
         0.00000E+00
         0.00000E+00
         0.00000E+00
         0.00000E+00
         0.00000E+00
         0.00000E+00
         0.00000E+00
         0.00000E+00
         0.00000E+00
         0.00000E+00
         0.00000E+00
         0.00000E+00
         0.00000E+00
         0.00000E+00
         0.00000E+00
         0.00000E+00
         0.00000E+00
         0.00000E+00
         0.00000E+00
         0.00000E+00
         0.00000E+00
         0.00000E+00
         0.00000E+00
         0.00000E+00
         0.00000E+00
         0.00000E+00
         0.00000E+00
         0.00000E+00
         0.00000E+00
         0.00000E+00
         0.00000E+00
         0.00000E+00
         0.00000E+00
         0.00000E+00
         0.00000E+00
         0.00000E+00
         0.00000E+00
         0.00000E+00
         0.00000E+00
         0.00000E+00
         0.00000E+00
         0.00000E+00
         0.00000E+00
         0.00000E+00
         0.00000E+00
         0.00000E+00
         0.00000E+00
         0.00000E+00
         0.00000E+00
         0.00000E+00
         0.00000E+00
         0.00000E+00
         0.00000E+00
         0.00000E+00
         0.00000E+00
         0.00000E+00
         0.00000E+00
         0.00000E+00
         0.00000E+00
         0.00000E+00
         0.00000E+00
         0.00000E+00
         0.00000E+00
         0.00000E+00
         0.00000E+00
         0.00000E+00
         0.00000E+00
         0.00000E+00
         0.00000E+00
         0.00000E+00
         0.00000E+00
         0.00000E+00
         0.00000E+00
         0.00000E+00
         0.00000E+00
         0.00000E+00
         0.00000E+00
         0.00000E+00
         0.00000E+00
         0.00000E+00
         0.00000E+00
         0.00000E+00
         0.00000E+00
         0.00000E+00
         0.00000E+00
         0.00000E+00
         0.00000E+00
         0.00000E+00
         0.00000E+00
         0.00000E+00
         0.00000E+00
         0.00000E+00
         0.00000E+00
         0.00000E+00
         0.00000E+00
         0.00000E+00
         0.00000E+00
         0.00000E+00
         0.00000E+00
         0.00000E+00
         0.00000E+00
         0.00000E+00
         0.00000E+00
         0.00000E+00
         0.00000E+00
         0.00000E+00
         0.00000E+00
         0.00000E+00
         0.00000E+00
         0.00000E+00
         0.00000E+00
         0.00000E+00
         0.00000E+00
         0.00000E+00
         0.00000E+00
         0.00000E+00
         0.00000E+00
         0.00000E+00
         0.00000E+00
         0.00000E+00
         0.00000E+00
         0.00000E+00
         0.00000E+00
         0.00000E+00
         0.00000E+00
         0.00000E+00
         0.00000E+00
         0.00000E+00
         0.00000E+00
         0.00000E+00
         0.00000E+00
         0.00000E+00
         0.00000E+00
         0.00000E+00
         0.00000E+00
         0.00000E+00
         0.00000E+00
         0.00000E+00
         0.00000E+00
         0.00000E+00
         0.00000E+00
         0.00000E+00
         0.00000E+00
         0.00000E+00
         0.00000E+00
         0.00000E+00
         0.00000E+00
         0.00000E+00
         0.00000E+00
         0.00000E+00
         0.00000E+00
         0.00000E+00
         0.00000E+00
         0.00000E+00
         0.00000E+00
         0.00000E+00
         0.00000E+00
         0.00000E+00
         0.00000E+00
         0.00000E+00
         0.00000E+00
         0.00000E+00
         0.00000E+00
         0.00000E+00
         0.00000E+00
         0.00000E+00
         0.00000E+00
         0.00000E+00
         0.00000E+00
         0.00000E+00
         0.00000E+00
         0.00000E+00
         0.00000E+00
         0.00000E+00
         0.00000E+00
         0.00000E+00
         0.00000E+00
         0.00000E+00
         0.00000E+00
         0.00000E+00
         0.00000E+00
         0.00000E+00
         0.00000E+00
         0.00000E+00
         0.00000E+00
         0.00000E+00
         0.00000E+00
         0.00000E+00
         0.00000E+00
         0.00000E+00
         0.00000E+00
         0.00000E+00
         0.00000E+00
         0.00000E+00
         0.00000E+00
         0.00000E+00
         0.00000E+00
         0.00000E+00
         0.00000E+00
         0.00000E+00
         0.00000E+00
         0.00000E+00
         0.00000E+00
         0.00000E+00
         0.00000E+00
         0.00000E+00
         0.00000E+00
         0.00000E+00
         0.00000E+00
         0.00000E+00
         0.00000E+00
         0.00000E+00
         0.00000E+00
         0.00000E+00
         0.00000E+00
         0.00000E+00
         0.00000E+00
         0.00000E+00
         0.00000E+00
         0.00000E+00
         0.00000E+00
         0.00000E+00
         0.00000E+00
         0.00000E+00
         0.00000E+00
         0.00000E+00
         0.00000E+00
         0.00000E+00
         0.00000E+00
         0.00000E+00
         0.00000E+00
         0.00000E+00
         0.00000E+00
         0.00000E+00
         0.00000E+00
         0.00000E+00
         0.00000E+00
         0.00000E+00
         0.00000E+00
         0.00000E+00
         0.00000E+00
         0.00000E+00
         0.00000E+00
         0.00000E+00
         0.00000E+00
         0.00000E+00
         0.00000E+00
         0.00000E+00
         0.00000E+00
         0.00000E+00
         0.00000E+00
         0.00000E+00
         0.00000E+00
         0.00000E+00
         0.00000E+00
         0.00000E+00
         0.00000E+00
         0.00000E+00
         0.00000E+00
         0.00000E+00
         0.00000E+00
         0.00000E+00
         0.00000E+00
         0.00000E+00
         0.00000E+00
         0.00000E+00
         0.00000E+00
         0.00000E+00
         0.00000E+00
         0.00000E+00
         0.00000E+00
         0.00000E+00
         0.00000E+00
         0.00000E+00
         0.00000E+00
         0.00000E+00
         0.00000E+00
         0.00000E+00
         0.00000E+00
         0.00000E+00
         0.00000E+00
         0.00000E+00
         0.00000E+00
         0.00000E+00
         0.00000E+00
         0.00000E+00
         0.00000E+00
         0.00000E+00
         0.00000E+00
         0.00000E+00
         0.00000E+00
         0.00000E+00
         0.00000E+00
         0.00000E+00
         0.00000E+00
         0.00000E+00
         0.00000E+00
         0.00000E+00
         0.00000E+00
         0.00000E+00
         0.00000E+00
         0.00000E+00
         0.00000E+00
         0.00000E+00
         0.00000E+00
         0.00000E+00
         0.00000E+00
         0.00000E+00
         0.00000E+00
         0.00000E+00
         0.00000E+00
         0.00000E+00
         0.00000E+00
         0.00000E+00
         0.00000E+00
         0.00000E+00
         0.00000E+00
         0.00000E+00
         0.00000E+00
         0.00000E+00
         0.00000E+00
         0.00000E+00
         0.00000E+00
         0.00000E+00
         0.00000E+00
         0.00000E+00
         0.00000E+00
         0.00000E+00
         0.00000E+00
         0.00000E+00
         0.00000E+00
         0.00000E+00
         0.00000E+00
         0.00000E+00
         0.00000E+00
         0.00000E+00
         0.00000E+00
         0.00000E+00
         0.00000E+00
         0.00000E+00
         0.00000E+00
         0.00000E+00
         0.00000E+00
         0.00000E+00
         0.00000E+00
         0.00000E+00
         0.00000E+00
         0.00000E+00
         0.00000E+00
         0.00000E+00
         0.00000E+00
         0.00000E+00
         0.00000E+00
         0.00000E+00
         0.00000E+00
         0.00000E+00
         0.00000E+00
         0.00000E+00
         0.00000E+00
         0.00000E+00
         0.00000E+00
         0.00000E+00
         0.00000E+00
         0.00000E+00
         0.00000E+00
         0.00000E+00
         0.00000E+00
         0.00000E+00
         0.00000E+00
         0.00000E+00
         0.00000E+00
         0.00000E+00
         0.00000E+00
         0.00000E+00
         0.00000E+00
         0.00000E+00
         0.00000E+00
         0.00000E+00
         0.00000E+00
         0.00000E+00
         0.00000E+00
         0.00000E+00
         0.00000E+00
         0.00000E+00
         0.00000E+00
         0.00000E+00
         0.00000E+00
         0.00000E+00
         0.00000E+00
         0.00000E+00
         0.00000E+00
         0.00000E+00
         0.00000E+00
         0.00000E+00
         0.00000E+00
         0.00000E+00
         0.00000E+00
         0.00000E+00
         0.00000E+00
         0.00000E+00
         0.00000E+00
         0.00000E+00
         0.00000E+00
         0.00000E+00
         0.00000E+00
         0.00000E+00
         0.00000E+00
         0.00000E+00
         0.00000E+00
         0.00000E+00
         0.00000E+00
         0.00000E+00
         0.00000E+00
         0.00000E+00
         0.00000E+00
         0.00000E+00
         0.00000E+00
         0.00000E+00
         0.00000E+00
         0.00000E+00
         0.00000E+00
         0.00000E+00
         0.00000E+00
         0.00000E+00
         0.00000E+00
         0.00000E+00
         0.00000E+00
         0.00000E+00
         0.00000E+00
         0.00000E+00
         0.00000E+00
         0.00000E+00
         0.00000E+00
         0.00000E+00
         0.00000E+00
         0.00000E+00
         0.00000E+00
         0.00000E+00
         0.00000E+00
         0.00000E+00
         0.00000E+00
         0.00000E+00
         0.00000E+00
         0.00000E+00
         0.00000E+00
         0.00000E+00
         0.00000E+00
         0.00000E+00
         0.00000E+00
         0.00000E+00
         0.00000E+00
         0.00000E+00
         0.00000E+00
         0.00000E+00
         0.00000E+00
         0.00000E+00
         0.00000E+00
         0.00000E+00
         0.00000E+00
         0.00000E+00
         0.00000E+00
         0.00000E+00
         0.00000E+00
         0.00000E+00
         0.00000E+00
         0.00000E+00
         0.00000E+00
         0.00000E+00
         0.00000E+00
         0.00000E+00
         0.00000E+00
         0.00000E+00
         0.00000E+00
         0.00000E+00
         0.00000E+00
         0.00000E+00
         0.00000E+00
         0.00000E+00
         0.00000E+00
         0.00000E+00
         0.00000E+00
         0.00000E+00
         0.00000E+00
         0.00000E+00
         0.00000E+00
         0.00000E+00
         0.00000E+00
         0.00000E+00
         0.00000E+00
         0.00000E+00
         0.00000E+00
         0.00000E+00
         0.00000E+00
         0.00000E+00
         0.00000E+00
         0.00000E+00
         0.00000E+00
         0.00000E+00
         0.00000E+00
         0.00000E+00
         0.00000E+00
         0.00000E+00
         0.00000E+00
         0.00000E+00
         0.00000E+00
         0.00000E+00
         0.00000E+00
         0.00000E+00
         0.00000E+00
         0.00000E+00
         0.00000E+00
         0.00000E+00
         0.00000E+00
         0.00000E+00
         0.00000E+00
         0.00000E+00
         0.00000E+00
         0.00000E+00
         0.00000E+00
         0.00000E+00
         0.00000E+00
         0.00000E+00
         0.00000E+00
         0.00000E+00
         0.00000E+00
         0.00000E+00
         0.00000E+00
         0.00000E+00
         0.00000E+00
         0.00000E+00
         0.00000E+00
         0.00000E+00
         0.00000E+00
         0.00000E+00
         0.00000E+00
         0.00000E+00
         0.00000E+00
         0.00000E+00
         0.00000E+00
         0.00000E+00
         0.00000E+00
         0.00000E+00
         0.00000E+00
         0.00000E+00
         0.00000E+00
         0.00000E+00
         0.00000E+00
         0.00000E+00
         0.00000E+00
         0.00000E+00
         0.00000E+00
         0.00000E+00
         0.00000E+00
         0.00000E+00
         0.00000E+00
         0.00000E+00
         0.00000E+00
         0.00000E+00
         0.00000E+00
         0.00000E+00
         0.00000E+00
         0.00000E+00
         0.00000E+00
         0.00000E+00
         0.00000E+00
         0.00000E+00
         0.00000E+00
         0.00000E+00
         0.00000E+00
         0.00000E+00
         0.00000E+00
         0.00000E+00
         0.00000E+00
         0.00000E+00
         0.00000E+00
         0.00000E+00
         0.00000E+00
         0.00000E+00
         0.00000E+00
         0.00000E+00
         0.00000E+00
         0.00000E+00
         0.00000E+00
         0.00000E+00
         0.00000E+00
         0.00000E+00
         0.00000E+00
         0.00000E+00
         0.00000E+00
         0.00000E+00
         0.00000E+00
         0.00000E+00
         0.00000E+00
         0.00000E+00
         0.00000E+00
         0.00000E+00
         0.00000E+00
         0.00000E+00
         0.00000E+00
         0.00000E+00
         0.00000E+00
         0.00000E+00
         0.00000E+00
         0.00000E+00
         0.00000E+00
         0.00000E+00
         0.00000E+00
         0.00000E+00
         0.00000E+00
         0.00000E+00
         0.00000E+00
         0.00000E+00
         0.00000E+00
         0.00000E+00
         0.00000E+00
         0.00000E+00
         0.00000E+00
         0.00000E+00
         0.00000E+00
         0.00000E+00
         0.00000E+00
         0.00000E+00
         0.00000E+00
         0.00000E+00
         0.00000E+00
         0.00000E+00
         0.00000E+00
         0.00000E+00
         0.00000E+00
         0.00000E+00
         0.00000E+00
         0.00000E+00
         0.00000E+00
         0.00000E+00
         0.00000E+00
         0.00000E+00
         0.00000E+00
         0.00000E+00
         0.00000E+00
         0.00000E+00
         0.00000E+00
         0.00000E+00
         0.00000E+00
         0.00000E+00
         0.00000E+00
         0.00000E+00
         0.00000E+00
         0.00000E+00
         0.00000E+00
         0.00000E+00
         0.00000E+00
         0.00000E+00
         0.00000E+00
         0.00000E+00
         0.00000E+00
         0.00000E+00
         0.00000E+00
         0.00000E+00
         0.00000E+00
         0.00000E+00
         0.00000E+00
         0.00000E+00
         0.00000E+00
         0.00000E+00
         0.00000E+00
         0.00000E+00
         0.00000E+00
         0.00000E+00
         0.00000E+00
         0.00000E+00
         0.00000E+00
         0.00000E+00
         0.00000E+00
         0.00000E+00
         0.00000E+00
         0.00000E+00
         0.00000E+00
         0.00000E+00
         0.00000E+00
         0.00000E+00
         0.00000E+00
         0.00000E+00
         0.00000E+00
         0.00000E+00
         0.00000E+00
         0.00000E+00
         0.00000E+00
         0.00000E+00
         0.00000E+00
         0.00000E+00
         0.00000E+00
         0.00000E+00
         0.00000E+00
         0.00000E+00
         0.00000E+00
         0.00000E+00
         0.00000E+00
         0.00000E+00
         0.00000E+00
         0.00000E+00
         0.00000E+00
         0.00000E+00
         0.00000E+00
         0.00000E+00
         0.00000E+00
         0.00000E+00
         0.00000E+00
         0.00000E+00
         0.00000E+00
         0.00000E+00
         0.00000E+00
         0.00000E+00
         0.00000E+00
         0.00000E+00
         0.00000E+00
         0.00000E+00
         0.00000E+00
         0.00000E+00
         0.00000E+00
         0.00000E+00
         0.00000E+00
         0.00000E+00
         0.00000E+00
         0.00000E+00
         0.00000E+00
         0.00000E+00
         0.00000E+00
         0.00000E+00
         0.00000E+00
         0.00000E+00
         0.00000E+00
         0.00000E+00
         0.00000E+00
         0.00000E+00
         0.00000E+00
         0.00000E+00
         0.00000E+00
         0.00000E+00
         0.00000E+00
         0.00000E+00
         0.00000E+00
         0.00000E+00
         0.00000E+00
         0.00000E+00
         0.00000E+00
         0.00000E+00
         0.00000E+00
         0.00000E+00
         0.00000E+00
         0.00000E+00
         0.00000E+00
         0.00000E+00
         0.00000E+00
         0.00000E+00
         0.00000E+00
         0.00000E+00
         0.00000E+00
         0.00000E+00
         0.00000E+00
         0.00000E+00
         0.00000E+00
         0.00000E+00
         0.00000E+00
         0.00000E+00
         0.00000E+00
         0.00000E+00
         0.00000E+00
         0.00000E+00
         0.00000E+00
         0.00000E+00
         0.00000E+00
         0.00000E+00
         0.00000E+00
         0.00000E+00
         0.00000E+00
         0.00000E+00
         0.00000E+00
         0.00000E+00
         0.00000E+00
         0.00000E+00
         0.00000E+00
         0.00000E+00
         0.00000E+00
         0.00000E+00
         0.00000E+00
         0.00000E+00
         0.00000E+00
         0.00000E+00
         0.00000E+00
         0.00000E+00
         0.00000E+00
         0.00000E+00
         0.00000E+00
         0.00000E+00
         0.00000E+00
         0.00000E+00
         0.00000E+00
         0.00000E+00
         0.00000E+00
         0.00000E+00
         0.00000E+00
         0.00000E+00
         0.00000E+00
         0.00000E+00
         0.00000E+00
         0.00000E+00
         0.00000E+00
         0.00000E+00
         0.00000E+00
         0.00000E+00
         0.00000E+00
         0.00000E+00
         0.00000E+00
         0.00000E+00
         0.00000E+00
         0.00000E+00
         0.00000E+00
         0.00000E+00
         0.00000E+00
         0.00000E+00
         0.00000E+00
         0.00000E+00
         0.00000E+00
         0.00000E+00
         0.00000E+00
         0.00000E+00
         0.00000E+00
         0.00000E+00
         0.00000E+00
         0.00000E+00
         0.00000E+00
         0.00000E+00
         0.00000E+00
         0.00000E+00
         0.00000E+00
         0.00000E+00
         0.00000E+00
         0.00000E+00
         0.00000E+00
         0.00000E+00
         0.00000E+00
         0.00000E+00
         0.00000E+00
         0.00000E+00
         0.00000E+00
         0.00000E+00
         0.00000E+00
         0.00000E+00
         0.00000E+00
         0.00000E+00
         0.00000E+00
         0.00000E+00
         0.00000E+00
         0.00000E+00
         0.00000E+00
         0.00000E+00
         0.00000E+00
         0.00000E+00
         0.00000E+00
         0.00000E+00
         0.00000E+00
         0.00000E+00
         0.00000E+00
         0.00000E+00
         0.00000E+00
         0.00000E+00
         0.00000E+00
         0.00000E+00
         0.00000E+00
         0.00000E+00
         0.00000E+00
         0.00000E+00
         0.00000E+00
         0.00000E+00
         0.00000E+00
         0.00000E+00
         0.00000E+00
         0.00000E+00
         0.00000E+00
         0.00000E+00
         0.00000E+00
         0.00000E+00
         0.00000E+00
         0.00000E+00
         0.00000E+00
         0.00000E+00
         0.00000E+00
         0.00000E+00
         0.00000E+00
         0.00000E+00
         0.00000E+00
         0.00000E+00
         0.00000E+00
         0.00000E+00
         0.00000E+00
         0.00000E+00
         0.00000E+00
         0.00000E+00
         0.00000E+00
         0.00000E+00
         0.00000E+00
         0.00000E+00
         0.00000E+00
         0.00000E+00
         0.00000E+00
         0.00000E+00
         0.00000E+00
         0.00000E+00
         0.00000E+00
         0.00000E+00
         0.00000E+00
         0.00000E+00
         0.00000E+00
         0.00000E+00
         0.00000E+00
         0.00000E+00
         0.00000E+00
         0.00000E+00
         0.00000E+00
         0.00000E+00
         0.00000E+00
         0.00000E+00
         0.00000E+00
         0.00000E+00
         0.00000E+00
         0.00000E+00
         0.00000E+00
         0.00000E+00
         0.00000E+00
         0.00000E+00
         0.00000E+00
         0.00000E+00
         0.00000E+00
         0.00000E+00
         0.00000E+00
         0.00000E+00
         0.00000E+00
         0.00000E+00
         0.00000E+00
         0.00000E+00
         0.00000E+00
         0.00000E+00
         0.00000E+00
         0.00000E+00
         0.00000E+00
         0.00000E+00
         0.00000E+00
         0.00000E+00
         0.00000E+00
         0.00000E+00
         0.00000E+00
         0.00000E+00
         0.00000E+00
         0.00000E+00
         0.00000E+00
         0.00000E+00
         0.00000E+00
         0.00000E+00
         0.00000E+00
         0.00000E+00
         0.00000E+00
         0.00000E+00
         0.00000E+00
         0.00000E+00
         0.00000E+00
         0.00000E+00
         0.00000E+00
         0.00000E+00
         0.00000E+00
         0.00000E+00
         0.00000E+00
         0.00000E+00
         0.00000E+00
         0.00000E+00
         0.00000E+00
         0.00000E+00
         0.00000E+00
         0.00000E+00
         0.00000E+00
         0.00000E+00
         0.00000E+00
         0.00000E+00
         0.00000E+00
         0.00000E+00
         0.00000E+00
         0.00000E+00
         0.00000E+00
         0.00000E+00
         0.00000E+00
         0.00000E+00
         0.00000E+00
         0.00000E+00
         0.00000E+00
         0.00000E+00
         0.00000E+00
         0.00000E+00
         0.00000E+00
         0.00000E+00
         0.00000E+00
         0.00000E+00
         0.00000E+00
         0.00000E+00
         0.00000E+00
         0.00000E+00
         0.00000E+00
         0.00000E+00
         0.00000E+00
         0.00000E+00
         0.00000E+00
         0.00000E+00
         0.00000E+00
         0.00000E+00
         0.00000E+00
         0.00000E+00
         0.00000E+00
         0.00000E+00
         0.00000E+00
         0.00000E+00
         0.00000E+00
         0.00000E+00
         0.00000E+00
         0.00000E+00
         0.00000E+00
         0.00000E+00
         0.00000E+00
         0.00000E+00
         0.00000E+00
         0.00000E+00
         0.00000E+00
         0.00000E+00
         0.00000E+00
         0.00000E+00
         0.00000E+00
         0.00000E+00
         0.00000E+00
         0.00000E+00
         0.00000E+00
         0.00000E+00
         0.00000E+00
         0.00000E+00
         0.00000E+00
         0.00000E+00
         0.00000E+00
         0.00000E+00
         0.00000E+00
         0.00000E+00
         0.00000E+00
         0.00000E+00
         0.00000E+00
         0.00000E+00
         0.00000E+00
         0.00000E+00
         0.00000E+00
         0.00000E+00
         0.00000E+00
         0.00000E+00
         0.00000E+00
         0.00000E+00
         0.00000E+00
         0.00000E+00
         0.00000E+00
         0.00000E+00
         0.00000E+00
         0.00000E+00
         0.00000E+00
         0.00000E+00
         0.00000E+00
         0.00000E+00
         0.00000E+00
         0.00000E+00
         0.00000E+00
         0.00000E+00
         0.00000E+00
         0.00000E+00
         0.00000E+00
         0.00000E+00
         0.00000E+00
         0.00000E+00
         0.00000E+00
         0.00000E+00
         0.00000E+00
         0.00000E+00
         0.00000E+00
         0.00000E+00
         0.00000E+00
         0.00000E+00
         0.00000E+00
         0.00000E+00
         0.00000E+00
         0.00000E+00
         0.00000E+00
         0.00000E+00
         0.00000E+00
         0.00000E+00
         0.00000E+00
         0.00000E+00
         0.00000E+00
         0.00000E+00
         0.00000E+00
         0.00000E+00
         0.00000E+00
         0.00000E+00
         0.00000E+00
         0.00000E+00
         0.00000E+00
         0.00000E+00
         0.00000E+00
         0.00000E+00
         0.00000E+00
         0.00000E+00
         0.00000E+00
         0.00000E+00
         0.00000E+00
         0.00000E+00
         0.00000E+00
         0.00000E+00
         0.00000E+00
         0.00000E+00
         0.00000E+00
         0.00000E+00
         0.00000E+00
         0.00000E+00
         0.00000E+00
         0.00000E+00
         0.00000E+00
         0.00000E+00
         0.00000E+00
         0.00000E+00
         0.00000E+00
         0.00000E+00
         0.00000E+00
         0.00000E+00
         0.00000E+00
         0.00000E+00
         0.00000E+00
         0.00000E+00
         0.00000E+00
         0.00000E+00
         0.00000E+00
         0.00000E+00
         0.00000E+00
         0.00000E+00
         0.00000E+00
         0.00000E+00
         0.00000E+00
         0.00000E+00
         0.00000E+00
         0.00000E+00
         0.00000E+00
         0.00000E+00
         0.00000E+00
         0.00000E+00
         0.00000E+00
         0.00000E+00
         0.00000E+00
         0.00000E+00
         0.00000E+00
         0.00000E+00
         0.00000E+00
         0.00000E+00
         0.00000E+00
         0.00000E+00
         0.00000E+00
         0.00000E+00
         0.00000E+00
         0.00000E+00
         0.00000E+00
         0.00000E+00
         0.00000E+00
         0.00000E+00
         0.00000E+00
         0.00000E+00
         0.00000E+00
         0.00000E+00
         0.00000E+00
         0.00000E+00
         0.00000E+00
         0.00000E+00
         0.00000E+00
         0.00000E+00
         0.00000E+00
         0.00000E+00
         0.00000E+00
         0.00000E+00
         0.00000E+00
         0.00000E+00
         0.00000E+00
         0.00000E+00
         0.00000E+00
         0.00000E+00
         0.00000E+00
         0.00000E+00
         0.00000E+00
         0.00000E+00
         0.00000E+00
         0.00000E+00
         0.00000E+00
         0.00000E+00
         0.00000E+00
         0.00000E+00
         0.00000E+00
         0.00000E+00
         0.00000E+00
         0.00000E+00
         0.00000E+00
         0.00000E+00
         0.00000E+00
         0.00000E+00
         0.00000E+00
         0.00000E+00
         0.00000E+00
         0.00000E+00
         0.00000E+00
         0.00000E+00
         0.00000E+00
         0.00000E+00
         0.00000E+00
         0.00000E+00
         0.00000E+00
         0.00000E+00
         0.00000E+00
         0.00000E+00
         0.00000E+00
         0.00000E+00
         0.00000E+00
         0.00000E+00
         0.00000E+00
         0.00000E+00
         0.00000E+00
         0.00000E+00
         0.00000E+00
         0.00000E+00
         0.00000E+00
         0.00000E+00
         0.00000E+00
         0.00000E+00
         0.00000E+00
         0.00000E+00
         0.00000E+00
         0.00000E+00
         0.00000E+00
         0.00000E+00
         0.00000E+00
         0.00000E+00
         0.00000E+00
         0.00000E+00
         0.00000E+00
         0.00000E+00
         0.00000E+00
         0.00000E+00
         0.00000E+00
         0.00000E+00
         0.00000E+00
         0.00000E+00
         0.00000E+00
         0.00000E+00
         0.00000E+00
         0.00000E+00
         0.00000E+00
         0.00000E+00
         0.00000E+00
         0.00000E+00
         0.00000E+00
         0.00000E+00
         0.00000E+00
         0.00000E+00
         0.00000E+00
         0.00000E+00
         0.00000E+00
         0.00000E+00
         0.00000E+00
         0.00000E+00
         0.00000E+00
         0.00000E+00
         0.00000E+00
         0.00000E+00
         0.00000E+00
         0.00000E+00
         0.00000E+00
         0.00000E+00
         0.00000E+00
         0.00000E+00
         0.00000E+00
         0.00000E+00
         0.00000E+00
         0.00000E+00
         0.00000E+00
         0.00000E+00
  
SCALARS                         fint_z  double 1
LOOKUP_TABLE default
         0.00000E+00
         0.00000E+00
         0.00000E+00
         0.00000E+00
         0.00000E+00
         0.00000E+00
         0.00000E+00
         0.00000E+00
         0.00000E+00
         0.00000E+00
         0.00000E+00
         0.00000E+00
         0.00000E+00
         0.00000E+00
         0.00000E+00
         0.00000E+00
         0.00000E+00
         0.00000E+00
         0.00000E+00
         0.00000E+00
         0.00000E+00
         0.00000E+00
         0.00000E+00
         0.00000E+00
         0.00000E+00
         0.00000E+00
         0.00000E+00
         0.00000E+00
         0.00000E+00
         0.00000E+00
         0.00000E+00
         0.00000E+00
         0.00000E+00
         0.00000E+00
         0.00000E+00
         0.00000E+00
         0.00000E+00
         0.00000E+00
         0.00000E+00
         0.00000E+00
         0.00000E+00
         0.00000E+00
         0.00000E+00
         0.00000E+00
         0.00000E+00
         0.00000E+00
         0.00000E+00
         0.00000E+00
         0.00000E+00
         0.00000E+00
         0.00000E+00
         0.00000E+00
         0.00000E+00
         0.00000E+00
         0.00000E+00
         0.00000E+00
         0.00000E+00
         0.00000E+00
         0.00000E+00
         0.00000E+00
         0.00000E+00
         0.00000E+00
         0.00000E+00
         0.00000E+00
         0.00000E+00
         0.00000E+00
         0.00000E+00
         0.00000E+00
         0.00000E+00
         0.00000E+00
         0.00000E+00
         0.00000E+00
         0.00000E+00
         0.00000E+00
         0.00000E+00
         0.00000E+00
         0.00000E+00
         0.00000E+00
         0.00000E+00
         0.00000E+00
         0.00000E+00
         0.00000E+00
         0.00000E+00
         0.00000E+00
         0.00000E+00
         0.00000E+00
         0.00000E+00
         0.00000E+00
         0.00000E+00
         0.00000E+00
         0.00000E+00
         0.00000E+00
         0.00000E+00
         0.00000E+00
         0.00000E+00
         0.00000E+00
         0.00000E+00
         0.00000E+00
         0.00000E+00
         0.00000E+00
         0.00000E+00
         0.00000E+00
         0.00000E+00
         0.00000E+00
         0.00000E+00
         0.00000E+00
         0.00000E+00
         0.00000E+00
         0.00000E+00
         0.00000E+00
         0.00000E+00
         0.00000E+00
         0.00000E+00
         0.00000E+00
         0.00000E+00
         0.00000E+00
         0.00000E+00
         0.00000E+00
         0.00000E+00
         0.00000E+00
         0.00000E+00
         0.00000E+00
         0.00000E+00
         0.00000E+00
         0.00000E+00
         0.00000E+00
         0.00000E+00
         0.00000E+00
         0.00000E+00
         0.00000E+00
         0.00000E+00
         0.00000E+00
         0.00000E+00
         0.00000E+00
         0.00000E+00
         0.00000E+00
         0.00000E+00
         0.00000E+00
         0.00000E+00
         0.00000E+00
         0.00000E+00
         0.00000E+00
         0.00000E+00
         0.00000E+00
         0.00000E+00
         0.00000E+00
         0.00000E+00
         0.00000E+00
         0.00000E+00
         0.00000E+00
         0.00000E+00
         0.00000E+00
         0.00000E+00
         0.00000E+00
         0.00000E+00
         0.00000E+00
         0.00000E+00
         0.00000E+00
         0.00000E+00
         0.00000E+00
         0.00000E+00
         0.00000E+00
         0.00000E+00
         0.00000E+00
         0.00000E+00
         0.00000E+00
         0.00000E+00
         0.00000E+00
         0.00000E+00
         0.00000E+00
         0.00000E+00
         0.00000E+00
         0.00000E+00
         0.00000E+00
         0.00000E+00
         0.00000E+00
         0.00000E+00
         0.00000E+00
         0.00000E+00
         0.00000E+00
         0.00000E+00
         0.00000E+00
         0.00000E+00
         0.00000E+00
         0.00000E+00
         0.00000E+00
         0.00000E+00
         0.00000E+00
         0.00000E+00
         0.00000E+00
         0.00000E+00
         0.00000E+00
         0.00000E+00
         0.00000E+00
         0.00000E+00
         0.00000E+00
         0.00000E+00
         0.00000E+00
         0.00000E+00
         0.00000E+00
         0.00000E+00
         0.00000E+00
         0.00000E+00
         0.00000E+00
         0.00000E+00
         0.00000E+00
         0.00000E+00
         0.00000E+00
         0.00000E+00
         0.00000E+00
         0.00000E+00
         0.00000E+00
         0.00000E+00
         0.00000E+00
         0.00000E+00
         0.00000E+00
         0.00000E+00
         0.00000E+00
         0.00000E+00
         0.00000E+00
         0.00000E+00
         0.00000E+00
         0.00000E+00
         0.00000E+00
         0.00000E+00
         0.00000E+00
         0.00000E+00
         0.00000E+00
         0.00000E+00
         0.00000E+00
         0.00000E+00
         0.00000E+00
         0.00000E+00
         0.00000E+00
         0.00000E+00
         0.00000E+00
         0.00000E+00
         0.00000E+00
         0.00000E+00
         0.00000E+00
         0.00000E+00
         0.00000E+00
         0.00000E+00
         0.00000E+00
         0.00000E+00
         0.00000E+00
         0.00000E+00
         0.00000E+00
         0.00000E+00
         0.00000E+00
         0.00000E+00
         0.00000E+00
         0.00000E+00
         0.00000E+00
         0.00000E+00
         0.00000E+00
         0.00000E+00
         0.00000E+00
         0.00000E+00
         0.00000E+00
         0.00000E+00
         0.00000E+00
         0.00000E+00
         0.00000E+00
         0.00000E+00
         0.00000E+00
         0.00000E+00
         0.00000E+00
         0.00000E+00
         0.00000E+00
         0.00000E+00
         0.00000E+00
         0.00000E+00
         0.00000E+00
         0.00000E+00
         0.00000E+00
         0.00000E+00
         0.00000E+00
         0.00000E+00
         0.00000E+00
         0.00000E+00
         0.00000E+00
         0.00000E+00
         0.00000E+00
         0.00000E+00
         0.00000E+00
         0.00000E+00
         0.00000E+00
         0.00000E+00
         0.00000E+00
         0.00000E+00
         0.00000E+00
         0.00000E+00
         0.00000E+00
         0.00000E+00
         0.00000E+00
         0.00000E+00
         0.00000E+00
         0.00000E+00
         0.00000E+00
         0.00000E+00
         0.00000E+00
         0.00000E+00
         0.00000E+00
         0.00000E+00
         0.00000E+00
         0.00000E+00
         0.00000E+00
         0.00000E+00
         0.00000E+00
         0.00000E+00
         0.00000E+00
         0.00000E+00
         0.00000E+00
         0.00000E+00
         0.00000E+00
         0.00000E+00
         0.00000E+00
         0.00000E+00
         0.00000E+00
         0.00000E+00
         0.00000E+00
         0.00000E+00
         0.00000E+00
         0.00000E+00
         0.00000E+00
         0.00000E+00
         0.00000E+00
         0.00000E+00
         0.00000E+00
         0.00000E+00
         0.00000E+00
         0.00000E+00
         0.00000E+00
         0.00000E+00
         0.00000E+00
         0.00000E+00
         0.00000E+00
         0.00000E+00
         0.00000E+00
         0.00000E+00
         0.00000E+00
         0.00000E+00
         0.00000E+00
         0.00000E+00
         0.00000E+00
         0.00000E+00
         0.00000E+00
         0.00000E+00
         0.00000E+00
         0.00000E+00
         0.00000E+00
         0.00000E+00
         0.00000E+00
         0.00000E+00
         0.00000E+00
         0.00000E+00
         0.00000E+00
         0.00000E+00
         0.00000E+00
         0.00000E+00
         0.00000E+00
         0.00000E+00
         0.00000E+00
         0.00000E+00
         0.00000E+00
         0.00000E+00
         0.00000E+00
         0.00000E+00
         0.00000E+00
         0.00000E+00
         0.00000E+00
         0.00000E+00
         0.00000E+00
         0.00000E+00
         0.00000E+00
         0.00000E+00
         0.00000E+00
         0.00000E+00
         0.00000E+00
         0.00000E+00
         0.00000E+00
         0.00000E+00
         0.00000E+00
         0.00000E+00
         0.00000E+00
         0.00000E+00
         0.00000E+00
         0.00000E+00
         0.00000E+00
         0.00000E+00
         0.00000E+00
         0.00000E+00
         0.00000E+00
         0.00000E+00
         0.00000E+00
         0.00000E+00
         0.00000E+00
         0.00000E+00
         0.00000E+00
         0.00000E+00
         0.00000E+00
         0.00000E+00
         0.00000E+00
         0.00000E+00
         0.00000E+00
         0.00000E+00
         0.00000E+00
         0.00000E+00
         0.00000E+00
         0.00000E+00
         0.00000E+00
         0.00000E+00
         0.00000E+00
         0.00000E+00
         0.00000E+00
         0.00000E+00
         0.00000E+00
         0.00000E+00
         0.00000E+00
         0.00000E+00
         0.00000E+00
         0.00000E+00
         0.00000E+00
         0.00000E+00
         0.00000E+00
         0.00000E+00
         0.00000E+00
         0.00000E+00
         0.00000E+00
         0.00000E+00
         0.00000E+00
         0.00000E+00
         0.00000E+00
         0.00000E+00
         0.00000E+00
         0.00000E+00
         0.00000E+00
         0.00000E+00
         0.00000E+00
         0.00000E+00
         0.00000E+00
         0.00000E+00
         0.00000E+00
         0.00000E+00
         0.00000E+00
         0.00000E+00
         0.00000E+00
         0.00000E+00
         0.00000E+00
         0.00000E+00
         0.00000E+00
         0.00000E+00
         0.00000E+00
         0.00000E+00
         0.00000E+00
         0.00000E+00
         0.00000E+00
         0.00000E+00
         0.00000E+00
         0.00000E+00
         0.00000E+00
         0.00000E+00
         0.00000E+00
         0.00000E+00
         0.00000E+00
         0.00000E+00
         0.00000E+00
         0.00000E+00
         0.00000E+00
         0.00000E+00
         0.00000E+00
         0.00000E+00
         0.00000E+00
         0.00000E+00
         0.00000E+00
         0.00000E+00
         0.00000E+00
         0.00000E+00
         0.00000E+00
         0.00000E+00
         0.00000E+00
         0.00000E+00
         0.00000E+00
         0.00000E+00
         0.00000E+00
         0.00000E+00
         0.00000E+00
         0.00000E+00
         0.00000E+00
         0.00000E+00
         0.00000E+00
         0.00000E+00
         0.00000E+00
         0.00000E+00
         0.00000E+00
         0.00000E+00
         0.00000E+00
         0.00000E+00
         0.00000E+00
         0.00000E+00
         0.00000E+00
         0.00000E+00
         0.00000E+00
         0.00000E+00
         0.00000E+00
         0.00000E+00
         0.00000E+00
         0.00000E+00
         0.00000E+00
         0.00000E+00
         0.00000E+00
         0.00000E+00
         0.00000E+00
         0.00000E+00
         0.00000E+00
         0.00000E+00
         0.00000E+00
         0.00000E+00
         0.00000E+00
         0.00000E+00
         0.00000E+00
         0.00000E+00
         0.00000E+00
         0.00000E+00
         0.00000E+00
         0.00000E+00
         0.00000E+00
         0.00000E+00
         0.00000E+00
         0.00000E+00
         0.00000E+00
         0.00000E+00
         0.00000E+00
         0.00000E+00
         0.00000E+00
         0.00000E+00
         0.00000E+00
         0.00000E+00
         0.00000E+00
         0.00000E+00
         0.00000E+00
         0.00000E+00
         0.00000E+00
         0.00000E+00
         0.00000E+00
         0.00000E+00
         0.00000E+00
         0.00000E+00
         0.00000E+00
         0.00000E+00
         0.00000E+00
         0.00000E+00
         0.00000E+00
         0.00000E+00
         0.00000E+00
         0.00000E+00
         0.00000E+00
         0.00000E+00
         0.00000E+00
         0.00000E+00
         0.00000E+00
         0.00000E+00
         0.00000E+00
         0.00000E+00
         0.00000E+00
         0.00000E+00
         0.00000E+00
         0.00000E+00
         0.00000E+00
         0.00000E+00
         0.00000E+00
         0.00000E+00
         0.00000E+00
         0.00000E+00
         0.00000E+00
         0.00000E+00
         0.00000E+00
         0.00000E+00
         0.00000E+00
         0.00000E+00
         0.00000E+00
         0.00000E+00
         0.00000E+00
         0.00000E+00
         0.00000E+00
         0.00000E+00
         0.00000E+00
         0.00000E+00
         0.00000E+00
         0.00000E+00
         0.00000E+00
         0.00000E+00
         0.00000E+00
         0.00000E+00
         0.00000E+00
         0.00000E+00
         0.00000E+00
         0.00000E+00
         0.00000E+00
         0.00000E+00
         0.00000E+00
         0.00000E+00
         0.00000E+00
         0.00000E+00
         0.00000E+00
         0.00000E+00
         0.00000E+00
         0.00000E+00
         0.00000E+00
         0.00000E+00
         0.00000E+00
         0.00000E+00
         0.00000E+00
         0.00000E+00
         0.00000E+00
         0.00000E+00
         0.00000E+00
         0.00000E+00
         0.00000E+00
         0.00000E+00
         0.00000E+00
         0.00000E+00
         0.00000E+00
         0.00000E+00
         0.00000E+00
         0.00000E+00
         0.00000E+00
         0.00000E+00
         0.00000E+00
         0.00000E+00
         0.00000E+00
         0.00000E+00
         0.00000E+00
         0.00000E+00
         0.00000E+00
         0.00000E+00
         0.00000E+00
         0.00000E+00
         0.00000E+00
         0.00000E+00
         0.00000E+00
         0.00000E+00
         0.00000E+00
         0.00000E+00
         0.00000E+00
         0.00000E+00
         0.00000E+00
         0.00000E+00
         0.00000E+00
         0.00000E+00
         0.00000E+00
         0.00000E+00
         0.00000E+00
         0.00000E+00
         0.00000E+00
         0.00000E+00
         0.00000E+00
         0.00000E+00
         0.00000E+00
         0.00000E+00
         0.00000E+00
         0.00000E+00
         0.00000E+00
         0.00000E+00
         0.00000E+00
         0.00000E+00
         0.00000E+00
         0.00000E+00
         0.00000E+00
         0.00000E+00
         0.00000E+00
         0.00000E+00
         0.00000E+00
         0.00000E+00
         0.00000E+00
         0.00000E+00
         0.00000E+00
         0.00000E+00
         0.00000E+00
         0.00000E+00
         0.00000E+00
         0.00000E+00
         0.00000E+00
         0.00000E+00
         0.00000E+00
         0.00000E+00
         0.00000E+00
         0.00000E+00
         0.00000E+00
         0.00000E+00
         0.00000E+00
         0.00000E+00
         0.00000E+00
         0.00000E+00
         0.00000E+00
         0.00000E+00
         0.00000E+00
         0.00000E+00
         0.00000E+00
         0.00000E+00
         0.00000E+00
         0.00000E+00
         0.00000E+00
         0.00000E+00
         0.00000E+00
         0.00000E+00
         0.00000E+00
         0.00000E+00
         0.00000E+00
         0.00000E+00
         0.00000E+00
         0.00000E+00
         0.00000E+00
         0.00000E+00
         0.00000E+00
         0.00000E+00
         0.00000E+00
         0.00000E+00
         0.00000E+00
         0.00000E+00
         0.00000E+00
         0.00000E+00
         0.00000E+00
         0.00000E+00
         0.00000E+00
         0.00000E+00
         0.00000E+00
         0.00000E+00
         0.00000E+00
         0.00000E+00
         0.00000E+00
         0.00000E+00
         0.00000E+00
         0.00000E+00
         0.00000E+00
         0.00000E+00
         0.00000E+00
         0.00000E+00
         0.00000E+00
         0.00000E+00
         0.00000E+00
         0.00000E+00
         0.00000E+00
         0.00000E+00
         0.00000E+00
         0.00000E+00
         0.00000E+00
         0.00000E+00
         0.00000E+00
         0.00000E+00
         0.00000E+00
         0.00000E+00
         0.00000E+00
         0.00000E+00
         0.00000E+00
         0.00000E+00
         0.00000E+00
         0.00000E+00
         0.00000E+00
         0.00000E+00
         0.00000E+00
         0.00000E+00
         0.00000E+00
         0.00000E+00
         0.00000E+00
         0.00000E+00
         0.00000E+00
         0.00000E+00
         0.00000E+00
         0.00000E+00
         0.00000E+00
         0.00000E+00
         0.00000E+00
         0.00000E+00
         0.00000E+00
         0.00000E+00
         0.00000E+00
         0.00000E+00
         0.00000E+00
         0.00000E+00
         0.00000E+00
         0.00000E+00
         0.00000E+00
         0.00000E+00
         0.00000E+00
         0.00000E+00
         0.00000E+00
         0.00000E+00
         0.00000E+00
         0.00000E+00
         0.00000E+00
         0.00000E+00
         0.00000E+00
         0.00000E+00
         0.00000E+00
         0.00000E+00
         0.00000E+00
         0.00000E+00
         0.00000E+00
         0.00000E+00
         0.00000E+00
         0.00000E+00
         0.00000E+00
         0.00000E+00
         0.00000E+00
         0.00000E+00
         0.00000E+00
         0.00000E+00
         0.00000E+00
         0.00000E+00
         0.00000E+00
         0.00000E+00
         0.00000E+00
         0.00000E+00
         0.00000E+00
         0.00000E+00
         0.00000E+00
         0.00000E+00
         0.00000E+00
         0.00000E+00
         0.00000E+00
         0.00000E+00
         0.00000E+00
         0.00000E+00
         0.00000E+00
         0.00000E+00
         0.00000E+00
         0.00000E+00
         0.00000E+00
         0.00000E+00
         0.00000E+00
         0.00000E+00
         0.00000E+00
         0.00000E+00
         0.00000E+00
         0.00000E+00
         0.00000E+00
         0.00000E+00
         0.00000E+00
         0.00000E+00
         0.00000E+00
         0.00000E+00
         0.00000E+00
         0.00000E+00
         0.00000E+00
         0.00000E+00
         0.00000E+00
         0.00000E+00
         0.00000E+00
         0.00000E+00
         0.00000E+00
         0.00000E+00
         0.00000E+00
         0.00000E+00
         0.00000E+00
         0.00000E+00
         0.00000E+00
         0.00000E+00
         0.00000E+00
         0.00000E+00
         0.00000E+00
         0.00000E+00
         0.00000E+00
         0.00000E+00
         0.00000E+00
         0.00000E+00
         0.00000E+00
         0.00000E+00
         0.00000E+00
         0.00000E+00
         0.00000E+00
         0.00000E+00
         0.00000E+00
         0.00000E+00
         0.00000E+00
         0.00000E+00
         0.00000E+00
         0.00000E+00
         0.00000E+00
         0.00000E+00
         0.00000E+00
         0.00000E+00
         0.00000E+00
         0.00000E+00
         0.00000E+00
         0.00000E+00
         0.00000E+00
         0.00000E+00
         0.00000E+00
         0.00000E+00
         0.00000E+00
         0.00000E+00
         0.00000E+00
         0.00000E+00
         0.00000E+00
         0.00000E+00
         0.00000E+00
         0.00000E+00
         0.00000E+00
         0.00000E+00
         0.00000E+00
         0.00000E+00
         0.00000E+00
         0.00000E+00
         0.00000E+00
         0.00000E+00
         0.00000E+00
         0.00000E+00
         0.00000E+00
         0.00000E+00
         0.00000E+00
         0.00000E+00
         0.00000E+00
         0.00000E+00
         0.00000E+00
         0.00000E+00
         0.00000E+00
         0.00000E+00
         0.00000E+00
         0.00000E+00
         0.00000E+00
         0.00000E+00
         0.00000E+00
         0.00000E+00
         0.00000E+00
         0.00000E+00
         0.00000E+00
         0.00000E+00
         0.00000E+00
         0.00000E+00
         0.00000E+00
         0.00000E+00
         0.00000E+00
         0.00000E+00
         0.00000E+00
         0.00000E+00
         0.00000E+00
         0.00000E+00
         0.00000E+00
         0.00000E+00
         0.00000E+00
         0.00000E+00
         0.00000E+00
         0.00000E+00
         0.00000E+00
         0.00000E+00
         0.00000E+00
         0.00000E+00
         0.00000E+00
         0.00000E+00
         0.00000E+00
         0.00000E+00
         0.00000E+00
         0.00000E+00
         0.00000E+00
         0.00000E+00
         0.00000E+00
         0.00000E+00
         0.00000E+00
         0.00000E+00
         0.00000E+00
         0.00000E+00
         0.00000E+00
         0.00000E+00
         0.00000E+00
         0.00000E+00
         0.00000E+00
         0.00000E+00
         0.00000E+00
         0.00000E+00
         0.00000E+00
         0.00000E+00
         0.00000E+00
         0.00000E+00
         0.00000E+00
         0.00000E+00
         0.00000E+00
         0.00000E+00
         0.00000E+00
         0.00000E+00
         0.00000E+00
         0.00000E+00
         0.00000E+00
         0.00000E+00
         0.00000E+00
         0.00000E+00
         0.00000E+00
         0.00000E+00
         0.00000E+00
         0.00000E+00
         0.00000E+00
         0.00000E+00
         0.00000E+00
         0.00000E+00
         0.00000E+00
         0.00000E+00
         0.00000E+00
         0.00000E+00
         0.00000E+00
         0.00000E+00
         0.00000E+00
         0.00000E+00
         0.00000E+00
         0.00000E+00
         0.00000E+00
         0.00000E+00
         0.00000E+00
         0.00000E+00
         0.00000E+00
         0.00000E+00
         0.00000E+00
         0.00000E+00
         0.00000E+00
         0.00000E+00
         0.00000E+00
         0.00000E+00
         0.00000E+00
         0.00000E+00
         0.00000E+00
         0.00000E+00
         0.00000E+00
         0.00000E+00
         0.00000E+00
         0.00000E+00
         0.00000E+00
         0.00000E+00
         0.00000E+00
         0.00000E+00
         0.00000E+00
         0.00000E+00
         0.00000E+00
         0.00000E+00
         0.00000E+00
         0.00000E+00
         0.00000E+00
         0.00000E+00
         0.00000E+00
         0.00000E+00
         0.00000E+00
         0.00000E+00
         0.00000E+00
         0.00000E+00
         0.00000E+00
         0.00000E+00
         0.00000E+00
         0.00000E+00
         0.00000E+00
         0.00000E+00
         0.00000E+00
         0.00000E+00
         0.00000E+00
         0.00000E+00
         0.00000E+00
         0.00000E+00
         0.00000E+00
         0.00000E+00
         0.00000E+00
         0.00000E+00
         0.00000E+00
         0.00000E+00
         0.00000E+00
         0.00000E+00
         0.00000E+00
         0.00000E+00
         0.00000E+00
         0.00000E+00
         0.00000E+00
         0.00000E+00
         0.00000E+00
         0.00000E+00
         0.00000E+00
         0.00000E+00
         0.00000E+00
         0.00000E+00
         0.00000E+00
         0.00000E+00
         0.00000E+00
         0.00000E+00
         0.00000E+00
         0.00000E+00
         0.00000E+00
         0.00000E+00
         0.00000E+00
         0.00000E+00
         0.00000E+00
         0.00000E+00
         0.00000E+00
         0.00000E+00
         0.00000E+00
         0.00000E+00
         0.00000E+00
         0.00000E+00
         0.00000E+00
         0.00000E+00
         0.00000E+00
         0.00000E+00
         0.00000E+00
         0.00000E+00
         0.00000E+00
         0.00000E+00
         0.00000E+00
         0.00000E+00
         0.00000E+00
         0.00000E+00
         0.00000E+00
         0.00000E+00
         0.00000E+00
         0.00000E+00
         0.00000E+00
         0.00000E+00
         0.00000E+00
         0.00000E+00
         0.00000E+00
         0.00000E+00
         0.00000E+00
         0.00000E+00
         0.00000E+00
         0.00000E+00
         0.00000E+00
         0.00000E+00
         0.00000E+00
         0.00000E+00
         0.00000E+00
         0.00000E+00
         0.00000E+00
         0.00000E+00
         0.00000E+00
         0.00000E+00
         0.00000E+00
         0.00000E+00
         0.00000E+00
         0.00000E+00
         0.00000E+00
         0.00000E+00
         0.00000E+00
         0.00000E+00
         0.00000E+00
         0.00000E+00
         0.00000E+00
         0.00000E+00
         0.00000E+00
         0.00000E+00
         0.00000E+00
         0.00000E+00
         0.00000E+00
         0.00000E+00
         0.00000E+00
         0.00000E+00
         0.00000E+00
         0.00000E+00
         0.00000E+00
         0.00000E+00
         0.00000E+00
         0.00000E+00
         0.00000E+00
         0.00000E+00
         0.00000E+00
         0.00000E+00
         0.00000E+00
         0.00000E+00
         0.00000E+00
         0.00000E+00
         0.00000E+00
         0.00000E+00
         0.00000E+00
         0.00000E+00
         0.00000E+00
         0.00000E+00
         0.00000E+00
         0.00000E+00
         0.00000E+00
         0.00000E+00
         0.00000E+00
         0.00000E+00
         0.00000E+00
         0.00000E+00
         0.00000E+00
         0.00000E+00
         0.00000E+00
         0.00000E+00
         0.00000E+00
         0.00000E+00
         0.00000E+00
         0.00000E+00
         0.00000E+00
         0.00000E+00
         0.00000E+00
         0.00000E+00
         0.00000E+00
         0.00000E+00
         0.00000E+00
         0.00000E+00
         0.00000E+00
         0.00000E+00
         0.00000E+00
         0.00000E+00
         0.00000E+00
         0.00000E+00
         0.00000E+00
         0.00000E+00
         0.00000E+00
         0.00000E+00
         0.00000E+00
         0.00000E+00
         0.00000E+00
         0.00000E+00
         0.00000E+00
         0.00000E+00
         0.00000E+00
         0.00000E+00
         0.00000E+00
         0.00000E+00
         0.00000E+00
         0.00000E+00
         0.00000E+00
         0.00000E+00
         0.00000E+00
         0.00000E+00
         0.00000E+00
         0.00000E+00
         0.00000E+00
         0.00000E+00
         0.00000E+00
         0.00000E+00
         0.00000E+00
         0.00000E+00
         0.00000E+00
         0.00000E+00
         0.00000E+00
         0.00000E+00
         0.00000E+00
         0.00000E+00
         0.00000E+00
         0.00000E+00
         0.00000E+00
         0.00000E+00
         0.00000E+00
         0.00000E+00
         0.00000E+00
         0.00000E+00
         0.00000E+00
         0.00000E+00
         0.00000E+00
         0.00000E+00
         0.00000E+00
         0.00000E+00
         0.00000E+00
         0.00000E+00
         0.00000E+00
         0.00000E+00
         0.00000E+00
         0.00000E+00
         0.00000E+00
         0.00000E+00
         0.00000E+00
         0.00000E+00
         0.00000E+00
         0.00000E+00
         0.00000E+00
         0.00000E+00
         0.00000E+00
         0.00000E+00
         0.00000E+00
         0.00000E+00
         0.00000E+00
         0.00000E+00
         0.00000E+00
         0.00000E+00
         0.00000E+00
         0.00000E+00
         0.00000E+00
         0.00000E+00
         0.00000E+00
         0.00000E+00
         0.00000E+00
         0.00000E+00
         0.00000E+00
         0.00000E+00
         0.00000E+00
         0.00000E+00
         0.00000E+00
         0.00000E+00
         0.00000E+00
         0.00000E+00
         0.00000E+00
         0.00000E+00
         0.00000E+00
         0.00000E+00
         0.00000E+00
         0.00000E+00
         0.00000E+00
         0.00000E+00
         0.00000E+00
         0.00000E+00
         0.00000E+00
         0.00000E+00
         0.00000E+00
         0.00000E+00
         0.00000E+00
         0.00000E+00
         0.00000E+00
         0.00000E+00
         0.00000E+00
         0.00000E+00
         0.00000E+00
         0.00000E+00
         0.00000E+00
         0.00000E+00
         0.00000E+00
         0.00000E+00
         0.00000E+00
         0.00000E+00
         0.00000E+00
         0.00000E+00
         0.00000E+00
         0.00000E+00
         0.00000E+00
         0.00000E+00
         0.00000E+00
         0.00000E+00
         0.00000E+00
         0.00000E+00
         0.00000E+00
         0.00000E+00
         0.00000E+00
         0.00000E+00
         0.00000E+00
         0.00000E+00
         0.00000E+00
         0.00000E+00
         0.00000E+00
         0.00000E+00
         0.00000E+00
         0.00000E+00
         0.00000E+00
         0.00000E+00
         0.00000E+00
         0.00000E+00
         0.00000E+00
         0.00000E+00
         0.00000E+00
         0.00000E+00
         0.00000E+00
         0.00000E+00
         0.00000E+00
         0.00000E+00
         0.00000E+00
         0.00000E+00
         0.00000E+00
         0.00000E+00
         0.00000E+00
         0.00000E+00
         0.00000E+00
         0.00000E+00
         0.00000E+00
         0.00000E+00
         0.00000E+00
         0.00000E+00
         0.00000E+00
         0.00000E+00
         0.00000E+00
         0.00000E+00
         0.00000E+00
         0.00000E+00
         0.00000E+00
         0.00000E+00
         0.00000E+00
         0.00000E+00
         0.00000E+00
         0.00000E+00
         0.00000E+00
         0.00000E+00
         0.00000E+00
         0.00000E+00
         0.00000E+00
         0.00000E+00
         0.00000E+00
         0.00000E+00
         0.00000E+00
         0.00000E+00
         0.00000E+00
         0.00000E+00
         0.00000E+00
         0.00000E+00
         0.00000E+00
         0.00000E+00
         0.00000E+00
         0.00000E+00
         0.00000E+00
         0.00000E+00
         0.00000E+00
         0.00000E+00
         0.00000E+00
         0.00000E+00
         0.00000E+00
         0.00000E+00
         0.00000E+00
         0.00000E+00
         0.00000E+00
         0.00000E+00
         0.00000E+00
         0.00000E+00
         0.00000E+00
         0.00000E+00
         0.00000E+00
         0.00000E+00
         0.00000E+00
         0.00000E+00
         0.00000E+00
         0.00000E+00
         0.00000E+00
         0.00000E+00
         0.00000E+00
         0.00000E+00
         0.00000E+00
         0.00000E+00
         0.00000E+00
         0.00000E+00
         0.00000E+00
         0.00000E+00
         0.00000E+00
         0.00000E+00
         0.00000E+00
         0.00000E+00
         0.00000E+00
         0.00000E+00
         0.00000E+00
         0.00000E+00
         0.00000E+00
         0.00000E+00
         0.00000E+00
         0.00000E+00
         0.00000E+00
         0.00000E+00
         0.00000E+00
         0.00000E+00
         0.00000E+00
         0.00000E+00
         0.00000E+00
         0.00000E+00
         0.00000E+00
         0.00000E+00
         0.00000E+00
         0.00000E+00
         0.00000E+00
         0.00000E+00
         0.00000E+00
         0.00000E+00
         0.00000E+00
         0.00000E+00
         0.00000E+00
         0.00000E+00
         0.00000E+00
         0.00000E+00
         0.00000E+00
         0.00000E+00
         0.00000E+00
         0.00000E+00
         0.00000E+00
         0.00000E+00
         0.00000E+00
         0.00000E+00
         0.00000E+00
         0.00000E+00
         0.00000E+00
         0.00000E+00
         0.00000E+00
         0.00000E+00
         0.00000E+00
         0.00000E+00
         0.00000E+00
         0.00000E+00
         0.00000E+00
         0.00000E+00
         0.00000E+00
         0.00000E+00
         0.00000E+00
         0.00000E+00
         0.00000E+00
         0.00000E+00
         0.00000E+00
         0.00000E+00
         0.00000E+00
         0.00000E+00
         0.00000E+00
         0.00000E+00
         0.00000E+00
         0.00000E+00
         0.00000E+00
         0.00000E+00
         0.00000E+00
         0.00000E+00
         0.00000E+00
         0.00000E+00
         0.00000E+00
         0.00000E+00
         0.00000E+00
         0.00000E+00
         0.00000E+00
         0.00000E+00
         0.00000E+00
         0.00000E+00
         0.00000E+00
         0.00000E+00
         0.00000E+00
         0.00000E+00
         0.00000E+00
         0.00000E+00
         0.00000E+00
         0.00000E+00
         0.00000E+00
         0.00000E+00
         0.00000E+00
         0.00000E+00
         0.00000E+00
         0.00000E+00
         0.00000E+00
         0.00000E+00
         0.00000E+00
         0.00000E+00
         0.00000E+00
         0.00000E+00
         0.00000E+00
         0.00000E+00
         0.00000E+00
         0.00000E+00
         0.00000E+00
         0.00000E+00
         0.00000E+00
         0.00000E+00
         0.00000E+00
         0.00000E+00
         0.00000E+00
         0.00000E+00
         0.00000E+00
         0.00000E+00
         0.00000E+00
         0.00000E+00
         0.00000E+00
         0.00000E+00
         0.00000E+00
         0.00000E+00
         0.00000E+00
         0.00000E+00
         0.00000E+00
         0.00000E+00
         0.00000E+00
         0.00000E+00
         0.00000E+00
         0.00000E+00
         0.00000E+00
         0.00000E+00
         0.00000E+00
         0.00000E+00
         0.00000E+00
         0.00000E+00
         0.00000E+00
         0.00000E+00
         0.00000E+00
         0.00000E+00
         0.00000E+00
         0.00000E+00
         0.00000E+00
         0.00000E+00
         0.00000E+00
         0.00000E+00
         0.00000E+00
         0.00000E+00
         0.00000E+00
         0.00000E+00
         0.00000E+00
         0.00000E+00
         0.00000E+00
         0.00000E+00
         0.00000E+00
         0.00000E+00
         0.00000E+00
         0.00000E+00
         0.00000E+00
         0.00000E+00
         0.00000E+00
         0.00000E+00
         0.00000E+00
         0.00000E+00
         0.00000E+00
         0.00000E+00
         0.00000E+00
         0.00000E+00
         0.00000E+00
         0.00000E+00
         0.00000E+00
         0.00000E+00
         0.00000E+00
         0.00000E+00
         0.00000E+00
         0.00000E+00
         0.00000E+00
         0.00000E+00
         0.00000E+00
         0.00000E+00
         0.00000E+00
         0.00000E+00
         0.00000E+00
         0.00000E+00
         0.00000E+00
         0.00000E+00
         0.00000E+00
         0.00000E+00
         0.00000E+00
         0.00000E+00
         0.00000E+00
         0.00000E+00
         0.00000E+00
         0.00000E+00
         0.00000E+00
         0.00000E+00
         0.00000E+00
         0.00000E+00
         0.00000E+00
         0.00000E+00
         0.00000E+00
         0.00000E+00
         0.00000E+00
         0.00000E+00
         0.00000E+00
         0.00000E+00
         0.00000E+00
         0.00000E+00
         0.00000E+00
         0.00000E+00
         0.00000E+00
         0.00000E+00
         0.00000E+00
         0.00000E+00
         0.00000E+00
         0.00000E+00
         0.00000E+00
         0.00000E+00
         0.00000E+00
         0.00000E+00
         0.00000E+00
         0.00000E+00
         0.00000E+00
         0.00000E+00
         0.00000E+00
         0.00000E+00
         0.00000E+00
         0.00000E+00
         0.00000E+00
         0.00000E+00
         0.00000E+00
         0.00000E+00
         0.00000E+00
         0.00000E+00
         0.00000E+00
         0.00000E+00
         0.00000E+00
         0.00000E+00
         0.00000E+00
         0.00000E+00
         0.00000E+00
         0.00000E+00
         0.00000E+00
         0.00000E+00
         0.00000E+00
         0.00000E+00
         0.00000E+00
         0.00000E+00
         0.00000E+00
         0.00000E+00
         0.00000E+00
         0.00000E+00
         0.00000E+00
         0.00000E+00
         0.00000E+00
         0.00000E+00
         0.00000E+00
         0.00000E+00
         0.00000E+00
         0.00000E+00
         0.00000E+00
         0.00000E+00
         0.00000E+00
         0.00000E+00
         0.00000E+00
         0.00000E+00
         0.00000E+00
         0.00000E+00
         0.00000E+00
         0.00000E+00
         0.00000E+00
         0.00000E+00
         0.00000E+00
         0.00000E+00
         0.00000E+00
         0.00000E+00
         0.00000E+00
         0.00000E+00
         0.00000E+00
         0.00000E+00
         0.00000E+00
         0.00000E+00
         0.00000E+00
         0.00000E+00
         0.00000E+00
         0.00000E+00
         0.00000E+00
         0.00000E+00
         0.00000E+00
         0.00000E+00
         0.00000E+00
         0.00000E+00
         0.00000E+00
         0.00000E+00
         0.00000E+00
         0.00000E+00
         0.00000E+00
         0.00000E+00
         0.00000E+00
         0.00000E+00
         0.00000E+00
         0.00000E+00
         0.00000E+00
         0.00000E+00
         0.00000E+00
         0.00000E+00
         0.00000E+00
         0.00000E+00
         0.00000E+00
         0.00000E+00
         0.00000E+00
         0.00000E+00
         0.00000E+00
         0.00000E+00
         0.00000E+00
         0.00000E+00
         0.00000E+00
         0.00000E+00
         0.00000E+00
         0.00000E+00
         0.00000E+00
         0.00000E+00
         0.00000E+00
         0.00000E+00
         0.00000E+00
         0.00000E+00
         0.00000E+00
         0.00000E+00
         0.00000E+00
         0.00000E+00
         0.00000E+00
         0.00000E+00
         0.00000E+00
         0.00000E+00
         0.00000E+00
         0.00000E+00
         0.00000E+00
         0.00000E+00
         0.00000E+00
         0.00000E+00
         0.00000E+00
         0.00000E+00
         0.00000E+00
         0.00000E+00
         0.00000E+00
         0.00000E+00
         0.00000E+00
         0.00000E+00
         0.00000E+00
         0.00000E+00
         0.00000E+00
         0.00000E+00
         0.00000E+00
         0.00000E+00
         0.00000E+00
         0.00000E+00
         0.00000E+00
         0.00000E+00
         0.00000E+00
         0.00000E+00
         0.00000E+00
         0.00000E+00
         0.00000E+00
         0.00000E+00
         0.00000E+00
         0.00000E+00
         0.00000E+00
         0.00000E+00
         0.00000E+00
         0.00000E+00
         0.00000E+00
         0.00000E+00
         0.00000E+00
         0.00000E+00
         0.00000E+00
         0.00000E+00
         0.00000E+00
         0.00000E+00
         0.00000E+00
         0.00000E+00
         0.00000E+00
         0.00000E+00
         0.00000E+00
         0.00000E+00
         0.00000E+00
         0.00000E+00
         0.00000E+00
         0.00000E+00
         0.00000E+00
         0.00000E+00
         0.00000E+00
         0.00000E+00
         0.00000E+00
         0.00000E+00
         0.00000E+00
         0.00000E+00
         0.00000E+00
         0.00000E+00
         0.00000E+00
         0.00000E+00
         0.00000E+00
         0.00000E+00
         0.00000E+00
         0.00000E+00
         0.00000E+00
         0.00000E+00
         0.00000E+00
         0.00000E+00
         0.00000E+00
         0.00000E+00
         0.00000E+00
         0.00000E+00
         0.00000E+00
         0.00000E+00
         0.00000E+00
         0.00000E+00
         0.00000E+00
         0.00000E+00
         0.00000E+00
         0.00000E+00
         0.00000E+00
         0.00000E+00
         0.00000E+00
         0.00000E+00
         0.00000E+00
         0.00000E+00
         0.00000E+00
         0.00000E+00
         0.00000E+00
         0.00000E+00
         0.00000E+00
         0.00000E+00
         0.00000E+00
         0.00000E+00
         0.00000E+00
         0.00000E+00
         0.00000E+00
         0.00000E+00
         0.00000E+00
         0.00000E+00
         0.00000E+00
         0.00000E+00
         0.00000E+00
         0.00000E+00
         0.00000E+00
         0.00000E+00
         0.00000E+00
         0.00000E+00
         0.00000E+00
         0.00000E+00
         0.00000E+00
         0.00000E+00
         0.00000E+00
         0.00000E+00
         0.00000E+00
         0.00000E+00
         0.00000E+00
         0.00000E+00
         0.00000E+00
         0.00000E+00
         0.00000E+00
         0.00000E+00
         0.00000E+00
         0.00000E+00
         0.00000E+00
         0.00000E+00
         0.00000E+00
         0.00000E+00
         0.00000E+00
         0.00000E+00
         0.00000E+00
         0.00000E+00
         0.00000E+00
         0.00000E+00
         0.00000E+00
         0.00000E+00
         0.00000E+00
         0.00000E+00
         0.00000E+00
         0.00000E+00
         0.00000E+00
         0.00000E+00
         0.00000E+00
         0.00000E+00
         0.00000E+00
         0.00000E+00
         0.00000E+00
         0.00000E+00
         0.00000E+00
         0.00000E+00
         0.00000E+00
         0.00000E+00
         0.00000E+00
         0.00000E+00
         0.00000E+00
         0.00000E+00
         0.00000E+00
         0.00000E+00
         0.00000E+00
         0.00000E+00
         0.00000E+00
         0.00000E+00
         0.00000E+00
         0.00000E+00
         0.00000E+00
         0.00000E+00
         0.00000E+00
         0.00000E+00
         0.00000E+00
         0.00000E+00
         0.00000E+00
         0.00000E+00
         0.00000E+00
         0.00000E+00
         0.00000E+00
         0.00000E+00
         0.00000E+00
         0.00000E+00
         0.00000E+00
         0.00000E+00
         0.00000E+00
         0.00000E+00
         0.00000E+00
         0.00000E+00
         0.00000E+00
         0.00000E+00
         0.00000E+00
         0.00000E+00
         0.00000E+00
  
SCALARS        characteristic_distance  double 1
LOOKUP_TABLE default
         0.00000E+00
         0.00000E+00
         0.00000E+00
         0.00000E+00
         0.00000E+00
         0.00000E+00
         0.00000E+00
         0.00000E+00
         0.00000E+00
         0.00000E+00
         0.00000E+00
         0.00000E+00
         0.00000E+00
         0.00000E+00
         0.00000E+00
         0.00000E+00
         0.00000E+00
         0.00000E+00
         0.00000E+00
         0.00000E+00
         0.00000E+00
         0.00000E+00
         0.00000E+00
         0.00000E+00
         0.00000E+00
         0.00000E+00
         0.00000E+00
         0.00000E+00
         0.00000E+00
         0.00000E+00
         0.00000E+00
         0.00000E+00
         0.00000E+00
         0.00000E+00
         0.00000E+00
         0.00000E+00
         0.00000E+00
         0.00000E+00
         0.00000E+00
         0.00000E+00
         0.00000E+00
         0.00000E+00
         0.00000E+00
         0.00000E+00
         0.00000E+00
         0.00000E+00
         0.00000E+00
         0.00000E+00
         0.00000E+00
         0.00000E+00
         0.00000E+00
         0.00000E+00
         0.00000E+00
         0.00000E+00
         0.00000E+00
         0.00000E+00
         0.00000E+00
         0.00000E+00
         0.00000E+00
         0.00000E+00
         0.00000E+00
         0.00000E+00
         0.00000E+00
         0.00000E+00
         0.00000E+00
         0.00000E+00
         0.00000E+00
         0.00000E+00
         0.00000E+00
         0.00000E+00
         0.00000E+00
         0.00000E+00
         0.00000E+00
         0.00000E+00
         0.00000E+00
         0.00000E+00
         0.00000E+00
         0.00000E+00
         0.00000E+00
         0.00000E+00
         0.00000E+00
         0.00000E+00
         0.00000E+00
         0.00000E+00
         0.00000E+00
         0.00000E+00
         0.00000E+00
         0.00000E+00
         0.00000E+00
         0.00000E+00
         0.00000E+00
         0.00000E+00
         0.00000E+00
         0.00000E+00
         0.00000E+00
         0.00000E+00
         0.00000E+00
         0.00000E+00
         0.00000E+00
         0.00000E+00
         0.00000E+00
         0.00000E+00
         0.00000E+00
         0.00000E+00
         0.00000E+00
         0.00000E+00
         0.00000E+00
         0.00000E+00
         0.00000E+00
         0.00000E+00
         0.00000E+00
         0.00000E+00
         0.00000E+00
         0.00000E+00
         0.00000E+00
         0.00000E+00
         0.00000E+00
         0.00000E+00
         0.00000E+00
         0.00000E+00
         0.00000E+00
         0.00000E+00
         0.00000E+00
         0.00000E+00
         0.00000E+00
         0.00000E+00
         0.00000E+00
         0.00000E+00
         0.00000E+00
         0.00000E+00
         0.00000E+00
         0.00000E+00
         0.00000E+00
         0.00000E+00
         0.00000E+00
         0.00000E+00
         0.00000E+00
         0.00000E+00
         0.00000E+00
         0.00000E+00
         0.00000E+00
         0.00000E+00
         0.00000E+00
         0.00000E+00
         0.00000E+00
         0.00000E+00
         0.00000E+00
         0.00000E+00
         0.00000E+00
         0.00000E+00
         0.00000E+00
         0.00000E+00
         0.00000E+00
         0.00000E+00
         0.00000E+00
         0.00000E+00
         0.00000E+00
         0.00000E+00
         0.00000E+00
         0.00000E+00
         0.00000E+00
         0.00000E+00
         0.00000E+00
         0.00000E+00
         0.00000E+00
         0.00000E+00
         0.00000E+00
         0.00000E+00
         0.00000E+00
         0.00000E+00
         0.00000E+00
         0.00000E+00
         0.00000E+00
         0.00000E+00
         0.00000E+00
         0.00000E+00
         0.00000E+00
         0.00000E+00
         0.00000E+00
         0.00000E+00
         0.00000E+00
         0.00000E+00
         0.00000E+00
         0.00000E+00
         0.00000E+00
         0.00000E+00
         0.00000E+00
         0.00000E+00
         0.00000E+00
         0.00000E+00
         0.00000E+00
         0.00000E+00
         0.00000E+00
         0.00000E+00
         0.00000E+00
         0.00000E+00
         0.00000E+00
         0.00000E+00
         0.00000E+00
         0.00000E+00
         0.00000E+00
         0.00000E+00
         0.00000E+00
         0.00000E+00
         0.00000E+00
         0.00000E+00
         0.00000E+00
         0.00000E+00
         0.00000E+00
         0.00000E+00
         0.00000E+00
         0.00000E+00
         0.00000E+00
         0.00000E+00
         0.00000E+00
         0.00000E+00
         0.00000E+00
         0.00000E+00
         0.00000E+00
         0.00000E+00
         0.00000E+00
         0.00000E+00
         0.00000E+00
         0.00000E+00
         0.00000E+00
         0.00000E+00
         0.00000E+00
         0.00000E+00
         0.00000E+00
         0.00000E+00
         0.00000E+00
         0.00000E+00
         0.00000E+00
         0.00000E+00
         0.00000E+00
         0.00000E+00
         0.00000E+00
         0.00000E+00
         0.00000E+00
         0.00000E+00
         0.00000E+00
         0.00000E+00
         0.00000E+00
         0.00000E+00
         0.00000E+00
         0.00000E+00
         0.00000E+00
         0.00000E+00
         0.00000E+00
         0.00000E+00
         0.00000E+00
         0.00000E+00
         0.00000E+00
         0.00000E+00
         0.00000E+00
         0.00000E+00
         0.00000E+00
         0.00000E+00
         0.00000E+00
         0.00000E+00
         0.00000E+00
         0.00000E+00
         0.00000E+00
         0.00000E+00
         0.00000E+00
         0.00000E+00
         0.00000E+00
         0.00000E+00
         0.00000E+00
         0.00000E+00
         0.00000E+00
         0.00000E+00
         0.00000E+00
         0.00000E+00
         0.00000E+00
         0.00000E+00
         0.00000E+00
         0.00000E+00
         0.00000E+00
         0.00000E+00
         0.00000E+00
         0.00000E+00
         0.00000E+00
         0.00000E+00
         0.00000E+00
         0.00000E+00
         0.00000E+00
         0.00000E+00
         0.00000E+00
         0.00000E+00
         0.00000E+00
         0.00000E+00
         0.00000E+00
         0.00000E+00
         0.00000E+00
         0.00000E+00
         0.00000E+00
         0.00000E+00
         0.00000E+00
         0.00000E+00
         0.00000E+00
         0.00000E+00
         0.00000E+00
         0.00000E+00
         0.00000E+00
         0.00000E+00
         0.00000E+00
         0.00000E+00
         0.00000E+00
         0.00000E+00
         0.00000E+00
         0.00000E+00
         0.00000E+00
         0.00000E+00
         0.00000E+00
         0.00000E+00
         0.00000E+00
         0.00000E+00
         0.00000E+00
         0.00000E+00
         0.00000E+00
         0.00000E+00
         0.00000E+00
         0.00000E+00
         0.00000E+00
         0.00000E+00
         0.00000E+00
         0.00000E+00
         0.00000E+00
         0.00000E+00
         0.00000E+00
         0.00000E+00
         0.00000E+00
         0.00000E+00
         0.00000E+00
         0.00000E+00
         0.00000E+00
         0.00000E+00
         0.00000E+00
         0.00000E+00
         0.00000E+00
         0.00000E+00
         0.00000E+00
         0.00000E+00
         0.00000E+00
         0.00000E+00
         0.00000E+00
         0.00000E+00
         0.00000E+00
         0.00000E+00
         0.00000E+00
         0.00000E+00
         0.00000E+00
         0.00000E+00
         0.00000E+00
         0.00000E+00
         0.00000E+00
         0.00000E+00
         0.00000E+00
         0.00000E+00
         0.00000E+00
         0.00000E+00
         0.00000E+00
         0.00000E+00
         0.00000E+00
         0.00000E+00
         0.00000E+00
         0.00000E+00
         0.00000E+00
         0.00000E+00
         0.00000E+00
         0.00000E+00
         0.00000E+00
         0.00000E+00
         0.00000E+00
         0.00000E+00
         0.00000E+00
         0.00000E+00
         0.00000E+00
         0.00000E+00
         0.00000E+00
         0.00000E+00
         0.00000E+00
         0.00000E+00
         0.00000E+00
         0.00000E+00
         0.00000E+00
         0.00000E+00
         0.00000E+00
         0.00000E+00
         0.00000E+00
         0.00000E+00
         0.00000E+00
         0.00000E+00
         0.00000E+00
         0.00000E+00
         0.00000E+00
         0.00000E+00
         0.00000E+00
         0.00000E+00
         0.00000E+00
         0.00000E+00
         0.00000E+00
         0.00000E+00
         0.00000E+00
         0.00000E+00
         0.00000E+00
         0.00000E+00
         0.00000E+00
         0.00000E+00
         0.00000E+00
         0.00000E+00
         0.00000E+00
         0.00000E+00
         0.00000E+00
         0.00000E+00
         0.00000E+00
         0.00000E+00
         0.00000E+00
         0.00000E+00
         0.00000E+00
         0.00000E+00
         0.00000E+00
         0.00000E+00
         0.00000E+00
         0.00000E+00
         0.00000E+00
         0.00000E+00
         0.00000E+00
         0.00000E+00
         0.00000E+00
         0.00000E+00
         0.00000E+00
         0.00000E+00
         0.00000E+00
         0.00000E+00
         0.00000E+00
         0.00000E+00
         0.00000E+00
         0.00000E+00
         0.00000E+00
         0.00000E+00
         0.00000E+00
         0.00000E+00
         0.00000E+00
         0.00000E+00
         0.00000E+00
         0.00000E+00
         0.00000E+00
         0.00000E+00
         0.00000E+00
         0.00000E+00
         0.00000E+00
         0.00000E+00
         0.00000E+00
         0.00000E+00
         0.00000E+00
         0.00000E+00
         0.00000E+00
         0.00000E+00
         0.00000E+00
         0.00000E+00
         0.00000E+00
         0.00000E+00
         0.00000E+00
         0.00000E+00
         0.00000E+00
         0.00000E+00
         0.00000E+00
         0.00000E+00
         0.00000E+00
         0.00000E+00
         0.00000E+00
         0.00000E+00
         0.00000E+00
         0.00000E+00
         0.00000E+00
         0.00000E+00
         0.00000E+00
         0.00000E+00
         0.00000E+00
         0.00000E+00
         0.00000E+00
         0.00000E+00
         0.00000E+00
         0.00000E+00
         0.00000E+00
         0.00000E+00
         0.00000E+00
         0.00000E+00
         0.00000E+00
         0.00000E+00
         0.00000E+00
         0.00000E+00
         0.00000E+00
         0.00000E+00
         0.00000E+00
         0.00000E+00
         0.00000E+00
         0.00000E+00
         0.00000E+00
         0.00000E+00
         0.00000E+00
         0.00000E+00
         0.00000E+00
         0.00000E+00
         0.00000E+00
         0.00000E+00
         0.00000E+00
         0.00000E+00
         0.00000E+00
         0.00000E+00
         0.00000E+00
         0.00000E+00
         0.00000E+00
         0.00000E+00
         0.00000E+00
         0.00000E+00
         0.00000E+00
         0.00000E+00
         0.00000E+00
         0.00000E+00
         0.00000E+00
         0.00000E+00
         0.00000E+00
         0.00000E+00
         0.00000E+00
         0.00000E+00
         0.00000E+00
         0.00000E+00
         0.00000E+00
         0.00000E+00
         0.00000E+00
         0.00000E+00
         0.00000E+00
         0.00000E+00
         0.00000E+00
         0.00000E+00
         0.00000E+00
         0.00000E+00
         0.00000E+00
         0.00000E+00
         0.00000E+00
         0.00000E+00
         0.00000E+00
         0.00000E+00
         0.00000E+00
         0.00000E+00
         0.00000E+00
         0.00000E+00
         0.00000E+00
         0.00000E+00
         0.00000E+00
         0.00000E+00
         0.00000E+00
         0.00000E+00
         0.00000E+00
         0.00000E+00
         0.00000E+00
         0.00000E+00
         0.00000E+00
         0.00000E+00
         0.00000E+00
         0.00000E+00
         0.00000E+00
         0.00000E+00
         0.00000E+00
         0.00000E+00
         0.00000E+00
         0.00000E+00
         0.00000E+00
         0.00000E+00
         0.00000E+00
         0.00000E+00
         0.00000E+00
         0.00000E+00
         0.00000E+00
         0.00000E+00
         0.00000E+00
         0.00000E+00
         0.00000E+00
         0.00000E+00
         0.00000E+00
         0.00000E+00
         0.00000E+00
         0.00000E+00
         0.00000E+00
         0.00000E+00
         0.00000E+00
         0.00000E+00
         0.00000E+00
         0.00000E+00
         0.00000E+00
         0.00000E+00
         0.00000E+00
         0.00000E+00
         0.00000E+00
         0.00000E+00
         0.00000E+00
         0.00000E+00
         0.00000E+00
         0.00000E+00
         0.00000E+00
         0.00000E+00
         0.00000E+00
         0.00000E+00
         0.00000E+00
         0.00000E+00
         0.00000E+00
         0.00000E+00
         0.00000E+00
         0.00000E+00
         0.00000E+00
         0.00000E+00
         0.00000E+00
         0.00000E+00
         0.00000E+00
         0.00000E+00
         0.00000E+00
         0.00000E+00
         0.00000E+00
         0.00000E+00
         0.00000E+00
         0.00000E+00
         0.00000E+00
         0.00000E+00
         0.00000E+00
         0.00000E+00
         0.00000E+00
         0.00000E+00
         0.00000E+00
         0.00000E+00
         0.00000E+00
         0.00000E+00
         0.00000E+00
         0.00000E+00
         0.00000E+00
         0.00000E+00
         0.00000E+00
         0.00000E+00
         0.00000E+00
         0.00000E+00
         0.00000E+00
         0.00000E+00
         0.00000E+00
         0.00000E+00
         0.00000E+00
         0.00000E+00
         0.00000E+00
         0.00000E+00
         0.00000E+00
         0.00000E+00
         0.00000E+00
         0.00000E+00
         0.00000E+00
         0.00000E+00
         0.00000E+00
         0.00000E+00
         0.00000E+00
         0.00000E+00
         0.00000E+00
         0.00000E+00
         0.00000E+00
         0.00000E+00
         0.00000E+00
         0.00000E+00
         0.00000E+00
         0.00000E+00
         0.00000E+00
         0.00000E+00
         0.00000E+00
         0.00000E+00
         0.00000E+00
         0.00000E+00
         0.00000E+00
         0.00000E+00
         0.00000E+00
         0.00000E+00
         0.00000E+00
         0.00000E+00
         0.00000E+00
         0.00000E+00
         0.00000E+00
         0.00000E+00
         0.00000E+00
         0.00000E+00
         0.00000E+00
         0.00000E+00
         0.00000E+00
         0.00000E+00
         0.00000E+00
         0.00000E+00
         0.00000E+00
         0.00000E+00
         0.00000E+00
         0.00000E+00
         0.00000E+00
         0.00000E+00
         0.00000E+00
         0.00000E+00
         0.00000E+00
         0.00000E+00
         0.00000E+00
         0.00000E+00
         0.00000E+00
         0.00000E+00
         0.00000E+00
         0.00000E+00
         0.00000E+00
         0.00000E+00
         0.00000E+00
         0.00000E+00
         0.00000E+00
         0.00000E+00
         0.00000E+00
         0.00000E+00
         0.00000E+00
         0.00000E+00
         0.00000E+00
         0.00000E+00
         0.00000E+00
         0.00000E+00
         0.00000E+00
         0.00000E+00
         0.00000E+00
         0.00000E+00
         0.00000E+00
         0.00000E+00
         0.00000E+00
         0.00000E+00
         0.00000E+00
         0.00000E+00
         0.00000E+00
         0.00000E+00
         0.00000E+00
         0.00000E+00
         0.00000E+00
         0.00000E+00
         0.00000E+00
         0.00000E+00
         0.00000E+00
         0.00000E+00
         0.00000E+00
         0.00000E+00
         0.00000E+00
         0.00000E+00
         0.00000E+00
         0.00000E+00
         0.00000E+00
         0.00000E+00
         0.00000E+00
         0.00000E+00
         0.00000E+00
         0.00000E+00
         0.00000E+00
         0.00000E+00
         0.00000E+00
         0.00000E+00
         0.00000E+00
         0.00000E+00
         0.00000E+00
         0.00000E+00
         0.00000E+00
         0.00000E+00
         0.00000E+00
         0.00000E+00
         0.00000E+00
         0.00000E+00
         0.00000E+00
         0.00000E+00
         0.00000E+00
         0.00000E+00
         0.00000E+00
         0.00000E+00
         0.00000E+00
         0.00000E+00
         0.00000E+00
         0.00000E+00
         0.00000E+00
         0.00000E+00
         0.00000E+00
         0.00000E+00
         0.00000E+00
         0.00000E+00
         0.00000E+00
         0.00000E+00
         0.00000E+00
         0.00000E+00
         0.00000E+00
         0.00000E+00
         0.00000E+00
         0.00000E+00
         0.00000E+00
         0.00000E+00
         0.00000E+00
         0.00000E+00
         0.00000E+00
         0.00000E+00
         0.00000E+00
         0.00000E+00
         0.00000E+00
         0.00000E+00
         0.00000E+00
         0.00000E+00
         0.00000E+00
         0.00000E+00
         0.00000E+00
         0.00000E+00
         0.00000E+00
         0.00000E+00
         0.00000E+00
         0.00000E+00
         0.00000E+00
         0.00000E+00
         0.00000E+00
         0.00000E+00
         0.00000E+00
         0.00000E+00
         0.00000E+00
         0.00000E+00
         0.00000E+00
         0.00000E+00
         0.00000E+00
         0.00000E+00
         0.00000E+00
         0.00000E+00
         0.00000E+00
         0.00000E+00
         0.00000E+00
         0.00000E+00
         0.00000E+00
         0.00000E+00
         0.00000E+00
         0.00000E+00
         0.00000E+00
         0.00000E+00
         0.00000E+00
         0.00000E+00
         0.00000E+00
         0.00000E+00
         0.00000E+00
         0.00000E+00
         0.00000E+00
         0.00000E+00
         0.00000E+00
         0.00000E+00
         0.00000E+00
         0.00000E+00
         0.00000E+00
         0.00000E+00
         0.00000E+00
         0.00000E+00
         0.00000E+00
         0.00000E+00
         0.00000E+00
         0.00000E+00
         0.00000E+00
         0.00000E+00
         0.00000E+00
         0.00000E+00
         0.00000E+00
         0.00000E+00
         0.00000E+00
         0.00000E+00
         0.00000E+00
         0.00000E+00
         0.00000E+00
         0.00000E+00
         0.00000E+00
         0.00000E+00
         0.00000E+00
         0.00000E+00
         0.00000E+00
         0.00000E+00
         0.00000E+00
         0.00000E+00
         0.00000E+00
         0.00000E+00
         0.00000E+00
         0.00000E+00
         0.00000E+00
         0.00000E+00
         0.00000E+00
         0.00000E+00
         0.00000E+00
         0.00000E+00
         0.00000E+00
         0.00000E+00
         0.00000E+00
         0.00000E+00
         0.00000E+00
         0.00000E+00
         0.00000E+00
         0.00000E+00
         0.00000E+00
         0.00000E+00
         0.00000E+00
         0.00000E+00
         0.00000E+00
         0.00000E+00
         0.00000E+00
         0.00000E+00
         0.00000E+00
         0.00000E+00
         0.00000E+00
         0.00000E+00
         0.00000E+00
         0.00000E+00
         0.00000E+00
         0.00000E+00
         0.00000E+00
         0.00000E+00
         0.00000E+00
         0.00000E+00
         0.00000E+00
         0.00000E+00
         0.00000E+00
         0.00000E+00
         0.00000E+00
         0.00000E+00
         0.00000E+00
         0.00000E+00
         0.00000E+00
         0.00000E+00
         0.00000E+00
         0.00000E+00
         0.00000E+00
         0.00000E+00
         0.00000E+00
         0.00000E+00
         0.00000E+00
         0.00000E+00
         0.00000E+00
         0.00000E+00
         0.00000E+00
         0.00000E+00
         0.00000E+00
         0.00000E+00
         0.00000E+00
         0.00000E+00
         0.00000E+00
         0.00000E+00
         0.00000E+00
         0.00000E+00
         0.00000E+00
         0.00000E+00
         0.00000E+00
         0.00000E+00
         0.00000E+00
         0.00000E+00
         0.00000E+00
         0.00000E+00
         0.00000E+00
         0.00000E+00
         0.00000E+00
         0.00000E+00
         0.00000E+00
         0.00000E+00
         0.00000E+00
         0.00000E+00
         0.00000E+00
         0.00000E+00
         0.00000E+00
         0.00000E+00
         0.00000E+00
         0.00000E+00
         0.00000E+00
         0.00000E+00
         0.00000E+00
         0.00000E+00
         0.00000E+00
         0.00000E+00
         0.00000E+00
         0.00000E+00
         0.00000E+00
         0.00000E+00
         0.00000E+00
         0.00000E+00
         0.00000E+00
         0.00000E+00
         0.00000E+00
         0.00000E+00
         0.00000E+00
         0.00000E+00
         0.00000E+00
         0.00000E+00
         0.00000E+00
         0.00000E+00
         0.00000E+00
         0.00000E+00
         0.00000E+00
         0.00000E+00
         0.00000E+00
         0.00000E+00
         0.00000E+00
         0.00000E+00
         0.00000E+00
         0.00000E+00
         0.00000E+00
         0.00000E+00
         0.00000E+00
         0.00000E+00
         0.00000E+00
         0.00000E+00
         0.00000E+00
         0.00000E+00
         0.00000E+00
         0.00000E+00
         0.00000E+00
         0.00000E+00
         0.00000E+00
         0.00000E+00
         0.00000E+00
         0.00000E+00
         0.00000E+00
         0.00000E+00
         0.00000E+00
         0.00000E+00
         0.00000E+00
         0.00000E+00
         0.00000E+00
         0.00000E+00
         0.00000E+00
         0.00000E+00
         0.00000E+00
         0.00000E+00
         0.00000E+00
         0.00000E+00
         0.00000E+00
         0.00000E+00
         0.00000E+00
         0.00000E+00
         0.00000E+00
         0.00000E+00
         0.00000E+00
         0.00000E+00
         0.00000E+00
         0.00000E+00
         0.00000E+00
         0.00000E+00
         0.00000E+00
         0.00000E+00
         0.00000E+00
         0.00000E+00
         0.00000E+00
         0.00000E+00
         0.00000E+00
         0.00000E+00
         0.00000E+00
         0.00000E+00
         0.00000E+00
         0.00000E+00
         0.00000E+00
         0.00000E+00
         0.00000E+00
         0.00000E+00
         0.00000E+00
         0.00000E+00
         0.00000E+00
         0.00000E+00
         0.00000E+00
         0.00000E+00
         0.00000E+00
         0.00000E+00
         0.00000E+00
         0.00000E+00
         0.00000E+00
         0.00000E+00
         0.00000E+00
         0.00000E+00
         0.00000E+00
         0.00000E+00
         0.00000E+00
         0.00000E+00
         0.00000E+00
         0.00000E+00
         0.00000E+00
         0.00000E+00
         0.00000E+00
         0.00000E+00
         0.00000E+00
         0.00000E+00
         0.00000E+00
         0.00000E+00
         0.00000E+00
         0.00000E+00
         0.00000E+00
         0.00000E+00
         0.00000E+00
         0.00000E+00
         0.00000E+00
         0.00000E+00
         0.00000E+00
         0.00000E+00
         0.00000E+00
         0.00000E+00
         0.00000E+00
         0.00000E+00
         0.00000E+00
         0.00000E+00
         0.00000E+00
         0.00000E+00
         0.00000E+00
         0.00000E+00
         0.00000E+00
         0.00000E+00
         0.00000E+00
         0.00000E+00
         0.00000E+00
         0.00000E+00
         0.00000E+00
         0.00000E+00
         0.00000E+00
         0.00000E+00
         0.00000E+00
         0.00000E+00
         0.00000E+00
         0.00000E+00
         0.00000E+00
         0.00000E+00
         0.00000E+00
         0.00000E+00
         0.00000E+00
         0.00000E+00
         0.00000E+00
         0.00000E+00
         0.00000E+00
         0.00000E+00
         0.00000E+00
         0.00000E+00
         0.00000E+00
         0.00000E+00
         0.00000E+00
         0.00000E+00
         0.00000E+00
         0.00000E+00
         0.00000E+00
         0.00000E+00
         0.00000E+00
         0.00000E+00
         0.00000E+00
         0.00000E+00
         0.00000E+00
         0.00000E+00
         0.00000E+00
         0.00000E+00
         0.00000E+00
         0.00000E+00
         0.00000E+00
         0.00000E+00
         0.00000E+00
         0.00000E+00
         0.00000E+00
         0.00000E+00
         0.00000E+00
         0.00000E+00
         0.00000E+00
         0.00000E+00
         0.00000E+00
         0.00000E+00
         0.00000E+00
         0.00000E+00
         0.00000E+00
         0.00000E+00
         0.00000E+00
         0.00000E+00
         0.00000E+00
         0.00000E+00
         0.00000E+00
         0.00000E+00
         0.00000E+00
         0.00000E+00
         0.00000E+00
         0.00000E+00
         0.00000E+00
         0.00000E+00
         0.00000E+00
         0.00000E+00
         0.00000E+00
         0.00000E+00
         0.00000E+00
         0.00000E+00
         0.00000E+00
         0.00000E+00
         0.00000E+00
         0.00000E+00
         0.00000E+00
         0.00000E+00
         0.00000E+00
         0.00000E+00
         0.00000E+00
         0.00000E+00
         0.00000E+00
         0.00000E+00
         0.00000E+00
         0.00000E+00
         0.00000E+00
         0.00000E+00
         0.00000E+00
         0.00000E+00
         0.00000E+00
         0.00000E+00
         0.00000E+00
         0.00000E+00
         0.00000E+00
         0.00000E+00
         0.00000E+00
         0.00000E+00
         0.00000E+00
         0.00000E+00
         0.00000E+00
         0.00000E+00
         0.00000E+00
         0.00000E+00
         0.00000E+00
         0.00000E+00
         0.00000E+00
         0.00000E+00
         0.00000E+00
         0.00000E+00
         0.00000E+00
         0.00000E+00
         0.00000E+00
         0.00000E+00
         0.00000E+00
         0.00000E+00
         0.00000E+00
         0.00000E+00
         0.00000E+00
         0.00000E+00
         0.00000E+00
         0.00000E+00
         0.00000E+00
         0.00000E+00
         0.00000E+00
         0.00000E+00
         0.00000E+00
         0.00000E+00
         0.00000E+00
         0.00000E+00
         0.00000E+00
         0.00000E+00
         0.00000E+00
         0.00000E+00
         0.00000E+00
         0.00000E+00
         0.00000E+00
         0.00000E+00
         0.00000E+00
         0.00000E+00
         0.00000E+00
         0.00000E+00
         0.00000E+00
         0.00000E+00
         0.00000E+00
         0.00000E+00
         0.00000E+00
         0.00000E+00
         0.00000E+00
         0.00000E+00
         0.00000E+00
         0.00000E+00
         0.00000E+00
         0.00000E+00
         0.00000E+00
         0.00000E+00
         0.00000E+00
         0.00000E+00
         0.00000E+00
         0.00000E+00
         0.00000E+00
         0.00000E+00
         0.00000E+00
         0.00000E+00
         0.00000E+00
         0.00000E+00
         0.00000E+00
         0.00000E+00
         0.00000E+00
         0.00000E+00
         0.00000E+00
         0.00000E+00
         0.00000E+00
         0.00000E+00
         0.00000E+00
         0.00000E+00
         0.00000E+00
         0.00000E+00
         0.00000E+00
         0.00000E+00
         0.00000E+00
         0.00000E+00
         0.00000E+00
         0.00000E+00
         0.00000E+00
         0.00000E+00
         0.00000E+00
         0.00000E+00
         0.00000E+00
         0.00000E+00
         0.00000E+00
         0.00000E+00
         0.00000E+00
         0.00000E+00
         0.00000E+00
         0.00000E+00
         0.00000E+00
         0.00000E+00
         0.00000E+00
         0.00000E+00
         0.00000E+00
         0.00000E+00
         0.00000E+00
         0.00000E+00
         0.00000E+00
         0.00000E+00
         0.00000E+00
         0.00000E+00
         0.00000E+00
         0.00000E+00
         0.00000E+00
         0.00000E+00
         0.00000E+00
         0.00000E+00
         0.00000E+00
         0.00000E+00
         0.00000E+00
         0.00000E+00
         0.00000E+00
         0.00000E+00
         0.00000E+00
         0.00000E+00
         0.00000E+00
         0.00000E+00
         0.00000E+00
         0.00000E+00
         0.00000E+00
         0.00000E+00
         0.00000E+00
         0.00000E+00
         0.00000E+00
         0.00000E+00
         0.00000E+00
         0.00000E+00
         0.00000E+00
         0.00000E+00
         0.00000E+00
         0.00000E+00
         0.00000E+00
         0.00000E+00
         0.00000E+00
         0.00000E+00
         0.00000E+00
         0.00000E+00
         0.00000E+00
         0.00000E+00
         0.00000E+00
         0.00000E+00
         0.00000E+00
         0.00000E+00
         0.00000E+00
         0.00000E+00
         0.00000E+00
         0.00000E+00
         0.00000E+00
         0.00000E+00
         0.00000E+00
         0.00000E+00
         0.00000E+00
         0.00000E+00
         0.00000E+00
         0.00000E+00
         0.00000E+00
         0.00000E+00
         0.00000E+00
         0.00000E+00
         0.00000E+00
         0.00000E+00
         0.00000E+00
         0.00000E+00
         0.00000E+00
         0.00000E+00
         0.00000E+00
         0.00000E+00
         0.00000E+00
         0.00000E+00
         0.00000E+00
         0.00000E+00
         0.00000E+00
         0.00000E+00
         0.00000E+00
         0.00000E+00
         0.00000E+00
         0.00000E+00
         0.00000E+00
         0.00000E+00
         0.00000E+00
         0.00000E+00
         0.00000E+00
         0.00000E+00
         0.00000E+00
         0.00000E+00
         0.00000E+00
         0.00000E+00
         0.00000E+00
         0.00000E+00
         0.00000E+00
         0.00000E+00
         0.00000E+00
         0.00000E+00
         0.00000E+00
         0.00000E+00
         0.00000E+00
         0.00000E+00
         0.00000E+00
         0.00000E+00
         0.00000E+00
         0.00000E+00
         0.00000E+00
         0.00000E+00
         0.00000E+00
         0.00000E+00
         0.00000E+00
         0.00000E+00
         0.00000E+00
         0.00000E+00
         0.00000E+00
         0.00000E+00
         0.00000E+00
         0.00000E+00
         0.00000E+00
         0.00000E+00
         0.00000E+00
         0.00000E+00
         0.00000E+00
         0.00000E+00
         0.00000E+00
         0.00000E+00
         0.00000E+00
         0.00000E+00
         0.00000E+00
         0.00000E+00
         0.00000E+00
         0.00000E+00
         0.00000E+00
         0.00000E+00
         0.00000E+00
         0.00000E+00
         0.00000E+00
         0.00000E+00
         0.00000E+00
         0.00000E+00
         0.00000E+00
         0.00000E+00
         0.00000E+00
         0.00000E+00
         0.00000E+00
         0.00000E+00
         0.00000E+00
         0.00000E+00
         0.00000E+00
         0.00000E+00
         0.00000E+00
         0.00000E+00
         0.00000E+00
         0.00000E+00
         0.00000E+00
         0.00000E+00
         0.00000E+00
         0.00000E+00
         0.00000E+00
         0.00000E+00
         0.00000E+00
         0.00000E+00
         0.00000E+00
         0.00000E+00
         0.00000E+00
         0.00000E+00
         0.00000E+00
         0.00000E+00
         0.00000E+00
         0.00000E+00
         0.00000E+00
         0.00000E+00
         0.00000E+00
         0.00000E+00
         0.00000E+00
         0.00000E+00
         0.00000E+00
         0.00000E+00
         0.00000E+00
         0.00000E+00
         0.00000E+00
         0.00000E+00
         0.00000E+00
         0.00000E+00
         0.00000E+00
         0.00000E+00
         0.00000E+00
         0.00000E+00
         0.00000E+00
         0.00000E+00
         0.00000E+00
         0.00000E+00
         0.00000E+00
         0.00000E+00
         0.00000E+00
         0.00000E+00
         0.00000E+00
         0.00000E+00
         0.00000E+00
         0.00000E+00
         0.00000E+00
         0.00000E+00
         0.00000E+00
         0.00000E+00
         0.00000E+00
         0.00000E+00
         0.00000E+00
         0.00000E+00
         0.00000E+00
         0.00000E+00
         0.00000E+00
         0.00000E+00
         0.00000E+00
         0.00000E+00
         0.00000E+00
         0.00000E+00
         0.00000E+00
         0.00000E+00
         0.00000E+00
         0.00000E+00
         0.00000E+00
         0.00000E+00
         0.00000E+00
         0.00000E+00
         0.00000E+00
         0.00000E+00
         0.00000E+00
         0.00000E+00
         0.00000E+00
         0.00000E+00
         0.00000E+00
         0.00000E+00
         0.00000E+00
         0.00000E+00
         0.00000E+00
         0.00000E+00
         0.00000E+00
         0.00000E+00
         0.00000E+00
         0.00000E+00
         0.00000E+00
         0.00000E+00
         0.00000E+00
         0.00000E+00
         0.00000E+00
         0.00000E+00
         0.00000E+00
         0.00000E+00
         0.00000E+00
         0.00000E+00
         0.00000E+00
         0.00000E+00
         0.00000E+00
         0.00000E+00
         0.00000E+00
         0.00000E+00
         0.00000E+00
         0.00000E+00
         0.00000E+00
         0.00000E+00
         0.00000E+00
         0.00000E+00
         0.00000E+00
         0.00000E+00
         0.00000E+00
         0.00000E+00
         0.00000E+00
         0.00000E+00
         0.00000E+00
         0.00000E+00
         0.00000E+00
         0.00000E+00
         0.00000E+00
         0.00000E+00
         0.00000E+00
         0.00000E+00
         0.00000E+00
         0.00000E+00
         0.00000E+00
         0.00000E+00
         0.00000E+00
         0.00000E+00
         0.00000E+00
         0.00000E+00
         0.00000E+00
         0.00000E+00
         0.00000E+00
         0.00000E+00
         0.00000E+00
         0.00000E+00
         0.00000E+00
         0.00000E+00
         0.00000E+00
         0.00000E+00
         0.00000E+00
         0.00000E+00
         0.00000E+00
         0.00000E+00
         0.00000E+00
         0.00000E+00
         0.00000E+00
         0.00000E+00
         0.00000E+00
         0.00000E+00
         0.00000E+00
         0.00000E+00
         0.00000E+00
         0.00000E+00
         0.00000E+00
         0.00000E+00
         0.00000E+00
         0.00000E+00
         0.00000E+00
         0.00000E+00
         0.00000E+00
         0.00000E+00
         0.00000E+00
         0.00000E+00
         0.00000E+00
         0.00000E+00
         0.00000E+00
         0.00000E+00
         0.00000E+00
         0.00000E+00
         0.00000E+00
         0.00000E+00
         0.00000E+00
         0.00000E+00
         0.00000E+00
         0.00000E+00
         0.00000E+00
         0.00000E+00
         0.00000E+00
         0.00000E+00
         0.00000E+00
         0.00000E+00
         0.00000E+00
         0.00000E+00
         0.00000E+00
         0.00000E+00
         0.00000E+00
         0.00000E+00
         0.00000E+00
         0.00000E+00
         0.00000E+00
         0.00000E+00
         0.00000E+00
         0.00000E+00
         0.00000E+00
         0.00000E+00
         0.00000E+00
         0.00000E+00
         0.00000E+00
         0.00000E+00
         0.00000E+00
         0.00000E+00
         0.00000E+00
         0.00000E+00
         0.00000E+00
         0.00000E+00
         0.00000E+00
         0.00000E+00
         0.00000E+00
         0.00000E+00
         0.00000E+00
         0.00000E+00
         0.00000E+00
         0.00000E+00
         0.00000E+00
         0.00000E+00
         0.00000E+00
         0.00000E+00
         0.00000E+00
         0.00000E+00
         0.00000E+00
         0.00000E+00
         0.00000E+00
         0.00000E+00
         0.00000E+00
         0.00000E+00
         0.00000E+00
         0.00000E+00
         0.00000E+00
         0.00000E+00
         0.00000E+00
         0.00000E+00
         0.00000E+00
         0.00000E+00
         0.00000E+00
         0.00000E+00
         0.00000E+00
         0.00000E+00
         0.00000E+00
         0.00000E+00
         0.00000E+00
         0.00000E+00
         0.00000E+00
         0.00000E+00
         0.00000E+00
         0.00000E+00
         0.00000E+00
         0.00000E+00
         0.00000E+00
         0.00000E+00
         0.00000E+00
         0.00000E+00
         0.00000E+00
         0.00000E+00
         0.00000E+00
         0.00000E+00
         0.00000E+00
         0.00000E+00
         0.00000E+00
         0.00000E+00
         0.00000E+00
         0.00000E+00
         0.00000E+00
         0.00000E+00
         0.00000E+00
         0.00000E+00
         0.00000E+00
         0.00000E+00
         0.00000E+00
         0.00000E+00
         0.00000E+00
         0.00000E+00
         0.00000E+00
         0.00000E+00
         0.00000E+00
         0.00000E+00
         0.00000E+00
         0.00000E+00
         0.00000E+00
         0.00000E+00
         0.00000E+00
         0.00000E+00
         0.00000E+00
         0.00000E+00
         0.00000E+00
         0.00000E+00
         0.00000E+00
         0.00000E+00
         0.00000E+00
         0.00000E+00
         0.00000E+00
         0.00000E+00
         0.00000E+00
         0.00000E+00
         0.00000E+00
         0.00000E+00
         0.00000E+00
         0.00000E+00
         0.00000E+00
         0.00000E+00
         0.00000E+00
         0.00000E+00
         0.00000E+00
         0.00000E+00
         0.00000E+00
         0.00000E+00
         0.00000E+00
         0.00000E+00
         0.00000E+00
         0.00000E+00
         0.00000E+00
         0.00000E+00
         0.00000E+00
         0.00000E+00
         0.00000E+00
         0.00000E+00
         0.00000E+00
         0.00000E+00
         0.00000E+00
         0.00000E+00
         0.00000E+00
         0.00000E+00
         0.00000E+00
         0.00000E+00
         0.00000E+00
         0.00000E+00
         0.00000E+00
         0.00000E+00
         0.00000E+00
         0.00000E+00
         0.00000E+00
         0.00000E+00
         0.00000E+00
         0.00000E+00
         0.00000E+00
         0.00000E+00
         0.00000E+00
         0.00000E+00
         0.00000E+00
         0.00000E+00
         0.00000E+00
         0.00000E+00
         0.00000E+00
         0.00000E+00
         0.00000E+00
         0.00000E+00
         0.00000E+00
         0.00000E+00
         0.00000E+00
         0.00000E+00
         0.00000E+00
         0.00000E+00
         0.00000E+00
         0.00000E+00
         0.00000E+00
         0.00000E+00
         0.00000E+00
         0.00000E+00
         0.00000E+00
         0.00000E+00
         0.00000E+00
         0.00000E+00
         0.00000E+00
         0.00000E+00
         0.00000E+00
         0.00000E+00
         0.00000E+00
         0.00000E+00
         0.00000E+00
         0.00000E+00
         0.00000E+00
         0.00000E+00
         0.00000E+00
         0.00000E+00
         0.00000E+00
         0.00000E+00
         0.00000E+00
         0.00000E+00
         0.00000E+00
         0.00000E+00
         0.00000E+00
         0.00000E+00
         0.00000E+00
         0.00000E+00
         0.00000E+00
         0.00000E+00
         0.00000E+00
         0.00000E+00
         0.00000E+00
         0.00000E+00
         0.00000E+00
         0.00000E+00
         0.00000E+00
         0.00000E+00
         0.00000E+00
         0.00000E+00
         0.00000E+00
         0.00000E+00
         0.00000E+00
         0.00000E+00
         0.00000E+00
         0.00000E+00
         0.00000E+00
         0.00000E+00
         0.00000E+00
         0.00000E+00
         0.00000E+00
         0.00000E+00
         0.00000E+00
         0.00000E+00
         0.00000E+00
         0.00000E+00
         0.00000E+00
         0.00000E+00
         0.00000E+00
         0.00000E+00
         0.00000E+00
         0.00000E+00
         0.00000E+00
         0.00000E+00
         0.00000E+00
         0.00000E+00
         0.00000E+00
         0.00000E+00
         0.00000E+00
         0.00000E+00
         0.00000E+00
         0.00000E+00
         0.00000E+00
         0.00000E+00
         0.00000E+00
         0.00000E+00
         0.00000E+00
         0.00000E+00
         0.00000E+00
         0.00000E+00
         0.00000E+00
         0.00000E+00
         0.00000E+00
         0.00000E+00
         0.00000E+00
         0.00000E+00
         0.00000E+00
         0.00000E+00
         0.00000E+00
         0.00000E+00
         0.00000E+00
         0.00000E+00
         0.00000E+00
         0.00000E+00
         0.00000E+00
         0.00000E+00
         0.00000E+00
         0.00000E+00
         0.00000E+00
         0.00000E+00
         0.00000E+00
         0.00000E+00
         0.00000E+00
         0.00000E+00
         0.00000E+00
         0.00000E+00
         0.00000E+00
         0.00000E+00
         0.00000E+00
         0.00000E+00
         0.00000E+00
         0.00000E+00
         0.00000E+00
         0.00000E+00
         0.00000E+00
         0.00000E+00
         0.00000E+00
         0.00000E+00
         0.00000E+00
         0.00000E+00
         0.00000E+00
         0.00000E+00
         0.00000E+00
         0.00000E+00
         0.00000E+00
         0.00000E+00
         0.00000E+00
         0.00000E+00
  
SCALARS                   max_wave_vel  double 1
LOOKUP_TABLE default
         0.00000E+00
         0.00000E+00
         0.00000E+00
         0.00000E+00
         0.00000E+00
         0.00000E+00
         0.00000E+00
         0.00000E+00
         0.00000E+00
         0.00000E+00
         0.00000E+00
         0.00000E+00
         0.00000E+00
         0.00000E+00
         0.00000E+00
         0.00000E+00
         0.00000E+00
         0.00000E+00
         0.00000E+00
         0.00000E+00
         0.00000E+00
         0.00000E+00
         0.00000E+00
         0.00000E+00
         0.00000E+00
         0.00000E+00
         0.00000E+00
         0.00000E+00
         0.00000E+00
         0.00000E+00
         0.00000E+00
         0.00000E+00
         0.00000E+00
         0.00000E+00
         0.00000E+00
         0.00000E+00
         0.00000E+00
         0.00000E+00
         0.00000E+00
         0.00000E+00
         0.00000E+00
         0.00000E+00
         0.00000E+00
         0.00000E+00
         0.00000E+00
         0.00000E+00
         0.00000E+00
         0.00000E+00
         0.00000E+00
         0.00000E+00
         0.00000E+00
         0.00000E+00
         0.00000E+00
         0.00000E+00
         0.00000E+00
         0.00000E+00
         0.00000E+00
         0.00000E+00
         0.00000E+00
         0.00000E+00
         0.00000E+00
         0.00000E+00
         0.00000E+00
         0.00000E+00
         0.00000E+00
         0.00000E+00
         0.00000E+00
         0.00000E+00
         0.00000E+00
         0.00000E+00
         0.00000E+00
         0.00000E+00
         0.00000E+00
         0.00000E+00
         0.00000E+00
         0.00000E+00
         0.00000E+00
         0.00000E+00
         0.00000E+00
         0.00000E+00
         0.00000E+00
         0.00000E+00
         0.00000E+00
         0.00000E+00
         0.00000E+00
         0.00000E+00
         0.00000E+00
         0.00000E+00
         0.00000E+00
         0.00000E+00
         0.00000E+00
         0.00000E+00
         0.00000E+00
         0.00000E+00
         0.00000E+00
         0.00000E+00
         0.00000E+00
         0.00000E+00
         0.00000E+00
         0.00000E+00
         0.00000E+00
         0.00000E+00
         0.00000E+00
         0.00000E+00
         0.00000E+00
         0.00000E+00
         0.00000E+00
         0.00000E+00
         0.00000E+00
         0.00000E+00
         0.00000E+00
         0.00000E+00
         0.00000E+00
         0.00000E+00
         0.00000E+00
         0.00000E+00
         0.00000E+00
         0.00000E+00
         0.00000E+00
         0.00000E+00
         0.00000E+00
         0.00000E+00
         0.00000E+00
         0.00000E+00
         0.00000E+00
         0.00000E+00
         0.00000E+00
         0.00000E+00
         0.00000E+00
         0.00000E+00
         0.00000E+00
         0.00000E+00
         0.00000E+00
         0.00000E+00
         0.00000E+00
         0.00000E+00
         0.00000E+00
         0.00000E+00
         0.00000E+00
         0.00000E+00
         0.00000E+00
         0.00000E+00
         0.00000E+00
         0.00000E+00
         0.00000E+00
         0.00000E+00
         0.00000E+00
         0.00000E+00
         0.00000E+00
         0.00000E+00
         0.00000E+00
         0.00000E+00
         0.00000E+00
         0.00000E+00
         0.00000E+00
         0.00000E+00
         0.00000E+00
         0.00000E+00
         0.00000E+00
         0.00000E+00
         0.00000E+00
         0.00000E+00
         0.00000E+00
         0.00000E+00
         0.00000E+00
         0.00000E+00
         0.00000E+00
         0.00000E+00
         0.00000E+00
         0.00000E+00
         0.00000E+00
         0.00000E+00
         0.00000E+00
         0.00000E+00
         0.00000E+00
         0.00000E+00
         0.00000E+00
         0.00000E+00
         0.00000E+00
         0.00000E+00
         0.00000E+00
         0.00000E+00
         0.00000E+00
         0.00000E+00
         0.00000E+00
         0.00000E+00
         0.00000E+00
         0.00000E+00
         0.00000E+00
         0.00000E+00
         0.00000E+00
         0.00000E+00
         0.00000E+00
         0.00000E+00
         0.00000E+00
         0.00000E+00
         0.00000E+00
         0.00000E+00
         0.00000E+00
         0.00000E+00
         0.00000E+00
         0.00000E+00
         0.00000E+00
         0.00000E+00
         0.00000E+00
         0.00000E+00
         0.00000E+00
         0.00000E+00
         0.00000E+00
         0.00000E+00
         0.00000E+00
         0.00000E+00
         0.00000E+00
         0.00000E+00
         0.00000E+00
         0.00000E+00
         0.00000E+00
         0.00000E+00
         0.00000E+00
         0.00000E+00
         0.00000E+00
         0.00000E+00
         0.00000E+00
         0.00000E+00
         0.00000E+00
         0.00000E+00
         0.00000E+00
         0.00000E+00
         0.00000E+00
         0.00000E+00
         0.00000E+00
         0.00000E+00
         0.00000E+00
         0.00000E+00
         0.00000E+00
         0.00000E+00
         0.00000E+00
         0.00000E+00
         0.00000E+00
         0.00000E+00
         0.00000E+00
         0.00000E+00
         0.00000E+00
         0.00000E+00
         0.00000E+00
         0.00000E+00
         0.00000E+00
         0.00000E+00
         0.00000E+00
         0.00000E+00
         0.00000E+00
         0.00000E+00
         0.00000E+00
         0.00000E+00
         0.00000E+00
         0.00000E+00
         0.00000E+00
         0.00000E+00
         0.00000E+00
         0.00000E+00
         0.00000E+00
         0.00000E+00
         0.00000E+00
         0.00000E+00
         0.00000E+00
         0.00000E+00
         0.00000E+00
         0.00000E+00
         0.00000E+00
         0.00000E+00
         0.00000E+00
         0.00000E+00
         0.00000E+00
         0.00000E+00
         0.00000E+00
         0.00000E+00
         0.00000E+00
         0.00000E+00
         0.00000E+00
         0.00000E+00
         0.00000E+00
         0.00000E+00
         0.00000E+00
         0.00000E+00
         0.00000E+00
         0.00000E+00
         0.00000E+00
         0.00000E+00
         0.00000E+00
         0.00000E+00
         0.00000E+00
         0.00000E+00
         0.00000E+00
         0.00000E+00
         0.00000E+00
         0.00000E+00
         0.00000E+00
         0.00000E+00
         0.00000E+00
         0.00000E+00
         0.00000E+00
         0.00000E+00
         0.00000E+00
         0.00000E+00
         0.00000E+00
         0.00000E+00
         0.00000E+00
         0.00000E+00
         0.00000E+00
         0.00000E+00
         0.00000E+00
         0.00000E+00
         0.00000E+00
         0.00000E+00
         0.00000E+00
         0.00000E+00
         0.00000E+00
         0.00000E+00
         0.00000E+00
         0.00000E+00
         0.00000E+00
         0.00000E+00
         0.00000E+00
         0.00000E+00
         0.00000E+00
         0.00000E+00
         0.00000E+00
         0.00000E+00
         0.00000E+00
         0.00000E+00
         0.00000E+00
         0.00000E+00
         0.00000E+00
         0.00000E+00
         0.00000E+00
         0.00000E+00
         0.00000E+00
         0.00000E+00
         0.00000E+00
         0.00000E+00
         0.00000E+00
         0.00000E+00
         0.00000E+00
         0.00000E+00
         0.00000E+00
         0.00000E+00
         0.00000E+00
         0.00000E+00
         0.00000E+00
         0.00000E+00
         0.00000E+00
         0.00000E+00
         0.00000E+00
         0.00000E+00
         0.00000E+00
         0.00000E+00
         0.00000E+00
         0.00000E+00
         0.00000E+00
         0.00000E+00
         0.00000E+00
         0.00000E+00
         0.00000E+00
         0.00000E+00
         0.00000E+00
         0.00000E+00
         0.00000E+00
         0.00000E+00
         0.00000E+00
         0.00000E+00
         0.00000E+00
         0.00000E+00
         0.00000E+00
         0.00000E+00
         0.00000E+00
         0.00000E+00
         0.00000E+00
         0.00000E+00
         0.00000E+00
         0.00000E+00
         0.00000E+00
         0.00000E+00
         0.00000E+00
         0.00000E+00
         0.00000E+00
         0.00000E+00
         0.00000E+00
         0.00000E+00
         0.00000E+00
         0.00000E+00
         0.00000E+00
         0.00000E+00
         0.00000E+00
         0.00000E+00
         0.00000E+00
         0.00000E+00
         0.00000E+00
         0.00000E+00
         0.00000E+00
         0.00000E+00
         0.00000E+00
         0.00000E+00
         0.00000E+00
         0.00000E+00
         0.00000E+00
         0.00000E+00
         0.00000E+00
         0.00000E+00
         0.00000E+00
         0.00000E+00
         0.00000E+00
         0.00000E+00
         0.00000E+00
         0.00000E+00
         0.00000E+00
         0.00000E+00
         0.00000E+00
         0.00000E+00
         0.00000E+00
         0.00000E+00
         0.00000E+00
         0.00000E+00
         0.00000E+00
         0.00000E+00
         0.00000E+00
         0.00000E+00
         0.00000E+00
         0.00000E+00
         0.00000E+00
         0.00000E+00
         0.00000E+00
         0.00000E+00
         0.00000E+00
         0.00000E+00
         0.00000E+00
         0.00000E+00
         0.00000E+00
         0.00000E+00
         0.00000E+00
         0.00000E+00
         0.00000E+00
         0.00000E+00
         0.00000E+00
         0.00000E+00
         0.00000E+00
         0.00000E+00
         0.00000E+00
         0.00000E+00
         0.00000E+00
         0.00000E+00
         0.00000E+00
         0.00000E+00
         0.00000E+00
         0.00000E+00
         0.00000E+00
         0.00000E+00
         0.00000E+00
         0.00000E+00
         0.00000E+00
         0.00000E+00
         0.00000E+00
         0.00000E+00
         0.00000E+00
         0.00000E+00
         0.00000E+00
         0.00000E+00
         0.00000E+00
         0.00000E+00
         0.00000E+00
         0.00000E+00
         0.00000E+00
         0.00000E+00
         0.00000E+00
         0.00000E+00
         0.00000E+00
         0.00000E+00
         0.00000E+00
         0.00000E+00
         0.00000E+00
         0.00000E+00
         0.00000E+00
         0.00000E+00
         0.00000E+00
         0.00000E+00
         0.00000E+00
         0.00000E+00
         0.00000E+00
         0.00000E+00
         0.00000E+00
         0.00000E+00
         0.00000E+00
         0.00000E+00
         0.00000E+00
         0.00000E+00
         0.00000E+00
         0.00000E+00
         0.00000E+00
         0.00000E+00
         0.00000E+00
         0.00000E+00
         0.00000E+00
         0.00000E+00
         0.00000E+00
         0.00000E+00
         0.00000E+00
         0.00000E+00
         0.00000E+00
         0.00000E+00
         0.00000E+00
         0.00000E+00
         0.00000E+00
         0.00000E+00
         0.00000E+00
         0.00000E+00
         0.00000E+00
         0.00000E+00
         0.00000E+00
         0.00000E+00
         0.00000E+00
         0.00000E+00
         0.00000E+00
         0.00000E+00
         0.00000E+00
         0.00000E+00
         0.00000E+00
         0.00000E+00
         0.00000E+00
         0.00000E+00
         0.00000E+00
         0.00000E+00
         0.00000E+00
         0.00000E+00
         0.00000E+00
         0.00000E+00
         0.00000E+00
         0.00000E+00
         0.00000E+00
         0.00000E+00
         0.00000E+00
         0.00000E+00
         0.00000E+00
         0.00000E+00
         0.00000E+00
         0.00000E+00
         0.00000E+00
         0.00000E+00
         0.00000E+00
         0.00000E+00
         0.00000E+00
         0.00000E+00
         0.00000E+00
         0.00000E+00
         0.00000E+00
         0.00000E+00
         0.00000E+00
         0.00000E+00
         0.00000E+00
         0.00000E+00
         0.00000E+00
         0.00000E+00
         0.00000E+00
         0.00000E+00
         0.00000E+00
         0.00000E+00
         0.00000E+00
         0.00000E+00
         0.00000E+00
         0.00000E+00
         0.00000E+00
         0.00000E+00
         0.00000E+00
         0.00000E+00
         0.00000E+00
         0.00000E+00
         0.00000E+00
         0.00000E+00
         0.00000E+00
         0.00000E+00
         0.00000E+00
         0.00000E+00
         0.00000E+00
         0.00000E+00
         0.00000E+00
         0.00000E+00
         0.00000E+00
         0.00000E+00
         0.00000E+00
         0.00000E+00
         0.00000E+00
         0.00000E+00
         0.00000E+00
         0.00000E+00
         0.00000E+00
         0.00000E+00
         0.00000E+00
         0.00000E+00
         0.00000E+00
         0.00000E+00
         0.00000E+00
         0.00000E+00
         0.00000E+00
         0.00000E+00
         0.00000E+00
         0.00000E+00
         0.00000E+00
         0.00000E+00
         0.00000E+00
         0.00000E+00
         0.00000E+00
         0.00000E+00
         0.00000E+00
         0.00000E+00
         0.00000E+00
         0.00000E+00
         0.00000E+00
         0.00000E+00
         0.00000E+00
         0.00000E+00
         0.00000E+00
         0.00000E+00
         0.00000E+00
         0.00000E+00
         0.00000E+00
         0.00000E+00
         0.00000E+00
         0.00000E+00
         0.00000E+00
         0.00000E+00
         0.00000E+00
         0.00000E+00
         0.00000E+00
         0.00000E+00
         0.00000E+00
         0.00000E+00
         0.00000E+00
         0.00000E+00
         0.00000E+00
         0.00000E+00
         0.00000E+00
         0.00000E+00
         0.00000E+00
         0.00000E+00
         0.00000E+00
         0.00000E+00
         0.00000E+00
         0.00000E+00
         0.00000E+00
         0.00000E+00
         0.00000E+00
         0.00000E+00
         0.00000E+00
         0.00000E+00
         0.00000E+00
         0.00000E+00
         0.00000E+00
         0.00000E+00
         0.00000E+00
         0.00000E+00
         0.00000E+00
         0.00000E+00
         0.00000E+00
         0.00000E+00
         0.00000E+00
         0.00000E+00
         0.00000E+00
         0.00000E+00
         0.00000E+00
         0.00000E+00
         0.00000E+00
         0.00000E+00
         0.00000E+00
         0.00000E+00
         0.00000E+00
         0.00000E+00
         0.00000E+00
         0.00000E+00
         0.00000E+00
         0.00000E+00
         0.00000E+00
         0.00000E+00
         0.00000E+00
         0.00000E+00
         0.00000E+00
         0.00000E+00
         0.00000E+00
         0.00000E+00
         0.00000E+00
         0.00000E+00
         0.00000E+00
         0.00000E+00
         0.00000E+00
         0.00000E+00
         0.00000E+00
         0.00000E+00
         0.00000E+00
         0.00000E+00
         0.00000E+00
         0.00000E+00
         0.00000E+00
         0.00000E+00
         0.00000E+00
         0.00000E+00
         0.00000E+00
         0.00000E+00
         0.00000E+00
         0.00000E+00
         0.00000E+00
         0.00000E+00
         0.00000E+00
         0.00000E+00
         0.00000E+00
         0.00000E+00
         0.00000E+00
         0.00000E+00
         0.00000E+00
         0.00000E+00
         0.00000E+00
         0.00000E+00
         0.00000E+00
         0.00000E+00
         0.00000E+00
         0.00000E+00
         0.00000E+00
         0.00000E+00
         0.00000E+00
         0.00000E+00
         0.00000E+00
         0.00000E+00
         0.00000E+00
         0.00000E+00
         0.00000E+00
         0.00000E+00
         0.00000E+00
         0.00000E+00
         0.00000E+00
         0.00000E+00
         0.00000E+00
         0.00000E+00
         0.00000E+00
         0.00000E+00
         0.00000E+00
         0.00000E+00
         0.00000E+00
         0.00000E+00
         0.00000E+00
         0.00000E+00
         0.00000E+00
         0.00000E+00
         0.00000E+00
         0.00000E+00
         0.00000E+00
         0.00000E+00
         0.00000E+00
         0.00000E+00
         0.00000E+00
         0.00000E+00
         0.00000E+00
         0.00000E+00
         0.00000E+00
         0.00000E+00
         0.00000E+00
         0.00000E+00
         0.00000E+00
         0.00000E+00
         0.00000E+00
         0.00000E+00
         0.00000E+00
         0.00000E+00
         0.00000E+00
         0.00000E+00
         0.00000E+00
         0.00000E+00
         0.00000E+00
         0.00000E+00
         0.00000E+00
         0.00000E+00
         0.00000E+00
         0.00000E+00
         0.00000E+00
         0.00000E+00
         0.00000E+00
         0.00000E+00
         0.00000E+00
         0.00000E+00
         0.00000E+00
         0.00000E+00
         0.00000E+00
         0.00000E+00
         0.00000E+00
         0.00000E+00
         0.00000E+00
         0.00000E+00
         0.00000E+00
         0.00000E+00
         0.00000E+00
         0.00000E+00
         0.00000E+00
         0.00000E+00
         0.00000E+00
         0.00000E+00
         0.00000E+00
         0.00000E+00
         0.00000E+00
         0.00000E+00
         0.00000E+00
         0.00000E+00
         0.00000E+00
         0.00000E+00
         0.00000E+00
         0.00000E+00
         0.00000E+00
         0.00000E+00
         0.00000E+00
         0.00000E+00
         0.00000E+00
         0.00000E+00
         0.00000E+00
         0.00000E+00
         0.00000E+00
         0.00000E+00
         0.00000E+00
         0.00000E+00
         0.00000E+00
         0.00000E+00
         0.00000E+00
         0.00000E+00
         0.00000E+00
         0.00000E+00
         0.00000E+00
         0.00000E+00
         0.00000E+00
         0.00000E+00
         0.00000E+00
         0.00000E+00
         0.00000E+00
         0.00000E+00
         0.00000E+00
         0.00000E+00
         0.00000E+00
         0.00000E+00
         0.00000E+00
         0.00000E+00
         0.00000E+00
         0.00000E+00
         0.00000E+00
         0.00000E+00
         0.00000E+00
         0.00000E+00
         0.00000E+00
         0.00000E+00
         0.00000E+00
         0.00000E+00
         0.00000E+00
         0.00000E+00
         0.00000E+00
         0.00000E+00
         0.00000E+00
         0.00000E+00
         0.00000E+00
         0.00000E+00
         0.00000E+00
         0.00000E+00
         0.00000E+00
         0.00000E+00
         0.00000E+00
         0.00000E+00
         0.00000E+00
         0.00000E+00
         0.00000E+00
         0.00000E+00
         0.00000E+00
         0.00000E+00
         0.00000E+00
         0.00000E+00
         0.00000E+00
         0.00000E+00
         0.00000E+00
         0.00000E+00
         0.00000E+00
         0.00000E+00
         0.00000E+00
         0.00000E+00
         0.00000E+00
         0.00000E+00
         0.00000E+00
         0.00000E+00
         0.00000E+00
         0.00000E+00
         0.00000E+00
         0.00000E+00
         0.00000E+00
         0.00000E+00
         0.00000E+00
         0.00000E+00
         0.00000E+00
         0.00000E+00
         0.00000E+00
         0.00000E+00
         0.00000E+00
         0.00000E+00
         0.00000E+00
         0.00000E+00
         0.00000E+00
         0.00000E+00
         0.00000E+00
         0.00000E+00
         0.00000E+00
         0.00000E+00
         0.00000E+00
         0.00000E+00
         0.00000E+00
         0.00000E+00
         0.00000E+00
         0.00000E+00
         0.00000E+00
         0.00000E+00
         0.00000E+00
         0.00000E+00
         0.00000E+00
         0.00000E+00
         0.00000E+00
         0.00000E+00
         0.00000E+00
         0.00000E+00
         0.00000E+00
         0.00000E+00
         0.00000E+00
         0.00000E+00
         0.00000E+00
         0.00000E+00
         0.00000E+00
         0.00000E+00
         0.00000E+00
         0.00000E+00
         0.00000E+00
         0.00000E+00
         0.00000E+00
         0.00000E+00
         0.00000E+00
         0.00000E+00
         0.00000E+00
         0.00000E+00
         0.00000E+00
         0.00000E+00
         0.00000E+00
         0.00000E+00
         0.00000E+00
         0.00000E+00
         0.00000E+00
         0.00000E+00
         0.00000E+00
         0.00000E+00
         0.00000E+00
         0.00000E+00
         0.00000E+00
         0.00000E+00
         0.00000E+00
         0.00000E+00
         0.00000E+00
         0.00000E+00
         0.00000E+00
         0.00000E+00
         0.00000E+00
         0.00000E+00
         0.00000E+00
         0.00000E+00
         0.00000E+00
         0.00000E+00
         0.00000E+00
         0.00000E+00
         0.00000E+00
         0.00000E+00
         0.00000E+00
         0.00000E+00
         0.00000E+00
         0.00000E+00
         0.00000E+00
         0.00000E+00
         0.00000E+00
         0.00000E+00
         0.00000E+00
         0.00000E+00
         0.00000E+00
         0.00000E+00
         0.00000E+00
         0.00000E+00
         0.00000E+00
         0.00000E+00
         0.00000E+00
         0.00000E+00
         0.00000E+00
         0.00000E+00
         0.00000E+00
         0.00000E+00
         0.00000E+00
         0.00000E+00
         0.00000E+00
         0.00000E+00
         0.00000E+00
         0.00000E+00
         0.00000E+00
         0.00000E+00
         0.00000E+00
         0.00000E+00
         0.00000E+00
         0.00000E+00
         0.00000E+00
         0.00000E+00
         0.00000E+00
         0.00000E+00
         0.00000E+00
         0.00000E+00
         0.00000E+00
         0.00000E+00
         0.00000E+00
         0.00000E+00
         0.00000E+00
         0.00000E+00
         0.00000E+00
         0.00000E+00
         0.00000E+00
         0.00000E+00
         0.00000E+00
         0.00000E+00
         0.00000E+00
         0.00000E+00
         0.00000E+00
         0.00000E+00
         0.00000E+00
         0.00000E+00
         0.00000E+00
         0.00000E+00
         0.00000E+00
         0.00000E+00
         0.00000E+00
         0.00000E+00
         0.00000E+00
         0.00000E+00
         0.00000E+00
         0.00000E+00
         0.00000E+00
         0.00000E+00
         0.00000E+00
         0.00000E+00
         0.00000E+00
         0.00000E+00
         0.00000E+00
         0.00000E+00
         0.00000E+00
         0.00000E+00
         0.00000E+00
         0.00000E+00
         0.00000E+00
         0.00000E+00
         0.00000E+00
         0.00000E+00
         0.00000E+00
         0.00000E+00
         0.00000E+00
         0.00000E+00
         0.00000E+00
         0.00000E+00
         0.00000E+00
         0.00000E+00
         0.00000E+00
         0.00000E+00
         0.00000E+00
         0.00000E+00
         0.00000E+00
         0.00000E+00
         0.00000E+00
         0.00000E+00
         0.00000E+00
         0.00000E+00
         0.00000E+00
         0.00000E+00
         0.00000E+00
         0.00000E+00
         0.00000E+00
         0.00000E+00
         0.00000E+00
         0.00000E+00
         0.00000E+00
         0.00000E+00
         0.00000E+00
         0.00000E+00
         0.00000E+00
         0.00000E+00
         0.00000E+00
         0.00000E+00
         0.00000E+00
         0.00000E+00
         0.00000E+00
         0.00000E+00
         0.00000E+00
         0.00000E+00
         0.00000E+00
         0.00000E+00
         0.00000E+00
         0.00000E+00
         0.00000E+00
         0.00000E+00
         0.00000E+00
         0.00000E+00
         0.00000E+00
         0.00000E+00
         0.00000E+00
         0.00000E+00
         0.00000E+00
         0.00000E+00
         0.00000E+00
         0.00000E+00
         0.00000E+00
         0.00000E+00
         0.00000E+00
         0.00000E+00
         0.00000E+00
         0.00000E+00
         0.00000E+00
         0.00000E+00
         0.00000E+00
         0.00000E+00
         0.00000E+00
         0.00000E+00
         0.00000E+00
         0.00000E+00
         0.00000E+00
         0.00000E+00
         0.00000E+00
         0.00000E+00
         0.00000E+00
         0.00000E+00
         0.00000E+00
         0.00000E+00
         0.00000E+00
         0.00000E+00
         0.00000E+00
         0.00000E+00
         0.00000E+00
         0.00000E+00
         0.00000E+00
         0.00000E+00
         0.00000E+00
         0.00000E+00
         0.00000E+00
         0.00000E+00
         0.00000E+00
         0.00000E+00
         0.00000E+00
         0.00000E+00
         0.00000E+00
         0.00000E+00
         0.00000E+00
         0.00000E+00
         0.00000E+00
         0.00000E+00
         0.00000E+00
         0.00000E+00
         0.00000E+00
         0.00000E+00
         0.00000E+00
         0.00000E+00
         0.00000E+00
         0.00000E+00
         0.00000E+00
         0.00000E+00
         0.00000E+00
         0.00000E+00
         0.00000E+00
         0.00000E+00
         0.00000E+00
         0.00000E+00
         0.00000E+00
         0.00000E+00
         0.00000E+00
         0.00000E+00
         0.00000E+00
         0.00000E+00
         0.00000E+00
         0.00000E+00
         0.00000E+00
         0.00000E+00
         0.00000E+00
         0.00000E+00
         0.00000E+00
         0.00000E+00
         0.00000E+00
         0.00000E+00
         0.00000E+00
         0.00000E+00
         0.00000E+00
         0.00000E+00
         0.00000E+00
         0.00000E+00
         0.00000E+00
         0.00000E+00
         0.00000E+00
         0.00000E+00
         0.00000E+00
         0.00000E+00
         0.00000E+00
         0.00000E+00
         0.00000E+00
         0.00000E+00
         0.00000E+00
         0.00000E+00
         0.00000E+00
         0.00000E+00
         0.00000E+00
         0.00000E+00
         0.00000E+00
         0.00000E+00
         0.00000E+00
         0.00000E+00
         0.00000E+00
         0.00000E+00
         0.00000E+00
         0.00000E+00
         0.00000E+00
         0.00000E+00
         0.00000E+00
         0.00000E+00
         0.00000E+00
         0.00000E+00
         0.00000E+00
         0.00000E+00
         0.00000E+00
         0.00000E+00
         0.00000E+00
         0.00000E+00
         0.00000E+00
         0.00000E+00
         0.00000E+00
         0.00000E+00
         0.00000E+00
         0.00000E+00
         0.00000E+00
         0.00000E+00
         0.00000E+00
         0.00000E+00
         0.00000E+00
         0.00000E+00
         0.00000E+00
         0.00000E+00
         0.00000E+00
         0.00000E+00
         0.00000E+00
         0.00000E+00
         0.00000E+00
         0.00000E+00
         0.00000E+00
         0.00000E+00
         0.00000E+00
         0.00000E+00
         0.00000E+00
         0.00000E+00
         0.00000E+00
         0.00000E+00
         0.00000E+00
         0.00000E+00
         0.00000E+00
         0.00000E+00
         0.00000E+00
         0.00000E+00
         0.00000E+00
         0.00000E+00
         0.00000E+00
         0.00000E+00
         0.00000E+00
         0.00000E+00
         0.00000E+00
         0.00000E+00
         0.00000E+00
         0.00000E+00
         0.00000E+00
         0.00000E+00
         0.00000E+00
         0.00000E+00
         0.00000E+00
         0.00000E+00
         0.00000E+00
         0.00000E+00
         0.00000E+00
         0.00000E+00
         0.00000E+00
         0.00000E+00
         0.00000E+00
         0.00000E+00
         0.00000E+00
         0.00000E+00
         0.00000E+00
         0.00000E+00
         0.00000E+00
         0.00000E+00
         0.00000E+00
         0.00000E+00
         0.00000E+00
         0.00000E+00
         0.00000E+00
         0.00000E+00
         0.00000E+00
         0.00000E+00
         0.00000E+00
         0.00000E+00
         0.00000E+00
         0.00000E+00
         0.00000E+00
         0.00000E+00
         0.00000E+00
         0.00000E+00
         0.00000E+00
         0.00000E+00
         0.00000E+00
         0.00000E+00
         0.00000E+00
         0.00000E+00
         0.00000E+00
         0.00000E+00
         0.00000E+00
         0.00000E+00
         0.00000E+00
         0.00000E+00
         0.00000E+00
         0.00000E+00
         0.00000E+00
         0.00000E+00
         0.00000E+00
         0.00000E+00
         0.00000E+00
         0.00000E+00
         0.00000E+00
         0.00000E+00
         0.00000E+00
         0.00000E+00
         0.00000E+00
         0.00000E+00
         0.00000E+00
         0.00000E+00
         0.00000E+00
         0.00000E+00
         0.00000E+00
         0.00000E+00
         0.00000E+00
         0.00000E+00
         0.00000E+00
         0.00000E+00
         0.00000E+00
         0.00000E+00
         0.00000E+00
         0.00000E+00
         0.00000E+00
         0.00000E+00
         0.00000E+00
         0.00000E+00
         0.00000E+00
         0.00000E+00
         0.00000E+00
         0.00000E+00
         0.00000E+00
         0.00000E+00
         0.00000E+00
         0.00000E+00
         0.00000E+00
         0.00000E+00
         0.00000E+00
         0.00000E+00
         0.00000E+00
         0.00000E+00
         0.00000E+00
         0.00000E+00
         0.00000E+00
         0.00000E+00
         0.00000E+00
         0.00000E+00
         0.00000E+00
         0.00000E+00
         0.00000E+00
         0.00000E+00
         0.00000E+00
         0.00000E+00
         0.00000E+00
         0.00000E+00
         0.00000E+00
         0.00000E+00
         0.00000E+00
         0.00000E+00
         0.00000E+00
         0.00000E+00
         0.00000E+00
         0.00000E+00
         0.00000E+00
         0.00000E+00
         0.00000E+00
         0.00000E+00
         0.00000E+00
         0.00000E+00
         0.00000E+00
         0.00000E+00
         0.00000E+00
         0.00000E+00
         0.00000E+00
         0.00000E+00
         0.00000E+00
         0.00000E+00
         0.00000E+00
         0.00000E+00
         0.00000E+00
         0.00000E+00
         0.00000E+00
         0.00000E+00
         0.00000E+00
         0.00000E+00
         0.00000E+00
         0.00000E+00
         0.00000E+00
         0.00000E+00
         0.00000E+00
         0.00000E+00
         0.00000E+00
         0.00000E+00
         0.00000E+00
         0.00000E+00
         0.00000E+00
         0.00000E+00
         0.00000E+00
         0.00000E+00
         0.00000E+00
         0.00000E+00
         0.00000E+00
         0.00000E+00
         0.00000E+00
         0.00000E+00
         0.00000E+00
         0.00000E+00
         0.00000E+00
         0.00000E+00
         0.00000E+00
         0.00000E+00
         0.00000E+00
         0.00000E+00
         0.00000E+00
         0.00000E+00
         0.00000E+00
         0.00000E+00
         0.00000E+00
         0.00000E+00
         0.00000E+00
         0.00000E+00
         0.00000E+00
         0.00000E+00
         0.00000E+00
         0.00000E+00
         0.00000E+00
         0.00000E+00
         0.00000E+00
         0.00000E+00
         0.00000E+00
         0.00000E+00
         0.00000E+00
         0.00000E+00
         0.00000E+00
         0.00000E+00
         0.00000E+00
         0.00000E+00
         0.00000E+00
         0.00000E+00
         0.00000E+00
         0.00000E+00
         0.00000E+00
         0.00000E+00
         0.00000E+00
         0.00000E+00
         0.00000E+00
         0.00000E+00
         0.00000E+00
         0.00000E+00
         0.00000E+00
         0.00000E+00
         0.00000E+00
         0.00000E+00
         0.00000E+00
         0.00000E+00
         0.00000E+00
         0.00000E+00
         0.00000E+00
         0.00000E+00
         0.00000E+00
         0.00000E+00
         0.00000E+00
         0.00000E+00
         0.00000E+00
         0.00000E+00
         0.00000E+00
         0.00000E+00
         0.00000E+00
         0.00000E+00
         0.00000E+00
         0.00000E+00
         0.00000E+00
         0.00000E+00
         0.00000E+00
         0.00000E+00
         0.00000E+00
         0.00000E+00
         0.00000E+00
         0.00000E+00
         0.00000E+00
         0.00000E+00
         0.00000E+00
         0.00000E+00
         0.00000E+00
         0.00000E+00
         0.00000E+00
         0.00000E+00
         0.00000E+00
         0.00000E+00
         0.00000E+00
         0.00000E+00
         0.00000E+00
         0.00000E+00
         0.00000E+00
         0.00000E+00
         0.00000E+00
         0.00000E+00
         0.00000E+00
         0.00000E+00
         0.00000E+00
         0.00000E+00
         0.00000E+00
         0.00000E+00
         0.00000E+00
         0.00000E+00
         0.00000E+00
         0.00000E+00
         0.00000E+00
         0.00000E+00
         0.00000E+00
         0.00000E+00
         0.00000E+00
         0.00000E+00
         0.00000E+00
         0.00000E+00
         0.00000E+00
         0.00000E+00
         0.00000E+00
         0.00000E+00
         0.00000E+00
         0.00000E+00
         0.00000E+00
         0.00000E+00
         0.00000E+00
         0.00000E+00
         0.00000E+00
         0.00000E+00
         0.00000E+00
         0.00000E+00
         0.00000E+00
         0.00000E+00
         0.00000E+00
         0.00000E+00
         0.00000E+00
         0.00000E+00
         0.00000E+00
         0.00000E+00
         0.00000E+00
         0.00000E+00
         0.00000E+00
         0.00000E+00
         0.00000E+00
         0.00000E+00
         0.00000E+00
         0.00000E+00
         0.00000E+00
         0.00000E+00
         0.00000E+00
         0.00000E+00
         0.00000E+00
         0.00000E+00
         0.00000E+00
         0.00000E+00
         0.00000E+00
         0.00000E+00
         0.00000E+00
         0.00000E+00
         0.00000E+00
         0.00000E+00
         0.00000E+00
         0.00000E+00
         0.00000E+00
         0.00000E+00
         0.00000E+00
         0.00000E+00
         0.00000E+00
         0.00000E+00
         0.00000E+00
         0.00000E+00
         0.00000E+00
         0.00000E+00
         0.00000E+00
         0.00000E+00
         0.00000E+00
         0.00000E+00
         0.00000E+00
         0.00000E+00
         0.00000E+00
         0.00000E+00
         0.00000E+00
         0.00000E+00
         0.00000E+00
         0.00000E+00
         0.00000E+00
         0.00000E+00
         0.00000E+00
         0.00000E+00
         0.00000E+00
         0.00000E+00
         0.00000E+00
         0.00000E+00
         0.00000E+00
         0.00000E+00
         0.00000E+00
         0.00000E+00
         0.00000E+00
         0.00000E+00
         0.00000E+00
         0.00000E+00
         0.00000E+00
         0.00000E+00
         0.00000E+00
         0.00000E+00
         0.00000E+00
         0.00000E+00
         0.00000E+00
         0.00000E+00
         0.00000E+00
         0.00000E+00
         0.00000E+00
         0.00000E+00
         0.00000E+00
         0.00000E+00
         0.00000E+00
         0.00000E+00
         0.00000E+00
         0.00000E+00
         0.00000E+00
         0.00000E+00
         0.00000E+00
         0.00000E+00
         0.00000E+00
         0.00000E+00
         0.00000E+00
         0.00000E+00
         0.00000E+00
         0.00000E+00
         0.00000E+00
         0.00000E+00
         0.00000E+00
         0.00000E+00
         0.00000E+00
         0.00000E+00
         0.00000E+00
         0.00000E+00
         0.00000E+00
         0.00000E+00
         0.00000E+00
         0.00000E+00
         0.00000E+00
         0.00000E+00
         0.00000E+00
         0.00000E+00
         0.00000E+00
         0.00000E+00
         0.00000E+00
         0.00000E+00
         0.00000E+00
         0.00000E+00
         0.00000E+00
         0.00000E+00
         0.00000E+00
         0.00000E+00
         0.00000E+00
         0.00000E+00
         0.00000E+00
         0.00000E+00
         0.00000E+00
         0.00000E+00
         0.00000E+00
         0.00000E+00
         0.00000E+00
         0.00000E+00
         0.00000E+00
         0.00000E+00
         0.00000E+00
         0.00000E+00
         0.00000E+00
         0.00000E+00
         0.00000E+00
         0.00000E+00
         0.00000E+00
         0.00000E+00
         0.00000E+00
         0.00000E+00
         0.00000E+00
         0.00000E+00
         0.00000E+00
         0.00000E+00
         0.00000E+00
         0.00000E+00
         0.00000E+00
         0.00000E+00
         0.00000E+00
         0.00000E+00
         0.00000E+00
         0.00000E+00
         0.00000E+00
         0.00000E+00
         0.00000E+00
         0.00000E+00
         0.00000E+00
         0.00000E+00
         0.00000E+00
         0.00000E+00
         0.00000E+00
         0.00000E+00
         0.00000E+00
         0.00000E+00
         0.00000E+00
         0.00000E+00
         0.00000E+00
         0.00000E+00
         0.00000E+00
         0.00000E+00
         0.00000E+00
         0.00000E+00
         0.00000E+00
         0.00000E+00
         0.00000E+00
         0.00000E+00
         0.00000E+00
         0.00000E+00
         0.00000E+00
         0.00000E+00
         0.00000E+00
         0.00000E+00
         0.00000E+00
         0.00000E+00
         0.00000E+00
         0.00000E+00
         0.00000E+00
         0.00000E+00
         0.00000E+00
         0.00000E+00
         0.00000E+00
         0.00000E+00
         0.00000E+00
         0.00000E+00
         0.00000E+00
         0.00000E+00
         0.00000E+00
         0.00000E+00
         0.00000E+00
         0.00000E+00
         0.00000E+00
         0.00000E+00
         0.00000E+00
         0.00000E+00
         0.00000E+00
         0.00000E+00
         0.00000E+00
         0.00000E+00
         0.00000E+00
         0.00000E+00
         0.00000E+00
         0.00000E+00
         0.00000E+00
         0.00000E+00
         0.00000E+00
         0.00000E+00
         0.00000E+00
         0.00000E+00
         0.00000E+00
         0.00000E+00
         0.00000E+00
         0.00000E+00
         0.00000E+00
         0.00000E+00
         0.00000E+00
         0.00000E+00
         0.00000E+00
         0.00000E+00
         0.00000E+00
         0.00000E+00
         0.00000E+00
         0.00000E+00
         0.00000E+00
         0.00000E+00
         0.00000E+00
         0.00000E+00
         0.00000E+00
         0.00000E+00
         0.00000E+00
         0.00000E+00
         0.00000E+00
         0.00000E+00
         0.00000E+00
         0.00000E+00
         0.00000E+00
         0.00000E+00
         0.00000E+00
         0.00000E+00
         0.00000E+00
         0.00000E+00
         0.00000E+00
         0.00000E+00
         0.00000E+00
         0.00000E+00
         0.00000E+00
         0.00000E+00
         0.00000E+00
         0.00000E+00
         0.00000E+00
         0.00000E+00
         0.00000E+00
         0.00000E+00
         0.00000E+00
         0.00000E+00
         0.00000E+00
         0.00000E+00
         0.00000E+00
         0.00000E+00
         0.00000E+00
         0.00000E+00
         0.00000E+00
         0.00000E+00
         0.00000E+00
         0.00000E+00
         0.00000E+00
         0.00000E+00
         0.00000E+00
         0.00000E+00
         0.00000E+00
         0.00000E+00
         0.00000E+00
         0.00000E+00
         0.00000E+00
         0.00000E+00
         0.00000E+00
         0.00000E+00
         0.00000E+00
         0.00000E+00
         0.00000E+00
         0.00000E+00
         0.00000E+00
         0.00000E+00
         0.00000E+00
         0.00000E+00
         0.00000E+00
         0.00000E+00
         0.00000E+00
         0.00000E+00
         0.00000E+00
         0.00000E+00
         0.00000E+00
         0.00000E+00
         0.00000E+00
         0.00000E+00
         0.00000E+00
         0.00000E+00
         0.00000E+00
         0.00000E+00
         0.00000E+00
         0.00000E+00
         0.00000E+00
         0.00000E+00
         0.00000E+00
         0.00000E+00
         0.00000E+00
         0.00000E+00
         0.00000E+00
         0.00000E+00
         0.00000E+00
         0.00000E+00
         0.00000E+00
         0.00000E+00
         0.00000E+00
         0.00000E+00
         0.00000E+00
         0.00000E+00
         0.00000E+00
         0.00000E+00
         0.00000E+00
         0.00000E+00
         0.00000E+00
         0.00000E+00
         0.00000E+00
         0.00000E+00
         0.00000E+00
         0.00000E+00
         0.00000E+00
         0.00000E+00
         0.00000E+00
         0.00000E+00
         0.00000E+00
         0.00000E+00
         0.00000E+00
         0.00000E+00
         0.00000E+00
         0.00000E+00
         0.00000E+00
         0.00000E+00
         0.00000E+00
         0.00000E+00
         0.00000E+00
         0.00000E+00
         0.00000E+00
         0.00000E+00
         0.00000E+00
         0.00000E+00
         0.00000E+00
         0.00000E+00
         0.00000E+00
         0.00000E+00
         0.00000E+00
         0.00000E+00
         0.00000E+00
         0.00000E+00
         0.00000E+00
         0.00000E+00
         0.00000E+00
         0.00000E+00
         0.00000E+00
         0.00000E+00
         0.00000E+00
         0.00000E+00
         0.00000E+00
         0.00000E+00
         0.00000E+00
         0.00000E+00
         0.00000E+00
         0.00000E+00
         0.00000E+00
         0.00000E+00
         0.00000E+00
         0.00000E+00
         0.00000E+00
         0.00000E+00
         0.00000E+00
         0.00000E+00
         0.00000E+00
         0.00000E+00
  
SCALARS                      eps_shear  double 1
LOOKUP_TABLE default
         0.00000E+00
         0.00000E+00
         0.00000E+00
         0.00000E+00
         0.00000E+00
         0.00000E+00
         0.00000E+00
         0.00000E+00
         0.00000E+00
         0.00000E+00
         0.00000E+00
         0.00000E+00
         0.00000E+00
         0.00000E+00
         0.00000E+00
         0.00000E+00
         0.00000E+00
         0.00000E+00
         0.00000E+00
         0.00000E+00
         0.00000E+00
         0.00000E+00
         0.00000E+00
         0.00000E+00
         0.00000E+00
         0.00000E+00
         0.00000E+00
         0.00000E+00
         0.00000E+00
         0.00000E+00
         0.00000E+00
         0.00000E+00
         0.00000E+00
         0.00000E+00
         0.00000E+00
         0.00000E+00
         0.00000E+00
         0.00000E+00
         0.00000E+00
         0.00000E+00
         0.00000E+00
         0.00000E+00
         0.00000E+00
         0.00000E+00
         0.00000E+00
         0.00000E+00
         0.00000E+00
         0.00000E+00
         0.00000E+00
         0.00000E+00
         0.00000E+00
         0.00000E+00
         0.00000E+00
         0.00000E+00
         0.00000E+00
         0.00000E+00
         0.00000E+00
         0.00000E+00
         0.00000E+00
         0.00000E+00
         0.00000E+00
         0.00000E+00
         0.00000E+00
         0.00000E+00
         0.00000E+00
         0.00000E+00
         0.00000E+00
         0.00000E+00
         0.00000E+00
         0.00000E+00
         0.00000E+00
         0.00000E+00
         0.00000E+00
         0.00000E+00
         0.00000E+00
         0.00000E+00
         0.00000E+00
         0.00000E+00
         0.00000E+00
         0.00000E+00
         0.00000E+00
         0.00000E+00
         0.00000E+00
         0.00000E+00
         0.00000E+00
         0.00000E+00
         0.00000E+00
         0.00000E+00
         0.00000E+00
         0.00000E+00
         0.00000E+00
         0.00000E+00
         0.00000E+00
         0.00000E+00
         0.00000E+00
         0.00000E+00
         0.00000E+00
         0.00000E+00
         0.00000E+00
         0.00000E+00
         0.00000E+00
         0.00000E+00
         0.00000E+00
         0.00000E+00
         0.00000E+00
         0.00000E+00
         0.00000E+00
         0.00000E+00
         0.00000E+00
         0.00000E+00
         0.00000E+00
         0.00000E+00
         0.00000E+00
         0.00000E+00
         0.00000E+00
         0.00000E+00
         0.00000E+00
         0.00000E+00
         0.00000E+00
         0.00000E+00
         0.00000E+00
         0.00000E+00
         0.00000E+00
         0.00000E+00
         0.00000E+00
         0.00000E+00
         0.00000E+00
         0.00000E+00
         0.00000E+00
         0.00000E+00
         0.00000E+00
         0.00000E+00
         0.00000E+00
         0.00000E+00
         0.00000E+00
         0.00000E+00
         0.00000E+00
         0.00000E+00
         0.00000E+00
         0.00000E+00
         0.00000E+00
         0.00000E+00
         0.00000E+00
         0.00000E+00
         0.00000E+00
         0.00000E+00
         0.00000E+00
         0.00000E+00
         0.00000E+00
         0.00000E+00
         0.00000E+00
         0.00000E+00
         0.00000E+00
         0.00000E+00
         0.00000E+00
         0.00000E+00
         0.00000E+00
         0.00000E+00
         0.00000E+00
         0.00000E+00
         0.00000E+00
         0.00000E+00
         0.00000E+00
         0.00000E+00
         0.00000E+00
         0.00000E+00
         0.00000E+00
         0.00000E+00
         0.00000E+00
         0.00000E+00
         0.00000E+00
         0.00000E+00
         0.00000E+00
         0.00000E+00
         0.00000E+00
         0.00000E+00
         0.00000E+00
         0.00000E+00
         0.00000E+00
         0.00000E+00
         0.00000E+00
         0.00000E+00
         0.00000E+00
         0.00000E+00
         0.00000E+00
         0.00000E+00
         0.00000E+00
         0.00000E+00
         0.00000E+00
         0.00000E+00
         0.00000E+00
         0.00000E+00
         0.00000E+00
         0.00000E+00
         0.00000E+00
         0.00000E+00
         0.00000E+00
         0.00000E+00
         0.00000E+00
         0.00000E+00
         0.00000E+00
         0.00000E+00
         0.00000E+00
         0.00000E+00
         0.00000E+00
         0.00000E+00
         0.00000E+00
         0.00000E+00
         0.00000E+00
         0.00000E+00
         0.00000E+00
         0.00000E+00
         0.00000E+00
         0.00000E+00
         0.00000E+00
         0.00000E+00
         0.00000E+00
         0.00000E+00
         0.00000E+00
         0.00000E+00
         0.00000E+00
         0.00000E+00
         0.00000E+00
         0.00000E+00
         0.00000E+00
         0.00000E+00
         0.00000E+00
         0.00000E+00
         0.00000E+00
         0.00000E+00
         0.00000E+00
         0.00000E+00
         0.00000E+00
         0.00000E+00
         0.00000E+00
         0.00000E+00
         0.00000E+00
         0.00000E+00
         0.00000E+00
         0.00000E+00
         0.00000E+00
         0.00000E+00
         0.00000E+00
         0.00000E+00
         0.00000E+00
         0.00000E+00
         0.00000E+00
         0.00000E+00
         0.00000E+00
         0.00000E+00
         0.00000E+00
         0.00000E+00
         0.00000E+00
         0.00000E+00
         0.00000E+00
         0.00000E+00
         0.00000E+00
         0.00000E+00
         0.00000E+00
         0.00000E+00
         0.00000E+00
         0.00000E+00
         0.00000E+00
         0.00000E+00
         0.00000E+00
         0.00000E+00
         0.00000E+00
         0.00000E+00
         0.00000E+00
         0.00000E+00
         0.00000E+00
         0.00000E+00
         0.00000E+00
         0.00000E+00
         0.00000E+00
         0.00000E+00
         0.00000E+00
         0.00000E+00
         0.00000E+00
         0.00000E+00
         0.00000E+00
         0.00000E+00
         0.00000E+00
         0.00000E+00
         0.00000E+00
         0.00000E+00
         0.00000E+00
         0.00000E+00
         0.00000E+00
         0.00000E+00
         0.00000E+00
         0.00000E+00
         0.00000E+00
         0.00000E+00
         0.00000E+00
         0.00000E+00
         0.00000E+00
         0.00000E+00
         0.00000E+00
         0.00000E+00
         0.00000E+00
         0.00000E+00
         0.00000E+00
         0.00000E+00
         0.00000E+00
         0.00000E+00
         0.00000E+00
         0.00000E+00
         0.00000E+00
         0.00000E+00
         0.00000E+00
         0.00000E+00
         0.00000E+00
         0.00000E+00
         0.00000E+00
         0.00000E+00
         0.00000E+00
         0.00000E+00
         0.00000E+00
         0.00000E+00
         0.00000E+00
         0.00000E+00
         0.00000E+00
         0.00000E+00
         0.00000E+00
         0.00000E+00
         0.00000E+00
         0.00000E+00
         0.00000E+00
         0.00000E+00
         0.00000E+00
         0.00000E+00
         0.00000E+00
         0.00000E+00
         0.00000E+00
         0.00000E+00
         0.00000E+00
         0.00000E+00
         0.00000E+00
         0.00000E+00
         0.00000E+00
         0.00000E+00
         0.00000E+00
         0.00000E+00
         0.00000E+00
         0.00000E+00
         0.00000E+00
         0.00000E+00
         0.00000E+00
         0.00000E+00
         0.00000E+00
         0.00000E+00
         0.00000E+00
         0.00000E+00
         0.00000E+00
         0.00000E+00
         0.00000E+00
         0.00000E+00
         0.00000E+00
         0.00000E+00
         0.00000E+00
         0.00000E+00
         0.00000E+00
         0.00000E+00
         0.00000E+00
         0.00000E+00
         0.00000E+00
         0.00000E+00
         0.00000E+00
         0.00000E+00
         0.00000E+00
         0.00000E+00
         0.00000E+00
         0.00000E+00
         0.00000E+00
         0.00000E+00
         0.00000E+00
         0.00000E+00
         0.00000E+00
         0.00000E+00
         0.00000E+00
         0.00000E+00
         0.00000E+00
         0.00000E+00
         0.00000E+00
         0.00000E+00
         0.00000E+00
         0.00000E+00
         0.00000E+00
         0.00000E+00
         0.00000E+00
         0.00000E+00
         0.00000E+00
         0.00000E+00
         0.00000E+00
         0.00000E+00
         0.00000E+00
         0.00000E+00
         0.00000E+00
         0.00000E+00
         0.00000E+00
         0.00000E+00
         0.00000E+00
         0.00000E+00
         0.00000E+00
         0.00000E+00
         0.00000E+00
         0.00000E+00
         0.00000E+00
         0.00000E+00
         0.00000E+00
         0.00000E+00
         0.00000E+00
         0.00000E+00
         0.00000E+00
         0.00000E+00
         0.00000E+00
         0.00000E+00
         0.00000E+00
         0.00000E+00
         0.00000E+00
         0.00000E+00
         0.00000E+00
         0.00000E+00
         0.00000E+00
         0.00000E+00
         0.00000E+00
         0.00000E+00
         0.00000E+00
         0.00000E+00
         0.00000E+00
         0.00000E+00
         0.00000E+00
         0.00000E+00
         0.00000E+00
         0.00000E+00
         0.00000E+00
         0.00000E+00
         0.00000E+00
         0.00000E+00
         0.00000E+00
         0.00000E+00
         0.00000E+00
         0.00000E+00
         0.00000E+00
         0.00000E+00
         0.00000E+00
         0.00000E+00
         0.00000E+00
         0.00000E+00
         0.00000E+00
         0.00000E+00
         0.00000E+00
         0.00000E+00
         0.00000E+00
         0.00000E+00
         0.00000E+00
         0.00000E+00
         0.00000E+00
         0.00000E+00
         0.00000E+00
         0.00000E+00
         0.00000E+00
         0.00000E+00
         0.00000E+00
         0.00000E+00
         0.00000E+00
         0.00000E+00
         0.00000E+00
         0.00000E+00
         0.00000E+00
         0.00000E+00
         0.00000E+00
         0.00000E+00
         0.00000E+00
         0.00000E+00
         0.00000E+00
         0.00000E+00
         0.00000E+00
         0.00000E+00
         0.00000E+00
         0.00000E+00
         0.00000E+00
         0.00000E+00
         0.00000E+00
         0.00000E+00
         0.00000E+00
         0.00000E+00
         0.00000E+00
         0.00000E+00
         0.00000E+00
         0.00000E+00
         0.00000E+00
         0.00000E+00
         0.00000E+00
         0.00000E+00
         0.00000E+00
         0.00000E+00
         0.00000E+00
         0.00000E+00
         0.00000E+00
         0.00000E+00
         0.00000E+00
         0.00000E+00
         0.00000E+00
         0.00000E+00
         0.00000E+00
         0.00000E+00
         0.00000E+00
         0.00000E+00
         0.00000E+00
         0.00000E+00
         0.00000E+00
         0.00000E+00
         0.00000E+00
         0.00000E+00
         0.00000E+00
         0.00000E+00
         0.00000E+00
         0.00000E+00
         0.00000E+00
         0.00000E+00
         0.00000E+00
         0.00000E+00
         0.00000E+00
         0.00000E+00
         0.00000E+00
         0.00000E+00
         0.00000E+00
         0.00000E+00
         0.00000E+00
         0.00000E+00
         0.00000E+00
         0.00000E+00
         0.00000E+00
         0.00000E+00
         0.00000E+00
         0.00000E+00
         0.00000E+00
         0.00000E+00
         0.00000E+00
         0.00000E+00
         0.00000E+00
         0.00000E+00
         0.00000E+00
         0.00000E+00
         0.00000E+00
         0.00000E+00
         0.00000E+00
         0.00000E+00
         0.00000E+00
         0.00000E+00
         0.00000E+00
         0.00000E+00
         0.00000E+00
         0.00000E+00
         0.00000E+00
         0.00000E+00
         0.00000E+00
         0.00000E+00
         0.00000E+00
         0.00000E+00
         0.00000E+00
         0.00000E+00
         0.00000E+00
         0.00000E+00
         0.00000E+00
         0.00000E+00
         0.00000E+00
         0.00000E+00
         0.00000E+00
         0.00000E+00
         0.00000E+00
         0.00000E+00
         0.00000E+00
         0.00000E+00
         0.00000E+00
         0.00000E+00
         0.00000E+00
         0.00000E+00
         0.00000E+00
         0.00000E+00
         0.00000E+00
         0.00000E+00
         0.00000E+00
         0.00000E+00
         0.00000E+00
         0.00000E+00
         0.00000E+00
         0.00000E+00
         0.00000E+00
         0.00000E+00
         0.00000E+00
         0.00000E+00
         0.00000E+00
         0.00000E+00
         0.00000E+00
         0.00000E+00
         0.00000E+00
         0.00000E+00
         0.00000E+00
         0.00000E+00
         0.00000E+00
         0.00000E+00
         0.00000E+00
         0.00000E+00
         0.00000E+00
         0.00000E+00
         0.00000E+00
         0.00000E+00
         0.00000E+00
         0.00000E+00
         0.00000E+00
         0.00000E+00
         0.00000E+00
         0.00000E+00
         0.00000E+00
         0.00000E+00
         0.00000E+00
         0.00000E+00
         0.00000E+00
         0.00000E+00
         0.00000E+00
         0.00000E+00
         0.00000E+00
         0.00000E+00
         0.00000E+00
         0.00000E+00
         0.00000E+00
         0.00000E+00
         0.00000E+00
         0.00000E+00
         0.00000E+00
         0.00000E+00
         0.00000E+00
         0.00000E+00
         0.00000E+00
         0.00000E+00
         0.00000E+00
         0.00000E+00
         0.00000E+00
         0.00000E+00
         0.00000E+00
         0.00000E+00
         0.00000E+00
         0.00000E+00
         0.00000E+00
         0.00000E+00
         0.00000E+00
         0.00000E+00
         0.00000E+00
         0.00000E+00
         0.00000E+00
         0.00000E+00
         0.00000E+00
         0.00000E+00
         0.00000E+00
         0.00000E+00
         0.00000E+00
         0.00000E+00
         0.00000E+00
         0.00000E+00
         0.00000E+00
         0.00000E+00
         0.00000E+00
         0.00000E+00
         0.00000E+00
         0.00000E+00
         0.00000E+00
         0.00000E+00
         0.00000E+00
         0.00000E+00
         0.00000E+00
         0.00000E+00
         0.00000E+00
         0.00000E+00
         0.00000E+00
         0.00000E+00
         0.00000E+00
         0.00000E+00
         0.00000E+00
         0.00000E+00
         0.00000E+00
         0.00000E+00
         0.00000E+00
         0.00000E+00
         0.00000E+00
         0.00000E+00
         0.00000E+00
         0.00000E+00
         0.00000E+00
         0.00000E+00
         0.00000E+00
         0.00000E+00
         0.00000E+00
         0.00000E+00
         0.00000E+00
         0.00000E+00
         0.00000E+00
         0.00000E+00
         0.00000E+00
         0.00000E+00
         0.00000E+00
         0.00000E+00
         0.00000E+00
         0.00000E+00
         0.00000E+00
         0.00000E+00
         0.00000E+00
         0.00000E+00
         0.00000E+00
         0.00000E+00
         0.00000E+00
         0.00000E+00
         0.00000E+00
         0.00000E+00
         0.00000E+00
         0.00000E+00
         0.00000E+00
         0.00000E+00
         0.00000E+00
         0.00000E+00
         0.00000E+00
         0.00000E+00
         0.00000E+00
         0.00000E+00
         0.00000E+00
         0.00000E+00
         0.00000E+00
         0.00000E+00
         0.00000E+00
         0.00000E+00
         0.00000E+00
         0.00000E+00
         0.00000E+00
         0.00000E+00
         0.00000E+00
         0.00000E+00
         0.00000E+00
         0.00000E+00
         0.00000E+00
         0.00000E+00
         0.00000E+00
         0.00000E+00
         0.00000E+00
         0.00000E+00
         0.00000E+00
         0.00000E+00
         0.00000E+00
         0.00000E+00
         0.00000E+00
         0.00000E+00
         0.00000E+00
         0.00000E+00
         0.00000E+00
         0.00000E+00
         0.00000E+00
         0.00000E+00
         0.00000E+00
         0.00000E+00
         0.00000E+00
         0.00000E+00
         0.00000E+00
         0.00000E+00
         0.00000E+00
         0.00000E+00
         0.00000E+00
         0.00000E+00
         0.00000E+00
         0.00000E+00
         0.00000E+00
         0.00000E+00
         0.00000E+00
         0.00000E+00
         0.00000E+00
         0.00000E+00
         0.00000E+00
         0.00000E+00
         0.00000E+00
         0.00000E+00
         0.00000E+00
         0.00000E+00
         0.00000E+00
         0.00000E+00
         0.00000E+00
         0.00000E+00
         0.00000E+00
         0.00000E+00
         0.00000E+00
         0.00000E+00
         0.00000E+00
         0.00000E+00
         0.00000E+00
         0.00000E+00
         0.00000E+00
         0.00000E+00
         0.00000E+00
         0.00000E+00
         0.00000E+00
         0.00000E+00
         0.00000E+00
         0.00000E+00
         0.00000E+00
         0.00000E+00
         0.00000E+00
         0.00000E+00
         0.00000E+00
         0.00000E+00
         0.00000E+00
         0.00000E+00
         0.00000E+00
         0.00000E+00
         0.00000E+00
         0.00000E+00
         0.00000E+00
         0.00000E+00
         0.00000E+00
         0.00000E+00
         0.00000E+00
         0.00000E+00
         0.00000E+00
         0.00000E+00
         0.00000E+00
         0.00000E+00
         0.00000E+00
         0.00000E+00
         0.00000E+00
         0.00000E+00
         0.00000E+00
         0.00000E+00
         0.00000E+00
         0.00000E+00
         0.00000E+00
         0.00000E+00
         0.00000E+00
         0.00000E+00
         0.00000E+00
         0.00000E+00
         0.00000E+00
         0.00000E+00
         0.00000E+00
         0.00000E+00
         0.00000E+00
         0.00000E+00
         0.00000E+00
         0.00000E+00
         0.00000E+00
         0.00000E+00
         0.00000E+00
         0.00000E+00
         0.00000E+00
         0.00000E+00
         0.00000E+00
         0.00000E+00
         0.00000E+00
         0.00000E+00
         0.00000E+00
         0.00000E+00
         0.00000E+00
         0.00000E+00
         0.00000E+00
         0.00000E+00
         0.00000E+00
         0.00000E+00
         0.00000E+00
         0.00000E+00
         0.00000E+00
         0.00000E+00
         0.00000E+00
         0.00000E+00
         0.00000E+00
         0.00000E+00
         0.00000E+00
         0.00000E+00
         0.00000E+00
         0.00000E+00
         0.00000E+00
         0.00000E+00
         0.00000E+00
         0.00000E+00
         0.00000E+00
         0.00000E+00
         0.00000E+00
         0.00000E+00
         0.00000E+00
         0.00000E+00
         0.00000E+00
         0.00000E+00
         0.00000E+00
         0.00000E+00
         0.00000E+00
         0.00000E+00
         0.00000E+00
         0.00000E+00
         0.00000E+00
         0.00000E+00
         0.00000E+00
         0.00000E+00
         0.00000E+00
         0.00000E+00
         0.00000E+00
         0.00000E+00
         0.00000E+00
         0.00000E+00
         0.00000E+00
         0.00000E+00
         0.00000E+00
         0.00000E+00
         0.00000E+00
         0.00000E+00
         0.00000E+00
         0.00000E+00
         0.00000E+00
         0.00000E+00
         0.00000E+00
         0.00000E+00
         0.00000E+00
         0.00000E+00
         0.00000E+00
         0.00000E+00
         0.00000E+00
         0.00000E+00
         0.00000E+00
         0.00000E+00
         0.00000E+00
         0.00000E+00
         0.00000E+00
         0.00000E+00
         0.00000E+00
         0.00000E+00
         0.00000E+00
         0.00000E+00
         0.00000E+00
         0.00000E+00
         0.00000E+00
         0.00000E+00
         0.00000E+00
         0.00000E+00
         0.00000E+00
         0.00000E+00
         0.00000E+00
         0.00000E+00
         0.00000E+00
         0.00000E+00
         0.00000E+00
         0.00000E+00
         0.00000E+00
         0.00000E+00
         0.00000E+00
         0.00000E+00
         0.00000E+00
         0.00000E+00
         0.00000E+00
         0.00000E+00
         0.00000E+00
         0.00000E+00
         0.00000E+00
         0.00000E+00
         0.00000E+00
         0.00000E+00
         0.00000E+00
         0.00000E+00
         0.00000E+00
         0.00000E+00
         0.00000E+00
         0.00000E+00
         0.00000E+00
         0.00000E+00
         0.00000E+00
         0.00000E+00
         0.00000E+00
         0.00000E+00
         0.00000E+00
         0.00000E+00
         0.00000E+00
         0.00000E+00
         0.00000E+00
         0.00000E+00
         0.00000E+00
         0.00000E+00
         0.00000E+00
         0.00000E+00
         0.00000E+00
         0.00000E+00
         0.00000E+00
         0.00000E+00
         0.00000E+00
         0.00000E+00
         0.00000E+00
         0.00000E+00
         0.00000E+00
         0.00000E+00
         0.00000E+00
         0.00000E+00
         0.00000E+00
         0.00000E+00
         0.00000E+00
         0.00000E+00
         0.00000E+00
         0.00000E+00
         0.00000E+00
         0.00000E+00
         0.00000E+00
         0.00000E+00
         0.00000E+00
         0.00000E+00
         0.00000E+00
         0.00000E+00
         0.00000E+00
         0.00000E+00
         0.00000E+00
         0.00000E+00
         0.00000E+00
         0.00000E+00
         0.00000E+00
         0.00000E+00
         0.00000E+00
         0.00000E+00
         0.00000E+00
         0.00000E+00
         0.00000E+00
         0.00000E+00
         0.00000E+00
         0.00000E+00
         0.00000E+00
         0.00000E+00
         0.00000E+00
         0.00000E+00
         0.00000E+00
         0.00000E+00
         0.00000E+00
         0.00000E+00
         0.00000E+00
         0.00000E+00
         0.00000E+00
         0.00000E+00
         0.00000E+00
         0.00000E+00
         0.00000E+00
         0.00000E+00
         0.00000E+00
         0.00000E+00
         0.00000E+00
         0.00000E+00
         0.00000E+00
         0.00000E+00
         0.00000E+00
         0.00000E+00
         0.00000E+00
         0.00000E+00
         0.00000E+00
         0.00000E+00
         0.00000E+00
         0.00000E+00
         0.00000E+00
         0.00000E+00
         0.00000E+00
         0.00000E+00
         0.00000E+00
         0.00000E+00
         0.00000E+00
         0.00000E+00
         0.00000E+00
         0.00000E+00
         0.00000E+00
         0.00000E+00
         0.00000E+00
         0.00000E+00
         0.00000E+00
         0.00000E+00
         0.00000E+00
         0.00000E+00
         0.00000E+00
         0.00000E+00
         0.00000E+00
         0.00000E+00
         0.00000E+00
         0.00000E+00
         0.00000E+00
         0.00000E+00
         0.00000E+00
         0.00000E+00
         0.00000E+00
         0.00000E+00
         0.00000E+00
         0.00000E+00
         0.00000E+00
         0.00000E+00
         0.00000E+00
         0.00000E+00
         0.00000E+00
         0.00000E+00
         0.00000E+00
         0.00000E+00
         0.00000E+00
         0.00000E+00
         0.00000E+00
         0.00000E+00
         0.00000E+00
         0.00000E+00
         0.00000E+00
         0.00000E+00
         0.00000E+00
         0.00000E+00
         0.00000E+00
         0.00000E+00
         0.00000E+00
         0.00000E+00
         0.00000E+00
         0.00000E+00
         0.00000E+00
         0.00000E+00
         0.00000E+00
         0.00000E+00
         0.00000E+00
         0.00000E+00
         0.00000E+00
         0.00000E+00
         0.00000E+00
         0.00000E+00
         0.00000E+00
         0.00000E+00
         0.00000E+00
         0.00000E+00
         0.00000E+00
         0.00000E+00
         0.00000E+00
         0.00000E+00
         0.00000E+00
         0.00000E+00
         0.00000E+00
         0.00000E+00
         0.00000E+00
         0.00000E+00
         0.00000E+00
         0.00000E+00
         0.00000E+00
         0.00000E+00
         0.00000E+00
         0.00000E+00
         0.00000E+00
         0.00000E+00
         0.00000E+00
         0.00000E+00
         0.00000E+00
         0.00000E+00
         0.00000E+00
         0.00000E+00
         0.00000E+00
         0.00000E+00
         0.00000E+00
         0.00000E+00
         0.00000E+00
         0.00000E+00
         0.00000E+00
         0.00000E+00
         0.00000E+00
         0.00000E+00
         0.00000E+00
         0.00000E+00
         0.00000E+00
         0.00000E+00
         0.00000E+00
         0.00000E+00
         0.00000E+00
         0.00000E+00
         0.00000E+00
         0.00000E+00
         0.00000E+00
         0.00000E+00
         0.00000E+00
         0.00000E+00
         0.00000E+00
         0.00000E+00
         0.00000E+00
         0.00000E+00
         0.00000E+00
         0.00000E+00
         0.00000E+00
         0.00000E+00
         0.00000E+00
         0.00000E+00
         0.00000E+00
         0.00000E+00
         0.00000E+00
         0.00000E+00
         0.00000E+00
         0.00000E+00
         0.00000E+00
         0.00000E+00
         0.00000E+00
         0.00000E+00
         0.00000E+00
         0.00000E+00
         0.00000E+00
         0.00000E+00
         0.00000E+00
         0.00000E+00
         0.00000E+00
         0.00000E+00
         0.00000E+00
         0.00000E+00
         0.00000E+00
         0.00000E+00
         0.00000E+00
         0.00000E+00
         0.00000E+00
         0.00000E+00
         0.00000E+00
         0.00000E+00
         0.00000E+00
         0.00000E+00
         0.00000E+00
         0.00000E+00
         0.00000E+00
         0.00000E+00
         0.00000E+00
         0.00000E+00
         0.00000E+00
         0.00000E+00
         0.00000E+00
         0.00000E+00
         0.00000E+00
         0.00000E+00
         0.00000E+00
         0.00000E+00
         0.00000E+00
         0.00000E+00
         0.00000E+00
         0.00000E+00
         0.00000E+00
         0.00000E+00
         0.00000E+00
         0.00000E+00
         0.00000E+00
         0.00000E+00
         0.00000E+00
         0.00000E+00
         0.00000E+00
         0.00000E+00
         0.00000E+00
         0.00000E+00
         0.00000E+00
         0.00000E+00
         0.00000E+00
         0.00000E+00
         0.00000E+00
         0.00000E+00
         0.00000E+00
         0.00000E+00
         0.00000E+00
         0.00000E+00
         0.00000E+00
         0.00000E+00
         0.00000E+00
         0.00000E+00
         0.00000E+00
         0.00000E+00
         0.00000E+00
         0.00000E+00
         0.00000E+00
         0.00000E+00
         0.00000E+00
         0.00000E+00
         0.00000E+00
         0.00000E+00
         0.00000E+00
         0.00000E+00
         0.00000E+00
         0.00000E+00
         0.00000E+00
         0.00000E+00
         0.00000E+00
         0.00000E+00
         0.00000E+00
         0.00000E+00
         0.00000E+00
         0.00000E+00
         0.00000E+00
         0.00000E+00
         0.00000E+00
         0.00000E+00
         0.00000E+00
         0.00000E+00
         0.00000E+00
         0.00000E+00
         0.00000E+00
         0.00000E+00
         0.00000E+00
         0.00000E+00
         0.00000E+00
         0.00000E+00
         0.00000E+00
         0.00000E+00
         0.00000E+00
         0.00000E+00
         0.00000E+00
         0.00000E+00
         0.00000E+00
         0.00000E+00
         0.00000E+00
         0.00000E+00
         0.00000E+00
         0.00000E+00
         0.00000E+00
         0.00000E+00
         0.00000E+00
         0.00000E+00
         0.00000E+00
         0.00000E+00
         0.00000E+00
         0.00000E+00
         0.00000E+00
         0.00000E+00
         0.00000E+00
         0.00000E+00
         0.00000E+00
         0.00000E+00
         0.00000E+00
         0.00000E+00
         0.00000E+00
         0.00000E+00
         0.00000E+00
         0.00000E+00
         0.00000E+00
         0.00000E+00
         0.00000E+00
         0.00000E+00
         0.00000E+00
         0.00000E+00
         0.00000E+00
         0.00000E+00
         0.00000E+00
         0.00000E+00
         0.00000E+00
         0.00000E+00
         0.00000E+00
         0.00000E+00
         0.00000E+00
         0.00000E+00
         0.00000E+00
         0.00000E+00
         0.00000E+00
         0.00000E+00
         0.00000E+00
         0.00000E+00
         0.00000E+00
         0.00000E+00
         0.00000E+00
         0.00000E+00
         0.00000E+00
         0.00000E+00
         0.00000E+00
         0.00000E+00
         0.00000E+00
         0.00000E+00
         0.00000E+00
         0.00000E+00
         0.00000E+00
         0.00000E+00
         0.00000E+00
         0.00000E+00
         0.00000E+00
         0.00000E+00
         0.00000E+00
         0.00000E+00
         0.00000E+00
         0.00000E+00
         0.00000E+00
         0.00000E+00
         0.00000E+00
         0.00000E+00
         0.00000E+00
         0.00000E+00
         0.00000E+00
         0.00000E+00
         0.00000E+00
         0.00000E+00
         0.00000E+00
         0.00000E+00
         0.00000E+00
         0.00000E+00
         0.00000E+00
         0.00000E+00
         0.00000E+00
         0.00000E+00
         0.00000E+00
         0.00000E+00
         0.00000E+00
         0.00000E+00
         0.00000E+00
         0.00000E+00
         0.00000E+00
         0.00000E+00
         0.00000E+00
         0.00000E+00
         0.00000E+00
         0.00000E+00
         0.00000E+00
         0.00000E+00
         0.00000E+00
         0.00000E+00
         0.00000E+00
         0.00000E+00
         0.00000E+00
         0.00000E+00
         0.00000E+00
         0.00000E+00
         0.00000E+00
         0.00000E+00
         0.00000E+00
         0.00000E+00
         0.00000E+00
         0.00000E+00
         0.00000E+00
         0.00000E+00
         0.00000E+00
         0.00000E+00
         0.00000E+00
         0.00000E+00
         0.00000E+00
         0.00000E+00
         0.00000E+00
         0.00000E+00
         0.00000E+00
         0.00000E+00
         0.00000E+00
         0.00000E+00
         0.00000E+00
         0.00000E+00
         0.00000E+00
         0.00000E+00
         0.00000E+00
         0.00000E+00
         0.00000E+00
         0.00000E+00
         0.00000E+00
         0.00000E+00
         0.00000E+00
         0.00000E+00
         0.00000E+00
         0.00000E+00
         0.00000E+00
         0.00000E+00
         0.00000E+00
         0.00000E+00
         0.00000E+00
         0.00000E+00
         0.00000E+00
         0.00000E+00
         0.00000E+00
         0.00000E+00
         0.00000E+00
         0.00000E+00
         0.00000E+00
         0.00000E+00
         0.00000E+00
         0.00000E+00
         0.00000E+00
         0.00000E+00
         0.00000E+00
         0.00000E+00
         0.00000E+00
         0.00000E+00
         0.00000E+00
         0.00000E+00
         0.00000E+00
         0.00000E+00
         0.00000E+00
         0.00000E+00
         0.00000E+00
         0.00000E+00
         0.00000E+00
         0.00000E+00
         0.00000E+00
         0.00000E+00
         0.00000E+00
         0.00000E+00
         0.00000E+00
         0.00000E+00
         0.00000E+00
         0.00000E+00
         0.00000E+00
         0.00000E+00
         0.00000E+00
         0.00000E+00
         0.00000E+00
         0.00000E+00
         0.00000E+00
         0.00000E+00
         0.00000E+00
         0.00000E+00
         0.00000E+00
         0.00000E+00
         0.00000E+00
         0.00000E+00
         0.00000E+00
         0.00000E+00
         0.00000E+00
         0.00000E+00
         0.00000E+00
         0.00000E+00
         0.00000E+00
         0.00000E+00
         0.00000E+00
         0.00000E+00
         0.00000E+00
         0.00000E+00
         0.00000E+00
         0.00000E+00
         0.00000E+00
         0.00000E+00
         0.00000E+00
         0.00000E+00
         0.00000E+00
         0.00000E+00
         0.00000E+00
         0.00000E+00
         0.00000E+00
         0.00000E+00
         0.00000E+00
         0.00000E+00
         0.00000E+00
         0.00000E+00
         0.00000E+00
         0.00000E+00
         0.00000E+00
         0.00000E+00
         0.00000E+00
         0.00000E+00
         0.00000E+00
         0.00000E+00
         0.00000E+00
         0.00000E+00
         0.00000E+00
         0.00000E+00
         0.00000E+00
         0.00000E+00
         0.00000E+00
         0.00000E+00
         0.00000E+00
         0.00000E+00
         0.00000E+00
         0.00000E+00
         0.00000E+00
         0.00000E+00
         0.00000E+00
         0.00000E+00
         0.00000E+00
         0.00000E+00
         0.00000E+00
         0.00000E+00
         0.00000E+00
         0.00000E+00
         0.00000E+00
         0.00000E+00
         0.00000E+00
         0.00000E+00
         0.00000E+00
         0.00000E+00
         0.00000E+00
         0.00000E+00
         0.00000E+00
         0.00000E+00
         0.00000E+00
         0.00000E+00
         0.00000E+00
         0.00000E+00
         0.00000E+00
         0.00000E+00
         0.00000E+00
         0.00000E+00
         0.00000E+00
         0.00000E+00
         0.00000E+00
         0.00000E+00
         0.00000E+00
         0.00000E+00
         0.00000E+00
         0.00000E+00
         0.00000E+00
         0.00000E+00
         0.00000E+00
         0.00000E+00
         0.00000E+00
         0.00000E+00
         0.00000E+00
         0.00000E+00
         0.00000E+00
         0.00000E+00
         0.00000E+00
         0.00000E+00
         0.00000E+00
         0.00000E+00
         0.00000E+00
         0.00000E+00
         0.00000E+00
         0.00000E+00
         0.00000E+00
         0.00000E+00
         0.00000E+00
         0.00000E+00
         0.00000E+00
         0.00000E+00
         0.00000E+00
         0.00000E+00
         0.00000E+00
         0.00000E+00
         0.00000E+00
         0.00000E+00
         0.00000E+00
         0.00000E+00
         0.00000E+00
         0.00000E+00
         0.00000E+00
         0.00000E+00
         0.00000E+00
         0.00000E+00
         0.00000E+00
         0.00000E+00
         0.00000E+00
         0.00000E+00
         0.00000E+00
         0.00000E+00
         0.00000E+00
         0.00000E+00
         0.00000E+00
         0.00000E+00
         0.00000E+00
         0.00000E+00
         0.00000E+00
         0.00000E+00
         0.00000E+00
         0.00000E+00
         0.00000E+00
         0.00000E+00
         0.00000E+00
         0.00000E+00
         0.00000E+00
         0.00000E+00
         0.00000E+00
         0.00000E+00
         0.00000E+00
         0.00000E+00
         0.00000E+00
         0.00000E+00
         0.00000E+00
         0.00000E+00
         0.00000E+00
         0.00000E+00
         0.00000E+00
         0.00000E+00
         0.00000E+00
         0.00000E+00
         0.00000E+00
         0.00000E+00
         0.00000E+00
         0.00000E+00
         0.00000E+00
         0.00000E+00
         0.00000E+00
         0.00000E+00
         0.00000E+00
         0.00000E+00
         0.00000E+00
         0.00000E+00
         0.00000E+00
         0.00000E+00
         0.00000E+00
         0.00000E+00
         0.00000E+00
         0.00000E+00
         0.00000E+00
         0.00000E+00
         0.00000E+00
         0.00000E+00
         0.00000E+00
         0.00000E+00
         0.00000E+00
         0.00000E+00
         0.00000E+00
         0.00000E+00
         0.00000E+00
         0.00000E+00
         0.00000E+00
         0.00000E+00
         0.00000E+00
         0.00000E+00
         0.00000E+00
         0.00000E+00
         0.00000E+00
         0.00000E+00
         0.00000E+00
         0.00000E+00
         0.00000E+00
         0.00000E+00
         0.00000E+00
         0.00000E+00
         0.00000E+00
         0.00000E+00
         0.00000E+00
         0.00000E+00
         0.00000E+00
         0.00000E+00
         0.00000E+00
         0.00000E+00
         0.00000E+00
         0.00000E+00
         0.00000E+00
         0.00000E+00
         0.00000E+00
         0.00000E+00
         0.00000E+00
         0.00000E+00
         0.00000E+00
         0.00000E+00
         0.00000E+00
         0.00000E+00
         0.00000E+00
         0.00000E+00
         0.00000E+00
         0.00000E+00
         0.00000E+00
         0.00000E+00
         0.00000E+00
         0.00000E+00
         0.00000E+00
         0.00000E+00
         0.00000E+00
         0.00000E+00
         0.00000E+00
         0.00000E+00
         0.00000E+00
         0.00000E+00
         0.00000E+00
         0.00000E+00
         0.00000E+00
         0.00000E+00
         0.00000E+00
         0.00000E+00
         0.00000E+00
         0.00000E+00
         0.00000E+00
         0.00000E+00
         0.00000E+00
         0.00000E+00
         0.00000E+00
         0.00000E+00
         0.00000E+00
         0.00000E+00
         0.00000E+00
         0.00000E+00
         0.00000E+00
         0.00000E+00
         0.00000E+00
         0.00000E+00
         0.00000E+00
         0.00000E+00
         0.00000E+00
         0.00000E+00
         0.00000E+00
         0.00000E+00
         0.00000E+00
         0.00000E+00
         0.00000E+00
         0.00000E+00
         0.00000E+00
         0.00000E+00
         0.00000E+00
         0.00000E+00
         0.00000E+00
         0.00000E+00
         0.00000E+00
         0.00000E+00
         0.00000E+00
         0.00000E+00
         0.00000E+00
         0.00000E+00
         0.00000E+00
         0.00000E+00
         0.00000E+00
         0.00000E+00
         0.00000E+00
         0.00000E+00
         0.00000E+00
         0.00000E+00
         0.00000E+00
         0.00000E+00
         0.00000E+00
         0.00000E+00
         0.00000E+00
         0.00000E+00
         0.00000E+00
         0.00000E+00
         0.00000E+00
         0.00000E+00
         0.00000E+00
         0.00000E+00
         0.00000E+00
         0.00000E+00
         0.00000E+00
         0.00000E+00
         0.00000E+00
         0.00000E+00
         0.00000E+00
         0.00000E+00
         0.00000E+00
         0.00000E+00
         0.00000E+00
         0.00000E+00
         0.00000E+00
         0.00000E+00
         0.00000E+00
         0.00000E+00
         0.00000E+00
         0.00000E+00
         0.00000E+00
         0.00000E+00
         0.00000E+00
         0.00000E+00
         0.00000E+00
         0.00000E+00
         0.00000E+00
         0.00000E+00
         0.00000E+00
         0.00000E+00
         0.00000E+00
         0.00000E+00
         0.00000E+00
         0.00000E+00
         0.00000E+00
         0.00000E+00
         0.00000E+00
         0.00000E+00
         0.00000E+00
         0.00000E+00
         0.00000E+00
         0.00000E+00
         0.00000E+00
         0.00000E+00
         0.00000E+00
         0.00000E+00
         0.00000E+00
         0.00000E+00
         0.00000E+00
         0.00000E+00
         0.00000E+00
         0.00000E+00
         0.00000E+00
         0.00000E+00
         0.00000E+00
         0.00000E+00
         0.00000E+00
         0.00000E+00
         0.00000E+00
         0.00000E+00
         0.00000E+00
         0.00000E+00
         0.00000E+00
         0.00000E+00
         0.00000E+00
         0.00000E+00
         0.00000E+00
         0.00000E+00
         0.00000E+00
         0.00000E+00
         0.00000E+00
         0.00000E+00
         0.00000E+00
         0.00000E+00
         0.00000E+00
         0.00000E+00
         0.00000E+00
         0.00000E+00
         0.00000E+00
         0.00000E+00
         0.00000E+00
         0.00000E+00
         0.00000E+00
         0.00000E+00
         0.00000E+00
         0.00000E+00
         0.00000E+00
         0.00000E+00
         0.00000E+00
         0.00000E+00
         0.00000E+00
         0.00000E+00
         0.00000E+00
         0.00000E+00
         0.00000E+00
         0.00000E+00
         0.00000E+00
         0.00000E+00
         0.00000E+00
         0.00000E+00
         0.00000E+00
         0.00000E+00
         0.00000E+00
         0.00000E+00
         0.00000E+00
         0.00000E+00
         0.00000E+00
         0.00000E+00
         0.00000E+00
         0.00000E+00
         0.00000E+00
         0.00000E+00
         0.00000E+00
         0.00000E+00
         0.00000E+00
         0.00000E+00
         0.00000E+00
         0.00000E+00
         0.00000E+00
         0.00000E+00
         0.00000E+00
         0.00000E+00
         0.00000E+00
         0.00000E+00
         0.00000E+00
         0.00000E+00
         0.00000E+00
         0.00000E+00
         0.00000E+00
         0.00000E+00
         0.00000E+00
         0.00000E+00
         0.00000E+00
         0.00000E+00
         0.00000E+00
         0.00000E+00
         0.00000E+00
         0.00000E+00
         0.00000E+00
         0.00000E+00
         0.00000E+00
         0.00000E+00
         0.00000E+00
         0.00000E+00
         0.00000E+00
         0.00000E+00
         0.00000E+00
         0.00000E+00
         0.00000E+00
         0.00000E+00
         0.00000E+00
         0.00000E+00
         0.00000E+00
         0.00000E+00
  
SCALARS                        eps_vol  double 1
LOOKUP_TABLE default
         0.00000E+00
         0.00000E+00
         0.00000E+00
         0.00000E+00
         0.00000E+00
         0.00000E+00
         0.00000E+00
         0.00000E+00
         0.00000E+00
         0.00000E+00
         0.00000E+00
         0.00000E+00
         0.00000E+00
         0.00000E+00
         0.00000E+00
         0.00000E+00
         0.00000E+00
         0.00000E+00
         0.00000E+00
         0.00000E+00
         0.00000E+00
         0.00000E+00
         0.00000E+00
         0.00000E+00
         0.00000E+00
         0.00000E+00
         0.00000E+00
         0.00000E+00
         0.00000E+00
         0.00000E+00
         0.00000E+00
         0.00000E+00
         0.00000E+00
         0.00000E+00
         0.00000E+00
         0.00000E+00
         0.00000E+00
         0.00000E+00
         0.00000E+00
         0.00000E+00
         0.00000E+00
         0.00000E+00
         0.00000E+00
         0.00000E+00
         0.00000E+00
         0.00000E+00
         0.00000E+00
         0.00000E+00
         0.00000E+00
         0.00000E+00
         0.00000E+00
         0.00000E+00
         0.00000E+00
         0.00000E+00
         0.00000E+00
         0.00000E+00
         0.00000E+00
         0.00000E+00
         0.00000E+00
         0.00000E+00
         0.00000E+00
         0.00000E+00
         0.00000E+00
         0.00000E+00
         0.00000E+00
         0.00000E+00
         0.00000E+00
         0.00000E+00
         0.00000E+00
         0.00000E+00
         0.00000E+00
         0.00000E+00
         0.00000E+00
         0.00000E+00
         0.00000E+00
         0.00000E+00
         0.00000E+00
         0.00000E+00
         0.00000E+00
         0.00000E+00
         0.00000E+00
         0.00000E+00
         0.00000E+00
         0.00000E+00
         0.00000E+00
         0.00000E+00
         0.00000E+00
         0.00000E+00
         0.00000E+00
         0.00000E+00
         0.00000E+00
         0.00000E+00
         0.00000E+00
         0.00000E+00
         0.00000E+00
         0.00000E+00
         0.00000E+00
         0.00000E+00
         0.00000E+00
         0.00000E+00
         0.00000E+00
         0.00000E+00
         0.00000E+00
         0.00000E+00
         0.00000E+00
         0.00000E+00
         0.00000E+00
         0.00000E+00
         0.00000E+00
         0.00000E+00
         0.00000E+00
         0.00000E+00
         0.00000E+00
         0.00000E+00
         0.00000E+00
         0.00000E+00
         0.00000E+00
         0.00000E+00
         0.00000E+00
         0.00000E+00
         0.00000E+00
         0.00000E+00
         0.00000E+00
         0.00000E+00
         0.00000E+00
         0.00000E+00
         0.00000E+00
         0.00000E+00
         0.00000E+00
         0.00000E+00
         0.00000E+00
         0.00000E+00
         0.00000E+00
         0.00000E+00
         0.00000E+00
         0.00000E+00
         0.00000E+00
         0.00000E+00
         0.00000E+00
         0.00000E+00
         0.00000E+00
         0.00000E+00
         0.00000E+00
         0.00000E+00
         0.00000E+00
         0.00000E+00
         0.00000E+00
         0.00000E+00
         0.00000E+00
         0.00000E+00
         0.00000E+00
         0.00000E+00
         0.00000E+00
         0.00000E+00
         0.00000E+00
         0.00000E+00
         0.00000E+00
         0.00000E+00
         0.00000E+00
         0.00000E+00
         0.00000E+00
         0.00000E+00
         0.00000E+00
         0.00000E+00
         0.00000E+00
         0.00000E+00
         0.00000E+00
         0.00000E+00
         0.00000E+00
         0.00000E+00
         0.00000E+00
         0.00000E+00
         0.00000E+00
         0.00000E+00
         0.00000E+00
         0.00000E+00
         0.00000E+00
         0.00000E+00
         0.00000E+00
         0.00000E+00
         0.00000E+00
         0.00000E+00
         0.00000E+00
         0.00000E+00
         0.00000E+00
         0.00000E+00
         0.00000E+00
         0.00000E+00
         0.00000E+00
         0.00000E+00
         0.00000E+00
         0.00000E+00
         0.00000E+00
         0.00000E+00
         0.00000E+00
         0.00000E+00
         0.00000E+00
         0.00000E+00
         0.00000E+00
         0.00000E+00
         0.00000E+00
         0.00000E+00
         0.00000E+00
         0.00000E+00
         0.00000E+00
         0.00000E+00
         0.00000E+00
         0.00000E+00
         0.00000E+00
         0.00000E+00
         0.00000E+00
         0.00000E+00
         0.00000E+00
         0.00000E+00
         0.00000E+00
         0.00000E+00
         0.00000E+00
         0.00000E+00
         0.00000E+00
         0.00000E+00
         0.00000E+00
         0.00000E+00
         0.00000E+00
         0.00000E+00
         0.00000E+00
         0.00000E+00
         0.00000E+00
         0.00000E+00
         0.00000E+00
         0.00000E+00
         0.00000E+00
         0.00000E+00
         0.00000E+00
         0.00000E+00
         0.00000E+00
         0.00000E+00
         0.00000E+00
         0.00000E+00
         0.00000E+00
         0.00000E+00
         0.00000E+00
         0.00000E+00
         0.00000E+00
         0.00000E+00
         0.00000E+00
         0.00000E+00
         0.00000E+00
         0.00000E+00
         0.00000E+00
         0.00000E+00
         0.00000E+00
         0.00000E+00
         0.00000E+00
         0.00000E+00
         0.00000E+00
         0.00000E+00
         0.00000E+00
         0.00000E+00
         0.00000E+00
         0.00000E+00
         0.00000E+00
         0.00000E+00
         0.00000E+00
         0.00000E+00
         0.00000E+00
         0.00000E+00
         0.00000E+00
         0.00000E+00
         0.00000E+00
         0.00000E+00
         0.00000E+00
         0.00000E+00
         0.00000E+00
         0.00000E+00
         0.00000E+00
         0.00000E+00
         0.00000E+00
         0.00000E+00
         0.00000E+00
         0.00000E+00
         0.00000E+00
         0.00000E+00
         0.00000E+00
         0.00000E+00
         0.00000E+00
         0.00000E+00
         0.00000E+00
         0.00000E+00
         0.00000E+00
         0.00000E+00
         0.00000E+00
         0.00000E+00
         0.00000E+00
         0.00000E+00
         0.00000E+00
         0.00000E+00
         0.00000E+00
         0.00000E+00
         0.00000E+00
         0.00000E+00
         0.00000E+00
         0.00000E+00
         0.00000E+00
         0.00000E+00
         0.00000E+00
         0.00000E+00
         0.00000E+00
         0.00000E+00
         0.00000E+00
         0.00000E+00
         0.00000E+00
         0.00000E+00
         0.00000E+00
         0.00000E+00
         0.00000E+00
         0.00000E+00
         0.00000E+00
         0.00000E+00
         0.00000E+00
         0.00000E+00
         0.00000E+00
         0.00000E+00
         0.00000E+00
         0.00000E+00
         0.00000E+00
         0.00000E+00
         0.00000E+00
         0.00000E+00
         0.00000E+00
         0.00000E+00
         0.00000E+00
         0.00000E+00
         0.00000E+00
         0.00000E+00
         0.00000E+00
         0.00000E+00
         0.00000E+00
         0.00000E+00
         0.00000E+00
         0.00000E+00
         0.00000E+00
         0.00000E+00
         0.00000E+00
         0.00000E+00
         0.00000E+00
         0.00000E+00
         0.00000E+00
         0.00000E+00
         0.00000E+00
         0.00000E+00
         0.00000E+00
         0.00000E+00
         0.00000E+00
         0.00000E+00
         0.00000E+00
         0.00000E+00
         0.00000E+00
         0.00000E+00
         0.00000E+00
         0.00000E+00
         0.00000E+00
         0.00000E+00
         0.00000E+00
         0.00000E+00
         0.00000E+00
         0.00000E+00
         0.00000E+00
         0.00000E+00
         0.00000E+00
         0.00000E+00
         0.00000E+00
         0.00000E+00
         0.00000E+00
         0.00000E+00
         0.00000E+00
         0.00000E+00
         0.00000E+00
         0.00000E+00
         0.00000E+00
         0.00000E+00
         0.00000E+00
         0.00000E+00
         0.00000E+00
         0.00000E+00
         0.00000E+00
         0.00000E+00
         0.00000E+00
         0.00000E+00
         0.00000E+00
         0.00000E+00
         0.00000E+00
         0.00000E+00
         0.00000E+00
         0.00000E+00
         0.00000E+00
         0.00000E+00
         0.00000E+00
         0.00000E+00
         0.00000E+00
         0.00000E+00
         0.00000E+00
         0.00000E+00
         0.00000E+00
         0.00000E+00
         0.00000E+00
         0.00000E+00
         0.00000E+00
         0.00000E+00
         0.00000E+00
         0.00000E+00
         0.00000E+00
         0.00000E+00
         0.00000E+00
         0.00000E+00
         0.00000E+00
         0.00000E+00
         0.00000E+00
         0.00000E+00
         0.00000E+00
         0.00000E+00
         0.00000E+00
         0.00000E+00
         0.00000E+00
         0.00000E+00
         0.00000E+00
         0.00000E+00
         0.00000E+00
         0.00000E+00
         0.00000E+00
         0.00000E+00
         0.00000E+00
         0.00000E+00
         0.00000E+00
         0.00000E+00
         0.00000E+00
         0.00000E+00
         0.00000E+00
         0.00000E+00
         0.00000E+00
         0.00000E+00
         0.00000E+00
         0.00000E+00
         0.00000E+00
         0.00000E+00
         0.00000E+00
         0.00000E+00
         0.00000E+00
         0.00000E+00
         0.00000E+00
         0.00000E+00
         0.00000E+00
         0.00000E+00
         0.00000E+00
         0.00000E+00
         0.00000E+00
         0.00000E+00
         0.00000E+00
         0.00000E+00
         0.00000E+00
         0.00000E+00
         0.00000E+00
         0.00000E+00
         0.00000E+00
         0.00000E+00
         0.00000E+00
         0.00000E+00
         0.00000E+00
         0.00000E+00
         0.00000E+00
         0.00000E+00
         0.00000E+00
         0.00000E+00
         0.00000E+00
         0.00000E+00
         0.00000E+00
         0.00000E+00
         0.00000E+00
         0.00000E+00
         0.00000E+00
         0.00000E+00
         0.00000E+00
         0.00000E+00
         0.00000E+00
         0.00000E+00
         0.00000E+00
         0.00000E+00
         0.00000E+00
         0.00000E+00
         0.00000E+00
         0.00000E+00
         0.00000E+00
         0.00000E+00
         0.00000E+00
         0.00000E+00
         0.00000E+00
         0.00000E+00
         0.00000E+00
         0.00000E+00
         0.00000E+00
         0.00000E+00
         0.00000E+00
         0.00000E+00
         0.00000E+00
         0.00000E+00
         0.00000E+00
         0.00000E+00
         0.00000E+00
         0.00000E+00
         0.00000E+00
         0.00000E+00
         0.00000E+00
         0.00000E+00
         0.00000E+00
         0.00000E+00
         0.00000E+00
         0.00000E+00
         0.00000E+00
         0.00000E+00
         0.00000E+00
         0.00000E+00
         0.00000E+00
         0.00000E+00
         0.00000E+00
         0.00000E+00
         0.00000E+00
         0.00000E+00
         0.00000E+00
         0.00000E+00
         0.00000E+00
         0.00000E+00
         0.00000E+00
         0.00000E+00
         0.00000E+00
         0.00000E+00
         0.00000E+00
         0.00000E+00
         0.00000E+00
         0.00000E+00
         0.00000E+00
         0.00000E+00
         0.00000E+00
         0.00000E+00
         0.00000E+00
         0.00000E+00
         0.00000E+00
         0.00000E+00
         0.00000E+00
         0.00000E+00
         0.00000E+00
         0.00000E+00
         0.00000E+00
         0.00000E+00
         0.00000E+00
         0.00000E+00
         0.00000E+00
         0.00000E+00
         0.00000E+00
         0.00000E+00
         0.00000E+00
         0.00000E+00
         0.00000E+00
         0.00000E+00
         0.00000E+00
         0.00000E+00
         0.00000E+00
         0.00000E+00
         0.00000E+00
         0.00000E+00
         0.00000E+00
         0.00000E+00
         0.00000E+00
         0.00000E+00
         0.00000E+00
         0.00000E+00
         0.00000E+00
         0.00000E+00
         0.00000E+00
         0.00000E+00
         0.00000E+00
         0.00000E+00
         0.00000E+00
         0.00000E+00
         0.00000E+00
         0.00000E+00
         0.00000E+00
         0.00000E+00
         0.00000E+00
         0.00000E+00
         0.00000E+00
         0.00000E+00
         0.00000E+00
         0.00000E+00
         0.00000E+00
         0.00000E+00
         0.00000E+00
         0.00000E+00
         0.00000E+00
         0.00000E+00
         0.00000E+00
         0.00000E+00
         0.00000E+00
         0.00000E+00
         0.00000E+00
         0.00000E+00
         0.00000E+00
         0.00000E+00
         0.00000E+00
         0.00000E+00
         0.00000E+00
         0.00000E+00
         0.00000E+00
         0.00000E+00
         0.00000E+00
         0.00000E+00
         0.00000E+00
         0.00000E+00
         0.00000E+00
         0.00000E+00
         0.00000E+00
         0.00000E+00
         0.00000E+00
         0.00000E+00
         0.00000E+00
         0.00000E+00
         0.00000E+00
         0.00000E+00
         0.00000E+00
         0.00000E+00
         0.00000E+00
         0.00000E+00
         0.00000E+00
         0.00000E+00
         0.00000E+00
         0.00000E+00
         0.00000E+00
         0.00000E+00
         0.00000E+00
         0.00000E+00
         0.00000E+00
         0.00000E+00
         0.00000E+00
         0.00000E+00
         0.00000E+00
         0.00000E+00
         0.00000E+00
         0.00000E+00
         0.00000E+00
         0.00000E+00
         0.00000E+00
         0.00000E+00
         0.00000E+00
         0.00000E+00
         0.00000E+00
         0.00000E+00
         0.00000E+00
         0.00000E+00
         0.00000E+00
         0.00000E+00
         0.00000E+00
         0.00000E+00
         0.00000E+00
         0.00000E+00
         0.00000E+00
         0.00000E+00
         0.00000E+00
         0.00000E+00
         0.00000E+00
         0.00000E+00
         0.00000E+00
         0.00000E+00
         0.00000E+00
         0.00000E+00
         0.00000E+00
         0.00000E+00
         0.00000E+00
         0.00000E+00
         0.00000E+00
         0.00000E+00
         0.00000E+00
         0.00000E+00
         0.00000E+00
         0.00000E+00
         0.00000E+00
         0.00000E+00
         0.00000E+00
         0.00000E+00
         0.00000E+00
         0.00000E+00
         0.00000E+00
         0.00000E+00
         0.00000E+00
         0.00000E+00
         0.00000E+00
         0.00000E+00
         0.00000E+00
         0.00000E+00
         0.00000E+00
         0.00000E+00
         0.00000E+00
         0.00000E+00
         0.00000E+00
         0.00000E+00
         0.00000E+00
         0.00000E+00
         0.00000E+00
         0.00000E+00
         0.00000E+00
         0.00000E+00
         0.00000E+00
         0.00000E+00
         0.00000E+00
         0.00000E+00
         0.00000E+00
         0.00000E+00
         0.00000E+00
         0.00000E+00
         0.00000E+00
         0.00000E+00
         0.00000E+00
         0.00000E+00
         0.00000E+00
         0.00000E+00
         0.00000E+00
         0.00000E+00
         0.00000E+00
         0.00000E+00
         0.00000E+00
         0.00000E+00
         0.00000E+00
         0.00000E+00
         0.00000E+00
         0.00000E+00
         0.00000E+00
         0.00000E+00
         0.00000E+00
         0.00000E+00
         0.00000E+00
         0.00000E+00
         0.00000E+00
         0.00000E+00
         0.00000E+00
         0.00000E+00
         0.00000E+00
         0.00000E+00
         0.00000E+00
         0.00000E+00
         0.00000E+00
         0.00000E+00
         0.00000E+00
         0.00000E+00
         0.00000E+00
         0.00000E+00
         0.00000E+00
         0.00000E+00
         0.00000E+00
         0.00000E+00
         0.00000E+00
         0.00000E+00
         0.00000E+00
         0.00000E+00
         0.00000E+00
         0.00000E+00
         0.00000E+00
         0.00000E+00
         0.00000E+00
         0.00000E+00
         0.00000E+00
         0.00000E+00
         0.00000E+00
         0.00000E+00
         0.00000E+00
         0.00000E+00
         0.00000E+00
         0.00000E+00
         0.00000E+00
         0.00000E+00
         0.00000E+00
         0.00000E+00
         0.00000E+00
         0.00000E+00
         0.00000E+00
         0.00000E+00
         0.00000E+00
         0.00000E+00
         0.00000E+00
         0.00000E+00
         0.00000E+00
         0.00000E+00
         0.00000E+00
         0.00000E+00
         0.00000E+00
         0.00000E+00
         0.00000E+00
         0.00000E+00
         0.00000E+00
         0.00000E+00
         0.00000E+00
         0.00000E+00
         0.00000E+00
         0.00000E+00
         0.00000E+00
         0.00000E+00
         0.00000E+00
         0.00000E+00
         0.00000E+00
         0.00000E+00
         0.00000E+00
         0.00000E+00
         0.00000E+00
         0.00000E+00
         0.00000E+00
         0.00000E+00
         0.00000E+00
         0.00000E+00
         0.00000E+00
         0.00000E+00
         0.00000E+00
         0.00000E+00
         0.00000E+00
         0.00000E+00
         0.00000E+00
         0.00000E+00
         0.00000E+00
         0.00000E+00
         0.00000E+00
         0.00000E+00
         0.00000E+00
         0.00000E+00
         0.00000E+00
         0.00000E+00
         0.00000E+00
         0.00000E+00
         0.00000E+00
         0.00000E+00
         0.00000E+00
         0.00000E+00
         0.00000E+00
         0.00000E+00
         0.00000E+00
         0.00000E+00
         0.00000E+00
         0.00000E+00
         0.00000E+00
         0.00000E+00
         0.00000E+00
         0.00000E+00
         0.00000E+00
         0.00000E+00
         0.00000E+00
         0.00000E+00
         0.00000E+00
         0.00000E+00
         0.00000E+00
         0.00000E+00
         0.00000E+00
         0.00000E+00
         0.00000E+00
         0.00000E+00
         0.00000E+00
         0.00000E+00
         0.00000E+00
         0.00000E+00
         0.00000E+00
         0.00000E+00
         0.00000E+00
         0.00000E+00
         0.00000E+00
         0.00000E+00
         0.00000E+00
         0.00000E+00
         0.00000E+00
         0.00000E+00
         0.00000E+00
         0.00000E+00
         0.00000E+00
         0.00000E+00
         0.00000E+00
         0.00000E+00
         0.00000E+00
         0.00000E+00
         0.00000E+00
         0.00000E+00
         0.00000E+00
         0.00000E+00
         0.00000E+00
         0.00000E+00
         0.00000E+00
         0.00000E+00
         0.00000E+00
         0.00000E+00
         0.00000E+00
         0.00000E+00
         0.00000E+00
         0.00000E+00
         0.00000E+00
         0.00000E+00
         0.00000E+00
         0.00000E+00
         0.00000E+00
         0.00000E+00
         0.00000E+00
         0.00000E+00
         0.00000E+00
         0.00000E+00
         0.00000E+00
         0.00000E+00
         0.00000E+00
         0.00000E+00
         0.00000E+00
         0.00000E+00
         0.00000E+00
         0.00000E+00
         0.00000E+00
         0.00000E+00
         0.00000E+00
         0.00000E+00
         0.00000E+00
         0.00000E+00
         0.00000E+00
         0.00000E+00
         0.00000E+00
         0.00000E+00
         0.00000E+00
         0.00000E+00
         0.00000E+00
         0.00000E+00
         0.00000E+00
         0.00000E+00
         0.00000E+00
         0.00000E+00
         0.00000E+00
         0.00000E+00
         0.00000E+00
         0.00000E+00
         0.00000E+00
         0.00000E+00
         0.00000E+00
         0.00000E+00
         0.00000E+00
         0.00000E+00
         0.00000E+00
         0.00000E+00
         0.00000E+00
         0.00000E+00
         0.00000E+00
         0.00000E+00
         0.00000E+00
         0.00000E+00
         0.00000E+00
         0.00000E+00
         0.00000E+00
         0.00000E+00
         0.00000E+00
         0.00000E+00
         0.00000E+00
         0.00000E+00
         0.00000E+00
         0.00000E+00
         0.00000E+00
         0.00000E+00
         0.00000E+00
         0.00000E+00
         0.00000E+00
         0.00000E+00
         0.00000E+00
         0.00000E+00
         0.00000E+00
         0.00000E+00
         0.00000E+00
         0.00000E+00
         0.00000E+00
         0.00000E+00
         0.00000E+00
         0.00000E+00
         0.00000E+00
         0.00000E+00
         0.00000E+00
         0.00000E+00
         0.00000E+00
         0.00000E+00
         0.00000E+00
         0.00000E+00
         0.00000E+00
         0.00000E+00
         0.00000E+00
         0.00000E+00
         0.00000E+00
         0.00000E+00
         0.00000E+00
         0.00000E+00
         0.00000E+00
         0.00000E+00
         0.00000E+00
         0.00000E+00
         0.00000E+00
         0.00000E+00
         0.00000E+00
         0.00000E+00
         0.00000E+00
         0.00000E+00
         0.00000E+00
         0.00000E+00
         0.00000E+00
         0.00000E+00
         0.00000E+00
         0.00000E+00
         0.00000E+00
         0.00000E+00
         0.00000E+00
         0.00000E+00
         0.00000E+00
         0.00000E+00
         0.00000E+00
         0.00000E+00
         0.00000E+00
         0.00000E+00
         0.00000E+00
         0.00000E+00
         0.00000E+00
         0.00000E+00
         0.00000E+00
         0.00000E+00
         0.00000E+00
         0.00000E+00
         0.00000E+00
         0.00000E+00
         0.00000E+00
         0.00000E+00
         0.00000E+00
         0.00000E+00
         0.00000E+00
         0.00000E+00
         0.00000E+00
         0.00000E+00
         0.00000E+00
         0.00000E+00
         0.00000E+00
         0.00000E+00
         0.00000E+00
         0.00000E+00
         0.00000E+00
         0.00000E+00
         0.00000E+00
         0.00000E+00
         0.00000E+00
         0.00000E+00
         0.00000E+00
         0.00000E+00
         0.00000E+00
         0.00000E+00
         0.00000E+00
         0.00000E+00
         0.00000E+00
         0.00000E+00
         0.00000E+00
         0.00000E+00
         0.00000E+00
         0.00000E+00
         0.00000E+00
         0.00000E+00
         0.00000E+00
         0.00000E+00
         0.00000E+00
         0.00000E+00
         0.00000E+00
         0.00000E+00
         0.00000E+00
         0.00000E+00
         0.00000E+00
         0.00000E+00
         0.00000E+00
         0.00000E+00
         0.00000E+00
         0.00000E+00
         0.00000E+00
         0.00000E+00
         0.00000E+00
         0.00000E+00
         0.00000E+00
         0.00000E+00
         0.00000E+00
         0.00000E+00
         0.00000E+00
         0.00000E+00
         0.00000E+00
         0.00000E+00
         0.00000E+00
         0.00000E+00
         0.00000E+00
         0.00000E+00
         0.00000E+00
         0.00000E+00
         0.00000E+00
         0.00000E+00
         0.00000E+00
         0.00000E+00
         0.00000E+00
         0.00000E+00
         0.00000E+00
         0.00000E+00
         0.00000E+00
         0.00000E+00
         0.00000E+00
         0.00000E+00
         0.00000E+00
         0.00000E+00
         0.00000E+00
         0.00000E+00
         0.00000E+00
         0.00000E+00
         0.00000E+00
         0.00000E+00
         0.00000E+00
         0.00000E+00
         0.00000E+00
         0.00000E+00
         0.00000E+00
         0.00000E+00
         0.00000E+00
         0.00000E+00
         0.00000E+00
         0.00000E+00
         0.00000E+00
         0.00000E+00
         0.00000E+00
         0.00000E+00
         0.00000E+00
         0.00000E+00
         0.00000E+00
         0.00000E+00
         0.00000E+00
         0.00000E+00
         0.00000E+00
         0.00000E+00
         0.00000E+00
         0.00000E+00
         0.00000E+00
         0.00000E+00
         0.00000E+00
         0.00000E+00
         0.00000E+00
         0.00000E+00
         0.00000E+00
         0.00000E+00
         0.00000E+00
         0.00000E+00
         0.00000E+00
         0.00000E+00
         0.00000E+00
         0.00000E+00
         0.00000E+00
         0.00000E+00
         0.00000E+00
         0.00000E+00
         0.00000E+00
         0.00000E+00
         0.00000E+00
         0.00000E+00
         0.00000E+00
         0.00000E+00
         0.00000E+00
         0.00000E+00
         0.00000E+00
         0.00000E+00
         0.00000E+00
         0.00000E+00
         0.00000E+00
         0.00000E+00
         0.00000E+00
         0.00000E+00
         0.00000E+00
         0.00000E+00
         0.00000E+00
         0.00000E+00
         0.00000E+00
         0.00000E+00
         0.00000E+00
         0.00000E+00
         0.00000E+00
         0.00000E+00
         0.00000E+00
         0.00000E+00
         0.00000E+00
         0.00000E+00
         0.00000E+00
         0.00000E+00
         0.00000E+00
         0.00000E+00
         0.00000E+00
         0.00000E+00
         0.00000E+00
         0.00000E+00
         0.00000E+00
         0.00000E+00
         0.00000E+00
         0.00000E+00
         0.00000E+00
         0.00000E+00
         0.00000E+00
         0.00000E+00
         0.00000E+00
         0.00000E+00
         0.00000E+00
         0.00000E+00
         0.00000E+00
         0.00000E+00
         0.00000E+00
         0.00000E+00
         0.00000E+00
         0.00000E+00
         0.00000E+00
         0.00000E+00
         0.00000E+00
         0.00000E+00
         0.00000E+00
         0.00000E+00
         0.00000E+00
         0.00000E+00
         0.00000E+00
         0.00000E+00
         0.00000E+00
         0.00000E+00
         0.00000E+00
         0.00000E+00
         0.00000E+00
         0.00000E+00
         0.00000E+00
         0.00000E+00
         0.00000E+00
         0.00000E+00
         0.00000E+00
         0.00000E+00
         0.00000E+00
         0.00000E+00
         0.00000E+00
         0.00000E+00
         0.00000E+00
         0.00000E+00
         0.00000E+00
         0.00000E+00
         0.00000E+00
         0.00000E+00
         0.00000E+00
         0.00000E+00
         0.00000E+00
         0.00000E+00
         0.00000E+00
         0.00000E+00
         0.00000E+00
         0.00000E+00
         0.00000E+00
         0.00000E+00
         0.00000E+00
         0.00000E+00
         0.00000E+00
         0.00000E+00
         0.00000E+00
         0.00000E+00
         0.00000E+00
         0.00000E+00
         0.00000E+00
         0.00000E+00
         0.00000E+00
         0.00000E+00
         0.00000E+00
         0.00000E+00
         0.00000E+00
         0.00000E+00
         0.00000E+00
         0.00000E+00
         0.00000E+00
         0.00000E+00
         0.00000E+00
         0.00000E+00
         0.00000E+00
         0.00000E+00
         0.00000E+00
         0.00000E+00
         0.00000E+00
         0.00000E+00
         0.00000E+00
         0.00000E+00
         0.00000E+00
         0.00000E+00
         0.00000E+00
         0.00000E+00
         0.00000E+00
         0.00000E+00
         0.00000E+00
         0.00000E+00
         0.00000E+00
         0.00000E+00
         0.00000E+00
         0.00000E+00
         0.00000E+00
         0.00000E+00
         0.00000E+00
         0.00000E+00
         0.00000E+00
         0.00000E+00
         0.00000E+00
         0.00000E+00
         0.00000E+00
         0.00000E+00
         0.00000E+00
         0.00000E+00
         0.00000E+00
         0.00000E+00
         0.00000E+00
         0.00000E+00
         0.00000E+00
         0.00000E+00
         0.00000E+00
         0.00000E+00
         0.00000E+00
         0.00000E+00
         0.00000E+00
         0.00000E+00
         0.00000E+00
         0.00000E+00
         0.00000E+00
         0.00000E+00
         0.00000E+00
         0.00000E+00
         0.00000E+00
         0.00000E+00
         0.00000E+00
         0.00000E+00
         0.00000E+00
         0.00000E+00
         0.00000E+00
         0.00000E+00
         0.00000E+00
         0.00000E+00
         0.00000E+00
         0.00000E+00
         0.00000E+00
         0.00000E+00
         0.00000E+00
         0.00000E+00
         0.00000E+00
         0.00000E+00
         0.00000E+00
         0.00000E+00
         0.00000E+00
         0.00000E+00
         0.00000E+00
         0.00000E+00
         0.00000E+00
         0.00000E+00
         0.00000E+00
         0.00000E+00
         0.00000E+00
         0.00000E+00
         0.00000E+00
         0.00000E+00
         0.00000E+00
         0.00000E+00
         0.00000E+00
         0.00000E+00
         0.00000E+00
         0.00000E+00
         0.00000E+00
         0.00000E+00
         0.00000E+00
         0.00000E+00
         0.00000E+00
         0.00000E+00
         0.00000E+00
         0.00000E+00
         0.00000E+00
         0.00000E+00
         0.00000E+00
         0.00000E+00
         0.00000E+00
         0.00000E+00
         0.00000E+00
         0.00000E+00
         0.00000E+00
         0.00000E+00
         0.00000E+00
         0.00000E+00
         0.00000E+00
         0.00000E+00
         0.00000E+00
         0.00000E+00
         0.00000E+00
         0.00000E+00
         0.00000E+00
         0.00000E+00
         0.00000E+00
         0.00000E+00
         0.00000E+00
         0.00000E+00
         0.00000E+00
         0.00000E+00
         0.00000E+00
         0.00000E+00
         0.00000E+00
         0.00000E+00
         0.00000E+00
         0.00000E+00
         0.00000E+00
         0.00000E+00
         0.00000E+00
         0.00000E+00
         0.00000E+00
         0.00000E+00
         0.00000E+00
         0.00000E+00
         0.00000E+00
         0.00000E+00
         0.00000E+00
         0.00000E+00
         0.00000E+00
         0.00000E+00
         0.00000E+00
         0.00000E+00
         0.00000E+00
         0.00000E+00
         0.00000E+00
         0.00000E+00
         0.00000E+00
         0.00000E+00
         0.00000E+00
         0.00000E+00
         0.00000E+00
         0.00000E+00
         0.00000E+00
         0.00000E+00
         0.00000E+00
         0.00000E+00
         0.00000E+00
         0.00000E+00
         0.00000E+00
         0.00000E+00
         0.00000E+00
         0.00000E+00
         0.00000E+00
         0.00000E+00
         0.00000E+00
         0.00000E+00
         0.00000E+00
         0.00000E+00
         0.00000E+00
         0.00000E+00
         0.00000E+00
         0.00000E+00
         0.00000E+00
         0.00000E+00
         0.00000E+00
         0.00000E+00
         0.00000E+00
         0.00000E+00
         0.00000E+00
         0.00000E+00
         0.00000E+00
         0.00000E+00
         0.00000E+00
         0.00000E+00
         0.00000E+00
         0.00000E+00
         0.00000E+00
         0.00000E+00
         0.00000E+00
         0.00000E+00
         0.00000E+00
         0.00000E+00
         0.00000E+00
         0.00000E+00
         0.00000E+00
         0.00000E+00
         0.00000E+00
         0.00000E+00
         0.00000E+00
         0.00000E+00
         0.00000E+00
         0.00000E+00
         0.00000E+00
         0.00000E+00
         0.00000E+00
         0.00000E+00
         0.00000E+00
         0.00000E+00
         0.00000E+00
         0.00000E+00
         0.00000E+00
         0.00000E+00
         0.00000E+00
         0.00000E+00
         0.00000E+00
         0.00000E+00
         0.00000E+00
         0.00000E+00
         0.00000E+00
         0.00000E+00
         0.00000E+00
         0.00000E+00
         0.00000E+00
         0.00000E+00
         0.00000E+00
         0.00000E+00
         0.00000E+00
         0.00000E+00
         0.00000E+00
         0.00000E+00
         0.00000E+00
         0.00000E+00
         0.00000E+00
         0.00000E+00
         0.00000E+00
         0.00000E+00
         0.00000E+00
         0.00000E+00
         0.00000E+00
         0.00000E+00
         0.00000E+00
         0.00000E+00
         0.00000E+00
         0.00000E+00
         0.00000E+00
         0.00000E+00
         0.00000E+00
         0.00000E+00
         0.00000E+00
         0.00000E+00
         0.00000E+00
         0.00000E+00
         0.00000E+00
         0.00000E+00
         0.00000E+00
         0.00000E+00
         0.00000E+00
         0.00000E+00
         0.00000E+00
         0.00000E+00
         0.00000E+00
         0.00000E+00
         0.00000E+00
         0.00000E+00
         0.00000E+00
         0.00000E+00
         0.00000E+00
         0.00000E+00
         0.00000E+00
         0.00000E+00
         0.00000E+00
         0.00000E+00
         0.00000E+00
         0.00000E+00
         0.00000E+00
         0.00000E+00
         0.00000E+00
         0.00000E+00
         0.00000E+00
         0.00000E+00
         0.00000E+00
         0.00000E+00
         0.00000E+00
         0.00000E+00
         0.00000E+00
         0.00000E+00
         0.00000E+00
         0.00000E+00
         0.00000E+00
         0.00000E+00
         0.00000E+00
         0.00000E+00
         0.00000E+00
         0.00000E+00
         0.00000E+00
         0.00000E+00
         0.00000E+00
         0.00000E+00
         0.00000E+00
         0.00000E+00
         0.00000E+00
         0.00000E+00
         0.00000E+00
         0.00000E+00
         0.00000E+00
         0.00000E+00
         0.00000E+00
         0.00000E+00
         0.00000E+00
         0.00000E+00
         0.00000E+00
         0.00000E+00
         0.00000E+00
         0.00000E+00
         0.00000E+00
         0.00000E+00
         0.00000E+00
         0.00000E+00
         0.00000E+00
         0.00000E+00
         0.00000E+00
         0.00000E+00
         0.00000E+00
         0.00000E+00
         0.00000E+00
         0.00000E+00
         0.00000E+00
         0.00000E+00
         0.00000E+00
         0.00000E+00
         0.00000E+00
         0.00000E+00
         0.00000E+00
         0.00000E+00
         0.00000E+00
         0.00000E+00
         0.00000E+00
         0.00000E+00
         0.00000E+00
         0.00000E+00
         0.00000E+00
         0.00000E+00
         0.00000E+00
         0.00000E+00
         0.00000E+00
         0.00000E+00
         0.00000E+00
         0.00000E+00
         0.00000E+00
         0.00000E+00
         0.00000E+00
         0.00000E+00
         0.00000E+00
         0.00000E+00
         0.00000E+00
         0.00000E+00
         0.00000E+00
         0.00000E+00
         0.00000E+00
         0.00000E+00
         0.00000E+00
         0.00000E+00
         0.00000E+00
         0.00000E+00
         0.00000E+00
         0.00000E+00
         0.00000E+00
         0.00000E+00
         0.00000E+00
         0.00000E+00
         0.00000E+00
         0.00000E+00
         0.00000E+00
         0.00000E+00
         0.00000E+00
         0.00000E+00
         0.00000E+00
         0.00000E+00
         0.00000E+00
         0.00000E+00
         0.00000E+00
         0.00000E+00
         0.00000E+00
         0.00000E+00
         0.00000E+00
         0.00000E+00
         0.00000E+00
         0.00000E+00
         0.00000E+00
         0.00000E+00
         0.00000E+00
         0.00000E+00
         0.00000E+00
         0.00000E+00
         0.00000E+00
         0.00000E+00
         0.00000E+00
         0.00000E+00
         0.00000E+00
         0.00000E+00
         0.00000E+00
         0.00000E+00
         0.00000E+00
         0.00000E+00
         0.00000E+00
         0.00000E+00
         0.00000E+00
         0.00000E+00
         0.00000E+00
         0.00000E+00
         0.00000E+00
         0.00000E+00
         0.00000E+00
         0.00000E+00
         0.00000E+00
         0.00000E+00
         0.00000E+00
         0.00000E+00
         0.00000E+00
         0.00000E+00
         0.00000E+00
         0.00000E+00
         0.00000E+00
         0.00000E+00
         0.00000E+00
         0.00000E+00
         0.00000E+00
         0.00000E+00
         0.00000E+00
         0.00000E+00
         0.00000E+00
         0.00000E+00
         0.00000E+00
         0.00000E+00
         0.00000E+00
         0.00000E+00
         0.00000E+00
         0.00000E+00
         0.00000E+00
         0.00000E+00
         0.00000E+00
         0.00000E+00
         0.00000E+00
         0.00000E+00
         0.00000E+00
         0.00000E+00
         0.00000E+00
         0.00000E+00
         0.00000E+00
         0.00000E+00
         0.00000E+00
         0.00000E+00
         0.00000E+00
         0.00000E+00
         0.00000E+00
         0.00000E+00
         0.00000E+00
         0.00000E+00
         0.00000E+00
         0.00000E+00
         0.00000E+00
         0.00000E+00
         0.00000E+00
         0.00000E+00
         0.00000E+00
         0.00000E+00
         0.00000E+00
         0.00000E+00
         0.00000E+00
         0.00000E+00
         0.00000E+00
         0.00000E+00
         0.00000E+00
         0.00000E+00
         0.00000E+00
         0.00000E+00
         0.00000E+00
         0.00000E+00
         0.00000E+00
         0.00000E+00
         0.00000E+00
         0.00000E+00
         0.00000E+00
         0.00000E+00
         0.00000E+00
         0.00000E+00
         0.00000E+00
         0.00000E+00
         0.00000E+00
         0.00000E+00
         0.00000E+00
         0.00000E+00
         0.00000E+00
         0.00000E+00
         0.00000E+00
         0.00000E+00
         0.00000E+00
         0.00000E+00
         0.00000E+00
         0.00000E+00
         0.00000E+00
         0.00000E+00
         0.00000E+00
         0.00000E+00
         0.00000E+00
         0.00000E+00
         0.00000E+00
         0.00000E+00
         0.00000E+00
         0.00000E+00
         0.00000E+00
         0.00000E+00
         0.00000E+00
         0.00000E+00
         0.00000E+00
         0.00000E+00
         0.00000E+00
         0.00000E+00
         0.00000E+00
         0.00000E+00
         0.00000E+00
         0.00000E+00
         0.00000E+00
         0.00000E+00
         0.00000E+00
         0.00000E+00
         0.00000E+00
         0.00000E+00
         0.00000E+00
         0.00000E+00
         0.00000E+00
         0.00000E+00
         0.00000E+00
         0.00000E+00
         0.00000E+00
         0.00000E+00
         0.00000E+00
         0.00000E+00
         0.00000E+00
         0.00000E+00
         0.00000E+00
         0.00000E+00
         0.00000E+00
         0.00000E+00
         0.00000E+00
         0.00000E+00
         0.00000E+00
         0.00000E+00
         0.00000E+00
         0.00000E+00
         0.00000E+00
         0.00000E+00
         0.00000E+00
         0.00000E+00
         0.00000E+00
         0.00000E+00
         0.00000E+00
         0.00000E+00
         0.00000E+00
         0.00000E+00
         0.00000E+00
         0.00000E+00
         0.00000E+00
         0.00000E+00
         0.00000E+00
         0.00000E+00
         0.00000E+00
         0.00000E+00
         0.00000E+00
         0.00000E+00
         0.00000E+00
         0.00000E+00
         0.00000E+00
         0.00000E+00
         0.00000E+00
         0.00000E+00
         0.00000E+00
         0.00000E+00
         0.00000E+00
         0.00000E+00
         0.00000E+00
         0.00000E+00
         0.00000E+00
         0.00000E+00
         0.00000E+00
         0.00000E+00
         0.00000E+00
         0.00000E+00
         0.00000E+00
         0.00000E+00
         0.00000E+00
         0.00000E+00
         0.00000E+00
         0.00000E+00
         0.00000E+00
         0.00000E+00
         0.00000E+00
         0.00000E+00
         0.00000E+00
         0.00000E+00
         0.00000E+00
         0.00000E+00
         0.00000E+00
         0.00000E+00
         0.00000E+00
         0.00000E+00
         0.00000E+00
         0.00000E+00
         0.00000E+00
         0.00000E+00
         0.00000E+00
         0.00000E+00
         0.00000E+00
         0.00000E+00
         0.00000E+00
         0.00000E+00
         0.00000E+00
         0.00000E+00
         0.00000E+00
         0.00000E+00
         0.00000E+00
         0.00000E+00
         0.00000E+00
         0.00000E+00
         0.00000E+00
         0.00000E+00
         0.00000E+00
         0.00000E+00
         0.00000E+00
         0.00000E+00
         0.00000E+00
         0.00000E+00
         0.00000E+00
         0.00000E+00
         0.00000E+00
         0.00000E+00
         0.00000E+00
         0.00000E+00
         0.00000E+00
         0.00000E+00
         0.00000E+00
         0.00000E+00
         0.00000E+00
         0.00000E+00
         0.00000E+00
         0.00000E+00
         0.00000E+00
         0.00000E+00
         0.00000E+00
         0.00000E+00
         0.00000E+00
         0.00000E+00
         0.00000E+00
         0.00000E+00
         0.00000E+00
         0.00000E+00
         0.00000E+00
         0.00000E+00
         0.00000E+00
         0.00000E+00
         0.00000E+00
         0.00000E+00
         0.00000E+00
         0.00000E+00
         0.00000E+00
         0.00000E+00
         0.00000E+00
         0.00000E+00
         0.00000E+00
         0.00000E+00
         0.00000E+00
         0.00000E+00
         0.00000E+00
         0.00000E+00
  
SCALARS                            eps  double 1
LOOKUP_TABLE default
         0.17737E+01
         0.17510E+01
         0.17654E+01
         0.17912E+01
         0.00000E+00
         0.00000E+00
         0.00000E+00
         0.00000E+00
         0.17503E+01
         0.17579E+01
         0.00000E+00
         0.00000E+00
         0.17181E+01
         0.17169E+01
         0.00000E+00
         0.00000E+00
         0.17874E+01
         0.17187E+01
         0.00000E+00
         0.00000E+00
         0.16935E+01
         0.16740E+01
         0.17051E+01
         0.00000E+00
         0.00000E+00
         0.00000E+00
         0.16747E+01
         0.16461E+01
         0.00000E+00
         0.00000E+00
         0.17862E+01
         0.17563E+01
         0.18152E+01
         0.00000E+00
         0.00000E+00
         0.00000E+00
         0.17689E+01
         0.17308E+01
         0.00000E+00
         0.00000E+00
         0.17538E+01
         0.17245E+01
         0.00000E+00
         0.00000E+00
         0.17787E+01
         0.17897E+01
         0.00000E+00
         0.00000E+00
         0.17008E+01
         0.00000E+00
         0.17876E+01
         0.00000E+00
         0.16664E+01
         0.00000E+00
         0.16574E+01
         0.00000E+00
         0.16576E+01
         0.16895E+01
         0.00000E+00
         0.00000E+00
         0.17856E+01
         0.17741E+01
         0.00000E+00
         0.00000E+00
         0.17928E+01
         0.00000E+00
         0.17791E+01
         0.00000E+00
         0.17434E+01
         0.17396E+01
         0.00000E+00
         0.00000E+00
         0.17315E+01
         0.00000E+00
         0.16360E+01
         0.00000E+00
         0.16310E+01
         0.00000E+00
         0.16336E+01
         0.00000E+00
         0.16475E+01
         0.16617E+01
         0.00000E+00
         0.00000E+00
         0.16906E+01
         0.00000E+00
         0.17782E+01
         0.00000E+00
         0.17645E+01
         0.00000E+00
         0.17535E+01
         0.17472E+01
         0.00000E+00
         0.00000E+00
         0.17547E+01
         0.00000E+00
         0.17601E+01
         0.00000E+00
         0.17552E+01
         0.00000E+00
         0.17537E+01
         0.17585E+01
         0.00000E+00
         0.00000E+00
         0.17272E+01
         0.17403E+01
         0.00000E+00
         0.00000E+00
         0.17249E+01
         0.00000E+00
         0.17401E+01
         0.00000E+00
         0.17253E+01
         0.00000E+00
         0.16927E+01
         0.00000E+00
         0.16613E+01
         0.00000E+00
         0.16424E+01
         0.00000E+00
         0.16405E+01
         0.00000E+00
         0.16410E+01
         0.00000E+00
         0.16615E+01
         0.00000E+00
         0.17000E+01
         0.00000E+00
         0.17423E+01
         0.00000E+00
         0.17669E+01
         0.00000E+00
         0.17912E+01
         0.00000E+00
         0.18073E+01
         0.00000E+00
         0.18068E+01
         0.00000E+00
         0.17673E+01
         0.00000E+00
         0.17398E+01
         0.00000E+00
         0.17307E+01
         0.00000E+00
         0.17455E+01
         0.00000E+00
         0.17531E+01
         0.00000E+00
         0.17400E+01
         0.00000E+00
         0.17400E+01
         0.00000E+00
         0.17499E+01
         0.00000E+00
         0.17626E+01
         0.00000E+00
         0.26908E+00
         0.27220E+00
         0.27178E+00
         0.26769E+00
         0.27515E+00
         0.27145E+00
         0.27596E+00
         0.27364E+00
         0.26835E+00
         0.27169E+00
         0.27839E+00
         0.27921E+00
         0.27723E+00
         0.27703E+00
         0.27840E+00
         0.26789E+00
         0.26866E+00
         0.26647E+00
         0.27253E+00
         0.27145E+00
         0.27304E+00
         0.27204E+00
         0.27388E+00
         0.27335E+00
         0.27155E+00
         0.27167E+00
         0.27473E+00
         0.27445E+00
         0.27666E+00
         0.27331E+00
         0.26827E+00
         0.27224E+00
         0.26830E+00
         0.27092E+00
         0.27970E+00
         0.27697E+00
         0.27567E+00
         0.27725E+00
         0.27742E+00
         0.27986E+00
         0.28166E+00
         0.27733E+00
         0.27300E+00
         0.27357E+00
         0.27581E+00
         0.27962E+00
         0.27635E+00
         0.27275E+00
         0.27300E+00
         0.27580E+00
         0.27859E+00
         0.27483E+00
         0.28636E+00
         0.28346E+00
         0.28403E+00
         0.28338E+00
         0.28368E+00
         0.28546E+00
         0.28704E+00
         0.28737E+00
         0.28710E+00
         0.28733E+00
         0.28794E+00
         0.28374E+00
         0.28186E+00
         0.28113E+00
         0.28009E+00
         0.27931E+00
         0.27942E+00
         0.28094E+00
         0.28547E+00
         0.28449E+00
         0.28282E+00
         0.28275E+00
         0.28305E+00
         0.28450E+00
         0.28233E+00
         0.28153E+00
         0.19032E-02
         0.00000E+00
         0.00000E+00
         0.00000E+00
         0.20965E-02
         0.49082E-03
         0.00000E+00
         0.18205E-02
         0.00000E+00
         0.15357E-02
         0.00000E+00
         0.66836E-02
         0.43130E-02
         0.59817E-03
         0.71510E-02
         0.53381E-03
         0.00000E+00
         0.00000E+00
         0.00000E+00
         0.00000E+00
         0.45788E-02
         0.41009E-02
         0.39113E-02
         0.00000E+00
         0.00000E+00
         0.00000E+00
         0.38934E-03
         0.00000E+00
         0.00000E+00
         0.14479E-03
         0.52212E-05
         0.00000E+00
         0.00000E+00
         0.00000E+00
         0.36262E-02
         0.91743E-03
         0.21033E-02
         0.52455E-02
         0.33079E-02
         0.28618E-02
         0.53872E-02
         0.45880E-02
         0.46396E-02
         0.28818E-02
         0.22391E-02
         0.42166E-02
         0.16862E-02
         0.96857E-03
         0.25540E-03
         0.86185E-03
         0.33888E-02
         0.13481E-02
         0.25792E-01
         0.26491E-01
         0.27846E-01
         0.27619E-01
         0.29668E-01
         0.32109E-01
         0.30672E-01
         0.26892E-01
         0.26120E-01
         0.28194E-01
         0.27564E-01
         0.27142E-01
         0.21849E-01
         0.20604E-01
         0.22967E-01
         0.24841E-01
         0.25908E-01
         0.28608E-01
         0.27387E-01
         0.28221E-01
         0.25071E-01
         0.23633E-01
         0.25430E-01
         0.24783E-01
         0.25602E-01
         0.25358E-01
         0.19070E-02
         0.00000E+00
         0.00000E+00
         0.00000E+00
         0.20942E-02
         0.48875E-03
         0.00000E+00
         0.18253E-02
         0.00000E+00
         0.15494E-02
         0.00000E+00
         0.66833E-02
         0.43159E-02
         0.58951E-03
         0.71618E-02
         0.53670E-03
         0.00000E+00
         0.00000E+00
         0.00000E+00
         0.00000E+00
         0.45795E-02
         0.41004E-02
         0.39109E-02
         0.00000E+00
         0.00000E+00
         0.00000E+00
         0.39049E-03
         0.00000E+00
         0.00000E+00
         0.15049E-03
         0.81918E-05
         0.00000E+00
         0.00000E+00
         0.00000E+00
         0.36292E-02
         0.91628E-03
         0.21022E-02
         0.52586E-02
         0.33223E-02
         0.28701E-02
         0.53929E-02
         0.45921E-02
         0.46405E-02
         0.28817E-02
         0.22380E-02
         0.42162E-02
         0.16863E-02
         0.96831E-03
         0.25061E-03
         0.85642E-03
         0.33852E-02
         0.13413E-02
         0.25782E-01
         0.26484E-01
         0.27846E-01
         0.27619E-01
         0.29663E-01
         0.32097E-01
         0.30658E-01
         0.26884E-01
         0.26112E-01
         0.28185E-01
         0.27558E-01
         0.27143E-01
         0.21846E-01
         0.20603E-01
         0.22970E-01
         0.24848E-01
         0.25915E-01
         0.28614E-01
         0.27385E-01
         0.28219E-01
         0.25068E-01
         0.23632E-01
         0.25420E-01
         0.24765E-01
         0.25586E-01
         0.25342E-01
         0.19108E-02
         0.00000E+00
         0.00000E+00
         0.00000E+00
         0.20918E-02
         0.48677E-03
         0.00000E+00
         0.18300E-02
         0.00000E+00
         0.15630E-02
         0.00000E+00
         0.66830E-02
         0.43189E-02
         0.58085E-03
         0.71724E-02
         0.53969E-03
         0.00000E+00
         0.00000E+00
         0.00000E+00
         0.00000E+00
         0.45802E-02
         0.40999E-02
         0.39105E-02
         0.00000E+00
         0.00000E+00
         0.00000E+00
         0.39161E-03
         0.00000E+00
         0.00000E+00
         0.15600E-03
         0.11215E-04
         0.00000E+00
         0.00000E+00
         0.00000E+00
         0.36323E-02
         0.91525E-03
         0.21009E-02
         0.52717E-02
         0.33369E-02
         0.28784E-02
         0.53987E-02
         0.45962E-02
         0.46416E-02
         0.28819E-02
         0.22372E-02
         0.42160E-02
         0.16863E-02
         0.96802E-03
         0.24589E-03
         0.85095E-03
         0.33816E-02
         0.13344E-02
         0.25771E-01
         0.26477E-01
         0.27846E-01
         0.27619E-01
         0.29658E-01
         0.32085E-01
         0.30643E-01
         0.26876E-01
         0.26105E-01
         0.28175E-01
         0.27553E-01
         0.27144E-01
         0.21844E-01
         0.20602E-01
         0.22973E-01
         0.24855E-01
         0.25923E-01
         0.28621E-01
         0.27384E-01
         0.28218E-01
         0.25065E-01
         0.23630E-01
         0.25410E-01
         0.24747E-01
         0.25569E-01
         0.25327E-01
         0.19147E-02
         0.00000E+00
         0.00000E+00
         0.00000E+00
         0.20894E-02
         0.48471E-03
         0.00000E+00
         0.18347E-02
         0.00000E+00
         0.15763E-02
         0.00000E+00
         0.66827E-02
         0.43219E-02
         0.57221E-03
         0.71831E-02
         0.54294E-03
         0.00000E+00
         0.00000E+00
         0.00000E+00
         0.00000E+00
         0.45812E-02
         0.40996E-02
         0.39106E-02
         0.00000E+00
         0.00000E+00
         0.00000E+00
         0.39257E-03
         0.00000E+00
         0.00000E+00
         0.16102E-03
         0.14361E-04
         0.00000E+00
         0.00000E+00
         0.00000E+00
         0.36352E-02
         0.91413E-03
         0.20997E-02
         0.52849E-02
         0.33516E-02
         0.28873E-02
         0.54049E-02
         0.46005E-02
         0.46430E-02
         0.28825E-02
         0.22366E-02
         0.42159E-02
         0.16867E-02
         0.96779E-03
         0.24115E-03
         0.84550E-03
         0.33779E-02
         0.13276E-02
         0.25761E-01
         0.26469E-01
         0.27846E-01
         0.27620E-01
         0.29652E-01
         0.32073E-01
         0.30629E-01
         0.26868E-01
         0.26097E-01
         0.28166E-01
         0.27548E-01
         0.27146E-01
         0.21842E-01
         0.20601E-01
         0.22977E-01
         0.24863E-01
         0.25931E-01
         0.28629E-01
         0.27382E-01
         0.28216E-01
         0.25062E-01
         0.23628E-01
         0.25400E-01
         0.24728E-01
         0.25553E-01
         0.25312E-01
         0.19184E-02
         0.00000E+00
         0.00000E+00
         0.00000E+00
         0.20871E-02
         0.48266E-03
         0.00000E+00
         0.18394E-02
         0.32961E-05
         0.15893E-02
         0.00000E+00
         0.66824E-02
         0.43249E-02
         0.56357E-03
         0.71939E-02
         0.54644E-03
         0.00000E+00
         0.00000E+00
         0.00000E+00
         0.00000E+00
         0.45824E-02
         0.40994E-02
         0.39110E-02
         0.00000E+00
         0.00000E+00
         0.00000E+00
         0.39342E-03
         0.00000E+00
         0.00000E+00
         0.16551E-03
         0.17630E-04
         0.00000E+00
         0.00000E+00
         0.00000E+00
         0.36382E-02
         0.91301E-03
         0.20985E-02
         0.52981E-02
         0.33667E-02
         0.28965E-02
         0.54114E-02
         0.46050E-02
         0.46448E-02
         0.28838E-02
         0.22363E-02
         0.42162E-02
         0.16873E-02
         0.96774E-03
         0.23648E-03
         0.83999E-03
         0.33744E-02
         0.13207E-02
         0.25750E-01
         0.26462E-01
         0.27845E-01
         0.27620E-01
         0.29647E-01
         0.32061E-01
         0.30615E-01
         0.26860E-01
         0.26090E-01
         0.28156E-01
         0.27543E-01
         0.27147E-01
         0.21841E-01
         0.20600E-01
         0.22980E-01
         0.24872E-01
         0.25941E-01
         0.28636E-01
         0.27380E-01
         0.28214E-01
         0.25059E-01
         0.23627E-01
         0.25390E-01
         0.24710E-01
         0.25537E-01
         0.25296E-01
         0.19220E-02
         0.00000E+00
         0.00000E+00
         0.00000E+00
         0.20847E-02
         0.48061E-03
         0.00000E+00
         0.18438E-02
         0.85967E-05
         0.16019E-02
         0.00000E+00
         0.66822E-02
         0.43279E-02
         0.55494E-03
         0.72045E-02
         0.55003E-03
         0.00000E+00
         0.00000E+00
         0.00000E+00
         0.00000E+00
         0.45838E-02
         0.40994E-02
         0.39117E-02
         0.00000E+00
         0.00000E+00
         0.00000E+00
         0.39422E-03
         0.00000E+00
         0.00000E+00
         0.16986E-03
         0.20815E-04
         0.00000E+00
         0.00000E+00
         0.00000E+00
         0.36413E-02
         0.91210E-03
         0.20975E-02
         0.53113E-02
         0.33819E-02
         0.29060E-02
         0.54181E-02
         0.46095E-02
         0.46467E-02
         0.28853E-02
         0.22365E-02
         0.42169E-02
         0.16880E-02
         0.96782E-03
         0.23203E-03
         0.83465E-03
         0.33709E-02
         0.13140E-02
         0.25740E-01
         0.26455E-01
         0.27845E-01
         0.27620E-01
         0.29641E-01
         0.32049E-01
         0.30601E-01
         0.26852E-01
         0.26082E-01
         0.28147E-01
         0.27538E-01
         0.27150E-01
         0.21840E-01
         0.20600E-01
         0.22984E-01
         0.24882E-01
         0.25951E-01
         0.28644E-01
         0.27379E-01
         0.28212E-01
         0.25056E-01
         0.23625E-01
         0.25380E-01
         0.24691E-01
         0.25521E-01
         0.25281E-01
         0.19253E-02
         0.00000E+00
         0.00000E+00
         0.00000E+00
         0.20824E-02
         0.47865E-03
         0.00000E+00
         0.18475E-02
         0.14000E-04
         0.16140E-02
         0.00000E+00
         0.66823E-02
         0.43312E-02
         0.54640E-03
         0.72154E-02
         0.55366E-03
         0.00000E+00
         0.00000E+00
         0.00000E+00
         0.00000E+00
         0.45851E-02
         0.40994E-02
         0.39125E-02
         0.00000E+00
         0.00000E+00
         0.00000E+00
         0.39514E-03
         0.00000E+00
         0.00000E+00
         0.17419E-03
         0.23777E-04
         0.00000E+00
         0.00000E+00
         0.00000E+00
         0.36445E-02
         0.91133E-03
         0.20966E-02
         0.53247E-02
         0.33972E-02
         0.29155E-02
         0.54249E-02
         0.46142E-02
         0.46487E-02
         0.28868E-02
         0.22368E-02
         0.42179E-02
         0.16890E-02
         0.96832E-03
         0.22821E-03
         0.82955E-03
         0.33677E-02
         0.13073E-02
         0.25729E-01
         0.26448E-01
         0.27845E-01
         0.27620E-01
         0.29636E-01
         0.32037E-01
         0.30586E-01
         0.26844E-01
         0.26075E-01
         0.28137E-01
         0.27533E-01
         0.27152E-01
         0.21839E-01
         0.20600E-01
         0.22988E-01
         0.24891E-01
         0.25961E-01
         0.28652E-01
         0.27377E-01
         0.28210E-01
         0.25053E-01
         0.23624E-01
         0.25370E-01
         0.24673E-01
         0.25504E-01
         0.25266E-01
         0.19284E-02
         0.00000E+00
         0.00000E+00
         0.00000E+00
         0.20803E-02
         0.47660E-03
         0.00000E+00
         0.18508E-02
         0.19468E-04
         0.16259E-02
         0.00000E+00
         0.66823E-02
         0.43346E-02
         0.53789E-03
         0.72262E-02
         0.55729E-03
         0.00000E+00
         0.00000E+00
         0.00000E+00
         0.00000E+00
         0.45864E-02
         0.40994E-02
         0.39133E-02
         0.00000E+00
         0.00000E+00
         0.00000E+00
         0.39608E-03
         0.00000E+00
         0.00000E+00
         0.17853E-03
         0.26645E-04
         0.00000E+00
         0.00000E+00
         0.00000E+00
         0.36478E-02
         0.91075E-03
         0.20959E-02
         0.53382E-02
         0.34126E-02
         0.29251E-02
         0.54318E-02
         0.46190E-02
         0.46508E-02
         0.28885E-02
         0.22373E-02
         0.42191E-02
         0.16902E-02
         0.96893E-03
         0.22466E-03
         0.82456E-03
         0.33645E-02
         0.13008E-02
         0.25718E-01
         0.26441E-01
         0.27844E-01
         0.27620E-01
         0.29630E-01
         0.32025E-01
         0.30572E-01
         0.26836E-01
         0.26067E-01
         0.28127E-01
         0.27528E-01
         0.27154E-01
         0.21839E-01
         0.20599E-01
         0.22992E-01
         0.24900E-01
         0.25972E-01
         0.28659E-01
         0.27375E-01
         0.28208E-01
         0.25051E-01
         0.23622E-01
         0.25360E-01
         0.24655E-01
         0.25488E-01
         0.25251E-01
         0.19316E-02
         0.00000E+00
         0.00000E+00
         0.00000E+00
         0.20781E-02
         0.47454E-03
         0.00000E+00
         0.18543E-02
         0.24953E-04
         0.16377E-02
         0.00000E+00
         0.66823E-02
         0.43380E-02
         0.52945E-03
         0.72371E-02
         0.56092E-03
         0.00000E+00
         0.00000E+00
         0.00000E+00
         0.00000E+00
         0.45877E-02
         0.40994E-02
         0.39141E-02
         0.00000E+00
         0.00000E+00
         0.00000E+00
         0.39708E-03
         0.00000E+00
         0.00000E+00
         0.18288E-03
         0.29501E-04
         0.00000E+00
         0.00000E+00
         0.00000E+00
         0.36512E-02
         0.91002E-03
         0.20952E-02
         0.53518E-02
         0.34281E-02
         0.29345E-02
         0.54386E-02
         0.46237E-02
         0.46528E-02
         0.28903E-02
         0.22379E-02
         0.42203E-02
         0.16913E-02
         0.96956E-03
         0.22116E-03
         0.81963E-03
         0.33615E-02
         0.12941E-02
         0.25708E-01
         0.26434E-01
         0.27844E-01
         0.27620E-01
         0.29625E-01
         0.32013E-01
         0.30557E-01
         0.26828E-01
         0.26060E-01
         0.28117E-01
         0.27523E-01
         0.27156E-01
         0.21838E-01
         0.20599E-01
         0.22996E-01
         0.24910E-01
         0.25982E-01
         0.28667E-01
         0.27372E-01
         0.28206E-01
         0.25048E-01
         0.23621E-01
         0.25351E-01
         0.24636E-01
         0.25472E-01
         0.25235E-01
         0.19347E-02
         0.00000E+00
         0.00000E+00
         0.00000E+00
         0.20758E-02
         0.47250E-03
         0.00000E+00
         0.18577E-02
         0.30433E-04
         0.16495E-02
         0.00000E+00
         0.66824E-02
         0.43414E-02
         0.52100E-03
         0.72480E-02
         0.56453E-03
         0.00000E+00
         0.00000E+00
         0.00000E+00
         0.00000E+00
         0.45891E-02
         0.40994E-02
         0.39147E-02
         0.00000E+00
         0.00000E+00
         0.00000E+00
         0.39808E-03
         0.00000E+00
         0.00000E+00
         0.18721E-03
         0.32342E-04
         0.00000E+00
         0.00000E+00
         0.00000E+00
         0.36544E-02
         0.90946E-03
         0.20945E-02
         0.53653E-02
         0.34435E-02
         0.29441E-02
         0.54454E-02
         0.46284E-02
         0.46548E-02
         0.28920E-02
         0.22385E-02
         0.42214E-02
         0.16925E-02
         0.97027E-03
         0.21761E-03
         0.81460E-03
         0.33584E-02
         0.12875E-02
         0.25697E-01
         0.26427E-01
         0.27844E-01
         0.27621E-01
         0.29619E-01
         0.32001E-01
         0.30543E-01
         0.26819E-01
         0.26053E-01
         0.28108E-01
         0.27518E-01
         0.27158E-01
         0.21837E-01
         0.20598E-01
         0.23000E-01
         0.24919E-01
         0.25992E-01
         0.28674E-01
         0.27370E-01
         0.28204E-01
         0.25046E-01
         0.23620E-01
         0.25341E-01
         0.24618E-01
         0.25456E-01
         0.25220E-01
         0.19378E-02
         0.00000E+00
         0.00000E+00
         0.00000E+00
         0.20737E-02
         0.47053E-03
         0.00000E+00
         0.18610E-02
         0.35929E-04
         0.16614E-02
         0.00000E+00
         0.66824E-02
         0.43448E-02
         0.51258E-03
         0.72589E-02
         0.56815E-03
         0.00000E+00
         0.00000E+00
         0.00000E+00
         0.00000E+00
         0.45903E-02
         0.40994E-02
         0.39155E-02
         0.00000E+00
         0.11205E-04
         0.00000E+00
         0.39912E-03
         0.00000E+00
         0.00000E+00
         0.19153E-03
         0.35191E-04
         0.00000E+00
         0.00000E+00
         0.00000E+00
         0.36578E-02
         0.90879E-03
         0.20938E-02
         0.53789E-02
         0.34590E-02
         0.29535E-02
         0.54522E-02
         0.46331E-02
         0.46568E-02
         0.28936E-02
         0.22390E-02
         0.42226E-02
         0.16937E-02
         0.97090E-03
         0.21411E-03
         0.80963E-03
         0.33554E-02
         0.12810E-02
         0.25686E-01
         0.26420E-01
         0.27843E-01
         0.27621E-01
         0.29614E-01
         0.31989E-01
         0.30528E-01
         0.26811E-01
         0.26045E-01
         0.28098E-01
         0.27513E-01
         0.27160E-01
         0.21836E-01
         0.20598E-01
         0.23004E-01
         0.24929E-01
         0.26002E-01
         0.28682E-01
         0.27368E-01
         0.28202E-01
         0.25043E-01
         0.23619E-01
         0.25331E-01
         0.24600E-01
         0.25440E-01
         0.25205E-01
         0.19409E-02
         0.00000E+00
         0.00000E+00
         0.00000E+00
         0.20715E-02
         0.46849E-03
         0.00000E+00
         0.18644E-02
         0.41437E-04
         0.16732E-02
         0.00000E+00
         0.66824E-02
         0.43481E-02
         0.50419E-03
         0.72697E-02
         0.57177E-03
         0.00000E+00
         0.00000E+00
         0.00000E+00
         0.00000E+00
         0.45916E-02
         0.40994E-02
         0.39163E-02
         0.00000E+00
         0.22480E-04
         0.00000E+00
         0.40013E-03
         0.00000E+00
         0.00000E+00
         0.19586E-03
         0.38053E-04
         0.00000E+00
         0.00000E+00
         0.00000E+00
         0.36612E-02
         0.90815E-03
         0.20931E-02
         0.53924E-02
         0.34745E-02
         0.29631E-02
         0.54591E-02
         0.46378E-02
         0.46589E-02
         0.28953E-02
         0.22395E-02
         0.42239E-02
         0.16948E-02
         0.97162E-03
         0.21061E-03
         0.80470E-03
         0.33523E-02
         0.12744E-02
         0.25676E-01
         0.26413E-01
         0.27843E-01
         0.27621E-01
         0.29608E-01
         0.31977E-01
         0.30514E-01
         0.26803E-01
         0.26038E-01
         0.28088E-01
         0.27508E-01
         0.27162E-01
         0.21835E-01
         0.20597E-01
         0.23008E-01
         0.24938E-01
         0.26012E-01
         0.28689E-01
         0.27366E-01
         0.28200E-01
         0.25041E-01
         0.23617E-01
         0.25321E-01
         0.24581E-01
         0.25424E-01
         0.25190E-01
         0.19440E-02
         0.00000E+00
         0.00000E+00
         0.00000E+00
         0.20693E-02
         0.46646E-03
         0.00000E+00
         0.18678E-02
         0.46932E-04
         0.16849E-02
         0.00000E+00
         0.66825E-02
         0.43516E-02
         0.49575E-03
         0.72807E-02
         0.57537E-03
         0.00000E+00
         0.00000E+00
         0.00000E+00
         0.00000E+00
         0.45930E-02
         0.40994E-02
         0.39170E-02
         0.00000E+00
         0.33722E-04
         0.00000E+00
         0.40113E-03
         0.00000E+00
         0.00000E+00
         0.20015E-03
         0.40900E-04
         0.00000E+00
         0.00000E+00
         0.00000E+00
         0.36644E-02
         0.90762E-03
         0.20924E-02
         0.54059E-02
         0.34900E-02
         0.29726E-02
         0.54660E-02
         0.46425E-02
         0.46609E-02
         0.28970E-02
         0.22402E-02
         0.42249E-02
         0.16961E-02
         0.97228E-03
         0.20714E-03
         0.79974E-03
         0.33491E-02
         0.12677E-02
         0.25665E-01
         0.26406E-01
         0.27842E-01
         0.27621E-01
         0.29603E-01
         0.31965E-01
         0.30499E-01
         0.26795E-01
         0.26031E-01
         0.28078E-01
         0.27503E-01
         0.27164E-01
         0.21834E-01
         0.20597E-01
         0.23012E-01
         0.24947E-01
         0.26022E-01
         0.28697E-01
         0.27364E-01
         0.28198E-01
         0.25038E-01
         0.23616E-01
         0.25311E-01
         0.24563E-01
         0.25408E-01
         0.25175E-01
         0.19471E-02
         0.00000E+00
         0.00000E+00
         0.00000E+00
         0.20671E-02
         0.46441E-03
         0.00000E+00
         0.18711E-02
         0.52434E-04
         0.16967E-02
         0.00000E+00
         0.66826E-02
         0.43550E-02
         0.48736E-03
         0.72916E-02
         0.57896E-03
         0.00000E+00
         0.00000E+00
         0.00000E+00
         0.00000E+00
         0.45943E-02
         0.40994E-02
         0.39178E-02
         0.00000E+00
         0.44982E-04
         0.00000E+00
         0.40208E-03
         0.00000E+00
         0.00000E+00
         0.20444E-03
         0.43732E-04
         0.00000E+00
         0.00000E+00
         0.00000E+00
         0.36679E-02
         0.90698E-03
         0.20917E-02
         0.54195E-02
         0.35055E-02
         0.29820E-02
         0.54728E-02
         0.46471E-02
         0.46629E-02
         0.28987E-02
         0.22407E-02
         0.42261E-02
         0.16973E-02
         0.97292E-03
         0.20359E-03
         0.79478E-03
         0.33461E-02
         0.12612E-02
         0.25655E-01
         0.26399E-01
         0.27842E-01
         0.27621E-01
         0.29598E-01
         0.31953E-01
         0.30485E-01
         0.26787E-01
         0.26023E-01
         0.28068E-01
         0.27498E-01
         0.27166E-01
         0.21833E-01
         0.20596E-01
         0.23016E-01
         0.24957E-01
         0.26032E-01
         0.28704E-01
         0.27362E-01
         0.28196E-01
         0.25036E-01
         0.23615E-01
         0.25300E-01
         0.24545E-01
         0.25392E-01
         0.25159E-01
         0.19502E-02
         0.00000E+00
         0.00000E+00
         0.00000E+00
         0.20649E-02
         0.46237E-03
         0.00000E+00
         0.18745E-02
         0.57959E-04
         0.17085E-02
         0.00000E+00
         0.66827E-02
         0.43584E-02
         0.47895E-03
         0.73025E-02
         0.58257E-03
         0.00000E+00
         0.00000E+00
         0.00000E+00
         0.00000E+00
         0.45957E-02
         0.40994E-02
         0.39185E-02
         0.00000E+00
         0.56244E-04
         0.00000E+00
         0.40307E-03
         0.00000E+00
         0.00000E+00
         0.20873E-03
         0.46571E-04
         0.00000E+00
         0.00000E+00
         0.00000E+00
         0.36711E-02
         0.90645E-03
         0.20910E-02
         0.54331E-02
         0.35211E-02
         0.29915E-02
         0.54796E-02
         0.46518E-02
         0.46649E-02
         0.29004E-02
         0.22412E-02
         0.42273E-02
         0.16984E-02
         0.97364E-03
         0.20008E-03
         0.78977E-03
         0.33430E-02
         0.12546E-02
         0.25644E-01
         0.26392E-01
         0.27841E-01
         0.27621E-01
         0.29592E-01
         0.31940E-01
         0.30470E-01
         0.26778E-01
         0.26016E-01
         0.28058E-01
         0.27493E-01
         0.27168E-01
         0.21832E-01
         0.20596E-01
         0.23020E-01
         0.24966E-01
         0.26042E-01
         0.28711E-01
         0.27360E-01
         0.28194E-01
         0.25033E-01
         0.23614E-01
         0.25290E-01
         0.24526E-01
         0.25376E-01
         0.25144E-01
         0.19532E-02
         0.00000E+00
         0.00000E+00
         0.00000E+00
         0.20627E-02
         0.46043E-03
         0.00000E+00
         0.18779E-02
         0.63504E-04
         0.17202E-02
         0.00000E+00
         0.66827E-02
         0.43618E-02
         0.47058E-03
         0.73134E-02
         0.58618E-03
         0.00000E+00
         0.00000E+00
         0.00000E+00
         0.00000E+00
         0.45970E-02
         0.40993E-02
         0.39193E-02
         0.00000E+00
         0.67476E-04
         0.00000E+00
         0.40405E-03
         0.00000E+00
         0.00000E+00
         0.21302E-03
         0.49412E-04
         0.00000E+00
         0.00000E+00
         0.00000E+00
         0.36746E-02
         0.90582E-03
         0.20903E-02
         0.54467E-02
         0.35366E-02
         0.30008E-02
         0.54864E-02
         0.46565E-02
         0.46669E-02
         0.29020E-02
         0.22419E-02
         0.42285E-02
         0.16996E-02
         0.97428E-03
         0.19662E-03
         0.78482E-03
         0.33399E-02
         0.12480E-02
         0.25633E-01
         0.26385E-01
         0.27841E-01
         0.27621E-01
         0.29587E-01
         0.31928E-01
         0.30455E-01
         0.26770E-01
         0.26009E-01
         0.28048E-01
         0.27488E-01
         0.27170E-01
         0.21831E-01
         0.20595E-01
         0.23024E-01
         0.24976E-01
         0.26053E-01
         0.28719E-01
         0.27358E-01
         0.28193E-01
         0.25031E-01
         0.23612E-01
         0.25280E-01
         0.24508E-01
         0.25360E-01
         0.25129E-01
         0.19563E-02
         0.00000E+00
         0.00000E+00
         0.00000E+00
         0.20606E-02
         0.45839E-03
         0.00000E+00
         0.18813E-02
         0.69058E-04
         0.17320E-02
         0.00000E+00
         0.66828E-02
         0.43652E-02
         0.46217E-03
         0.73243E-02
         0.58981E-03
         0.00000E+00
         0.00000E+00
         0.00000E+00
         0.00000E+00
         0.45983E-02
         0.40993E-02
         0.39201E-02
         0.00000E+00
         0.78683E-04
         0.00000E+00
         0.40496E-03
         0.00000E+00
         0.00000E+00
         0.21721E-03
         0.52264E-04
         0.00000E+00
         0.00000E+00
         0.00000E+00
         0.36780E-02
         0.90519E-03
         0.20895E-02
         0.54603E-02
         0.35521E-02
         0.30102E-02
         0.54931E-02
         0.46611E-02
         0.46689E-02
         0.29037E-02
         0.22424E-02
         0.42297E-02
         0.17008E-02
         0.97502E-03
         0.19316E-03
         0.77984E-03
         0.33368E-02
         0.12415E-02
         0.25623E-01
         0.26378E-01
         0.27840E-01
         0.27621E-01
         0.29581E-01
         0.31916E-01
         0.30440E-01
         0.26762E-01
         0.26001E-01
         0.28038E-01
         0.27483E-01
         0.27172E-01
         0.21830E-01
         0.20595E-01
         0.23028E-01
         0.24985E-01
         0.26063E-01
         0.28726E-01
         0.27356E-01
         0.28191E-01
         0.25028E-01
         0.23611E-01
         0.25270E-01
         0.24490E-01
         0.25344E-01
         0.25114E-01
         0.19593E-02
         0.00000E+00
         0.00000E+00
         0.00000E+00
         0.20584E-02
         0.45636E-03
         0.00000E+00
         0.18846E-02
         0.74624E-04
         0.17436E-02
         0.00000E+00
         0.66829E-02
         0.43685E-02
         0.45374E-03
         0.73351E-02
         0.59341E-03
         0.00000E+00
         0.00000E+00
         0.00000E+00
         0.00000E+00
         0.45996E-02
         0.40992E-02
         0.39209E-02
         0.00000E+00
         0.89856E-04
         0.00000E+00
         0.40557E-03
         0.00000E+00
         0.00000E+00
         0.22123E-03
         0.55114E-04
         0.00000E+00
         0.00000E+00
         0.00000E+00
         0.36813E-02
         0.90468E-03
         0.20889E-02
         0.54740E-02
         0.35677E-02
         0.30191E-02
         0.54994E-02
         0.46653E-02
         0.46706E-02
         0.29055E-02
         0.22430E-02
         0.42309E-02
         0.17020E-02
         0.97570E-03
         0.18964E-03
         0.77488E-03
         0.33338E-02
         0.12349E-02
         0.25612E-01
         0.26371E-01
         0.27840E-01
         0.27622E-01
         0.29576E-01
         0.31904E-01
         0.30426E-01
         0.26754E-01
         0.25994E-01
         0.28027E-01
         0.27478E-01
         0.27175E-01
         0.21830E-01
         0.20595E-01
         0.23032E-01
         0.24994E-01
         0.26073E-01
         0.28734E-01
         0.27354E-01
         0.28189E-01
         0.25026E-01
         0.23610E-01
         0.25260E-01
         0.24472E-01
         0.25328E-01
         0.25099E-01
         0.19624E-02
         0.00000E+00
         0.00000E+00
         0.00000E+00
         0.20562E-02
         0.45431E-03
         0.00000E+00
         0.18879E-02
         0.80219E-04
         0.17551E-02
         0.00000E+00
         0.66830E-02
         0.43720E-02
         0.44525E-03
         0.73460E-02
         0.59699E-03
         0.00000E+00
         0.00000E+00
         0.00000E+00
         0.00000E+00
         0.46010E-02
         0.40990E-02
         0.39217E-02
         0.00000E+00
         0.10098E-03
         0.00000E+00
         0.40595E-03
         0.00000E+00
         0.00000E+00
         0.22502E-03
         0.57947E-04
         0.00000E+00
         0.00000E+00
         0.00000E+00
         0.36847E-02
         0.90407E-03
         0.20882E-02
         0.54878E-02
         0.35831E-02
         0.30279E-02
         0.55053E-02
         0.46691E-02
         0.46722E-02
         0.29071E-02
         0.22437E-02
         0.42322E-02
         0.17032E-02
         0.97637E-03
         0.18619E-03
         0.76986E-03
         0.33306E-02
         0.12282E-02
         0.25601E-01
         0.26364E-01
         0.27839E-01
         0.27622E-01
         0.29570E-01
         0.31892E-01
         0.30411E-01
         0.26745E-01
         0.25986E-01
         0.28016E-01
         0.27473E-01
         0.27179E-01
         0.21830E-01
         0.20594E-01
         0.23036E-01
         0.25004E-01
         0.26083E-01
         0.28741E-01
         0.27352E-01
         0.28187E-01
         0.25023E-01
         0.23609E-01
         0.25250E-01
         0.24453E-01
         0.25312E-01
         0.25083E-01
         0.19655E-02
         0.00000E+00
         0.00000E+00
         0.00000E+00
         0.20542E-02
         0.45238E-03
         0.00000E+00
         0.18912E-02
         0.85844E-04
         0.17666E-02
         0.00000E+00
         0.66831E-02
         0.43754E-02
         0.43675E-03
         0.73568E-02
         0.60060E-03
         0.00000E+00
         0.00000E+00
         0.00000E+00
         0.00000E+00
         0.46023E-02
         0.40989E-02
         0.39223E-02
         0.00000E+00
         0.11208E-03
         0.00000E+00
         0.40626E-03
         0.00000E+00
         0.00000E+00
         0.22874E-03
         0.60825E-04
         0.00000E+00
         0.00000E+00
         0.00000E+00
         0.36882E-02
         0.90354E-03
         0.20874E-02
         0.55015E-02
         0.35985E-02
         0.30363E-02
         0.55111E-02
         0.46727E-02
         0.46738E-02
         0.29088E-02
         0.22442E-02
         0.42334E-02
         0.17044E-02
         0.97712E-03
         0.18274E-03
         0.76491E-03
         0.33277E-02
         0.12217E-02
         0.25591E-01
         0.26357E-01
         0.27839E-01
         0.27622E-01
         0.29565E-01
         0.31879E-01
         0.30396E-01
         0.26737E-01
         0.25979E-01
         0.28005E-01
         0.27468E-01
         0.27183E-01
         0.21830E-01
         0.20594E-01
         0.23040E-01
         0.25013E-01
         0.26093E-01
         0.28748E-01
         0.27350E-01
         0.28185E-01
         0.25020E-01
         0.23607E-01
         0.25240E-01
         0.24435E-01
         0.25296E-01
         0.25068E-01
         0.21960E-02
         0.28238E-03
         0.14955E-03
         0.00000E+00
         0.23616E-02
         0.82167E-03
         0.00000E+00
         0.21835E-02
         0.41193E-03
         0.20731E-02
         0.00000E+00
         0.69510E-02
         0.46471E-02
         0.90886E-03
         0.76363E-02
         0.87383E-03
         0.00000E+00
         0.00000E+00
         0.00000E+00
         0.00000E+00
         0.48293E-02
         0.43405E-02
         0.41464E-02
         0.00000E+00
         0.53917E-03
         0.00000E+00
         0.87775E-03
         0.00000E+00
         0.00000E+00
         0.66468E-03
         0.37674E-03
         0.00000E+00
         0.00000E+00
         0.00000E+00
         0.39912E-02
         0.12788E-02
         0.23919E-02
         0.57949E-02
         0.39292E-02
         0.33747E-02
         0.57867E-02
         0.49392E-02
         0.49147E-02
         0.31482E-02
         0.25268E-02
         0.45182E-02
         0.20377E-02
         0.13121E-02
         0.56322E-03
         0.11214E-02
         0.36135E-02
         0.15512E-02
         0.25903E-01
         0.26660E-01
         0.28153E-01
         0.27924E-01
         0.29872E-01
         0.32198E-01
         0.30719E-01
         0.27070E-01
         0.26318E-01
         0.28348E-01
         0.27803E-01
         0.27499E-01
         0.22107E-01
         0.20853E-01
         0.23299E-01
         0.25279E-01
         0.26361E-01
         0.29042E-01
         0.27669E-01
         0.28504E-01
         0.25310E-01
         0.23887E-01
         0.25521E-01
         0.24708E-01
         0.25565E-01
         0.25338E-01
         0.14466E-01
         0.14072E-01
         0.13786E-01
         0.12145E-01
         0.16648E-01
         0.14868E-01
         0.14955E-01
         0.16403E-01
         0.13114E-01
         0.16322E-01
         0.16767E-01
         0.22836E-01
         0.19529E-01
         0.17694E-01
         0.24041E-01
         0.13078E-01
         0.13454E-01
         0.11279E-01
         0.14108E-01
         0.14661E-01
         0.18268E-01
         0.18305E-01
         0.17167E-01
         0.13313E-01
         0.15746E-01
         0.12601E-01
         0.17629E-01
         0.16645E-01
         0.16830E-01
         0.16391E-01
         0.12969E-01
         0.13204E-01
         0.12241E-01
         0.12852E-01
         0.19082E-01
         0.16173E-01
         0.16822E-01
         0.22196E-01
         0.20490E-01
         0.19928E-01
         0.21845E-01
         0.20354E-01
         0.19409E-01
         0.16141E-01
         0.16339E-01
         0.19386E-01
         0.16664E-01
         0.15321E-01
         0.14657E-01
         0.15482E-01
         0.18164E-01
         0.15731E-01
         0.44762E-01
         0.44942E-01
         0.46810E-01
         0.46085E-01
         0.48546E-01
         0.51919E-01
         0.51116E-01
         0.47698E-01
         0.47060E-01
         0.49341E-01
         0.48228E-01
         0.46650E-01
         0.39609E-01
         0.37479E-01
         0.39633E-01
         0.41513E-01
         0.42673E-01
         0.46539E-01
         0.46406E-01
         0.47335E-01
         0.43064E-01
         0.41229E-01
         0.43314E-01
         0.42478E-01
         0.43037E-01
         0.42660E-01
  
SCALARS                            dam  double 1
LOOKUP_TABLE default
         0.00000E+00
         0.00000E+00
         0.00000E+00
         0.00000E+00
         0.00000E+00
         0.00000E+00
         0.00000E+00
         0.00000E+00
         0.00000E+00
         0.00000E+00
         0.00000E+00
         0.00000E+00
         0.00000E+00
         0.00000E+00
         0.00000E+00
         0.00000E+00
         0.00000E+00
         0.00000E+00
         0.00000E+00
         0.00000E+00
         0.00000E+00
         0.00000E+00
         0.00000E+00
         0.00000E+00
         0.00000E+00
         0.00000E+00
         0.00000E+00
         0.00000E+00
         0.00000E+00
         0.00000E+00
         0.00000E+00
         0.00000E+00
         0.00000E+00
         0.00000E+00
         0.00000E+00
         0.00000E+00
         0.00000E+00
         0.00000E+00
         0.00000E+00
         0.00000E+00
         0.00000E+00
         0.00000E+00
         0.00000E+00
         0.00000E+00
         0.00000E+00
         0.00000E+00
         0.00000E+00
         0.00000E+00
         0.00000E+00
         0.00000E+00
         0.00000E+00
         0.00000E+00
         0.00000E+00
         0.00000E+00
         0.00000E+00
         0.00000E+00
         0.00000E+00
         0.00000E+00
         0.00000E+00
         0.00000E+00
         0.00000E+00
         0.00000E+00
         0.00000E+00
         0.00000E+00
         0.00000E+00
         0.00000E+00
         0.00000E+00
         0.00000E+00
         0.00000E+00
         0.00000E+00
         0.00000E+00
         0.00000E+00
         0.00000E+00
         0.00000E+00
         0.00000E+00
         0.00000E+00
         0.00000E+00
         0.00000E+00
         0.00000E+00
         0.00000E+00
         0.00000E+00
         0.00000E+00
         0.00000E+00
         0.00000E+00
         0.00000E+00
         0.00000E+00
         0.00000E+00
         0.00000E+00
         0.00000E+00
         0.00000E+00
         0.00000E+00
         0.00000E+00
         0.00000E+00
         0.00000E+00
         0.00000E+00
         0.00000E+00
         0.00000E+00
         0.00000E+00
         0.00000E+00
         0.00000E+00
         0.00000E+00
         0.00000E+00
         0.00000E+00
         0.00000E+00
         0.00000E+00
         0.00000E+00
         0.00000E+00
         0.00000E+00
         0.00000E+00
         0.00000E+00
         0.00000E+00
         0.00000E+00
         0.00000E+00
         0.00000E+00
         0.00000E+00
         0.00000E+00
         0.00000E+00
         0.00000E+00
         0.00000E+00
         0.00000E+00
         0.00000E+00
         0.00000E+00
         0.00000E+00
         0.00000E+00
         0.00000E+00
         0.00000E+00
         0.00000E+00
         0.00000E+00
         0.00000E+00
         0.00000E+00
         0.00000E+00
         0.00000E+00
         0.00000E+00
         0.00000E+00
         0.00000E+00
         0.00000E+00
         0.00000E+00
         0.00000E+00
         0.00000E+00
         0.00000E+00
         0.00000E+00
         0.00000E+00
         0.00000E+00
         0.00000E+00
         0.00000E+00
         0.00000E+00
         0.00000E+00
         0.00000E+00
         0.00000E+00
         0.00000E+00
         0.00000E+00
         0.00000E+00
         0.00000E+00
         0.00000E+00
         0.00000E+00
         0.00000E+00
         0.00000E+00
         0.00000E+00
         0.00000E+00
         0.00000E+00
         0.00000E+00
         0.00000E+00
         0.00000E+00
         0.00000E+00
         0.00000E+00
         0.00000E+00
         0.00000E+00
         0.00000E+00
         0.00000E+00
         0.00000E+00
         0.00000E+00
         0.00000E+00
         0.00000E+00
         0.00000E+00
         0.00000E+00
         0.00000E+00
         0.00000E+00
         0.00000E+00
         0.00000E+00
         0.00000E+00
         0.00000E+00
         0.00000E+00
         0.00000E+00
         0.00000E+00
         0.00000E+00
         0.00000E+00
         0.00000E+00
         0.00000E+00
         0.00000E+00
         0.00000E+00
         0.00000E+00
         0.00000E+00
         0.00000E+00
         0.00000E+00
         0.00000E+00
         0.00000E+00
         0.00000E+00
         0.00000E+00
         0.00000E+00
         0.00000E+00
         0.00000E+00
         0.00000E+00
         0.00000E+00
         0.00000E+00
         0.00000E+00
         0.00000E+00
         0.00000E+00
         0.00000E+00
         0.00000E+00
         0.00000E+00
         0.00000E+00
         0.00000E+00
         0.00000E+00
         0.00000E+00
         0.00000E+00
         0.00000E+00
         0.00000E+00
         0.00000E+00
         0.00000E+00
         0.00000E+00
         0.00000E+00
         0.00000E+00
         0.00000E+00
         0.00000E+00
         0.00000E+00
         0.00000E+00
         0.00000E+00
         0.00000E+00
         0.00000E+00
         0.00000E+00
         0.00000E+00
         0.00000E+00
         0.00000E+00
         0.00000E+00
         0.00000E+00
         0.00000E+00
         0.00000E+00
         0.00000E+00
         0.00000E+00
         0.00000E+00
         0.00000E+00
         0.00000E+00
         0.00000E+00
         0.00000E+00
         0.00000E+00
         0.00000E+00
         0.00000E+00
         0.00000E+00
         0.00000E+00
         0.00000E+00
         0.00000E+00
         0.00000E+00
         0.00000E+00
         0.00000E+00
         0.00000E+00
         0.00000E+00
         0.00000E+00
         0.00000E+00
         0.00000E+00
         0.00000E+00
         0.00000E+00
         0.00000E+00
         0.00000E+00
         0.00000E+00
         0.00000E+00
         0.00000E+00
         0.00000E+00
         0.00000E+00
         0.00000E+00
         0.00000E+00
         0.00000E+00
         0.00000E+00
         0.00000E+00
         0.00000E+00
         0.00000E+00
         0.00000E+00
         0.00000E+00
         0.00000E+00
         0.00000E+00
         0.00000E+00
         0.00000E+00
         0.00000E+00
         0.00000E+00
         0.00000E+00
         0.00000E+00
         0.00000E+00
         0.00000E+00
         0.00000E+00
         0.00000E+00
         0.00000E+00
         0.00000E+00
         0.00000E+00
         0.00000E+00
         0.00000E+00
         0.00000E+00
         0.00000E+00
         0.00000E+00
         0.00000E+00
         0.00000E+00
         0.00000E+00
         0.00000E+00
         0.00000E+00
         0.00000E+00
         0.00000E+00
         0.00000E+00
         0.00000E+00
         0.00000E+00
         0.00000E+00
         0.00000E+00
         0.00000E+00
         0.00000E+00
         0.00000E+00
         0.00000E+00
         0.00000E+00
         0.00000E+00
         0.00000E+00
         0.00000E+00
         0.00000E+00
         0.00000E+00
         0.00000E+00
         0.00000E+00
         0.00000E+00
         0.00000E+00
         0.00000E+00
         0.00000E+00
         0.00000E+00
         0.00000E+00
         0.00000E+00
         0.00000E+00
         0.00000E+00
         0.00000E+00
         0.00000E+00
         0.00000E+00
         0.00000E+00
         0.00000E+00
         0.00000E+00
         0.00000E+00
         0.00000E+00
         0.00000E+00
         0.00000E+00
         0.00000E+00
         0.00000E+00
         0.00000E+00
         0.00000E+00
         0.00000E+00
         0.00000E+00
         0.00000E+00
         0.00000E+00
         0.00000E+00
         0.00000E+00
         0.00000E+00
         0.00000E+00
         0.00000E+00
         0.00000E+00
         0.00000E+00
         0.00000E+00
         0.00000E+00
         0.00000E+00
         0.00000E+00
         0.00000E+00
         0.00000E+00
         0.00000E+00
         0.00000E+00
         0.00000E+00
         0.00000E+00
         0.00000E+00
         0.00000E+00
         0.00000E+00
         0.00000E+00
         0.00000E+00
         0.00000E+00
         0.00000E+00
         0.00000E+00
         0.00000E+00
         0.00000E+00
         0.00000E+00
         0.00000E+00
         0.00000E+00
         0.00000E+00
         0.00000E+00
         0.00000E+00
         0.00000E+00
         0.00000E+00
         0.00000E+00
         0.00000E+00
         0.00000E+00
         0.00000E+00
         0.00000E+00
         0.00000E+00
         0.00000E+00
         0.00000E+00
         0.00000E+00
         0.00000E+00
         0.00000E+00
         0.00000E+00
         0.00000E+00
         0.00000E+00
         0.00000E+00
         0.00000E+00
         0.00000E+00
         0.00000E+00
         0.00000E+00
         0.00000E+00
         0.00000E+00
         0.00000E+00
         0.00000E+00
         0.00000E+00
         0.00000E+00
         0.00000E+00
         0.00000E+00
         0.00000E+00
         0.00000E+00
         0.00000E+00
         0.00000E+00
         0.00000E+00
         0.00000E+00
         0.00000E+00
         0.00000E+00
         0.00000E+00
         0.00000E+00
         0.00000E+00
         0.00000E+00
         0.00000E+00
         0.00000E+00
         0.00000E+00
         0.00000E+00
         0.00000E+00
         0.00000E+00
         0.00000E+00
         0.00000E+00
         0.00000E+00
         0.00000E+00
         0.00000E+00
         0.00000E+00
         0.00000E+00
         0.00000E+00
         0.00000E+00
         0.00000E+00
         0.00000E+00
         0.00000E+00
         0.00000E+00
         0.00000E+00
         0.00000E+00
         0.00000E+00
         0.00000E+00
         0.00000E+00
         0.00000E+00
         0.00000E+00
         0.00000E+00
         0.00000E+00
         0.00000E+00
         0.00000E+00
         0.00000E+00
         0.00000E+00
         0.00000E+00
         0.00000E+00
         0.00000E+00
         0.00000E+00
         0.00000E+00
         0.00000E+00
         0.00000E+00
         0.00000E+00
         0.00000E+00
         0.00000E+00
         0.00000E+00
         0.00000E+00
         0.00000E+00
         0.00000E+00
         0.00000E+00
         0.00000E+00
         0.00000E+00
         0.00000E+00
         0.00000E+00
         0.00000E+00
         0.00000E+00
         0.00000E+00
         0.00000E+00
         0.00000E+00
         0.00000E+00
         0.00000E+00
         0.00000E+00
         0.00000E+00
         0.00000E+00
         0.00000E+00
         0.00000E+00
         0.00000E+00
         0.00000E+00
         0.00000E+00
         0.00000E+00
         0.00000E+00
         0.00000E+00
         0.00000E+00
         0.00000E+00
         0.00000E+00
         0.00000E+00
         0.00000E+00
         0.00000E+00
         0.00000E+00
         0.00000E+00
         0.00000E+00
         0.00000E+00
         0.00000E+00
         0.00000E+00
         0.00000E+00
         0.00000E+00
         0.00000E+00
         0.00000E+00
         0.00000E+00
         0.00000E+00
         0.00000E+00
         0.00000E+00
         0.00000E+00
         0.00000E+00
         0.00000E+00
         0.00000E+00
         0.00000E+00
         0.00000E+00
         0.00000E+00
         0.00000E+00
         0.00000E+00
         0.00000E+00
         0.00000E+00
         0.00000E+00
         0.00000E+00
         0.00000E+00
         0.00000E+00
         0.00000E+00
         0.00000E+00
         0.00000E+00
         0.00000E+00
         0.00000E+00
         0.00000E+00
         0.00000E+00
         0.00000E+00
         0.00000E+00
         0.00000E+00
         0.00000E+00
         0.00000E+00
         0.00000E+00
         0.00000E+00
         0.00000E+00
         0.00000E+00
         0.00000E+00
         0.00000E+00
         0.00000E+00
         0.00000E+00
         0.00000E+00
         0.00000E+00
         0.00000E+00
         0.00000E+00
         0.00000E+00
         0.00000E+00
         0.00000E+00
         0.00000E+00
         0.00000E+00
         0.00000E+00
         0.00000E+00
         0.00000E+00
         0.00000E+00
         0.00000E+00
         0.00000E+00
         0.00000E+00
         0.00000E+00
         0.00000E+00
         0.00000E+00
         0.00000E+00
         0.00000E+00
         0.00000E+00
         0.00000E+00
         0.00000E+00
         0.00000E+00
         0.00000E+00
         0.00000E+00
         0.00000E+00
         0.00000E+00
         0.00000E+00
         0.00000E+00
         0.00000E+00
         0.00000E+00
         0.00000E+00
         0.00000E+00
         0.00000E+00
         0.00000E+00
         0.00000E+00
         0.00000E+00
         0.00000E+00
         0.00000E+00
         0.00000E+00
         0.00000E+00
         0.00000E+00
         0.00000E+00
         0.00000E+00
         0.00000E+00
         0.00000E+00
         0.00000E+00
         0.00000E+00
         0.00000E+00
         0.00000E+00
         0.00000E+00
         0.00000E+00
         0.00000E+00
         0.00000E+00
         0.00000E+00
         0.00000E+00
         0.00000E+00
         0.00000E+00
         0.00000E+00
         0.00000E+00
         0.00000E+00
         0.00000E+00
         0.00000E+00
         0.00000E+00
         0.00000E+00
         0.00000E+00
         0.00000E+00
         0.00000E+00
         0.00000E+00
         0.00000E+00
         0.00000E+00
         0.00000E+00
         0.00000E+00
         0.00000E+00
         0.00000E+00
         0.00000E+00
         0.00000E+00
         0.00000E+00
         0.00000E+00
         0.00000E+00
         0.00000E+00
         0.00000E+00
         0.00000E+00
         0.00000E+00
         0.00000E+00
         0.00000E+00
         0.00000E+00
         0.00000E+00
         0.00000E+00
         0.00000E+00
         0.00000E+00
         0.00000E+00
         0.00000E+00
         0.00000E+00
         0.00000E+00
         0.00000E+00
         0.00000E+00
         0.00000E+00
         0.00000E+00
         0.00000E+00
         0.00000E+00
         0.00000E+00
         0.00000E+00
         0.00000E+00
         0.00000E+00
         0.00000E+00
         0.00000E+00
         0.00000E+00
         0.00000E+00
         0.00000E+00
         0.00000E+00
         0.00000E+00
         0.00000E+00
         0.00000E+00
         0.00000E+00
         0.00000E+00
         0.00000E+00
         0.00000E+00
         0.00000E+00
         0.00000E+00
         0.00000E+00
         0.00000E+00
         0.00000E+00
         0.00000E+00
         0.00000E+00
         0.00000E+00
         0.00000E+00
         0.00000E+00
         0.00000E+00
         0.00000E+00
         0.00000E+00
         0.00000E+00
         0.00000E+00
         0.00000E+00
         0.00000E+00
         0.00000E+00
         0.00000E+00
         0.00000E+00
         0.00000E+00
         0.00000E+00
         0.00000E+00
         0.00000E+00
         0.00000E+00
         0.00000E+00
         0.00000E+00
         0.00000E+00
         0.00000E+00
         0.00000E+00
         0.00000E+00
         0.00000E+00
         0.00000E+00
         0.00000E+00
         0.00000E+00
         0.00000E+00
         0.00000E+00
         0.00000E+00
         0.00000E+00
         0.00000E+00
         0.00000E+00
         0.00000E+00
         0.00000E+00
         0.00000E+00
         0.00000E+00
         0.00000E+00
         0.00000E+00
         0.00000E+00
         0.00000E+00
         0.00000E+00
         0.00000E+00
         0.00000E+00
         0.00000E+00
         0.00000E+00
         0.00000E+00
         0.00000E+00
         0.00000E+00
         0.00000E+00
         0.00000E+00
         0.00000E+00
         0.00000E+00
         0.00000E+00
         0.00000E+00
         0.00000E+00
         0.00000E+00
         0.00000E+00
         0.00000E+00
         0.00000E+00
         0.00000E+00
         0.00000E+00
         0.00000E+00
         0.00000E+00
         0.00000E+00
         0.00000E+00
         0.00000E+00
         0.00000E+00
         0.00000E+00
         0.00000E+00
         0.00000E+00
         0.00000E+00
         0.00000E+00
         0.00000E+00
         0.00000E+00
         0.00000E+00
         0.00000E+00
         0.00000E+00
         0.00000E+00
         0.00000E+00
         0.00000E+00
         0.00000E+00
         0.00000E+00
         0.00000E+00
         0.00000E+00
         0.00000E+00
         0.00000E+00
         0.00000E+00
         0.00000E+00
         0.00000E+00
         0.00000E+00
         0.00000E+00
         0.00000E+00
         0.00000E+00
         0.00000E+00
         0.00000E+00
         0.00000E+00
         0.00000E+00
         0.00000E+00
         0.00000E+00
         0.00000E+00
         0.00000E+00
         0.00000E+00
         0.00000E+00
         0.00000E+00
         0.00000E+00
         0.00000E+00
         0.00000E+00
         0.00000E+00
         0.00000E+00
         0.00000E+00
         0.00000E+00
         0.00000E+00
         0.00000E+00
         0.00000E+00
         0.00000E+00
         0.00000E+00
         0.00000E+00
         0.00000E+00
         0.00000E+00
         0.00000E+00
         0.00000E+00
         0.00000E+00
         0.00000E+00
         0.00000E+00
         0.00000E+00
         0.00000E+00
         0.00000E+00
         0.00000E+00
         0.00000E+00
         0.00000E+00
         0.00000E+00
         0.00000E+00
         0.00000E+00
         0.00000E+00
         0.00000E+00
         0.00000E+00
         0.00000E+00
         0.00000E+00
         0.00000E+00
         0.00000E+00
         0.00000E+00
         0.00000E+00
         0.00000E+00
         0.00000E+00
         0.00000E+00
         0.00000E+00
         0.00000E+00
         0.00000E+00
         0.00000E+00
         0.00000E+00
         0.00000E+00
         0.00000E+00
         0.00000E+00
         0.00000E+00
         0.00000E+00
         0.00000E+00
         0.00000E+00
         0.00000E+00
         0.00000E+00
         0.00000E+00
         0.00000E+00
         0.00000E+00
         0.00000E+00
         0.00000E+00
         0.00000E+00
         0.00000E+00
         0.00000E+00
         0.00000E+00
         0.00000E+00
         0.00000E+00
         0.00000E+00
         0.00000E+00
         0.00000E+00
         0.00000E+00
         0.00000E+00
         0.00000E+00
         0.00000E+00
         0.00000E+00
         0.00000E+00
         0.00000E+00
         0.00000E+00
         0.00000E+00
         0.00000E+00
         0.00000E+00
         0.00000E+00
         0.00000E+00
         0.00000E+00
         0.00000E+00
         0.00000E+00
         0.00000E+00
         0.00000E+00
         0.00000E+00
         0.00000E+00
         0.00000E+00
         0.00000E+00
         0.00000E+00
         0.00000E+00
         0.00000E+00
         0.00000E+00
         0.00000E+00
         0.00000E+00
         0.00000E+00
         0.00000E+00
         0.00000E+00
         0.00000E+00
         0.00000E+00
         0.00000E+00
         0.00000E+00
         0.00000E+00
         0.00000E+00
         0.00000E+00
         0.00000E+00
         0.00000E+00
         0.00000E+00
         0.00000E+00
         0.00000E+00
         0.00000E+00
         0.00000E+00
         0.00000E+00
         0.00000E+00
         0.00000E+00
         0.00000E+00
         0.00000E+00
         0.00000E+00
         0.00000E+00
         0.00000E+00
         0.00000E+00
         0.00000E+00
         0.00000E+00
         0.00000E+00
         0.00000E+00
         0.00000E+00
         0.00000E+00
         0.00000E+00
         0.00000E+00
         0.00000E+00
         0.00000E+00
         0.00000E+00
         0.00000E+00
         0.00000E+00
         0.00000E+00
         0.00000E+00
         0.00000E+00
         0.00000E+00
         0.00000E+00
         0.00000E+00
         0.00000E+00
         0.00000E+00
         0.00000E+00
         0.00000E+00
         0.00000E+00
         0.00000E+00
         0.00000E+00
         0.00000E+00
         0.00000E+00
         0.00000E+00
         0.00000E+00
         0.00000E+00
         0.00000E+00
         0.00000E+00
         0.00000E+00
         0.00000E+00
         0.00000E+00
         0.00000E+00
         0.00000E+00
         0.00000E+00
         0.00000E+00
         0.00000E+00
         0.00000E+00
         0.00000E+00
         0.00000E+00
         0.00000E+00
         0.00000E+00
         0.00000E+00
         0.00000E+00
         0.00000E+00
         0.00000E+00
         0.00000E+00
         0.00000E+00
         0.00000E+00
         0.00000E+00
         0.00000E+00
         0.00000E+00
         0.00000E+00
         0.00000E+00
         0.00000E+00
         0.00000E+00
         0.00000E+00
         0.00000E+00
         0.00000E+00
         0.00000E+00
         0.00000E+00
         0.00000E+00
         0.00000E+00
         0.00000E+00
         0.00000E+00
         0.00000E+00
         0.00000E+00
         0.00000E+00
         0.00000E+00
         0.00000E+00
         0.00000E+00
         0.00000E+00
         0.00000E+00
         0.00000E+00
         0.00000E+00
         0.00000E+00
         0.00000E+00
         0.00000E+00
         0.00000E+00
         0.00000E+00
         0.00000E+00
         0.00000E+00
         0.00000E+00
         0.00000E+00
         0.00000E+00
         0.00000E+00
         0.00000E+00
         0.00000E+00
         0.00000E+00
         0.00000E+00
         0.00000E+00
         0.00000E+00
         0.00000E+00
         0.00000E+00
         0.00000E+00
         0.00000E+00
         0.00000E+00
         0.00000E+00
         0.00000E+00
         0.00000E+00
         0.00000E+00
         0.00000E+00
         0.00000E+00
         0.00000E+00
         0.00000E+00
         0.00000E+00
         0.00000E+00
         0.00000E+00
         0.00000E+00
         0.00000E+00
         0.00000E+00
         0.00000E+00
         0.00000E+00
         0.00000E+00
         0.00000E+00
         0.00000E+00
         0.00000E+00
         0.00000E+00
         0.00000E+00
         0.00000E+00
         0.00000E+00
         0.00000E+00
         0.00000E+00
         0.00000E+00
         0.00000E+00
         0.00000E+00
         0.00000E+00
         0.00000E+00
         0.00000E+00
         0.00000E+00
         0.00000E+00
         0.00000E+00
         0.00000E+00
         0.00000E+00
         0.00000E+00
         0.00000E+00
         0.00000E+00
         0.00000E+00
         0.00000E+00
         0.00000E+00
         0.00000E+00
         0.00000E+00
         0.00000E+00
         0.00000E+00
         0.00000E+00
         0.00000E+00
         0.00000E+00
         0.00000E+00
         0.00000E+00
         0.00000E+00
         0.00000E+00
         0.00000E+00
         0.00000E+00
         0.00000E+00
         0.00000E+00
         0.00000E+00
         0.00000E+00
         0.00000E+00
         0.00000E+00
         0.00000E+00
         0.00000E+00
         0.00000E+00
         0.00000E+00
         0.00000E+00
         0.00000E+00
         0.00000E+00
         0.00000E+00
         0.00000E+00
         0.00000E+00
         0.00000E+00
         0.00000E+00
         0.00000E+00
         0.00000E+00
         0.00000E+00
         0.00000E+00
         0.00000E+00
         0.00000E+00
         0.00000E+00
         0.00000E+00
         0.00000E+00
         0.00000E+00
         0.00000E+00
         0.00000E+00
         0.00000E+00
         0.00000E+00
         0.00000E+00
         0.00000E+00
         0.00000E+00
         0.00000E+00
         0.00000E+00
         0.00000E+00
         0.00000E+00
         0.00000E+00
         0.00000E+00
         0.00000E+00
         0.00000E+00
         0.00000E+00
         0.00000E+00
         0.00000E+00
         0.00000E+00
         0.00000E+00
         0.00000E+00
         0.00000E+00
         0.00000E+00
         0.00000E+00
         0.00000E+00
         0.00000E+00
         0.00000E+00
         0.00000E+00
         0.00000E+00
         0.00000E+00
         0.00000E+00
         0.00000E+00
         0.00000E+00
         0.00000E+00
         0.00000E+00
         0.00000E+00
         0.00000E+00
         0.00000E+00
         0.00000E+00
         0.00000E+00
         0.00000E+00
         0.00000E+00
         0.00000E+00
         0.00000E+00
         0.00000E+00
         0.00000E+00
         0.00000E+00
         0.00000E+00
         0.00000E+00
         0.00000E+00
         0.00000E+00
         0.00000E+00
         0.00000E+00
         0.00000E+00
         0.00000E+00
         0.00000E+00
         0.00000E+00
         0.00000E+00
         0.00000E+00
         0.00000E+00
         0.00000E+00
         0.00000E+00
         0.00000E+00
         0.00000E+00
         0.00000E+00
         0.00000E+00
         0.00000E+00
         0.00000E+00
         0.00000E+00
         0.00000E+00
         0.00000E+00
         0.00000E+00
         0.00000E+00
         0.00000E+00
         0.00000E+00
         0.00000E+00
         0.00000E+00
         0.00000E+00
         0.00000E+00
         0.00000E+00
         0.00000E+00
         0.00000E+00
         0.00000E+00
         0.00000E+00
         0.00000E+00
         0.00000E+00
         0.00000E+00
         0.00000E+00
         0.00000E+00
         0.00000E+00
         0.00000E+00
         0.00000E+00
         0.00000E+00
         0.00000E+00
         0.00000E+00
         0.00000E+00
         0.00000E+00
         0.00000E+00
         0.00000E+00
         0.00000E+00
         0.00000E+00
         0.00000E+00
         0.00000E+00
         0.00000E+00
         0.00000E+00
         0.00000E+00
         0.00000E+00
         0.00000E+00
         0.00000E+00
         0.00000E+00
         0.00000E+00
         0.00000E+00
         0.00000E+00
         0.00000E+00
         0.00000E+00
         0.00000E+00
         0.00000E+00
         0.00000E+00
         0.00000E+00
         0.00000E+00
         0.00000E+00
         0.00000E+00
         0.00000E+00
         0.00000E+00
         0.00000E+00
         0.00000E+00
         0.00000E+00
         0.00000E+00
         0.00000E+00
         0.00000E+00
         0.00000E+00
         0.00000E+00
         0.00000E+00
         0.00000E+00
         0.00000E+00
         0.00000E+00
         0.00000E+00
         0.00000E+00
         0.00000E+00
         0.00000E+00
         0.00000E+00
         0.00000E+00
         0.00000E+00
         0.00000E+00
         0.00000E+00
         0.00000E+00
         0.00000E+00
         0.00000E+00
         0.00000E+00
         0.00000E+00
         0.00000E+00
         0.00000E+00
         0.00000E+00
         0.00000E+00
         0.00000E+00
         0.00000E+00
         0.00000E+00
         0.00000E+00
         0.00000E+00
         0.00000E+00
         0.00000E+00
         0.00000E+00
         0.00000E+00
         0.00000E+00
         0.00000E+00
         0.00000E+00
         0.00000E+00
         0.00000E+00
         0.00000E+00
         0.00000E+00
         0.00000E+00
         0.00000E+00
         0.00000E+00
         0.00000E+00
         0.00000E+00
         0.00000E+00
         0.00000E+00
         0.00000E+00
         0.00000E+00
         0.00000E+00
         0.00000E+00
         0.00000E+00
         0.00000E+00
         0.00000E+00
         0.00000E+00
         0.00000E+00
         0.00000E+00
         0.00000E+00
         0.00000E+00
         0.00000E+00
         0.00000E+00
         0.00000E+00
         0.00000E+00
         0.00000E+00
         0.00000E+00
         0.00000E+00
         0.00000E+00
         0.00000E+00
         0.00000E+00
         0.00000E+00
         0.00000E+00
         0.00000E+00
         0.00000E+00
         0.00000E+00
         0.00000E+00
         0.00000E+00
         0.00000E+00
         0.00000E+00
         0.00000E+00
         0.00000E+00
         0.00000E+00
         0.00000E+00
         0.00000E+00
         0.00000E+00
         0.00000E+00
         0.00000E+00
         0.00000E+00
         0.00000E+00
         0.00000E+00
         0.00000E+00
         0.00000E+00
         0.00000E+00
         0.00000E+00
         0.00000E+00
         0.00000E+00
         0.00000E+00
         0.00000E+00
         0.00000E+00
         0.00000E+00
         0.00000E+00
         0.00000E+00
         0.00000E+00
         0.00000E+00
         0.00000E+00
         0.00000E+00
         0.00000E+00
         0.00000E+00
         0.00000E+00
         0.00000E+00
         0.00000E+00
         0.00000E+00
         0.00000E+00
         0.00000E+00
         0.00000E+00
         0.00000E+00
         0.00000E+00
         0.00000E+00
         0.00000E+00
         0.00000E+00
         0.00000E+00
         0.00000E+00
         0.00000E+00
         0.00000E+00
         0.00000E+00
         0.00000E+00
         0.00000E+00
         0.00000E+00
         0.00000E+00
         0.00000E+00
         0.00000E+00
         0.00000E+00
         0.00000E+00
         0.00000E+00
         0.00000E+00
         0.00000E+00
         0.00000E+00
         0.00000E+00
         0.00000E+00
         0.00000E+00
         0.00000E+00
         0.00000E+00
         0.00000E+00
         0.00000E+00
         0.00000E+00
         0.00000E+00
         0.00000E+00
         0.00000E+00
         0.00000E+00
         0.00000E+00
         0.00000E+00
         0.00000E+00
         0.00000E+00
         0.00000E+00
         0.00000E+00
         0.00000E+00
         0.00000E+00
         0.00000E+00
         0.00000E+00
         0.00000E+00
         0.00000E+00
         0.00000E+00
         0.00000E+00
         0.00000E+00
         0.00000E+00
         0.00000E+00
         0.00000E+00
         0.00000E+00
         0.00000E+00
         0.00000E+00
         0.00000E+00
         0.00000E+00
         0.00000E+00
         0.00000E+00
         0.00000E+00
         0.00000E+00
         0.00000E+00
         0.00000E+00
         0.00000E+00
         0.00000E+00
         0.00000E+00
         0.00000E+00
         0.00000E+00
         0.00000E+00
         0.00000E+00
         0.00000E+00
         0.00000E+00
         0.00000E+00
         0.00000E+00
         0.00000E+00
         0.00000E+00
         0.00000E+00
         0.00000E+00
         0.00000E+00
         0.00000E+00
         0.00000E+00
         0.00000E+00
         0.00000E+00
         0.00000E+00
         0.00000E+00
         0.00000E+00
         0.00000E+00
         0.00000E+00
         0.00000E+00
         0.00000E+00
         0.00000E+00
         0.00000E+00
         0.00000E+00
         0.00000E+00
         0.00000E+00
         0.00000E+00
         0.00000E+00
         0.00000E+00
         0.00000E+00
         0.00000E+00
         0.00000E+00
         0.00000E+00
         0.00000E+00
         0.00000E+00
         0.00000E+00
         0.00000E+00
         0.00000E+00
         0.00000E+00
         0.00000E+00
         0.00000E+00
         0.00000E+00
         0.00000E+00
         0.00000E+00
         0.00000E+00
         0.00000E+00
         0.00000E+00
         0.00000E+00
         0.00000E+00
         0.00000E+00
         0.00000E+00
         0.00000E+00
         0.00000E+00
         0.00000E+00
         0.00000E+00
         0.00000E+00
         0.00000E+00
         0.00000E+00
         0.00000E+00
         0.00000E+00
         0.00000E+00
         0.00000E+00
         0.00000E+00
         0.00000E+00
         0.00000E+00
         0.00000E+00
         0.00000E+00
         0.00000E+00
         0.00000E+00
         0.00000E+00
         0.00000E+00
         0.00000E+00
         0.00000E+00
         0.00000E+00
         0.00000E+00
         0.00000E+00
         0.00000E+00
         0.00000E+00
         0.00000E+00
         0.00000E+00
         0.00000E+00
         0.00000E+00
         0.00000E+00
         0.00000E+00
         0.00000E+00
         0.00000E+00
         0.00000E+00
         0.00000E+00
         0.00000E+00
         0.00000E+00
         0.00000E+00
         0.00000E+00
         0.00000E+00
         0.00000E+00
         0.00000E+00
         0.00000E+00
         0.00000E+00
         0.00000E+00
         0.00000E+00
         0.00000E+00
         0.00000E+00
         0.00000E+00
         0.00000E+00
         0.00000E+00
         0.00000E+00
         0.00000E+00
         0.00000E+00
         0.00000E+00
         0.00000E+00
         0.00000E+00
         0.00000E+00
         0.00000E+00
         0.00000E+00
         0.00000E+00
         0.00000E+00
         0.00000E+00
         0.00000E+00
         0.00000E+00
         0.00000E+00
         0.00000E+00
         0.00000E+00
         0.00000E+00
         0.00000E+00
         0.00000E+00
         0.00000E+00
         0.00000E+00
         0.00000E+00
         0.00000E+00
         0.00000E+00
         0.00000E+00
         0.00000E+00
         0.00000E+00
         0.00000E+00
         0.00000E+00
         0.00000E+00
         0.00000E+00
         0.00000E+00
         0.00000E+00
         0.00000E+00
         0.00000E+00
         0.00000E+00
         0.00000E+00
         0.00000E+00
         0.00000E+00
         0.00000E+00
         0.00000E+00
         0.00000E+00
         0.00000E+00
         0.00000E+00
         0.00000E+00
         0.00000E+00
         0.00000E+00
         0.00000E+00
         0.00000E+00
         0.00000E+00
         0.00000E+00
         0.00000E+00
         0.00000E+00
         0.00000E+00
         0.00000E+00
         0.00000E+00
         0.00000E+00
         0.00000E+00
         0.00000E+00
         0.00000E+00
         0.00000E+00
         0.00000E+00
         0.00000E+00
         0.00000E+00
         0.00000E+00
         0.00000E+00
         0.00000E+00
         0.00000E+00
         0.00000E+00
         0.00000E+00
         0.00000E+00
         0.00000E+00
         0.00000E+00
         0.00000E+00
         0.00000E+00
         0.00000E+00
         0.00000E+00
         0.00000E+00
         0.00000E+00
         0.00000E+00
         0.00000E+00
         0.00000E+00
         0.00000E+00
         0.00000E+00
         0.00000E+00
         0.00000E+00
         0.00000E+00
         0.00000E+00
         0.00000E+00
         0.00000E+00
         0.00000E+00
         0.00000E+00
         0.00000E+00
         0.00000E+00
         0.00000E+00
         0.00000E+00
         0.00000E+00
         0.00000E+00
         0.00000E+00
         0.00000E+00
         0.00000E+00
         0.00000E+00
         0.00000E+00
         0.00000E+00
         0.00000E+00
         0.00000E+00
         0.00000E+00
         0.00000E+00
         0.00000E+00
         0.00000E+00
         0.00000E+00
         0.00000E+00
         0.00000E+00
         0.00000E+00
         0.00000E+00
         0.00000E+00
         0.00000E+00
         0.00000E+00
         0.00000E+00
         0.00000E+00
         0.00000E+00
         0.00000E+00
         0.00000E+00
         0.00000E+00
         0.00000E+00
         0.00000E+00
         0.00000E+00
         0.00000E+00
         0.00000E+00
         0.00000E+00
         0.00000E+00
         0.00000E+00
         0.00000E+00
         0.00000E+00
         0.00000E+00
         0.00000E+00
         0.00000E+00
         0.00000E+00
         0.00000E+00
         0.00000E+00
         0.00000E+00
         0.00000E+00
         0.00000E+00
         0.00000E+00
         0.00000E+00
         0.00000E+00
         0.00000E+00
         0.00000E+00
         0.00000E+00
         0.00000E+00
         0.00000E+00
         0.00000E+00
         0.00000E+00
         0.00000E+00
         0.00000E+00
         0.00000E+00
         0.00000E+00
         0.00000E+00
         0.00000E+00
         0.00000E+00
         0.00000E+00
         0.00000E+00
         0.00000E+00
         0.00000E+00
         0.00000E+00
         0.00000E+00
         0.00000E+00
         0.00000E+00
         0.00000E+00
         0.00000E+00
         0.00000E+00
         0.00000E+00
         0.00000E+00
         0.00000E+00
         0.00000E+00
         0.00000E+00
         0.00000E+00
         0.00000E+00
         0.00000E+00
         0.00000E+00
         0.00000E+00
         0.00000E+00
         0.00000E+00
         0.00000E+00
         0.00000E+00
         0.00000E+00
         0.00000E+00
         0.00000E+00
         0.00000E+00
         0.00000E+00
         0.00000E+00
         0.00000E+00
         0.00000E+00
         0.00000E+00
         0.00000E+00
         0.00000E+00
         0.00000E+00
         0.00000E+00
         0.00000E+00
         0.00000E+00
         0.00000E+00
         0.00000E+00
         0.00000E+00
         0.00000E+00
         0.00000E+00
         0.00000E+00
         0.00000E+00
         0.00000E+00
         0.00000E+00
         0.00000E+00
         0.00000E+00
         0.00000E+00
         0.00000E+00
         0.00000E+00
         0.00000E+00
         0.00000E+00
         0.00000E+00
         0.00000E+00
         0.00000E+00
         0.00000E+00
         0.00000E+00
         0.00000E+00
         0.00000E+00
         0.00000E+00
         0.00000E+00
         0.00000E+00
         0.00000E+00
         0.00000E+00
         0.00000E+00
         0.00000E+00
         0.00000E+00
         0.00000E+00
         0.00000E+00
         0.00000E+00
         0.00000E+00
         0.00000E+00
         0.00000E+00
         0.00000E+00
         0.00000E+00
         0.00000E+00
         0.00000E+00
         0.00000E+00
         0.00000E+00
         0.00000E+00
         0.00000E+00
         0.00000E+00
         0.00000E+00
         0.00000E+00
         0.00000E+00
         0.00000E+00
         0.00000E+00
         0.00000E+00
         0.00000E+00
         0.00000E+00
         0.00000E+00
         0.00000E+00
         0.00000E+00
         0.00000E+00
         0.00000E+00
         0.00000E+00
         0.00000E+00
         0.00000E+00
         0.00000E+00
         0.00000E+00
         0.00000E+00
         0.00000E+00
         0.00000E+00
         0.00000E+00
         0.00000E+00
         0.00000E+00
         0.00000E+00
         0.00000E+00
         0.00000E+00
         0.00000E+00
         0.00000E+00
         0.00000E+00
         0.00000E+00
         0.00000E+00
         0.00000E+00
         0.00000E+00
         0.00000E+00
         0.00000E+00
         0.00000E+00
         0.00000E+00
         0.00000E+00
         0.00000E+00
         0.00000E+00
         0.00000E+00
         0.00000E+00
         0.00000E+00
         0.00000E+00
         0.00000E+00
         0.00000E+00
         0.00000E+00
         0.00000E+00
         0.00000E+00
         0.00000E+00
         0.00000E+00
         0.00000E+00
         0.00000E+00
         0.00000E+00
         0.00000E+00
         0.00000E+00
         0.00000E+00
         0.00000E+00
         0.00000E+00
         0.00000E+00
         0.00000E+00
         0.00000E+00
         0.00000E+00
         0.00000E+00
         0.00000E+00
         0.00000E+00
         0.00000E+00
         0.00000E+00
         0.00000E+00
         0.00000E+00
         0.00000E+00
         0.00000E+00
         0.00000E+00
         0.00000E+00
         0.00000E+00
         0.00000E+00
         0.00000E+00
         0.00000E+00
         0.00000E+00
         0.00000E+00
         0.00000E+00
         0.00000E+00
         0.00000E+00
         0.00000E+00
         0.00000E+00
         0.00000E+00
         0.00000E+00
         0.00000E+00
         0.00000E+00
         0.00000E+00
         0.00000E+00
         0.00000E+00
         0.00000E+00
         0.00000E+00
         0.00000E+00
         0.00000E+00
         0.00000E+00
         0.00000E+00
         0.00000E+00
         0.00000E+00
         0.00000E+00
         0.00000E+00
         0.00000E+00
         0.00000E+00
         0.00000E+00
         0.00000E+00
         0.00000E+00
         0.00000E+00
         0.00000E+00
         0.00000E+00
         0.00000E+00
         0.00000E+00
         0.00000E+00
         0.00000E+00
         0.00000E+00
         0.00000E+00
         0.00000E+00
         0.00000E+00
         0.00000E+00
         0.00000E+00
         0.00000E+00
         0.00000E+00
         0.00000E+00
         0.00000E+00
         0.00000E+00
         0.00000E+00
         0.00000E+00
         0.00000E+00
         0.00000E+00
         0.00000E+00
         0.00000E+00
         0.00000E+00
         0.00000E+00
         0.00000E+00
         0.00000E+00
         0.00000E+00
         0.00000E+00
         0.00000E+00
         0.00000E+00
         0.00000E+00
         0.00000E+00
         0.00000E+00
         0.00000E+00
         0.00000E+00
         0.00000E+00
         0.00000E+00
         0.00000E+00
         0.00000E+00
         0.00000E+00
         0.00000E+00
         0.00000E+00
         0.00000E+00
         0.00000E+00
         0.00000E+00
         0.00000E+00
         0.00000E+00
         0.00000E+00
         0.00000E+00
         0.00000E+00
         0.00000E+00
         0.00000E+00
         0.00000E+00
         0.00000E+00
         0.00000E+00
         0.00000E+00
         0.00000E+00
         0.00000E+00
         0.00000E+00
         0.00000E+00
         0.00000E+00
         0.00000E+00
         0.00000E+00
         0.00000E+00
         0.00000E+00
         0.00000E+00
         0.00000E+00
         0.00000E+00
         0.00000E+00
         0.00000E+00
         0.00000E+00
         0.00000E+00
         0.00000E+00
         0.00000E+00
         0.00000E+00
         0.00000E+00
         0.00000E+00
         0.00000E+00
         0.00000E+00
         0.00000E+00
         0.00000E+00
         0.00000E+00
         0.00000E+00
         0.00000E+00
         0.00000E+00
         0.00000E+00
         0.00000E+00
         0.00000E+00
         0.00000E+00
  
SCALARS           initial_coordinate_x  double 1
LOOKUP_TABLE default
         0.10378E-02
         0.17452E-02
         0.23177E-02
         0.16698E-02
         0.10379E-02
         0.17453E-02
         0.23178E-02
         0.16700E-02
         0.30377E-02
         0.27791E-02
         0.30377E-02
         0.27788E-02
         0.12850E-02
         0.65139E-03
         0.12851E-02
         0.65164E-03
         0.12757E-03
        -0.12822E-03
         0.12783E-03
        -0.12804E-03
         0.94500E-03
         0.11327E-02
         0.17490E-02
         0.94533E-03
         0.11330E-02
         0.17494E-02
         0.40588E-03
         0.39779E-03
         0.40594E-03
         0.39781E-03
        -0.76303E-03
        -0.86604E-03
         0.46119E-03
        -0.76268E-03
        -0.86593E-03
         0.46164E-03
        -0.18300E-02
        -0.18440E-02
        -0.18297E-02
        -0.18441E-02
        -0.27238E-02
        -0.28028E-02
        -0.27238E-02
        -0.28031E-02
        -0.25365E-02
        -0.19287E-02
        -0.25363E-02
        -0.19283E-02
        -0.99363E-03
        -0.99377E-03
        -0.14380E-02
        -0.14377E-02
        -0.31574E-03
        -0.31594E-03
        -0.11068E-02
        -0.11071E-02
        -0.18845E-02
        -0.18713E-02
        -0.18846E-02
        -0.18714E-02
        -0.15871E-03
        -0.94089E-03
        -0.15844E-03
        -0.94029E-03
         0.78856E-03
         0.78922E-03
         0.17211E-02
         0.17211E-02
         0.32050E-02
         0.28046E-02
         0.32047E-02
         0.28047E-02
         0.23059E-02
         0.23060E-02
        -0.40614E-03
        -0.40627E-03
        -0.12092E-02
        -0.12092E-02
        -0.19448E-02
        -0.19448E-02
        -0.25029E-02
        -0.26371E-02
        -0.25029E-02
        -0.26372E-02
        -0.27671E-02
        -0.27674E-02
        -0.21123E-02
        -0.21122E-02
        -0.16087E-02
        -0.16087E-02
        -0.11939E-02
        -0.58641E-03
        -0.11937E-02
        -0.58606E-03
         0.20912E-03
         0.20952E-03
         0.10586E-02
         0.10589E-02
         0.18413E-02
         0.18413E-02
         0.24544E-02
         0.26022E-02
         0.24543E-02
         0.26021E-02
         0.37964E-02
         0.39100E-02
         0.37964E-02
         0.39100E-02
         0.34621E-02
         0.34621E-02
         0.29267E-02
         0.29267E-02
         0.22211E-02
         0.22211E-02
         0.13865E-02
         0.13865E-02
         0.47130E-03
         0.47130E-03
        -0.47130E-03
        -0.47130E-03
        -0.13865E-02
        -0.13865E-02
        -0.22211E-02
        -0.22211E-02
        -0.29267E-02
        -0.29267E-02
        -0.34621E-02
        -0.34621E-02
        -0.37964E-02
        -0.37964E-02
        -0.39100E-02
        -0.39100E-02
        -0.37964E-02
        -0.37964E-02
        -0.34621E-02
        -0.34621E-02
        -0.29267E-02
        -0.29267E-02
        -0.22211E-02
        -0.22211E-02
        -0.13865E-02
        -0.13865E-02
        -0.47130E-03
        -0.47130E-03
         0.47130E-03
         0.47130E-03
         0.13865E-02
         0.13865E-02
         0.22211E-02
         0.22211E-02
         0.29267E-02
         0.29267E-02
         0.34621E-02
         0.34621E-02
         0.37964E-02
         0.37964E-02
         0.10376E-02
         0.17450E-02
         0.23175E-02
         0.16696E-02
         0.30377E-02
         0.27795E-02
         0.12849E-02
         0.65115E-03
         0.12731E-03
        -0.12841E-03
         0.94467E-03
         0.11323E-02
         0.17487E-02
         0.40583E-03
         0.39777E-03
        -0.76338E-03
        -0.86615E-03
         0.46074E-03
        -0.18303E-02
        -0.18439E-02
        -0.27238E-02
        -0.28025E-02
        -0.25366E-02
        -0.19292E-02
        -0.99349E-03
        -0.14384E-02
        -0.31554E-03
        -0.11064E-02
        -0.18845E-02
        -0.18712E-02
        -0.15899E-03
        -0.94149E-03
         0.78790E-03
         0.17210E-02
         0.32053E-02
         0.28046E-02
         0.23058E-02
        -0.40600E-03
        -0.12092E-02
        -0.19447E-02
        -0.25028E-02
        -0.26370E-02
        -0.27668E-02
        -0.21125E-02
        -0.16088E-02
        -0.11940E-02
        -0.58676E-03
         0.20871E-03
         0.10583E-02
         0.18413E-02
         0.24545E-02
         0.26022E-02
         0.37964E-02
         0.39100E-02
         0.34621E-02
         0.29267E-02
         0.22211E-02
         0.13865E-02
         0.47130E-03
        -0.47130E-03
        -0.13865E-02
        -0.22211E-02
        -0.29267E-02
        -0.34621E-02
        -0.37964E-02
        -0.39100E-02
        -0.37964E-02
        -0.34621E-02
        -0.29267E-02
        -0.22211E-02
        -0.13865E-02
        -0.47130E-03
         0.47130E-03
         0.13865E-02
         0.22211E-02
         0.29267E-02
         0.34621E-02
         0.37964E-02
         0.10375E-02
         0.17448E-02
         0.23174E-02
         0.16694E-02
         0.30377E-02
         0.27798E-02
         0.12848E-02
         0.65090E-03
         0.12705E-03
        -0.12859E-03
         0.94434E-03
         0.11320E-02
         0.17483E-02
         0.40577E-03
         0.39776E-03
        -0.76374E-03
        -0.86626E-03
         0.46029E-03
        -0.18306E-02
        -0.18438E-02
        -0.27238E-02
        -0.28022E-02
        -0.25368E-02
        -0.19296E-02
        -0.99334E-03
        -0.14387E-02
        -0.31534E-03
        -0.11061E-02
        -0.18844E-02
        -0.18710E-02
        -0.15926E-03
        -0.94209E-03
         0.78724E-03
         0.17210E-02
         0.32056E-02
         0.28046E-02
         0.23057E-02
        -0.40586E-03
        -0.12092E-02
        -0.19447E-02
        -0.25028E-02
        -0.26369E-02
        -0.27665E-02
        -0.21126E-02
        -0.16088E-02
        -0.11941E-02
        -0.58711E-03
         0.20830E-03
         0.10580E-02
         0.18414E-02
         0.24546E-02
         0.26023E-02
         0.37964E-02
         0.39100E-02
         0.34621E-02
         0.29267E-02
         0.22211E-02
         0.13865E-02
         0.47130E-03
        -0.47130E-03
        -0.13865E-02
        -0.22211E-02
        -0.29267E-02
        -0.34621E-02
        -0.37964E-02
        -0.39100E-02
        -0.37964E-02
        -0.34621E-02
        -0.29267E-02
        -0.22211E-02
        -0.13865E-02
        -0.47130E-03
         0.47130E-03
         0.13865E-02
         0.22211E-02
         0.29267E-02
         0.34621E-02
         0.37964E-02
         0.10374E-02
         0.17446E-02
         0.23173E-02
         0.16692E-02
         0.30376E-02
         0.27801E-02
         0.12847E-02
         0.65065E-03
         0.12678E-03
        -0.12878E-03
         0.94401E-03
         0.11316E-02
         0.17479E-02
         0.40572E-03
         0.39774E-03
        -0.76409E-03
        -0.86637E-03
         0.45985E-03
        -0.18309E-02
        -0.18437E-02
        -0.27237E-02
        -0.28020E-02
        -0.25369E-02
        -0.19300E-02
        -0.99320E-03
        -0.14391E-02
        -0.31514E-03
        -0.11057E-02
        -0.18844E-02
        -0.18709E-02
        -0.15954E-03
        -0.94269E-03
         0.78658E-03
         0.17209E-02
         0.32060E-02
         0.28046E-02
         0.23056E-02
        -0.40572E-03
        -0.12092E-02
        -0.19446E-02
        -0.25028E-02
        -0.26368E-02
        -0.27662E-02
        -0.21128E-02
        -0.16088E-02
        -0.11942E-02
        -0.58746E-03
         0.20790E-03
         0.10577E-02
         0.18414E-02
         0.24548E-02
         0.26024E-02
         0.37964E-02
         0.39100E-02
         0.34621E-02
         0.29267E-02
         0.22211E-02
         0.13865E-02
         0.47130E-03
        -0.47130E-03
        -0.13865E-02
        -0.22211E-02
        -0.29267E-02
        -0.34621E-02
        -0.37964E-02
        -0.39100E-02
        -0.37964E-02
        -0.34621E-02
        -0.29267E-02
        -0.22211E-02
        -0.13865E-02
        -0.47130E-03
         0.47130E-03
         0.13865E-02
         0.22211E-02
         0.29267E-02
         0.34621E-02
         0.37964E-02
         0.10373E-02
         0.17445E-02
         0.23172E-02
         0.16689E-02
         0.30376E-02
         0.27805E-02
         0.12846E-02
         0.65041E-03
         0.12652E-03
        -0.12896E-03
         0.94367E-03
         0.11313E-02
         0.17475E-02
         0.40566E-03
         0.39772E-03
        -0.76444E-03
        -0.86648E-03
         0.45940E-03
        -0.18312E-02
        -0.18436E-02
        -0.27237E-02
        -0.28017E-02
        -0.25371E-02
        -0.19305E-02
        -0.99305E-03
        -0.14394E-02
        -0.31494E-03
        -0.11054E-02
        -0.18843E-02
        -0.18708E-02
        -0.15981E-03
        -0.94328E-03
         0.78592E-03
         0.17209E-02
         0.32063E-02
         0.28045E-02
         0.23055E-02
        -0.40558E-03
        -0.12092E-02
        -0.19446E-02
        -0.25027E-02
        -0.26367E-02
        -0.27658E-02
        -0.21129E-02
        -0.16089E-02
        -0.11943E-02
        -0.58781E-03
         0.20749E-03
         0.10574E-02
         0.18415E-02
         0.24549E-02
         0.26025E-02
         0.37964E-02
         0.39100E-02
         0.34621E-02
         0.29267E-02
         0.22211E-02
         0.13865E-02
         0.47130E-03
        -0.47130E-03
        -0.13865E-02
        -0.22211E-02
        -0.29267E-02
        -0.34621E-02
        -0.37964E-02
        -0.39100E-02
        -0.37964E-02
        -0.34621E-02
        -0.29267E-02
        -0.22211E-02
        -0.13865E-02
        -0.47130E-03
         0.47130E-03
         0.13865E-02
         0.22211E-02
         0.29267E-02
         0.34621E-02
         0.37964E-02
         0.10372E-02
         0.17443E-02
         0.23171E-02
         0.16687E-02
         0.30376E-02
         0.27808E-02
         0.12845E-02
         0.65016E-03
         0.12626E-03
        -0.12915E-03
         0.94334E-03
         0.11310E-02
         0.17471E-02
         0.40561E-03
         0.39770E-03
        -0.76480E-03
        -0.86659E-03
         0.45895E-03
        -0.18315E-02
        -0.18435E-02
        -0.27237E-02
        -0.28014E-02
        -0.25372E-02
        -0.19309E-02
        -0.99291E-03
        -0.14398E-02
        -0.31474E-03
        -0.11051E-02
        -0.18843E-02
        -0.18706E-02
        -0.16009E-03
        -0.94388E-03
         0.78526E-03
         0.17208E-02
         0.32066E-02
         0.28045E-02
         0.23053E-02
        -0.40545E-03
        -0.12092E-02
        -0.19446E-02
        -0.25027E-02
        -0.26366E-02
        -0.27655E-02
        -0.21130E-02
        -0.16089E-02
        -0.11944E-02
        -0.58816E-03
         0.20709E-03
         0.10571E-02
         0.18415E-02
         0.24550E-02
         0.26025E-02
         0.37964E-02
         0.39100E-02
         0.34621E-02
         0.29267E-02
         0.22211E-02
         0.13865E-02
         0.47130E-03
        -0.47130E-03
        -0.13865E-02
        -0.22211E-02
        -0.29267E-02
        -0.34621E-02
        -0.37964E-02
        -0.39100E-02
        -0.37964E-02
        -0.34621E-02
        -0.29267E-02
        -0.22211E-02
        -0.13865E-02
        -0.47130E-03
         0.47130E-03
         0.13865E-02
         0.22211E-02
         0.29267E-02
         0.34621E-02
         0.37964E-02
         0.10371E-02
         0.17441E-02
         0.23169E-02
         0.16685E-02
         0.30376E-02
         0.27812E-02
         0.12844E-02
         0.64992E-03
         0.12600E-03
        -0.12933E-03
         0.94301E-03
         0.11306E-02
         0.17467E-02
         0.40556E-03
         0.39769E-03
        -0.76515E-03
        -0.86670E-03
         0.45850E-03
        -0.18318E-02
        -0.18434E-02
        -0.27236E-02
        -0.28011E-02
        -0.25374E-02
        -0.19313E-02
        -0.99277E-03
        -0.14401E-02
        -0.31454E-03
        -0.11047E-02
        -0.18842E-02
        -0.18705E-02
        -0.16036E-03
        -0.94448E-03
         0.78460E-03
         0.17208E-02
         0.32070E-02
         0.28045E-02
         0.23052E-02
        -0.40531E-03
        -0.12092E-02
        -0.19445E-02
        -0.25027E-02
        -0.26366E-02
        -0.27652E-02
        -0.21132E-02
        -0.16090E-02
        -0.11946E-02
        -0.58851E-03
         0.20668E-03
         0.10567E-02
         0.18416E-02
         0.24551E-02
         0.26026E-02
         0.37964E-02
         0.39100E-02
         0.34621E-02
         0.29267E-02
         0.22211E-02
         0.13865E-02
         0.47130E-03
        -0.47130E-03
        -0.13865E-02
        -0.22211E-02
        -0.29267E-02
        -0.34621E-02
        -0.37964E-02
        -0.39100E-02
        -0.37964E-02
        -0.34621E-02
        -0.29267E-02
        -0.22211E-02
        -0.13865E-02
        -0.47130E-03
         0.47130E-03
         0.13865E-02
         0.22211E-02
         0.29267E-02
         0.34621E-02
         0.37964E-02
         0.10370E-02
         0.17439E-02
         0.23168E-02
         0.16683E-02
         0.30375E-02
         0.27815E-02
         0.12843E-02
         0.64967E-03
         0.12573E-03
        -0.12952E-03
         0.94268E-03
         0.11303E-02
         0.17463E-02
         0.40550E-03
         0.39767E-03
        -0.76551E-03
        -0.86680E-03
         0.45806E-03
        -0.18321E-02
        -0.18433E-02
        -0.27236E-02
        -0.28009E-02
        -0.25375E-02
        -0.19317E-02
        -0.99262E-03
        -0.14405E-02
        -0.31434E-03
        -0.11044E-02
        -0.18842E-02
        -0.18704E-02
        -0.16064E-03
        -0.94508E-03
         0.78394E-03
         0.17208E-02
         0.32073E-02
         0.28045E-02
         0.23051E-02
        -0.40517E-03
        -0.12092E-02
        -0.19445E-02
        -0.25026E-02
        -0.26365E-02
        -0.27649E-02
        -0.21133E-02
        -0.16090E-02
        -0.11947E-02
        -0.58886E-03
         0.20627E-03
         0.10564E-02
         0.18416E-02
         0.24553E-02
         0.26027E-02
         0.37964E-02
         0.39100E-02
         0.34621E-02
         0.29267E-02
         0.22211E-02
         0.13865E-02
         0.47130E-03
        -0.47130E-03
        -0.13865E-02
        -0.22211E-02
        -0.29267E-02
        -0.34621E-02
        -0.37964E-02
        -0.39100E-02
        -0.37964E-02
        -0.34621E-02
        -0.29267E-02
        -0.22211E-02
        -0.13865E-02
        -0.47130E-03
         0.47130E-03
         0.13865E-02
         0.22211E-02
         0.29267E-02
         0.34621E-02
         0.37964E-02
         0.10368E-02
         0.17438E-02
         0.23167E-02
         0.16681E-02
         0.30375E-02
         0.27819E-02
         0.12842E-02
         0.64943E-03
         0.12547E-03
        -0.12970E-03
         0.94235E-03
         0.11300E-02
         0.17459E-02
         0.40545E-03
         0.39766E-03
        -0.76586E-03
        -0.86691E-03
         0.45761E-03
        -0.18324E-02
        -0.18432E-02
        -0.27236E-02
        -0.28006E-02
        -0.25377E-02
        -0.19322E-02
        -0.99248E-03
        -0.14408E-02
        -0.31414E-03
        -0.11040E-02
        -0.18841E-02
        -0.18703E-02
        -0.16091E-03
        -0.94568E-03
         0.78328E-03
         0.17207E-02
         0.32076E-02
         0.28044E-02
         0.23050E-02
        -0.40503E-03
        -0.12092E-02
        -0.19445E-02
        -0.25026E-02
        -0.26364E-02
        -0.27646E-02
        -0.21134E-02
        -0.16091E-02
        -0.11948E-02
        -0.58921E-03
         0.20587E-03
         0.10561E-02
         0.18416E-02
         0.24554E-02
         0.26027E-02
         0.37964E-02
         0.39100E-02
         0.34621E-02
         0.29267E-02
         0.22211E-02
         0.13865E-02
         0.47130E-03
        -0.47130E-03
        -0.13865E-02
        -0.22211E-02
        -0.29267E-02
        -0.34621E-02
        -0.37964E-02
        -0.39100E-02
        -0.37964E-02
        -0.34621E-02
        -0.29267E-02
        -0.22211E-02
        -0.13865E-02
        -0.47130E-03
         0.47130E-03
         0.13865E-02
         0.22211E-02
         0.29267E-02
         0.34621E-02
         0.37964E-02
         0.10367E-02
         0.17436E-02
         0.23166E-02
         0.16679E-02
         0.30375E-02
         0.27822E-02
         0.12841E-02
         0.64918E-03
         0.12521E-03
        -0.12989E-03
         0.94202E-03
         0.11296E-02
         0.17455E-02
         0.40539E-03
         0.39764E-03
        -0.76621E-03
        -0.86702E-03
         0.45716E-03
        -0.18326E-02
        -0.18431E-02
        -0.27235E-02
        -0.28003E-02
        -0.25379E-02
        -0.19326E-02
        -0.99233E-03
        -0.14412E-02
        -0.31394E-03
        -0.11037E-02
        -0.18841E-02
        -0.18701E-02
        -0.16119E-03
        -0.94628E-03
         0.78262E-03
         0.17207E-02
         0.32079E-02
         0.28044E-02
         0.23049E-02
        -0.40490E-03
        -0.12093E-02
        -0.19444E-02
        -0.25026E-02
        -0.26363E-02
        -0.27643E-02
        -0.21136E-02
        -0.16091E-02
        -0.11949E-02
        -0.58956E-03
         0.20546E-03
         0.10558E-02
         0.18417E-02
         0.24555E-02
         0.26028E-02
         0.37964E-02
         0.39100E-02
         0.34621E-02
         0.29267E-02
         0.22211E-02
         0.13865E-02
         0.47130E-03
        -0.47130E-03
        -0.13865E-02
        -0.22211E-02
        -0.29267E-02
        -0.34621E-02
        -0.37964E-02
        -0.39100E-02
        -0.37964E-02
        -0.34621E-02
        -0.29267E-02
        -0.22211E-02
        -0.13865E-02
        -0.47130E-03
         0.47130E-03
         0.13865E-02
         0.22211E-02
         0.29267E-02
         0.34621E-02
         0.37964E-02
         0.10366E-02
         0.17434E-02
         0.23164E-02
         0.16677E-02
         0.30375E-02
         0.27825E-02
         0.12840E-02
         0.64894E-03
         0.12495E-03
        -0.13007E-03
         0.94169E-03
         0.11293E-02
         0.17451E-02
         0.40534E-03
         0.39762E-03
        -0.76657E-03
        -0.86713E-03
         0.45671E-03
        -0.18329E-02
        -0.18430E-02
        -0.27235E-02
        -0.28001E-02
        -0.25380E-02
        -0.19330E-02
        -0.99219E-03
        -0.14415E-02
        -0.31374E-03
        -0.11033E-02
        -0.18840E-02
        -0.18700E-02
        -0.16146E-03
        -0.94687E-03
         0.78195E-03
         0.17207E-02
         0.32083E-02
         0.28044E-02
         0.23048E-02
        -0.40476E-03
        -0.12093E-02
        -0.19444E-02
        -0.25026E-02
        -0.26362E-02
        -0.27640E-02
        -0.21137E-02
        -0.16091E-02
        -0.11950E-02
        -0.58991E-03
         0.20505E-03
         0.10555E-02
         0.18417E-02
         0.24556E-02
         0.26029E-02
         0.37964E-02
         0.39100E-02
         0.34621E-02
         0.29267E-02
         0.22211E-02
         0.13865E-02
         0.47130E-03
        -0.47130E-03
        -0.13865E-02
        -0.22211E-02
        -0.29267E-02
        -0.34621E-02
        -0.37964E-02
        -0.39100E-02
        -0.37964E-02
        -0.34621E-02
        -0.29267E-02
        -0.22211E-02
        -0.13865E-02
        -0.47130E-03
         0.47130E-03
         0.13865E-02
         0.22211E-02
         0.29267E-02
         0.34621E-02
         0.37964E-02
         0.10365E-02
         0.17432E-02
         0.23163E-02
         0.16675E-02
         0.30374E-02
         0.27829E-02
         0.12839E-02
         0.64869E-03
         0.12468E-03
        -0.13026E-03
         0.94135E-03
         0.11289E-02
         0.17447E-02
         0.40528E-03
         0.39760E-03
        -0.76692E-03
        -0.86724E-03
         0.45626E-03
        -0.18332E-02
        -0.18430E-02
        -0.27235E-02
        -0.27998E-02
        -0.25382E-02
        -0.19334E-02
        -0.99205E-03
        -0.14419E-02
        -0.31354E-03
        -0.11030E-02
        -0.18840E-02
        -0.18699E-02
        -0.16174E-03
        -0.94747E-03
         0.78129E-03
         0.17206E-02
         0.32086E-02
         0.28044E-02
         0.23047E-02
        -0.40462E-03
        -0.12093E-02
        -0.19444E-02
        -0.25025E-02
        -0.26361E-02
        -0.27637E-02
        -0.21139E-02
        -0.16092E-02
        -0.11951E-02
        -0.59025E-03
         0.20465E-03
         0.10552E-02
         0.18418E-02
         0.24558E-02
         0.26030E-02
         0.37964E-02
         0.39100E-02
         0.34621E-02
         0.29267E-02
         0.22211E-02
         0.13865E-02
         0.47130E-03
        -0.47130E-03
        -0.13865E-02
        -0.22211E-02
        -0.29267E-02
        -0.34621E-02
        -0.37964E-02
        -0.39100E-02
        -0.37964E-02
        -0.34621E-02
        -0.29267E-02
        -0.22211E-02
        -0.13865E-02
        -0.47130E-03
         0.47130E-03
         0.13865E-02
         0.22211E-02
         0.29267E-02
         0.34621E-02
         0.37964E-02
         0.10364E-02
         0.17430E-02
         0.23162E-02
         0.16672E-02
         0.30374E-02
         0.27832E-02
         0.12838E-02
         0.64845E-03
         0.12442E-03
        -0.13044E-03
         0.94102E-03
         0.11286E-02
         0.17443E-02
         0.40523E-03
         0.39759E-03
        -0.76727E-03
        -0.86735E-03
         0.45582E-03
        -0.18335E-02
        -0.18429E-02
        -0.27235E-02
        -0.27995E-02
        -0.25383E-02
        -0.19339E-02
        -0.99190E-03
        -0.14422E-02
        -0.31334E-03
        -0.11026E-02
        -0.18839E-02
        -0.18697E-02
        -0.16201E-03
        -0.94807E-03
         0.78063E-03
         0.17206E-02
         0.32089E-02
         0.28043E-02
         0.23046E-02
        -0.40448E-03
        -0.12093E-02
        -0.19443E-02
        -0.25025E-02
        -0.26360E-02
        -0.27633E-02
        -0.21140E-02
        -0.16092E-02
        -0.11953E-02
        -0.59060E-03
         0.20424E-03
         0.10549E-02
         0.18418E-02
         0.24559E-02
         0.26030E-02
         0.37964E-02
         0.39100E-02
         0.34621E-02
         0.29267E-02
         0.22211E-02
         0.13865E-02
         0.47130E-03
        -0.47130E-03
        -0.13865E-02
        -0.22211E-02
        -0.29267E-02
        -0.34621E-02
        -0.37964E-02
        -0.39100E-02
        -0.37964E-02
        -0.34621E-02
        -0.29267E-02
        -0.22211E-02
        -0.13865E-02
        -0.47130E-03
         0.47130E-03
         0.13865E-02
         0.22211E-02
         0.29267E-02
         0.34621E-02
         0.37964E-02
         0.10363E-02
         0.17429E-02
         0.23161E-02
         0.16670E-02
         0.30374E-02
         0.27836E-02
         0.12837E-02
         0.64820E-03
         0.12416E-03
        -0.13063E-03
         0.94069E-03
         0.11282E-02
         0.17439E-02
         0.40518E-03
         0.39757E-03
        -0.76763E-03
        -0.86746E-03
         0.45537E-03
        -0.18338E-02
        -0.18428E-02
        -0.27234E-02
        -0.27992E-02
        -0.25385E-02
        -0.19343E-02
        -0.99176E-03
        -0.14425E-02
        -0.31314E-03
        -0.11023E-02
        -0.18839E-02
        -0.18696E-02
        -0.16229E-03
        -0.94867E-03
         0.77997E-03
         0.17205E-02
         0.32092E-02
         0.28043E-02
         0.23044E-02
        -0.40434E-03
        -0.12093E-02
        -0.19443E-02
        -0.25025E-02
        -0.26359E-02
        -0.27630E-02
        -0.21141E-02
        -0.16093E-02
        -0.11954E-02
        -0.59095E-03
         0.20384E-03
         0.10546E-02
         0.18419E-02
         0.24560E-02
         0.26031E-02
         0.37964E-02
         0.39100E-02
         0.34621E-02
         0.29267E-02
         0.22211E-02
         0.13865E-02
         0.47130E-03
        -0.47130E-03
        -0.13865E-02
        -0.22211E-02
        -0.29267E-02
        -0.34621E-02
        -0.37964E-02
        -0.39100E-02
        -0.37964E-02
        -0.34621E-02
        -0.29267E-02
        -0.22211E-02
        -0.13865E-02
        -0.47130E-03
         0.47130E-03
         0.13865E-02
         0.22211E-02
         0.29267E-02
         0.34621E-02
         0.37964E-02
         0.10362E-02
         0.17427E-02
         0.23160E-02
         0.16668E-02
         0.30373E-02
         0.27839E-02
         0.12836E-02
         0.64796E-03
         0.12390E-03
        -0.13082E-03
         0.94036E-03
         0.11279E-02
         0.17435E-02
         0.40512E-03
         0.39755E-03
        -0.76798E-03
        -0.86756E-03
         0.45492E-03
        -0.18341E-02
        -0.18427E-02
        -0.27234E-02
        -0.27990E-02
        -0.25386E-02
        -0.19347E-02
        -0.99161E-03
        -0.14429E-02
        -0.31294E-03
        -0.11019E-02
        -0.18838E-02
        -0.18695E-02
        -0.16256E-03
        -0.94927E-03
         0.77931E-03
         0.17205E-02
         0.32096E-02
         0.28043E-02
         0.23043E-02
        -0.40420E-03
        -0.12093E-02
        -0.19443E-02
        -0.25024E-02
        -0.26358E-02
        -0.27627E-02
        -0.21143E-02
        -0.16093E-02
        -0.11955E-02
        -0.59130E-03
         0.20343E-03
         0.10543E-02
         0.18419E-02
         0.24561E-02
         0.26032E-02
         0.37964E-02
         0.39100E-02
         0.34621E-02
         0.29267E-02
         0.22211E-02
         0.13865E-02
         0.47130E-03
        -0.47130E-03
        -0.13865E-02
        -0.22211E-02
        -0.29267E-02
        -0.34621E-02
        -0.37964E-02
        -0.39100E-02
        -0.37964E-02
        -0.34621E-02
        -0.29267E-02
        -0.22211E-02
        -0.13865E-02
        -0.47130E-03
         0.47130E-03
         0.13865E-02
         0.22211E-02
         0.29267E-02
         0.34621E-02
         0.37964E-02
         0.10360E-02
         0.17425E-02
         0.23158E-02
         0.16666E-02
         0.30373E-02
         0.27842E-02
         0.12835E-02
         0.64771E-03
         0.12363E-03
        -0.13100E-03
         0.94003E-03
         0.11276E-02
         0.17432E-02
         0.40507E-03
         0.39754E-03
        -0.76834E-03
        -0.86767E-03
         0.45447E-03
        -0.18344E-02
        -0.18426E-02
        -0.27234E-02
        -0.27987E-02
        -0.25388E-02
        -0.19352E-02
        -0.99147E-03
        -0.14433E-02
        -0.31274E-03
        -0.11016E-02
        -0.18838E-02
        -0.18694E-02
        -0.16284E-03
        -0.94986E-03
         0.77865E-03
         0.17205E-02
         0.32099E-02
         0.28042E-02
         0.23042E-02
        -0.40407E-03
        -0.12093E-02
        -0.19442E-02
        -0.25024E-02
        -0.26358E-02
        -0.27624E-02
        -0.21144E-02
        -0.16094E-02
        -0.11956E-02
        -0.59165E-03
         0.20302E-03
         0.10540E-02
         0.18419E-02
         0.24563E-02
         0.26033E-02
         0.37964E-02
         0.39100E-02
         0.34621E-02
         0.29267E-02
         0.22211E-02
         0.13865E-02
         0.47130E-03
        -0.47130E-03
        -0.13865E-02
        -0.22211E-02
        -0.29267E-02
        -0.34621E-02
        -0.37964E-02
        -0.39100E-02
        -0.37964E-02
        -0.34621E-02
        -0.29267E-02
        -0.22211E-02
        -0.13865E-02
        -0.47130E-03
         0.47130E-03
         0.13865E-02
         0.22211E-02
         0.29267E-02
         0.34621E-02
         0.37964E-02
         0.10359E-02
         0.17423E-02
         0.23157E-02
         0.16664E-02
         0.30373E-02
         0.27846E-02
         0.12834E-02
         0.64747E-03
         0.12337E-03
        -0.13118E-03
         0.93970E-03
         0.11272E-02
         0.17428E-02
         0.40501E-03
         0.39752E-03
        -0.76869E-03
        -0.86778E-03
         0.45402E-03
        -0.18347E-02
        -0.18425E-02
        -0.27234E-02
        -0.27984E-02
        -0.25389E-02
        -0.19356E-02
        -0.99133E-03
        -0.14436E-02
        -0.31254E-03
        -0.11013E-02
        -0.18837E-02
        -0.18692E-02
        -0.16311E-03
        -0.95046E-03
         0.77799E-03
         0.17204E-02
         0.32102E-02
         0.28042E-02
         0.23041E-02
        -0.40393E-03
        -0.12093E-02
        -0.19442E-02
        -0.25024E-02
        -0.26357E-02
        -0.27621E-02
        -0.21146E-02
        -0.16094E-02
        -0.11957E-02
        -0.59200E-03
         0.20262E-03
         0.10536E-02
         0.18420E-02
         0.24564E-02
         0.26033E-02
         0.37964E-02
         0.39100E-02
         0.34621E-02
         0.29267E-02
         0.22211E-02
         0.13865E-02
         0.47130E-03
        -0.47130E-03
        -0.13865E-02
        -0.22211E-02
        -0.29267E-02
        -0.34621E-02
        -0.37964E-02
        -0.39100E-02
        -0.37964E-02
        -0.34621E-02
        -0.29267E-02
        -0.22211E-02
        -0.13865E-02
        -0.47130E-03
         0.47130E-03
         0.13865E-02
         0.22211E-02
         0.29267E-02
         0.34621E-02
         0.37964E-02
         0.10358E-02
         0.17422E-02
         0.23156E-02
         0.16662E-02
         0.30373E-02
         0.27849E-02
         0.12833E-02
         0.64722E-03
         0.12311E-03
        -0.13137E-03
         0.93937E-03
         0.11269E-02
         0.17424E-02
         0.40496E-03
         0.39750E-03
        -0.76904E-03
        -0.86789E-03
         0.45358E-03
        -0.18350E-02
        -0.18424E-02
        -0.27233E-02
        -0.27981E-02
        -0.25391E-02
        -0.19360E-02
        -0.99118E-03
        -0.14440E-02
        -0.31234E-03
        -0.11009E-02
        -0.18836E-02
        -0.18691E-02
        -0.16339E-03
        -0.95106E-03
         0.77733E-03
         0.17204E-02
         0.32105E-02
         0.28042E-02
         0.23040E-02
        -0.40379E-03
        -0.12093E-02
        -0.19441E-02
        -0.25023E-02
        -0.26356E-02
        -0.27618E-02
        -0.21147E-02
        -0.16094E-02
        -0.11958E-02
        -0.59235E-03
         0.20221E-03
         0.10533E-02
         0.18420E-02
         0.24565E-02
         0.26034E-02
         0.37964E-02
         0.39100E-02
         0.34621E-02
         0.29267E-02
         0.22211E-02
         0.13865E-02
         0.47130E-03
        -0.47130E-03
        -0.13865E-02
        -0.22211E-02
        -0.29267E-02
        -0.34621E-02
        -0.37964E-02
        -0.39100E-02
        -0.37964E-02
        -0.34621E-02
        -0.29267E-02
        -0.22211E-02
        -0.13865E-02
        -0.47130E-03
         0.47130E-03
         0.13865E-02
         0.22211E-02
         0.29267E-02
         0.34621E-02
         0.37964E-02
         0.10357E-02
         0.17420E-02
         0.23155E-02
         0.16660E-02
         0.30372E-02
         0.27853E-02
         0.12832E-02
         0.64698E-03
         0.12285E-03
        -0.13155E-03
         0.93903E-03
         0.11266E-02
         0.17420E-02
         0.40490E-03
         0.39749E-03
        -0.76940E-03
        -0.86800E-03
         0.45313E-03
        -0.18353E-02
        -0.18423E-02
        -0.27233E-02
        -0.27979E-02
        -0.25393E-02
        -0.19365E-02
        -0.99104E-03
        -0.14443E-02
        -0.31214E-03
        -0.11006E-02
        -0.18836E-02
        -0.18690E-02
        -0.16366E-03
        -0.95166E-03
         0.77667E-03
         0.17203E-02
         0.32109E-02
         0.28042E-02
         0.23039E-02
        -0.40365E-03
        -0.12093E-02
        -0.19441E-02
        -0.25023E-02
        -0.26355E-02
        -0.27615E-02
        -0.21148E-02
        -0.16095E-02
        -0.11960E-02
        -0.59270E-03
         0.20180E-03
         0.10530E-02
         0.18421E-02
         0.24566E-02
         0.26035E-02
         0.37964E-02
         0.39100E-02
         0.34621E-02
         0.29267E-02
         0.22211E-02
         0.13865E-02
         0.47130E-03
        -0.47130E-03
        -0.13865E-02
        -0.22211E-02
        -0.29267E-02
        -0.34621E-02
        -0.37964E-02
        -0.39100E-02
        -0.37964E-02
        -0.34621E-02
        -0.29267E-02
        -0.22211E-02
        -0.13865E-02
        -0.47130E-03
         0.47130E-03
         0.13865E-02
         0.22211E-02
         0.29267E-02
         0.34621E-02
         0.37964E-02
         0.10356E-02
         0.17418E-02
         0.23153E-02
         0.16657E-02
         0.30372E-02
         0.27856E-02
         0.12830E-02
         0.64673E-03
         0.12259E-03
        -0.13174E-03
         0.93870E-03
         0.11262E-02
         0.17416E-02
         0.40485E-03
         0.39747E-03
        -0.76975E-03
        -0.86811E-03
         0.45268E-03
        -0.18356E-02
        -0.18422E-02
        -0.27233E-02
        -0.27976E-02
        -0.25394E-02
        -0.19369E-02
        -0.99090E-03
        -0.14446E-02
        -0.31194E-03
        -0.11002E-02
        -0.18835E-02
        -0.18689E-02
        -0.16394E-03
        -0.95226E-03
         0.77601E-03
         0.17203E-02
         0.32112E-02
         0.28042E-02
         0.23038E-02
        -0.40352E-03
        -0.12093E-02
        -0.19441E-02
        -0.25023E-02
        -0.26354E-02
        -0.27612E-02
        -0.21150E-02
        -0.16095E-02
        -0.11961E-02
        -0.59305E-03
         0.20140E-03
         0.10527E-02
         0.18421E-02
         0.24568E-02
         0.26036E-02
         0.37964E-02
         0.39100E-02
         0.34621E-02
         0.29267E-02
         0.22211E-02
         0.13865E-02
         0.47130E-03
        -0.47130E-03
        -0.13865E-02
        -0.22211E-02
        -0.29267E-02
        -0.34621E-02
        -0.37964E-02
        -0.39100E-02
        -0.37964E-02
        -0.34621E-02
        -0.29267E-02
        -0.22211E-02
        -0.13865E-02
        -0.47130E-03
         0.47130E-03
         0.13865E-02
         0.22211E-02
         0.29267E-02
         0.34621E-02
         0.37964E-02
         0.10355E-02
         0.17416E-02
         0.23152E-02
         0.16655E-02
         0.30372E-02
         0.27860E-02
         0.12829E-02
         0.64649E-03
         0.12232E-03
        -0.13193E-03
         0.93837E-03
         0.11259E-02
         0.17412E-02
         0.40480E-03
         0.39745E-03
        -0.77011E-03
        -0.86822E-03
         0.45223E-03
        -0.18359E-02
        -0.18421E-02
        -0.27232E-02
        -0.27973E-02
        -0.25396E-02
        -0.19373E-02
        -0.99075E-03
        -0.14450E-02
        -0.31173E-03
        -0.10999E-02
        -0.18835E-02
        -0.18687E-02
        -0.16421E-03
        -0.95285E-03
         0.77535E-03
         0.17202E-02
         0.32115E-02
         0.28041E-02
         0.23037E-02
        -0.40338E-03
        -0.12093E-02
        -0.19440E-02
        -0.25023E-02
        -0.26353E-02
        -0.27609E-02
        -0.21151E-02
        -0.16096E-02
        -0.11962E-02
        -0.59340E-03
         0.20099E-03
         0.10524E-02
         0.18422E-02
         0.24569E-02
         0.26036E-02
         0.37964E-02
         0.39100E-02
         0.34621E-02
         0.29267E-02
         0.22211E-02
         0.13865E-02
         0.47130E-03
        -0.47130E-03
        -0.13865E-02
        -0.22211E-02
        -0.29267E-02
        -0.34621E-02
        -0.37964E-02
        -0.39100E-02
        -0.37964E-02
        -0.34621E-02
        -0.29267E-02
        -0.22211E-02
        -0.13865E-02
        -0.47130E-03
         0.47130E-03
         0.13865E-02
         0.22211E-02
         0.29267E-02
         0.34621E-02
         0.37964E-02
         0.10354E-02
         0.17414E-02
         0.23151E-02
         0.16653E-02
         0.30372E-02
         0.27863E-02
         0.12829E-02
         0.64624E-03
         0.12206E-03
        -0.13211E-03
         0.93804E-03
         0.11255E-02
         0.17408E-02
         0.40474E-03
         0.39744E-03
        -0.77046E-03
        -0.86832E-03
         0.45179E-03
        -0.18362E-02
        -0.18420E-02
        -0.27232E-02
        -0.27970E-02
        -0.25397E-02
        -0.19377E-02
        -0.99061E-03
        -0.14453E-02
        -0.31153E-03
        -0.10995E-02
        -0.18834E-02
        -0.18686E-02
        -0.16449E-03
        -0.95345E-03
         0.77469E-03
         0.17202E-02
         0.32119E-02
         0.28041E-02
         0.23036E-02
        -0.40324E-03
        -0.12093E-02
        -0.19440E-02
        -0.25022E-02
        -0.26352E-02
        -0.27606E-02
        -0.21152E-02
        -0.16096E-02
        -0.11963E-02
        -0.59375E-03
         0.20059E-03
         0.10521E-02
         0.18422E-02
         0.24570E-02
         0.26037E-02
         0.37964E-02
         0.39100E-02
         0.34621E-02
         0.29267E-02
         0.22211E-02
         0.13865E-02
         0.47130E-03
        -0.47130E-03
        -0.13865E-02
        -0.22211E-02
        -0.29267E-02
        -0.34621E-02
        -0.37964E-02
        -0.39100E-02
        -0.37964E-02
        -0.34621E-02
        -0.29267E-02
        -0.22211E-02
        -0.13865E-02
        -0.47130E-03
         0.47130E-03
         0.13865E-02
         0.22211E-02
         0.29267E-02
         0.34621E-02
         0.37964E-02
         0.10352E-02
         0.17413E-02
         0.23150E-02
         0.16651E-02
         0.30371E-02
         0.27866E-02
         0.12827E-02
         0.64600E-03
         0.12180E-03
        -0.13230E-03
         0.93771E-03
         0.11252E-02
         0.17404E-02
         0.40469E-03
         0.39742E-03
        -0.77081E-03
        -0.86843E-03
         0.45134E-03
        -0.18365E-02
        -0.18419E-02
        -0.27232E-02
        -0.27968E-02
        -0.25399E-02
        -0.19382E-02
        -0.99046E-03
        -0.14457E-02
        -0.31133E-03
        -0.10992E-02
        -0.18834E-02
        -0.18685E-02
        -0.16476E-03
        -0.95405E-03
         0.77402E-03
         0.17202E-02
         0.32122E-02
         0.28041E-02
         0.23034E-02
        -0.40310E-03
        -0.12093E-02
        -0.19440E-02
        -0.25022E-02
        -0.26351E-02
        -0.27602E-02
        -0.21154E-02
        -0.16097E-02
        -0.11964E-02
        -0.59409E-03
         0.20018E-03
         0.10518E-02
         0.18422E-02
         0.24571E-02
         0.26038E-02
         0.37964E-02
         0.39100E-02
         0.34621E-02
         0.29267E-02
         0.22211E-02
         0.13865E-02
         0.47130E-03
        -0.47130E-03
        -0.13865E-02
        -0.22211E-02
        -0.29267E-02
        -0.34621E-02
        -0.37964E-02
        -0.39100E-02
        -0.37964E-02
        -0.34621E-02
        -0.29267E-02
        -0.22211E-02
        -0.13865E-02
        -0.47130E-03
         0.47130E-03
         0.13865E-02
         0.22211E-02
         0.29267E-02
         0.34621E-02
         0.37964E-02
         0.10351E-02
         0.17411E-02
         0.23149E-02
         0.16649E-02
         0.30371E-02
         0.27870E-02
         0.12826E-02
         0.64575E-03
         0.12154E-03
        -0.13248E-03
         0.93738E-03
         0.11249E-02
         0.17400E-02
         0.40463E-03
         0.39740E-03
        -0.77117E-03
        -0.86854E-03
         0.45089E-03
        -0.18368E-02
        -0.18418E-02
        -0.27232E-02
        -0.27965E-02
        -0.25400E-02
        -0.19386E-02
        -0.99032E-03
        -0.14460E-02
        -0.31113E-03
        -0.10988E-02
        -0.18833E-02
        -0.18683E-02
        -0.16504E-03
        -0.95465E-03
         0.77336E-03
         0.17201E-02
         0.32125E-02
         0.28041E-02
         0.23033E-02
        -0.40296E-03
        -0.12093E-02
        -0.19439E-02
        -0.25022E-02
        -0.26350E-02
        -0.27599E-02
        -0.21155E-02
        -0.16097E-02
        -0.11965E-02
        -0.59444E-03
         0.19977E-03
         0.10515E-02
         0.18423E-02
         0.24573E-02
         0.26039E-02
         0.37964E-02
         0.39100E-02
         0.34621E-02
         0.29267E-02
         0.22211E-02
         0.13865E-02
         0.47130E-03
        -0.47130E-03
        -0.13865E-02
        -0.22211E-02
        -0.29267E-02
        -0.34621E-02
        -0.37964E-02
        -0.39100E-02
        -0.37964E-02
        -0.34621E-02
        -0.29267E-02
        -0.22211E-02
        -0.13865E-02
        -0.47130E-03
         0.47130E-03
         0.13865E-02
         0.22211E-02
         0.29267E-02
         0.34621E-02
         0.37964E-02
  
SCALARS           initial_coordinate_y  double 1
LOOKUP_TABLE default
         0.67292E-03
         0.12308E-02
         0.59151E-03
        -0.33775E-03
         0.67237E-03
         0.12301E-02
         0.59098E-03
        -0.33851E-03
         0.14882E-03
        -0.67643E-03
         0.14846E-03
        -0.67692E-03
         0.18412E-02
         0.14576E-02
         0.18410E-02
         0.14566E-02
         0.29933E-03
         0.11672E-02
         0.29819E-03
         0.11655E-02
         0.22748E-02
         0.28286E-02
         0.24238E-02
         0.22746E-02
         0.28291E-02
         0.24236E-02
         0.21685E-02
         0.29366E-02
         0.21684E-02
         0.29369E-02
        -0.10033E-02
         0.78969E-04
        -0.70318E-03
        -0.10032E-02
         0.78160E-04
        -0.70391E-03
        -0.71196E-03
         0.82749E-04
        -0.71210E-03
         0.82626E-04
        -0.77865E-03
         0.40713E-04
        -0.77882E-03
         0.40439E-04
        -0.15195E-02
        -0.13230E-02
        -0.15195E-02
        -0.13231E-02
         0.98847E-03
         0.98712E-03
        -0.17325E-02
        -0.17325E-02
         0.20220E-02
         0.20217E-02
         0.18615E-02
         0.18616E-02
         0.17175E-02
         0.90940E-03
         0.17175E-02
         0.90916E-03
        -0.19800E-02
        -0.23489E-02
        -0.19800E-02
        -0.23489E-02
        -0.17074E-02
        -0.17074E-02
        -0.14894E-02
        -0.14892E-02
         0.76036E-03
         0.12477E-02
         0.75936E-03
         0.12473E-02
         0.18665E-02
         0.18664E-02
         0.29038E-02
         0.29049E-02
         0.27207E-02
         0.27212E-02
         0.24642E-02
         0.24645E-02
         0.22359E-02
         0.16503E-02
         0.22359E-02
         0.16503E-02
         0.87493E-03
         0.87466E-03
        -0.21373E-02
        -0.21373E-02
        -0.26931E-02
        -0.26931E-02
        -0.31291E-02
        -0.30382E-02
        -0.31291E-02
        -0.30382E-02
        -0.28748E-02
        -0.28748E-02
        -0.26423E-02
        -0.26420E-02
        -0.23707E-02
        -0.23705E-02
        -0.21445E-02
        -0.15105E-02
        -0.21439E-02
        -0.15106E-02
         0.93572E-03
         0.00000E+00
         0.93572E-03
         0.00000E+00
         0.18171E-02
         0.18171E-02
         0.25928E-02
         0.25928E-02
         0.32179E-02
         0.32179E-02
         0.36559E-02
         0.36559E-02
         0.38815E-02
         0.38815E-02
         0.38815E-02
         0.38815E-02
         0.36559E-02
         0.36559E-02
         0.32179E-02
         0.32179E-02
         0.25928E-02
         0.25928E-02
         0.18171E-02
         0.18171E-02
         0.93572E-03
         0.93572E-03
         0.22152E-17
        -0.47884E-18
        -0.93572E-03
        -0.93572E-03
        -0.18171E-02
        -0.18171E-02
        -0.25928E-02
        -0.25928E-02
        -0.32179E-02
        -0.32179E-02
        -0.36559E-02
        -0.36559E-02
        -0.38815E-02
        -0.38815E-02
        -0.38815E-02
        -0.38815E-02
        -0.36559E-02
        -0.36559E-02
        -0.32179E-02
        -0.32179E-02
        -0.25928E-02
        -0.25928E-02
        -0.18171E-02
        -0.18171E-02
        -0.93572E-03
        -0.93572E-03
         0.67348E-03
         0.12314E-02
         0.59203E-03
        -0.33700E-03
         0.14918E-03
        -0.67594E-03
         0.18414E-02
         0.14586E-02
         0.30048E-03
         0.11690E-02
         0.22749E-02
         0.28282E-02
         0.24239E-02
         0.21685E-02
         0.29364E-02
        -0.10035E-02
         0.79778E-04
        -0.70245E-03
        -0.71182E-03
         0.82873E-04
        -0.77848E-03
         0.40986E-04
        -0.15194E-02
        -0.13228E-02
         0.98983E-03
        -0.17324E-02
         0.20223E-02
         0.18614E-02
         0.17175E-02
         0.90964E-03
        -0.19800E-02
        -0.23489E-02
        -0.17074E-02
        -0.14896E-02
         0.76137E-03
         0.12481E-02
         0.18665E-02
         0.29027E-02
         0.27202E-02
         0.24640E-02
         0.22359E-02
         0.16503E-02
         0.87519E-03
        -0.21373E-02
        -0.26932E-02
        -0.31291E-02
        -0.30382E-02
        -0.28748E-02
        -0.26426E-02
        -0.23709E-02
        -0.21450E-02
        -0.15104E-02
         0.93572E-03
         0.00000E+00
         0.18171E-02
         0.25928E-02
         0.32179E-02
         0.36559E-02
         0.38815E-02
         0.38815E-02
         0.36559E-02
         0.32179E-02
         0.25928E-02
         0.18171E-02
         0.93572E-03
        -0.47884E-18
        -0.93572E-03
        -0.18171E-02
        -0.25928E-02
        -0.32179E-02
        -0.36559E-02
        -0.38815E-02
        -0.38815E-02
        -0.36559E-02
        -0.32179E-02
        -0.25928E-02
        -0.18171E-02
        -0.93572E-03
         0.67403E-03
         0.12321E-02
         0.59255E-03
        -0.33624E-03
         0.14955E-03
        -0.67544E-03
         0.18415E-02
         0.14596E-02
         0.30163E-03
         0.11707E-02
         0.22750E-02
         0.28277E-02
         0.24241E-02
         0.21685E-02
         0.29361E-02
        -0.10036E-02
         0.80588E-04
        -0.70173E-03
        -0.71168E-03
         0.82996E-04
        -0.77831E-03
         0.41259E-04
        -0.15194E-02
        -0.13227E-02
         0.99119E-03
        -0.17324E-02
         0.20226E-02
         0.18613E-02
         0.17175E-02
         0.90988E-03
        -0.19801E-02
        -0.23490E-02
        -0.17074E-02
        -0.14899E-02
         0.76237E-03
         0.12485E-02
         0.18666E-02
         0.29017E-02
         0.27198E-02
         0.24638E-02
         0.22359E-02
         0.16503E-02
         0.87545E-03
        -0.21374E-02
        -0.26932E-02
        -0.31291E-02
        -0.30382E-02
        -0.28748E-02
        -0.26428E-02
        -0.23711E-02
        -0.21456E-02
        -0.15103E-02
         0.93572E-03
         0.00000E+00
         0.18171E-02
         0.25928E-02
         0.32179E-02
         0.36559E-02
         0.38815E-02
         0.38815E-02
         0.36559E-02
         0.32179E-02
         0.25928E-02
         0.18171E-02
         0.93572E-03
         0.39516E-17
        -0.93572E-03
        -0.18171E-02
        -0.25928E-02
        -0.32179E-02
        -0.36559E-02
        -0.38815E-02
        -0.38815E-02
        -0.36559E-02
        -0.32179E-02
        -0.25928E-02
        -0.18171E-02
        -0.93572E-03
         0.67459E-03
         0.12328E-02
         0.59308E-03
        -0.33549E-03
         0.14991E-03
        -0.67495E-03
         0.18417E-02
         0.14606E-02
         0.30278E-03
         0.11725E-02
         0.22752E-02
         0.28273E-02
         0.24242E-02
         0.21686E-02
         0.29359E-02
        -0.10038E-02
         0.81397E-04
        -0.70100E-03
        -0.71154E-03
         0.83120E-04
        -0.77814E-03
         0.41533E-04
        -0.15193E-02
        -0.13227E-02
         0.99254E-03
        -0.17324E-02
         0.20228E-02
         0.18611E-02
         0.17175E-02
         0.91012E-03
        -0.19801E-02
        -0.23490E-02
        -0.17074E-02
        -0.14901E-02
         0.76338E-03
         0.12490E-02
         0.18666E-02
         0.29006E-02
         0.27193E-02
         0.24636E-02
         0.22359E-02
         0.16503E-02
         0.87571E-03
        -0.21374E-02
        -0.26932E-02
        -0.31291E-02
        -0.30382E-02
        -0.28748E-02
        -0.26431E-02
        -0.23713E-02
        -0.21461E-02
        -0.15102E-02
         0.93572E-03
         0.00000E+00
         0.18171E-02
         0.25928E-02
         0.32179E-02
         0.36559E-02
         0.38815E-02
         0.38815E-02
         0.36559E-02
         0.32179E-02
         0.25928E-02
         0.18171E-02
         0.93572E-03
        -0.47884E-18
        -0.93572E-03
        -0.18171E-02
        -0.25928E-02
        -0.32179E-02
        -0.36559E-02
        -0.38815E-02
        -0.38815E-02
        -0.36559E-02
        -0.32179E-02
        -0.25928E-02
        -0.18171E-02
        -0.93572E-03
         0.67514E-03
         0.12334E-02
         0.59360E-03
        -0.33474E-03
         0.15027E-03
        -0.67446E-03
         0.18419E-02
         0.14616E-02
         0.30393E-03
         0.11742E-02
         0.22753E-02
         0.28269E-02
         0.24244E-02
         0.21686E-02
         0.29356E-02
        -0.10039E-02
         0.82206E-04
        -0.70028E-03
        -0.71140E-03
         0.83243E-04
        -0.77797E-03
         0.41806E-04
        -0.15193E-02
        -0.13226E-02
         0.99390E-03
        -0.17323E-02
         0.20231E-02
         0.18610E-02
         0.17175E-02
         0.91036E-03
        -0.19801E-02
        -0.23490E-02
        -0.17074E-02
        -0.14904E-02
         0.76439E-03
         0.12494E-02
         0.18666E-02
         0.28995E-02
         0.27188E-02
         0.24633E-02
         0.22359E-02
         0.16503E-02
         0.87597E-03
        -0.21374E-02
        -0.26932E-02
        -0.31291E-02
        -0.30382E-02
        -0.28748E-02
        -0.26434E-02
        -0.23715E-02
        -0.21467E-02
        -0.15101E-02
         0.93572E-03
         0.00000E+00
         0.18171E-02
         0.25928E-02
         0.32179E-02
         0.36559E-02
         0.38815E-02
         0.38815E-02
         0.36559E-02
         0.32179E-02
         0.25928E-02
         0.18171E-02
         0.93572E-03
        -0.47884E-18
        -0.93572E-03
        -0.18171E-02
        -0.25928E-02
        -0.32179E-02
        -0.36559E-02
        -0.38815E-02
        -0.38815E-02
        -0.36559E-02
        -0.32179E-02
        -0.25928E-02
        -0.18171E-02
        -0.93572E-03
         0.67570E-03
         0.12341E-02
         0.59412E-03
        -0.33398E-03
         0.15064E-03
        -0.67396E-03
         0.18421E-02
         0.14626E-02
         0.30507E-03
         0.11760E-02
         0.22754E-02
         0.28264E-02
         0.24245E-02
         0.21686E-02
         0.29353E-02
        -0.10040E-02
         0.83015E-04
        -0.69955E-03
        -0.71126E-03
         0.83367E-04
        -0.77780E-03
         0.42080E-04
        -0.15192E-02
        -0.13224E-02
         0.99526E-03
        -0.17323E-02
         0.20234E-02
         0.18609E-02
         0.17175E-02
         0.91060E-03
        -0.19801E-02
        -0.23490E-02
        -0.17074E-02
        -0.14906E-02
         0.76539E-03
         0.12498E-02
         0.18667E-02
         0.28984E-02
         0.27184E-02
         0.24631E-02
         0.22359E-02
         0.16503E-02
         0.87623E-03
        -0.21374E-02
        -0.26932E-02
        -0.31291E-02
        -0.30382E-02
        -0.28748E-02
        -0.26436E-02
        -0.23717E-02
        -0.21472E-02
        -0.15100E-02
         0.93572E-03
         0.00000E+00
         0.18171E-02
         0.25928E-02
         0.32179E-02
         0.36559E-02
         0.38815E-02
         0.38815E-02
         0.36559E-02
         0.32179E-02
         0.25928E-02
         0.18171E-02
         0.93572E-03
        -0.47884E-18
        -0.93572E-03
        -0.18171E-02
        -0.25928E-02
        -0.32179E-02
        -0.36559E-02
        -0.38815E-02
        -0.38815E-02
        -0.36559E-02
        -0.32179E-02
        -0.25928E-02
        -0.18171E-02
        -0.93572E-03
         0.67625E-03
         0.12348E-02
         0.59465E-03
        -0.33323E-03
         0.15100E-03
        -0.67347E-03
         0.18423E-02
         0.14636E-02
         0.30622E-03
         0.11777E-02
         0.22755E-02
         0.28260E-02
         0.24247E-02
         0.21687E-02
         0.29351E-02
        -0.10042E-02
         0.83825E-04
        -0.69882E-03
        -0.71112E-03
         0.83490E-04
        -0.77763E-03
         0.42353E-04
        -0.15192E-02
        -0.13223E-02
         0.99661E-03
        -0.17322E-02
         0.20237E-02
         0.18607E-02
         0.17175E-02
         0.91084E-03
        -0.19801E-02
        -0.23491E-02
        -0.17074E-02
        -0.14909E-02
         0.76640E-03
         0.12503E-02
         0.18667E-02
         0.28974E-02
         0.27179E-02
         0.24629E-02
         0.22359E-02
         0.16503E-02
         0.87650E-03
        -0.21374E-02
        -0.26933E-02
        -0.31291E-02
        -0.30382E-02
        -0.28749E-02
        -0.26439E-02
        -0.23719E-02
        -0.21478E-02
        -0.15099E-02
         0.93572E-03
         0.00000E+00
         0.18171E-02
         0.25928E-02
         0.32179E-02
         0.36559E-02
         0.38815E-02
         0.38815E-02
         0.36559E-02
         0.32179E-02
         0.25928E-02
         0.18171E-02
         0.93572E-03
        -0.47884E-18
        -0.93572E-03
        -0.18171E-02
        -0.25928E-02
        -0.32179E-02
        -0.36559E-02
        -0.38815E-02
        -0.38815E-02
        -0.36559E-02
        -0.32179E-02
        -0.25928E-02
        -0.18171E-02
        -0.93572E-03
         0.67680E-03
         0.12354E-02
         0.59517E-03
        -0.33247E-03
         0.15136E-03
        -0.67298E-03
         0.18425E-02
         0.14646E-02
         0.30737E-03
         0.11795E-02
         0.22757E-02
         0.28255E-02
         0.24248E-02
         0.21687E-02
         0.29348E-02
        -0.10043E-02
         0.84634E-04
        -0.69810E-03
        -0.71098E-03
         0.83614E-04
        -0.77746E-03
         0.42626E-04
        -0.15191E-02
        -0.13223E-02
         0.99797E-03
        -0.17322E-02
         0.20240E-02
         0.18606E-02
         0.17175E-02
         0.91108E-03
        -0.19802E-02
        -0.23491E-02
        -0.17074E-02
        -0.14911E-02
         0.76740E-03
         0.12507E-02
         0.18668E-02
         0.28963E-02
         0.27174E-02
         0.24627E-02
         0.22358E-02
         0.16503E-02
         0.87676E-03
        -0.21374E-02
        -0.26933E-02
        -0.31291E-02
        -0.30382E-02
        -0.28749E-02
        -0.26442E-02
        -0.23721E-02
        -0.21483E-02
        -0.15097E-02
         0.93572E-03
         0.00000E+00
         0.18171E-02
         0.25928E-02
         0.32179E-02
         0.36559E-02
         0.38815E-02
         0.38815E-02
         0.36559E-02
         0.32179E-02
         0.25928E-02
         0.18171E-02
         0.93572E-03
        -0.47884E-18
        -0.93572E-03
        -0.18171E-02
        -0.25928E-02
        -0.32179E-02
        -0.36559E-02
        -0.38815E-02
        -0.38815E-02
        -0.36559E-02
        -0.32179E-02
        -0.25928E-02
        -0.18171E-02
        -0.93572E-03
         0.67736E-03
         0.12361E-02
         0.59570E-03
        -0.33172E-03
         0.15173E-03
        -0.67248E-03
         0.18427E-02
         0.14656E-02
         0.30852E-03
         0.11812E-02
         0.22758E-02
         0.28251E-02
         0.24249E-02
         0.21688E-02
         0.29345E-02
        -0.10044E-02
         0.85443E-04
        -0.69737E-03
        -0.71084E-03
         0.83737E-04
        -0.77729E-03
         0.42899E-04
        -0.15191E-02
        -0.13222E-02
         0.99932E-03
        -0.17322E-02
         0.20243E-02
         0.18605E-02
         0.17175E-02
         0.91132E-03
        -0.19802E-02
        -0.23491E-02
        -0.17074E-02
        -0.14914E-02
         0.76841E-03
         0.12511E-02
         0.18668E-02
         0.28952E-02
         0.27170E-02
         0.24624E-02
         0.22358E-02
         0.16503E-02
         0.87702E-03
        -0.21374E-02
        -0.26933E-02
        -0.31291E-02
        -0.30382E-02
        -0.28749E-02
        -0.26444E-02
        -0.23723E-02
        -0.21489E-02
        -0.15096E-02
         0.93572E-03
         0.00000E+00
         0.18171E-02
         0.25928E-02
         0.32179E-02
         0.36559E-02
         0.38815E-02
         0.38815E-02
         0.36559E-02
         0.32179E-02
         0.25928E-02
         0.18171E-02
         0.93572E-03
        -0.47884E-18
        -0.93572E-03
        -0.18171E-02
        -0.25928E-02
        -0.32179E-02
        -0.36559E-02
        -0.38815E-02
        -0.38815E-02
        -0.36559E-02
        -0.32179E-02
        -0.25928E-02
        -0.18171E-02
        -0.93572E-03
         0.67791E-03
         0.12368E-02
         0.59622E-03
        -0.33096E-03
         0.15209E-03
        -0.67199E-03
         0.18429E-02
         0.14666E-02
         0.30967E-03
         0.11830E-02
         0.22759E-02
         0.28247E-02
         0.24251E-02
         0.21688E-02
         0.29343E-02
        -0.10046E-02
         0.86253E-04
        -0.69665E-03
        -0.71070E-03
         0.83861E-04
        -0.77712E-03
         0.43173E-04
        -0.15190E-02
        -0.13220E-02
         0.10007E-02
        -0.17321E-02
         0.20245E-02
         0.18603E-02
         0.17175E-02
         0.91156E-03
        -0.19802E-02
        -0.23491E-02
        -0.17074E-02
        -0.14916E-02
         0.76941E-03
         0.12515E-02
         0.18668E-02
         0.28942E-02
         0.27165E-02
         0.24622E-02
         0.22358E-02
         0.16503E-02
         0.87728E-03
        -0.21374E-02
        -0.26933E-02
        -0.31291E-02
        -0.30382E-02
        -0.28749E-02
        -0.26447E-02
        -0.23725E-02
        -0.21494E-02
        -0.15095E-02
         0.93572E-03
         0.00000E+00
         0.18171E-02
         0.25928E-02
         0.32179E-02
         0.36559E-02
         0.38815E-02
         0.38815E-02
         0.36559E-02
         0.32179E-02
         0.25928E-02
         0.18171E-02
         0.93572E-03
        -0.47884E-18
        -0.93572E-03
        -0.18171E-02
        -0.25928E-02
        -0.32179E-02
        -0.36559E-02
        -0.38815E-02
        -0.38815E-02
        -0.36559E-02
        -0.32179E-02
        -0.25928E-02
        -0.18171E-02
        -0.93572E-03
         0.67847E-03
         0.12374E-02
         0.59674E-03
        -0.33021E-03
         0.15245E-03
        -0.67150E-03
         0.18430E-02
         0.14676E-02
         0.31081E-03
         0.11847E-02
         0.22761E-02
         0.28242E-02
         0.24252E-02
         0.21688E-02
         0.29340E-02
        -0.10047E-02
         0.87062E-04
        -0.69592E-03
        -0.71056E-03
         0.83985E-04
        -0.77695E-03
         0.43446E-04
        -0.15190E-02
        -0.13219E-02
         0.10020E-02
        -0.17321E-02
         0.20248E-02
         0.18602E-02
         0.17175E-02
         0.91180E-03
        -0.19803E-02
        -0.23491E-02
        -0.17073E-02
        -0.14919E-02
         0.77042E-03
         0.12520E-02
         0.18669E-02
         0.28931E-02
         0.27160E-02
         0.24620E-02
         0.22358E-02
         0.16503E-02
         0.87754E-03
        -0.21374E-02
        -0.26933E-02
        -0.31291E-02
        -0.30382E-02
        -0.28749E-02
        -0.26450E-02
        -0.23727E-02
        -0.21500E-02
        -0.15094E-02
         0.93572E-03
         0.00000E+00
         0.18171E-02
         0.25928E-02
         0.32179E-02
         0.36559E-02
         0.38815E-02
         0.38815E-02
         0.36559E-02
         0.32179E-02
         0.25928E-02
         0.18171E-02
         0.93572E-03
         0.39516E-17
        -0.93572E-03
        -0.18171E-02
        -0.25928E-02
        -0.32179E-02
        -0.36559E-02
        -0.38815E-02
        -0.38815E-02
        -0.36559E-02
        -0.32179E-02
        -0.25928E-02
        -0.18171E-02
        -0.93572E-03
         0.67902E-03
         0.12381E-02
         0.59727E-03
        -0.32945E-03
         0.15282E-03
        -0.67100E-03
         0.18432E-02
         0.14686E-02
         0.31196E-03
         0.11865E-02
         0.22762E-02
         0.28238E-02
         0.24254E-02
         0.21688E-02
         0.29337E-02
        -0.10049E-02
         0.87871E-04
        -0.69519E-03
        -0.71042E-03
         0.84108E-04
        -0.77678E-03
         0.43720E-04
        -0.15189E-02
        -0.13219E-02
         0.10034E-02
        -0.17320E-02
         0.20251E-02
         0.18601E-02
         0.17175E-02
         0.91204E-03
        -0.19803E-02
        -0.23492E-02
        -0.17073E-02
        -0.14921E-02
         0.77142E-03
         0.12524E-02
         0.18669E-02
         0.28920E-02
         0.27155E-02
         0.24618E-02
         0.22358E-02
         0.16503E-02
         0.87781E-03
        -0.21374E-02
        -0.26934E-02
        -0.31291E-02
        -0.30382E-02
        -0.28749E-02
        -0.26452E-02
        -0.23729E-02
        -0.21505E-02
        -0.15093E-02
         0.93572E-03
         0.00000E+00
         0.18171E-02
         0.25928E-02
         0.32179E-02
         0.36559E-02
         0.38815E-02
         0.38815E-02
         0.36559E-02
         0.32179E-02
         0.25928E-02
         0.18171E-02
         0.93572E-03
        -0.47884E-18
        -0.93572E-03
        -0.18171E-02
        -0.25928E-02
        -0.32179E-02
        -0.36559E-02
        -0.38815E-02
        -0.38815E-02
        -0.36559E-02
        -0.32179E-02
        -0.25928E-02
        -0.18171E-02
        -0.93572E-03
         0.67958E-03
         0.12387E-02
         0.59779E-03
        -0.32870E-03
         0.15318E-03
        -0.67051E-03
         0.18434E-02
         0.14696E-02
         0.31311E-03
         0.11882E-02
         0.22763E-02
         0.28233E-02
         0.24255E-02
         0.21689E-02
         0.29335E-02
        -0.10050E-02
         0.88681E-04
        -0.69447E-03
        -0.71028E-03
         0.84232E-04
        -0.77661E-03
         0.43993E-04
        -0.15189E-02
        -0.13218E-02
         0.10048E-02
        -0.17320E-02
         0.20254E-02
         0.18599E-02
         0.17175E-02
         0.91228E-03
        -0.19803E-02
        -0.23492E-02
        -0.17073E-02
        -0.14923E-02
         0.77243E-03
         0.12528E-02
         0.18670E-02
         0.28910E-02
         0.27151E-02
         0.24615E-02
         0.22358E-02
         0.16503E-02
         0.87807E-03
        -0.21374E-02
        -0.26934E-02
        -0.31291E-02
        -0.30382E-02
        -0.28749E-02
        -0.26455E-02
        -0.23732E-02
        -0.21511E-02
        -0.15092E-02
         0.93572E-03
         0.00000E+00
         0.18171E-02
         0.25928E-02
         0.32179E-02
         0.36559E-02
         0.38815E-02
         0.38815E-02
         0.36559E-02
         0.32179E-02
         0.25928E-02
         0.18171E-02
         0.93572E-03
         0.22152E-17
        -0.93572E-03
        -0.18171E-02
        -0.25928E-02
        -0.32179E-02
        -0.36559E-02
        -0.38815E-02
        -0.38815E-02
        -0.36559E-02
        -0.32179E-02
        -0.25928E-02
        -0.18171E-02
        -0.93572E-03
         0.68013E-03
         0.12394E-02
         0.59831E-03
        -0.32794E-03
         0.15354E-03
        -0.67002E-03
         0.18436E-02
         0.14706E-02
         0.31426E-03
         0.11900E-02
         0.22765E-02
         0.28229E-02
         0.24257E-02
         0.21689E-02
         0.29332E-02
        -0.10051E-02
         0.89490E-04
        -0.69374E-03
        -0.71013E-03
         0.84355E-04
        -0.77644E-03
         0.44266E-04
        -0.15188E-02
        -0.13216E-02
         0.10061E-02
        -0.17320E-02
         0.20257E-02
         0.18598E-02
         0.17175E-02
         0.91252E-03
        -0.19803E-02
        -0.23492E-02
        -0.17073E-02
        -0.14926E-02
         0.77343E-03
         0.12533E-02
         0.18670E-02
         0.28899E-02
         0.27146E-02
         0.24613E-02
         0.22358E-02
         0.16503E-02
         0.87833E-03
        -0.21374E-02
        -0.26934E-02
        -0.31291E-02
        -0.30382E-02
        -0.28750E-02
        -0.26458E-02
        -0.23734E-02
        -0.21516E-02
        -0.15091E-02
         0.93572E-03
         0.00000E+00
         0.18171E-02
         0.25928E-02
         0.32179E-02
         0.36559E-02
         0.38815E-02
         0.38815E-02
         0.36559E-02
         0.32179E-02
         0.25928E-02
         0.18171E-02
         0.93572E-03
        -0.47884E-18
        -0.93572E-03
        -0.18171E-02
        -0.25928E-02
        -0.32179E-02
        -0.36559E-02
        -0.38815E-02
        -0.38815E-02
        -0.36559E-02
        -0.32179E-02
        -0.25928E-02
        -0.18171E-02
        -0.93572E-03
         0.68068E-03
         0.12401E-02
         0.59884E-03
        -0.32719E-03
         0.15391E-03
        -0.66953E-03
         0.18438E-02
         0.14716E-02
         0.31541E-03
         0.11917E-02
         0.22766E-02
         0.28225E-02
         0.24258E-02
         0.21690E-02
         0.29330E-02
        -0.10053E-02
         0.90299E-04
        -0.69302E-03
        -0.70999E-03
         0.84479E-04
        -0.77627E-03
         0.44540E-04
        -0.15188E-02
        -0.13215E-02
         0.10075E-02
        -0.17319E-02
         0.20260E-02
         0.18597E-02
         0.17175E-02
         0.91276E-03
        -0.19804E-02
        -0.23493E-02
        -0.17073E-02
        -0.14928E-02
         0.77444E-03
         0.12537E-02
         0.18670E-02
         0.28888E-02
         0.27141E-02
         0.24611E-02
         0.22358E-02
         0.16503E-02
         0.87859E-03
        -0.21374E-02
        -0.26934E-02
        -0.31291E-02
        -0.30382E-02
        -0.28750E-02
        -0.26460E-02
        -0.23736E-02
        -0.21521E-02
        -0.15090E-02
         0.93572E-03
         0.00000E+00
         0.18171E-02
         0.25928E-02
         0.32179E-02
         0.36559E-02
         0.38815E-02
         0.38815E-02
         0.36559E-02
         0.32179E-02
         0.25928E-02
         0.18171E-02
         0.93572E-03
         0.22152E-17
        -0.93572E-03
        -0.18171E-02
        -0.25928E-02
        -0.32179E-02
        -0.36559E-02
        -0.38815E-02
        -0.38815E-02
        -0.36559E-02
        -0.32179E-02
        -0.25928E-02
        -0.18171E-02
        -0.93572E-03
         0.68124E-03
         0.12407E-02
         0.59936E-03
        -0.32643E-03
         0.15427E-03
        -0.66903E-03
         0.18440E-02
         0.14727E-02
         0.31656E-03
         0.11935E-02
         0.22767E-02
         0.28220E-02
         0.24260E-02
         0.21690E-02
         0.29327E-02
        -0.10054E-02
         0.91108E-04
        -0.69229E-03
        -0.70985E-03
         0.84602E-04
        -0.77610E-03
         0.44813E-04
        -0.15187E-02
        -0.13215E-02
         0.10088E-02
        -0.17319E-02
         0.20262E-02
         0.18595E-02
         0.17175E-02
         0.91300E-03
        -0.19804E-02
        -0.23493E-02
        -0.17073E-02
        -0.14931E-02
         0.77544E-03
         0.12541E-02
         0.18671E-02
         0.28877E-02
         0.27137E-02
         0.24609E-02
         0.22358E-02
         0.16503E-02
         0.87885E-03
        -0.21374E-02
        -0.26934E-02
        -0.31291E-02
        -0.30382E-02
        -0.28750E-02
        -0.26463E-02
        -0.23738E-02
        -0.21527E-02
        -0.15088E-02
         0.93572E-03
         0.00000E+00
         0.18171E-02
         0.25928E-02
         0.32179E-02
         0.36559E-02
         0.38815E-02
         0.38815E-02
         0.36559E-02
         0.32179E-02
         0.25928E-02
         0.18171E-02
         0.93572E-03
        -0.47884E-18
        -0.93572E-03
        -0.18171E-02
        -0.25928E-02
        -0.32179E-02
        -0.36559E-02
        -0.38815E-02
        -0.38815E-02
        -0.36559E-02
        -0.32179E-02
        -0.25928E-02
        -0.18171E-02
        -0.93572E-03
         0.68179E-03
         0.12414E-02
         0.59988E-03
        -0.32568E-03
         0.15463E-03
        -0.66854E-03
         0.18442E-02
         0.14736E-02
         0.31770E-03
         0.11952E-02
         0.22768E-02
         0.28216E-02
         0.24261E-02
         0.21690E-02
         0.29324E-02
        -0.10056E-02
         0.91918E-04
        -0.69156E-03
        -0.70971E-03
         0.84726E-04
        -0.77593E-03
         0.45086E-04
        -0.15187E-02
        -0.13213E-02
         0.10102E-02
        -0.17318E-02
         0.20265E-02
         0.18594E-02
         0.17175E-02
         0.91324E-03
        -0.19804E-02
        -0.23493E-02
        -0.17073E-02
        -0.14933E-02
         0.77645E-03
         0.12545E-02
         0.18671E-02
         0.28867E-02
         0.27132E-02
         0.24606E-02
         0.22358E-02
         0.16503E-02
         0.87912E-03
        -0.21374E-02
        -0.26935E-02
        -0.31291E-02
        -0.30381E-02
        -0.28750E-02
        -0.26466E-02
        -0.23740E-02
        -0.21533E-02
        -0.15087E-02
         0.93572E-03
         0.00000E+00
         0.18171E-02
         0.25928E-02
         0.32179E-02
         0.36559E-02
         0.38815E-02
         0.38815E-02
         0.36559E-02
         0.32179E-02
         0.25928E-02
         0.18171E-02
         0.93572E-03
        -0.47884E-18
        -0.93572E-03
        -0.18171E-02
        -0.25928E-02
        -0.32179E-02
        -0.36559E-02
        -0.38815E-02
        -0.38815E-02
        -0.36559E-02
        -0.32179E-02
        -0.25928E-02
        -0.18171E-02
        -0.93572E-03
         0.68235E-03
         0.12421E-02
         0.60041E-03
        -0.32493E-03
         0.15500E-03
        -0.66805E-03
         0.18444E-02
         0.14747E-02
         0.31885E-03
         0.11970E-02
         0.22770E-02
         0.28211E-02
         0.24262E-02
         0.21691E-02
         0.29322E-02
        -0.10057E-02
         0.92727E-04
        -0.69084E-03
        -0.70957E-03
         0.84849E-04
        -0.77576E-03
         0.45359E-04
        -0.15186E-02
        -0.13212E-02
         0.10115E-02
        -0.17318E-02
         0.20268E-02
         0.18593E-02
         0.17175E-02
         0.91347E-03
        -0.19804E-02
        -0.23493E-02
        -0.17073E-02
        -0.14936E-02
         0.77745E-03
         0.12550E-02
         0.18671E-02
         0.28856E-02
         0.27127E-02
         0.24604E-02
         0.22358E-02
         0.16503E-02
         0.87938E-03
        -0.21374E-02
        -0.26935E-02
        -0.31291E-02
        -0.30381E-02
        -0.28750E-02
        -0.26468E-02
        -0.23742E-02
        -0.21538E-02
        -0.15086E-02
         0.93572E-03
         0.00000E+00
         0.18171E-02
         0.25928E-02
         0.32179E-02
         0.36559E-02
         0.38815E-02
         0.38815E-02
         0.36559E-02
         0.32179E-02
         0.25928E-02
         0.18171E-02
         0.93572E-03
        -0.47884E-18
        -0.93572E-03
        -0.18171E-02
        -0.25928E-02
        -0.32179E-02
        -0.36559E-02
        -0.38815E-02
        -0.38815E-02
        -0.36559E-02
        -0.32179E-02
        -0.25928E-02
        -0.18171E-02
        -0.93572E-03
         0.68290E-03
         0.12427E-02
         0.60093E-03
        -0.32417E-03
         0.15536E-03
        -0.66755E-03
         0.18445E-02
         0.14757E-02
         0.32000E-03
         0.11987E-02
         0.22771E-02
         0.28207E-02
         0.24264E-02
         0.21691E-02
         0.29319E-02
        -0.10058E-02
         0.93536E-04
        -0.69011E-03
        -0.70943E-03
         0.84973E-04
        -0.77559E-03
         0.45633E-04
        -0.15186E-02
        -0.13212E-02
         0.10129E-02
        -0.17318E-02
         0.20271E-02
         0.18592E-02
         0.17175E-02
         0.91371E-03
        -0.19805E-02
        -0.23493E-02
        -0.17073E-02
        -0.14938E-02
         0.77846E-03
         0.12554E-02
         0.18672E-02
         0.28845E-02
         0.27122E-02
         0.24602E-02
         0.22358E-02
         0.16502E-02
         0.87964E-03
        -0.21374E-02
        -0.26935E-02
        -0.31291E-02
        -0.30381E-02
        -0.28750E-02
        -0.26471E-02
        -0.23744E-02
        -0.21543E-02
        -0.15085E-02
         0.93572E-03
         0.00000E+00
         0.18171E-02
         0.25928E-02
         0.32179E-02
         0.36559E-02
         0.38815E-02
         0.38815E-02
         0.36559E-02
         0.32179E-02
         0.25928E-02
         0.18171E-02
         0.93572E-03
        -0.47884E-18
        -0.93572E-03
        -0.18171E-02
        -0.25928E-02
        -0.32179E-02
        -0.36559E-02
        -0.38815E-02
        -0.38815E-02
        -0.36559E-02
        -0.32179E-02
        -0.25928E-02
        -0.18171E-02
        -0.93572E-03
         0.68346E-03
         0.12434E-02
         0.60145E-03
        -0.32342E-03
         0.15572E-03
        -0.66706E-03
         0.18447E-02
         0.14767E-02
         0.32115E-03
         0.12005E-02
         0.22772E-02
         0.28203E-02
         0.24265E-02
         0.21691E-02
         0.29316E-02
        -0.10060E-02
         0.94345E-04
        -0.68939E-03
        -0.70929E-03
         0.85096E-04
        -0.77542E-03
         0.45906E-04
        -0.15185E-02
        -0.13211E-02
         0.10142E-02
        -0.17317E-02
         0.20274E-02
         0.18590E-02
         0.17175E-02
         0.91395E-03
        -0.19805E-02
        -0.23494E-02
        -0.17073E-02
        -0.14941E-02
         0.77946E-03
         0.12558E-02
         0.18672E-02
         0.28835E-02
         0.27118E-02
         0.24600E-02
         0.22358E-02
         0.16502E-02
         0.87990E-03
        -0.21374E-02
        -0.26935E-02
        -0.31291E-02
        -0.30381E-02
        -0.28750E-02
        -0.26474E-02
        -0.23746E-02
        -0.21549E-02
        -0.15084E-02
         0.93572E-03
         0.00000E+00
         0.18171E-02
         0.25928E-02
         0.32179E-02
         0.36559E-02
         0.38815E-02
         0.38815E-02
         0.36559E-02
         0.32179E-02
         0.25928E-02
         0.18171E-02
         0.93572E-03
         0.22152E-17
        -0.93572E-03
        -0.18171E-02
        -0.25928E-02
        -0.32179E-02
        -0.36559E-02
        -0.38815E-02
        -0.38815E-02
        -0.36559E-02
        -0.32179E-02
        -0.25928E-02
        -0.18171E-02
        -0.93572E-03
         0.68401E-03
         0.12440E-02
         0.60198E-03
        -0.32266E-03
         0.15609E-03
        -0.66657E-03
         0.18449E-02
         0.14777E-02
         0.32230E-03
         0.12022E-02
         0.22774E-02
         0.28198E-02
         0.24267E-02
         0.21692E-02
         0.29314E-02
        -0.10061E-02
         0.95155E-04
        -0.68866E-03
        -0.70915E-03
         0.85220E-04
        -0.77525E-03
         0.46180E-04
        -0.15185E-02
        -0.13210E-02
         0.10156E-02
        -0.17317E-02
         0.20277E-02
         0.18589E-02
         0.17175E-02
         0.91419E-03
        -0.19805E-02
        -0.23494E-02
        -0.17073E-02
        -0.14943E-02
         0.78047E-03
         0.12563E-02
         0.18672E-02
         0.28824E-02
         0.27113E-02
         0.24597E-02
         0.22358E-02
         0.16502E-02
         0.88016E-03
        -0.21374E-02
        -0.26935E-02
        -0.31291E-02
        -0.30381E-02
        -0.28751E-02
        -0.26476E-02
        -0.23748E-02
        -0.21554E-02
        -0.15083E-02
         0.93572E-03
         0.00000E+00
         0.18171E-02
         0.25928E-02
         0.32179E-02
         0.36559E-02
         0.38815E-02
         0.38815E-02
         0.36559E-02
         0.32179E-02
         0.25928E-02
         0.18171E-02
         0.93572E-03
        -0.47884E-18
        -0.93572E-03
        -0.18171E-02
        -0.25928E-02
        -0.32179E-02
        -0.36559E-02
        -0.38815E-02
        -0.38815E-02
        -0.36559E-02
        -0.32179E-02
        -0.25928E-02
        -0.18171E-02
        -0.93572E-03
         0.68457E-03
         0.12447E-02
         0.60250E-03
        -0.32191E-03
         0.15645E-03
        -0.66607E-03
         0.18451E-02
         0.14787E-02
         0.32345E-03
         0.12040E-02
         0.22775E-02
         0.28194E-02
         0.24268E-02
         0.21692E-02
         0.29311E-02
        -0.10062E-02
         0.95964E-04
        -0.68793E-03
        -0.70901E-03
         0.85343E-04
        -0.77507E-03
         0.46453E-04
        -0.15184E-02
        -0.13209E-02
         0.10169E-02
        -0.17316E-02
         0.20280E-02
         0.18588E-02
         0.17175E-02
         0.91443E-03
        -0.19806E-02
        -0.23494E-02
        -0.17073E-02
        -0.14945E-02
         0.78148E-03
         0.12567E-02
         0.18673E-02
         0.28813E-02
         0.27108E-02
         0.24595E-02
         0.22358E-02
         0.16502E-02
         0.88043E-03
        -0.21374E-02
        -0.26936E-02
        -0.31291E-02
        -0.30381E-02
        -0.28751E-02
        -0.26479E-02
        -0.23750E-02
        -0.21560E-02
        -0.15082E-02
         0.93572E-03
         0.00000E+00
         0.18171E-02
         0.25928E-02
         0.32179E-02
         0.36559E-02
         0.38815E-02
         0.38815E-02
         0.36559E-02
         0.32179E-02
         0.25928E-02
         0.18171E-02
         0.93572E-03
        -0.47884E-18
        -0.93572E-03
        -0.18171E-02
        -0.25928E-02
        -0.32179E-02
        -0.36559E-02
        -0.38815E-02
        -0.38815E-02
        -0.36559E-02
        -0.32179E-02
        -0.25928E-02
        -0.18171E-02
        -0.93572E-03
         0.68512E-03
         0.12454E-02
         0.60302E-03
        -0.32115E-03
         0.15681E-03
        -0.66558E-03
         0.18453E-02
         0.14797E-02
         0.32459E-03
         0.12058E-02
         0.22776E-02
         0.28189E-02
         0.24270E-02
         0.21693E-02
         0.29308E-02
        -0.10064E-02
         0.96773E-04
        -0.68721E-03
        -0.70887E-03
         0.85467E-04
        -0.77490E-03
         0.46726E-04
        -0.15184E-02
        -0.13208E-02
         0.10183E-02
        -0.17316E-02
         0.20283E-02
         0.18586E-02
         0.17175E-02
         0.91467E-03
        -0.19806E-02
        -0.23494E-02
        -0.17073E-02
        -0.14948E-02
         0.78248E-03
         0.12571E-02
         0.18673E-02
         0.28802E-02
         0.27103E-02
         0.24593E-02
         0.22358E-02
         0.16502E-02
         0.88069E-03
        -0.21374E-02
        -0.26936E-02
        -0.31291E-02
        -0.30381E-02
        -0.28751E-02
        -0.26482E-02
        -0.23752E-02
        -0.21565E-02
        -0.15081E-02
         0.93572E-03
         0.00000E+00
         0.18171E-02
         0.25928E-02
         0.32179E-02
         0.36559E-02
         0.38815E-02
         0.38815E-02
         0.36559E-02
         0.32179E-02
         0.25928E-02
         0.18171E-02
         0.93572E-03
        -0.47884E-18
        -0.93572E-03
        -0.18171E-02
        -0.25928E-02
        -0.32179E-02
        -0.36559E-02
        -0.38815E-02
        -0.38815E-02
        -0.36559E-02
        -0.32179E-02
        -0.25928E-02
        -0.18171E-02
        -0.93572E-03
         0.68567E-03
         0.12460E-02
         0.60355E-03
        -0.32040E-03
         0.15718E-03
        -0.66509E-03
         0.18455E-02
         0.14807E-02
         0.32574E-03
         0.12075E-02
         0.22777E-02
         0.28185E-02
         0.24271E-02
         0.21693E-02
         0.29306E-02
        -0.10065E-02
         0.97583E-04
        -0.68648E-03
        -0.70873E-03
         0.85591E-04
        -0.77474E-03
         0.47000E-04
        -0.15183E-02
        -0.13207E-02
         0.10197E-02
        -0.17316E-02
         0.20285E-02
         0.18585E-02
         0.17175E-02
         0.91491E-03
        -0.19806E-02
        -0.23495E-02
        -0.17073E-02
        -0.14950E-02
         0.78348E-03
         0.12576E-02
         0.18674E-02
         0.28792E-02
         0.27099E-02
         0.24591E-02
         0.22358E-02
         0.16502E-02
         0.88095E-03
        -0.21374E-02
        -0.26936E-02
        -0.31290E-02
        -0.30381E-02
        -0.28751E-02
        -0.26484E-02
        -0.23754E-02
        -0.21571E-02
        -0.15080E-02
         0.93572E-03
         0.00000E+00
         0.18171E-02
         0.25928E-02
         0.32179E-02
         0.36559E-02
         0.38815E-02
         0.38815E-02
         0.36559E-02
         0.32179E-02
         0.25928E-02
         0.18171E-02
         0.93572E-03
         0.47884E-18
        -0.93572E-03
        -0.18171E-02
        -0.25928E-02
        -0.32179E-02
        -0.36559E-02
        -0.38815E-02
        -0.38815E-02
        -0.36559E-02
        -0.32179E-02
        -0.25928E-02
        -0.18171E-02
        -0.93572E-03
  
SCALARS           initial_coordinate_z  double 1
LOOKUP_TABLE default
        -0.10771E-01
        -0.10771E-01
        -0.10771E-01
        -0.10771E-01
        -0.11750E-01
        -0.11750E-01
        -0.11750E-01
        -0.11750E-01
        -0.10771E-01
        -0.10771E-01
        -0.11750E-01
        -0.11750E-01
        -0.10771E-01
        -0.10771E-01
        -0.11750E-01
        -0.11750E-01
        -0.10771E-01
        -0.10771E-01
        -0.11750E-01
        -0.11750E-01
        -0.10771E-01
        -0.10771E-01
        -0.10771E-01
        -0.11750E-01
        -0.11750E-01
        -0.11750E-01
        -0.10771E-01
        -0.10771E-01
        -0.11750E-01
        -0.11750E-01
        -0.10771E-01
        -0.10771E-01
        -0.10771E-01
        -0.11750E-01
        -0.11750E-01
        -0.11750E-01
        -0.10771E-01
        -0.10771E-01
        -0.11750E-01
        -0.11750E-01
        -0.10771E-01
        -0.10771E-01
        -0.11750E-01
        -0.11750E-01
        -0.10771E-01
        -0.10771E-01
        -0.11750E-01
        -0.11750E-01
        -0.10771E-01
        -0.11750E-01
        -0.10771E-01
        -0.11750E-01
        -0.10771E-01
        -0.11750E-01
        -0.10771E-01
        -0.11750E-01
        -0.10771E-01
        -0.10771E-01
        -0.11750E-01
        -0.11750E-01
        -0.10771E-01
        -0.10771E-01
        -0.11750E-01
        -0.11750E-01
        -0.10771E-01
        -0.11750E-01
        -0.10771E-01
        -0.11750E-01
        -0.10771E-01
        -0.10771E-01
        -0.11750E-01
        -0.11750E-01
        -0.10771E-01
        -0.11750E-01
        -0.10771E-01
        -0.11750E-01
        -0.10771E-01
        -0.11750E-01
        -0.10771E-01
        -0.11750E-01
        -0.10771E-01
        -0.10771E-01
        -0.11750E-01
        -0.11750E-01
        -0.10771E-01
        -0.11750E-01
        -0.10771E-01
        -0.11750E-01
        -0.10771E-01
        -0.11750E-01
        -0.10771E-01
        -0.10771E-01
        -0.11750E-01
        -0.11750E-01
        -0.10771E-01
        -0.11750E-01
        -0.10771E-01
        -0.11750E-01
        -0.10771E-01
        -0.11750E-01
        -0.10771E-01
        -0.10771E-01
        -0.11750E-01
        -0.11750E-01
        -0.10771E-01
        -0.10771E-01
        -0.11750E-01
        -0.11750E-01
        -0.10771E-01
        -0.11750E-01
        -0.10771E-01
        -0.11750E-01
        -0.10771E-01
        -0.11750E-01
        -0.10771E-01
        -0.11750E-01
        -0.10771E-01
        -0.11750E-01
        -0.10771E-01
        -0.11750E-01
        -0.10771E-01
        -0.11750E-01
        -0.10771E-01
        -0.11750E-01
        -0.10771E-01
        -0.11750E-01
        -0.10771E-01
        -0.11750E-01
        -0.10771E-01
        -0.11750E-01
        -0.10771E-01
        -0.11750E-01
        -0.10771E-01
        -0.11750E-01
        -0.10771E-01
        -0.11750E-01
        -0.10771E-01
        -0.11750E-01
        -0.10771E-01
        -0.11750E-01
        -0.10771E-01
        -0.11750E-01
        -0.10771E-01
        -0.11750E-01
        -0.10771E-01
        -0.11750E-01
        -0.10771E-01
        -0.11750E-01
        -0.10771E-01
        -0.11750E-01
        -0.10771E-01
        -0.11750E-01
        -0.10771E-01
        -0.11750E-01
        -0.10771E-01
        -0.11750E-01
        -0.97917E-02
        -0.97917E-02
        -0.97917E-02
        -0.97917E-02
        -0.97917E-02
        -0.97917E-02
        -0.97917E-02
        -0.97917E-02
        -0.97917E-02
        -0.97917E-02
        -0.97917E-02
        -0.97917E-02
        -0.97917E-02
        -0.97917E-02
        -0.97917E-02
        -0.97917E-02
        -0.97917E-02
        -0.97917E-02
        -0.97917E-02
        -0.97917E-02
        -0.97917E-02
        -0.97917E-02
        -0.97917E-02
        -0.97917E-02
        -0.97917E-02
        -0.97917E-02
        -0.97917E-02
        -0.97917E-02
        -0.97917E-02
        -0.97917E-02
        -0.97917E-02
        -0.97917E-02
        -0.97917E-02
        -0.97917E-02
        -0.97917E-02
        -0.97917E-02
        -0.97917E-02
        -0.97917E-02
        -0.97917E-02
        -0.97917E-02
        -0.97917E-02
        -0.97917E-02
        -0.97917E-02
        -0.97917E-02
        -0.97917E-02
        -0.97917E-02
        -0.97917E-02
        -0.97917E-02
        -0.97917E-02
        -0.97917E-02
        -0.97917E-02
        -0.97917E-02
        -0.97917E-02
        -0.97917E-02
        -0.97917E-02
        -0.97917E-02
        -0.97917E-02
        -0.97917E-02
        -0.97917E-02
        -0.97917E-02
        -0.97917E-02
        -0.97917E-02
        -0.97917E-02
        -0.97917E-02
        -0.97917E-02
        -0.97917E-02
        -0.97917E-02
        -0.97917E-02
        -0.97917E-02
        -0.97917E-02
        -0.97917E-02
        -0.97917E-02
        -0.97917E-02
        -0.97917E-02
        -0.97917E-02
        -0.97917E-02
        -0.97917E-02
        -0.97917E-02
        -0.88125E-02
        -0.88125E-02
        -0.88125E-02
        -0.88125E-02
        -0.88125E-02
        -0.88125E-02
        -0.88125E-02
        -0.88125E-02
        -0.88125E-02
        -0.88125E-02
        -0.88125E-02
        -0.88125E-02
        -0.88125E-02
        -0.88125E-02
        -0.88125E-02
        -0.88125E-02
        -0.88125E-02
        -0.88125E-02
        -0.88125E-02
        -0.88125E-02
        -0.88125E-02
        -0.88125E-02
        -0.88125E-02
        -0.88125E-02
        -0.88125E-02
        -0.88125E-02
        -0.88125E-02
        -0.88125E-02
        -0.88125E-02
        -0.88125E-02
        -0.88125E-02
        -0.88125E-02
        -0.88125E-02
        -0.88125E-02
        -0.88125E-02
        -0.88125E-02
        -0.88125E-02
        -0.88125E-02
        -0.88125E-02
        -0.88125E-02
        -0.88125E-02
        -0.88125E-02
        -0.88125E-02
        -0.88125E-02
        -0.88125E-02
        -0.88125E-02
        -0.88125E-02
        -0.88125E-02
        -0.88125E-02
        -0.88125E-02
        -0.88125E-02
        -0.88125E-02
        -0.88125E-02
        -0.88125E-02
        -0.88125E-02
        -0.88125E-02
        -0.88125E-02
        -0.88125E-02
        -0.88125E-02
        -0.88125E-02
        -0.88125E-02
        -0.88125E-02
        -0.88125E-02
        -0.88125E-02
        -0.88125E-02
        -0.88125E-02
        -0.88125E-02
        -0.88125E-02
        -0.88125E-02
        -0.88125E-02
        -0.88125E-02
        -0.88125E-02
        -0.88125E-02
        -0.88125E-02
        -0.88125E-02
        -0.88125E-02
        -0.88125E-02
        -0.88125E-02
        -0.78333E-02
        -0.78333E-02
        -0.78333E-02
        -0.78333E-02
        -0.78333E-02
        -0.78333E-02
        -0.78333E-02
        -0.78333E-02
        -0.78333E-02
        -0.78333E-02
        -0.78333E-02
        -0.78333E-02
        -0.78333E-02
        -0.78333E-02
        -0.78333E-02
        -0.78333E-02
        -0.78333E-02
        -0.78333E-02
        -0.78333E-02
        -0.78333E-02
        -0.78333E-02
        -0.78333E-02
        -0.78333E-02
        -0.78333E-02
        -0.78333E-02
        -0.78333E-02
        -0.78333E-02
        -0.78333E-02
        -0.78333E-02
        -0.78333E-02
        -0.78333E-02
        -0.78333E-02
        -0.78333E-02
        -0.78333E-02
        -0.78333E-02
        -0.78333E-02
        -0.78333E-02
        -0.78333E-02
        -0.78333E-02
        -0.78333E-02
        -0.78333E-02
        -0.78333E-02
        -0.78333E-02
        -0.78333E-02
        -0.78333E-02
        -0.78333E-02
        -0.78333E-02
        -0.78333E-02
        -0.78333E-02
        -0.78333E-02
        -0.78333E-02
        -0.78333E-02
        -0.78333E-02
        -0.78333E-02
        -0.78333E-02
        -0.78333E-02
        -0.78333E-02
        -0.78333E-02
        -0.78333E-02
        -0.78333E-02
        -0.78333E-02
        -0.78333E-02
        -0.78333E-02
        -0.78333E-02
        -0.78333E-02
        -0.78333E-02
        -0.78333E-02
        -0.78333E-02
        -0.78333E-02
        -0.78333E-02
        -0.78333E-02
        -0.78333E-02
        -0.78333E-02
        -0.78333E-02
        -0.78333E-02
        -0.78333E-02
        -0.78333E-02
        -0.78333E-02
        -0.68542E-02
        -0.68542E-02
        -0.68542E-02
        -0.68542E-02
        -0.68542E-02
        -0.68542E-02
        -0.68542E-02
        -0.68542E-02
        -0.68542E-02
        -0.68542E-02
        -0.68542E-02
        -0.68542E-02
        -0.68542E-02
        -0.68542E-02
        -0.68542E-02
        -0.68542E-02
        -0.68542E-02
        -0.68542E-02
        -0.68542E-02
        -0.68542E-02
        -0.68542E-02
        -0.68542E-02
        -0.68542E-02
        -0.68542E-02
        -0.68542E-02
        -0.68542E-02
        -0.68542E-02
        -0.68542E-02
        -0.68542E-02
        -0.68542E-02
        -0.68542E-02
        -0.68542E-02
        -0.68542E-02
        -0.68542E-02
        -0.68542E-02
        -0.68542E-02
        -0.68542E-02
        -0.68542E-02
        -0.68542E-02
        -0.68542E-02
        -0.68542E-02
        -0.68542E-02
        -0.68542E-02
        -0.68542E-02
        -0.68542E-02
        -0.68542E-02
        -0.68542E-02
        -0.68542E-02
        -0.68542E-02
        -0.68542E-02
        -0.68542E-02
        -0.68542E-02
        -0.68542E-02
        -0.68542E-02
        -0.68542E-02
        -0.68542E-02
        -0.68542E-02
        -0.68542E-02
        -0.68542E-02
        -0.68542E-02
        -0.68542E-02
        -0.68542E-02
        -0.68542E-02
        -0.68542E-02
        -0.68542E-02
        -0.68542E-02
        -0.68542E-02
        -0.68542E-02
        -0.68542E-02
        -0.68542E-02
        -0.68542E-02
        -0.68542E-02
        -0.68542E-02
        -0.68542E-02
        -0.68542E-02
        -0.68542E-02
        -0.68542E-02
        -0.68542E-02
        -0.58750E-02
        -0.58750E-02
        -0.58750E-02
        -0.58750E-02
        -0.58750E-02
        -0.58750E-02
        -0.58750E-02
        -0.58750E-02
        -0.58750E-02
        -0.58750E-02
        -0.58750E-02
        -0.58750E-02
        -0.58750E-02
        -0.58750E-02
        -0.58750E-02
        -0.58750E-02
        -0.58750E-02
        -0.58750E-02
        -0.58750E-02
        -0.58750E-02
        -0.58750E-02
        -0.58750E-02
        -0.58750E-02
        -0.58750E-02
        -0.58750E-02
        -0.58750E-02
        -0.58750E-02
        -0.58750E-02
        -0.58750E-02
        -0.58750E-02
        -0.58750E-02
        -0.58750E-02
        -0.58750E-02
        -0.58750E-02
        -0.58750E-02
        -0.58750E-02
        -0.58750E-02
        -0.58750E-02
        -0.58750E-02
        -0.58750E-02
        -0.58750E-02
        -0.58750E-02
        -0.58750E-02
        -0.58750E-02
        -0.58750E-02
        -0.58750E-02
        -0.58750E-02
        -0.58750E-02
        -0.58750E-02
        -0.58750E-02
        -0.58750E-02
        -0.58750E-02
        -0.58750E-02
        -0.58750E-02
        -0.58750E-02
        -0.58750E-02
        -0.58750E-02
        -0.58750E-02
        -0.58750E-02
        -0.58750E-02
        -0.58750E-02
        -0.58750E-02
        -0.58750E-02
        -0.58750E-02
        -0.58750E-02
        -0.58750E-02
        -0.58750E-02
        -0.58750E-02
        -0.58750E-02
        -0.58750E-02
        -0.58750E-02
        -0.58750E-02
        -0.58750E-02
        -0.58750E-02
        -0.58750E-02
        -0.58750E-02
        -0.58750E-02
        -0.58750E-02
        -0.48958E-02
        -0.48958E-02
        -0.48958E-02
        -0.48958E-02
        -0.48958E-02
        -0.48958E-02
        -0.48958E-02
        -0.48958E-02
        -0.48958E-02
        -0.48958E-02
        -0.48958E-02
        -0.48958E-02
        -0.48958E-02
        -0.48958E-02
        -0.48958E-02
        -0.48958E-02
        -0.48958E-02
        -0.48958E-02
        -0.48958E-02
        -0.48958E-02
        -0.48958E-02
        -0.48958E-02
        -0.48958E-02
        -0.48958E-02
        -0.48958E-02
        -0.48958E-02
        -0.48958E-02
        -0.48958E-02
        -0.48958E-02
        -0.48958E-02
        -0.48958E-02
        -0.48958E-02
        -0.48958E-02
        -0.48958E-02
        -0.48958E-02
        -0.48958E-02
        -0.48958E-02
        -0.48958E-02
        -0.48958E-02
        -0.48958E-02
        -0.48958E-02
        -0.48958E-02
        -0.48958E-02
        -0.48958E-02
        -0.48958E-02
        -0.48958E-02
        -0.48958E-02
        -0.48958E-02
        -0.48958E-02
        -0.48958E-02
        -0.48958E-02
        -0.48958E-02
        -0.48958E-02
        -0.48958E-02
        -0.48958E-02
        -0.48958E-02
        -0.48958E-02
        -0.48958E-02
        -0.48958E-02
        -0.48958E-02
        -0.48958E-02
        -0.48958E-02
        -0.48958E-02
        -0.48958E-02
        -0.48958E-02
        -0.48958E-02
        -0.48958E-02
        -0.48958E-02
        -0.48958E-02
        -0.48958E-02
        -0.48958E-02
        -0.48958E-02
        -0.48958E-02
        -0.48958E-02
        -0.48958E-02
        -0.48958E-02
        -0.48958E-02
        -0.48958E-02
        -0.39167E-02
        -0.39167E-02
        -0.39167E-02
        -0.39167E-02
        -0.39167E-02
        -0.39167E-02
        -0.39167E-02
        -0.39167E-02
        -0.39167E-02
        -0.39167E-02
        -0.39167E-02
        -0.39167E-02
        -0.39167E-02
        -0.39167E-02
        -0.39167E-02
        -0.39167E-02
        -0.39167E-02
        -0.39167E-02
        -0.39167E-02
        -0.39167E-02
        -0.39167E-02
        -0.39167E-02
        -0.39167E-02
        -0.39167E-02
        -0.39167E-02
        -0.39167E-02
        -0.39167E-02
        -0.39167E-02
        -0.39167E-02
        -0.39167E-02
        -0.39167E-02
        -0.39167E-02
        -0.39167E-02
        -0.39167E-02
        -0.39167E-02
        -0.39167E-02
        -0.39167E-02
        -0.39167E-02
        -0.39167E-02
        -0.39167E-02
        -0.39167E-02
        -0.39167E-02
        -0.39167E-02
        -0.39167E-02
        -0.39167E-02
        -0.39167E-02
        -0.39167E-02
        -0.39167E-02
        -0.39167E-02
        -0.39167E-02
        -0.39167E-02
        -0.39167E-02
        -0.39167E-02
        -0.39167E-02
        -0.39167E-02
        -0.39167E-02
        -0.39167E-02
        -0.39167E-02
        -0.39167E-02
        -0.39167E-02
        -0.39167E-02
        -0.39167E-02
        -0.39167E-02
        -0.39167E-02
        -0.39167E-02
        -0.39167E-02
        -0.39167E-02
        -0.39167E-02
        -0.39167E-02
        -0.39167E-02
        -0.39167E-02
        -0.39167E-02
        -0.39167E-02
        -0.39167E-02
        -0.39167E-02
        -0.39167E-02
        -0.39167E-02
        -0.39167E-02
        -0.29375E-02
        -0.29375E-02
        -0.29375E-02
        -0.29375E-02
        -0.29375E-02
        -0.29375E-02
        -0.29375E-02
        -0.29375E-02
        -0.29375E-02
        -0.29375E-02
        -0.29375E-02
        -0.29375E-02
        -0.29375E-02
        -0.29375E-02
        -0.29375E-02
        -0.29375E-02
        -0.29375E-02
        -0.29375E-02
        -0.29375E-02
        -0.29375E-02
        -0.29375E-02
        -0.29375E-02
        -0.29375E-02
        -0.29375E-02
        -0.29375E-02
        -0.29375E-02
        -0.29375E-02
        -0.29375E-02
        -0.29375E-02
        -0.29375E-02
        -0.29375E-02
        -0.29375E-02
        -0.29375E-02
        -0.29375E-02
        -0.29375E-02
        -0.29375E-02
        -0.29375E-02
        -0.29375E-02
        -0.29375E-02
        -0.29375E-02
        -0.29375E-02
        -0.29375E-02
        -0.29375E-02
        -0.29375E-02
        -0.29375E-02
        -0.29375E-02
        -0.29375E-02
        -0.29375E-02
        -0.29375E-02
        -0.29375E-02
        -0.29375E-02
        -0.29375E-02
        -0.29375E-02
        -0.29375E-02
        -0.29375E-02
        -0.29375E-02
        -0.29375E-02
        -0.29375E-02
        -0.29375E-02
        -0.29375E-02
        -0.29375E-02
        -0.29375E-02
        -0.29375E-02
        -0.29375E-02
        -0.29375E-02
        -0.29375E-02
        -0.29375E-02
        -0.29375E-02
        -0.29375E-02
        -0.29375E-02
        -0.29375E-02
        -0.29375E-02
        -0.29375E-02
        -0.29375E-02
        -0.29375E-02
        -0.29375E-02
        -0.29375E-02
        -0.29375E-02
        -0.19583E-02
        -0.19583E-02
        -0.19583E-02
        -0.19583E-02
        -0.19583E-02
        -0.19583E-02
        -0.19583E-02
        -0.19583E-02
        -0.19583E-02
        -0.19583E-02
        -0.19583E-02
        -0.19583E-02
        -0.19583E-02
        -0.19583E-02
        -0.19583E-02
        -0.19583E-02
        -0.19583E-02
        -0.19583E-02
        -0.19583E-02
        -0.19583E-02
        -0.19583E-02
        -0.19583E-02
        -0.19583E-02
        -0.19583E-02
        -0.19583E-02
        -0.19583E-02
        -0.19583E-02
        -0.19583E-02
        -0.19583E-02
        -0.19583E-02
        -0.19583E-02
        -0.19583E-02
        -0.19583E-02
        -0.19583E-02
        -0.19583E-02
        -0.19583E-02
        -0.19583E-02
        -0.19583E-02
        -0.19583E-02
        -0.19583E-02
        -0.19583E-02
        -0.19583E-02
        -0.19583E-02
        -0.19583E-02
        -0.19583E-02
        -0.19583E-02
        -0.19583E-02
        -0.19583E-02
        -0.19583E-02
        -0.19583E-02
        -0.19583E-02
        -0.19583E-02
        -0.19583E-02
        -0.19583E-02
        -0.19583E-02
        -0.19583E-02
        -0.19583E-02
        -0.19583E-02
        -0.19583E-02
        -0.19583E-02
        -0.19583E-02
        -0.19583E-02
        -0.19583E-02
        -0.19583E-02
        -0.19583E-02
        -0.19583E-02
        -0.19583E-02
        -0.19583E-02
        -0.19583E-02
        -0.19583E-02
        -0.19583E-02
        -0.19583E-02
        -0.19583E-02
        -0.19583E-02
        -0.19583E-02
        -0.19583E-02
        -0.19583E-02
        -0.19583E-02
        -0.97917E-03
        -0.97917E-03
        -0.97917E-03
        -0.97917E-03
        -0.97917E-03
        -0.97917E-03
        -0.97917E-03
        -0.97917E-03
        -0.97917E-03
        -0.97917E-03
        -0.97917E-03
        -0.97917E-03
        -0.97917E-03
        -0.97917E-03
        -0.97917E-03
        -0.97917E-03
        -0.97917E-03
        -0.97917E-03
        -0.97917E-03
        -0.97917E-03
        -0.97917E-03
        -0.97917E-03
        -0.97917E-03
        -0.97917E-03
        -0.97917E-03
        -0.97917E-03
        -0.97917E-03
        -0.97917E-03
        -0.97917E-03
        -0.97917E-03
        -0.97917E-03
        -0.97917E-03
        -0.97917E-03
        -0.97917E-03
        -0.97917E-03
        -0.97917E-03
        -0.97917E-03
        -0.97917E-03
        -0.97917E-03
        -0.97917E-03
        -0.97917E-03
        -0.97917E-03
        -0.97917E-03
        -0.97917E-03
        -0.97917E-03
        -0.97917E-03
        -0.97917E-03
        -0.97917E-03
        -0.97917E-03
        -0.97917E-03
        -0.97917E-03
        -0.97917E-03
        -0.97917E-03
        -0.97917E-03
        -0.97917E-03
        -0.97917E-03
        -0.97917E-03
        -0.97917E-03
        -0.97917E-03
        -0.97917E-03
        -0.97917E-03
        -0.97917E-03
        -0.97917E-03
        -0.97917E-03
        -0.97917E-03
        -0.97917E-03
        -0.97917E-03
        -0.97917E-03
        -0.97917E-03
        -0.97917E-03
        -0.97917E-03
        -0.97917E-03
        -0.97917E-03
        -0.97917E-03
        -0.97917E-03
        -0.97917E-03
        -0.97917E-03
        -0.97917E-03
         0.38917E-18
         0.44621E-18
         0.34485E-18
         0.23671E-18
         0.26613E-18
         0.16162E-18
         0.53980E-18
         0.50579E-18
         0.36337E-18
         0.48798E-18
         0.60712E-18
         0.67611E-18
         0.60634E-18
         0.60658E-18
         0.70997E-18
         0.20892E-18
         0.35894E-18
         0.21887E-18
         0.27638E-18
         0.38382E-18
         0.29058E-18
         0.40326E-18
         0.18564E-18
         0.19650E-18
         0.48570E-18
         0.12837E-18
         0.60589E-18
         0.60416E-18
         0.60524E-18
         0.49621E-18
         0.61582E-19
         0.32255E-19
         0.73874E-19
         0.78478E-19
         0.34514E-18
         0.42054E-18
         0.51644E-18
         0.72521E-18
         0.72233E-18
         0.70722E-18
         0.69126E-18
         0.61573E-18
         0.51484E-18
         0.91170E-19
         0.30347E-20
        -0.66516E-19
        -0.69988E-19
        -0.68643E-19
        -0.59779E-19
        -0.43507E-19
        -0.29471E-19
         0.53205E-19
         0.86819E-18
         0.00000E+00
         0.86819E-18
         0.86819E-18
         0.00000E+00
         0.00000E+00
         0.00000E+00
         0.17364E-17
         0.17364E-17
         0.17364E-17
         0.43410E-18
         0.43410E-18
         0.43410E-18
         0.00000E+00
         0.00000E+00
         0.00000E+00
         0.00000E+00
         0.00000E+00
         0.21705E-18
        -0.21705E-18
         0.00000E+00
         0.00000E+00
         0.00000E+00
        -0.32557E-18
         0.54262E-19
        -0.40697E-18
         0.97917E-03
         0.97917E-03
         0.97917E-03
         0.97917E-03
         0.97917E-03
         0.97917E-03
         0.97917E-03
         0.97917E-03
         0.97917E-03
         0.97917E-03
         0.97917E-03
         0.97917E-03
         0.97917E-03
         0.97917E-03
         0.97917E-03
         0.97917E-03
         0.97917E-03
         0.97917E-03
         0.97917E-03
         0.97917E-03
         0.97917E-03
         0.97917E-03
         0.97917E-03
         0.97917E-03
         0.97917E-03
         0.97917E-03
         0.97917E-03
         0.97917E-03
         0.97917E-03
         0.97917E-03
         0.97917E-03
         0.97917E-03
         0.97917E-03
         0.97917E-03
         0.97917E-03
         0.97917E-03
         0.97917E-03
         0.97917E-03
         0.97917E-03
         0.97917E-03
         0.97917E-03
         0.97917E-03
         0.97917E-03
         0.97917E-03
         0.97917E-03
         0.97917E-03
         0.97917E-03
         0.97917E-03
         0.97917E-03
         0.97917E-03
         0.97917E-03
         0.97917E-03
         0.97917E-03
         0.97917E-03
         0.97917E-03
         0.97917E-03
         0.97917E-03
         0.97917E-03
         0.97917E-03
         0.97917E-03
         0.97917E-03
         0.97917E-03
         0.97917E-03
         0.97917E-03
         0.97917E-03
         0.97917E-03
         0.97917E-03
         0.97917E-03
         0.97917E-03
         0.97917E-03
         0.97917E-03
         0.97917E-03
         0.97917E-03
         0.97917E-03
         0.97917E-03
         0.97917E-03
         0.97917E-03
         0.97917E-03
         0.19583E-02
         0.19583E-02
         0.19583E-02
         0.19583E-02
         0.19583E-02
         0.19583E-02
         0.19583E-02
         0.19583E-02
         0.19583E-02
         0.19583E-02
         0.19583E-02
         0.19583E-02
         0.19583E-02
         0.19583E-02
         0.19583E-02
         0.19583E-02
         0.19583E-02
         0.19583E-02
         0.19583E-02
         0.19583E-02
         0.19583E-02
         0.19583E-02
         0.19583E-02
         0.19583E-02
         0.19583E-02
         0.19583E-02
         0.19583E-02
         0.19583E-02
         0.19583E-02
         0.19583E-02
         0.19583E-02
         0.19583E-02
         0.19583E-02
         0.19583E-02
         0.19583E-02
         0.19583E-02
         0.19583E-02
         0.19583E-02
         0.19583E-02
         0.19583E-02
         0.19583E-02
         0.19583E-02
         0.19583E-02
         0.19583E-02
         0.19583E-02
         0.19583E-02
         0.19583E-02
         0.19583E-02
         0.19583E-02
         0.19583E-02
         0.19583E-02
         0.19583E-02
         0.19583E-02
         0.19583E-02
         0.19583E-02
         0.19583E-02
         0.19583E-02
         0.19583E-02
         0.19583E-02
         0.19583E-02
         0.19583E-02
         0.19583E-02
         0.19583E-02
         0.19583E-02
         0.19583E-02
         0.19583E-02
         0.19583E-02
         0.19583E-02
         0.19583E-02
         0.19583E-02
         0.19583E-02
         0.19583E-02
         0.19583E-02
         0.19583E-02
         0.19583E-02
         0.19583E-02
         0.19583E-02
         0.19583E-02
         0.29375E-02
         0.29375E-02
         0.29375E-02
         0.29375E-02
         0.29375E-02
         0.29375E-02
         0.29375E-02
         0.29375E-02
         0.29375E-02
         0.29375E-02
         0.29375E-02
         0.29375E-02
         0.29375E-02
         0.29375E-02
         0.29375E-02
         0.29375E-02
         0.29375E-02
         0.29375E-02
         0.29375E-02
         0.29375E-02
         0.29375E-02
         0.29375E-02
         0.29375E-02
         0.29375E-02
         0.29375E-02
         0.29375E-02
         0.29375E-02
         0.29375E-02
         0.29375E-02
         0.29375E-02
         0.29375E-02
         0.29375E-02
         0.29375E-02
         0.29375E-02
         0.29375E-02
         0.29375E-02
         0.29375E-02
         0.29375E-02
         0.29375E-02
         0.29375E-02
         0.29375E-02
         0.29375E-02
         0.29375E-02
         0.29375E-02
         0.29375E-02
         0.29375E-02
         0.29375E-02
         0.29375E-02
         0.29375E-02
         0.29375E-02
         0.29375E-02
         0.29375E-02
         0.29375E-02
         0.29375E-02
         0.29375E-02
         0.29375E-02
         0.29375E-02
         0.29375E-02
         0.29375E-02
         0.29375E-02
         0.29375E-02
         0.29375E-02
         0.29375E-02
         0.29375E-02
         0.29375E-02
         0.29375E-02
         0.29375E-02
         0.29375E-02
         0.29375E-02
         0.29375E-02
         0.29375E-02
         0.29375E-02
         0.29375E-02
         0.29375E-02
         0.29375E-02
         0.29375E-02
         0.29375E-02
         0.29375E-02
         0.39167E-02
         0.39167E-02
         0.39167E-02
         0.39167E-02
         0.39167E-02
         0.39167E-02
         0.39167E-02
         0.39167E-02
         0.39167E-02
         0.39167E-02
         0.39167E-02
         0.39167E-02
         0.39167E-02
         0.39167E-02
         0.39167E-02
         0.39167E-02
         0.39167E-02
         0.39167E-02
         0.39167E-02
         0.39167E-02
         0.39167E-02
         0.39167E-02
         0.39167E-02
         0.39167E-02
         0.39167E-02
         0.39167E-02
         0.39167E-02
         0.39167E-02
         0.39167E-02
         0.39167E-02
         0.39167E-02
         0.39167E-02
         0.39167E-02
         0.39167E-02
         0.39167E-02
         0.39167E-02
         0.39167E-02
         0.39167E-02
         0.39167E-02
         0.39167E-02
         0.39167E-02
         0.39167E-02
         0.39167E-02
         0.39167E-02
         0.39167E-02
         0.39167E-02
         0.39167E-02
         0.39167E-02
         0.39167E-02
         0.39167E-02
         0.39167E-02
         0.39167E-02
         0.39167E-02
         0.39167E-02
         0.39167E-02
         0.39167E-02
         0.39167E-02
         0.39167E-02
         0.39167E-02
         0.39167E-02
         0.39167E-02
         0.39167E-02
         0.39167E-02
         0.39167E-02
         0.39167E-02
         0.39167E-02
         0.39167E-02
         0.39167E-02
         0.39167E-02
         0.39167E-02
         0.39167E-02
         0.39167E-02
         0.39167E-02
         0.39167E-02
         0.39167E-02
         0.39167E-02
         0.39167E-02
         0.39167E-02
         0.48958E-02
         0.48958E-02
         0.48958E-02
         0.48958E-02
         0.48958E-02
         0.48958E-02
         0.48958E-02
         0.48958E-02
         0.48958E-02
         0.48958E-02
         0.48958E-02
         0.48958E-02
         0.48958E-02
         0.48958E-02
         0.48958E-02
         0.48958E-02
         0.48958E-02
         0.48958E-02
         0.48958E-02
         0.48958E-02
         0.48958E-02
         0.48958E-02
         0.48958E-02
         0.48958E-02
         0.48958E-02
         0.48958E-02
         0.48958E-02
         0.48958E-02
         0.48958E-02
         0.48958E-02
         0.48958E-02
         0.48958E-02
         0.48958E-02
         0.48958E-02
         0.48958E-02
         0.48958E-02
         0.48958E-02
         0.48958E-02
         0.48958E-02
         0.48958E-02
         0.48958E-02
         0.48958E-02
         0.48958E-02
         0.48958E-02
         0.48958E-02
         0.48958E-02
         0.48958E-02
         0.48958E-02
         0.48958E-02
         0.48958E-02
         0.48958E-02
         0.48958E-02
         0.48958E-02
         0.48958E-02
         0.48958E-02
         0.48958E-02
         0.48958E-02
         0.48958E-02
         0.48958E-02
         0.48958E-02
         0.48958E-02
         0.48958E-02
         0.48958E-02
         0.48958E-02
         0.48958E-02
         0.48958E-02
         0.48958E-02
         0.48958E-02
         0.48958E-02
         0.48958E-02
         0.48958E-02
         0.48958E-02
         0.48958E-02
         0.48958E-02
         0.48958E-02
         0.48958E-02
         0.48958E-02
         0.48958E-02
         0.58750E-02
         0.58750E-02
         0.58750E-02
         0.58750E-02
         0.58750E-02
         0.58750E-02
         0.58750E-02
         0.58750E-02
         0.58750E-02
         0.58750E-02
         0.58750E-02
         0.58750E-02
         0.58750E-02
         0.58750E-02
         0.58750E-02
         0.58750E-02
         0.58750E-02
         0.58750E-02
         0.58750E-02
         0.58750E-02
         0.58750E-02
         0.58750E-02
         0.58750E-02
         0.58750E-02
         0.58750E-02
         0.58750E-02
         0.58750E-02
         0.58750E-02
         0.58750E-02
         0.58750E-02
         0.58750E-02
         0.58750E-02
         0.58750E-02
         0.58750E-02
         0.58750E-02
         0.58750E-02
         0.58750E-02
         0.58750E-02
         0.58750E-02
         0.58750E-02
         0.58750E-02
         0.58750E-02
         0.58750E-02
         0.58750E-02
         0.58750E-02
         0.58750E-02
         0.58750E-02
         0.58750E-02
         0.58750E-02
         0.58750E-02
         0.58750E-02
         0.58750E-02
         0.58750E-02
         0.58750E-02
         0.58750E-02
         0.58750E-02
         0.58750E-02
         0.58750E-02
         0.58750E-02
         0.58750E-02
         0.58750E-02
         0.58750E-02
         0.58750E-02
         0.58750E-02
         0.58750E-02
         0.58750E-02
         0.58750E-02
         0.58750E-02
         0.58750E-02
         0.58750E-02
         0.58750E-02
         0.58750E-02
         0.58750E-02
         0.58750E-02
         0.58750E-02
         0.58750E-02
         0.58750E-02
         0.58750E-02
         0.68542E-02
         0.68542E-02
         0.68542E-02
         0.68542E-02
         0.68542E-02
         0.68542E-02
         0.68542E-02
         0.68542E-02
         0.68542E-02
         0.68542E-02
         0.68542E-02
         0.68542E-02
         0.68542E-02
         0.68542E-02
         0.68542E-02
         0.68542E-02
         0.68542E-02
         0.68542E-02
         0.68542E-02
         0.68542E-02
         0.68542E-02
         0.68542E-02
         0.68542E-02
         0.68542E-02
         0.68542E-02
         0.68542E-02
         0.68542E-02
         0.68542E-02
         0.68542E-02
         0.68542E-02
         0.68542E-02
         0.68542E-02
         0.68542E-02
         0.68542E-02
         0.68542E-02
         0.68542E-02
         0.68542E-02
         0.68542E-02
         0.68542E-02
         0.68542E-02
         0.68542E-02
         0.68542E-02
         0.68542E-02
         0.68542E-02
         0.68542E-02
         0.68542E-02
         0.68542E-02
         0.68542E-02
         0.68542E-02
         0.68542E-02
         0.68542E-02
         0.68542E-02
         0.68542E-02
         0.68542E-02
         0.68542E-02
         0.68542E-02
         0.68542E-02
         0.68542E-02
         0.68542E-02
         0.68542E-02
         0.68542E-02
         0.68542E-02
         0.68542E-02
         0.68542E-02
         0.68542E-02
         0.68542E-02
         0.68542E-02
         0.68542E-02
         0.68542E-02
         0.68542E-02
         0.68542E-02
         0.68542E-02
         0.68542E-02
         0.68542E-02
         0.68542E-02
         0.68542E-02
         0.68542E-02
         0.68542E-02
         0.78333E-02
         0.78333E-02
         0.78333E-02
         0.78333E-02
         0.78333E-02
         0.78333E-02
         0.78333E-02
         0.78333E-02
         0.78333E-02
         0.78333E-02
         0.78333E-02
         0.78333E-02
         0.78333E-02
         0.78333E-02
         0.78333E-02
         0.78333E-02
         0.78333E-02
         0.78333E-02
         0.78333E-02
         0.78333E-02
         0.78333E-02
         0.78333E-02
         0.78333E-02
         0.78333E-02
         0.78333E-02
         0.78333E-02
         0.78333E-02
         0.78333E-02
         0.78333E-02
         0.78333E-02
         0.78333E-02
         0.78333E-02
         0.78333E-02
         0.78333E-02
         0.78333E-02
         0.78333E-02
         0.78333E-02
         0.78333E-02
         0.78333E-02
         0.78333E-02
         0.78333E-02
         0.78333E-02
         0.78333E-02
         0.78333E-02
         0.78333E-02
         0.78333E-02
         0.78333E-02
         0.78333E-02
         0.78333E-02
         0.78333E-02
         0.78333E-02
         0.78333E-02
         0.78333E-02
         0.78333E-02
         0.78333E-02
         0.78333E-02
         0.78333E-02
         0.78333E-02
         0.78333E-02
         0.78333E-02
         0.78333E-02
         0.78333E-02
         0.78333E-02
         0.78333E-02
         0.78333E-02
         0.78333E-02
         0.78333E-02
         0.78333E-02
         0.78333E-02
         0.78333E-02
         0.78333E-02
         0.78333E-02
         0.78333E-02
         0.78333E-02
         0.78333E-02
         0.78333E-02
         0.78333E-02
         0.78333E-02
         0.88125E-02
         0.88125E-02
         0.88125E-02
         0.88125E-02
         0.88125E-02
         0.88125E-02
         0.88125E-02
         0.88125E-02
         0.88125E-02
         0.88125E-02
         0.88125E-02
         0.88125E-02
         0.88125E-02
         0.88125E-02
         0.88125E-02
         0.88125E-02
         0.88125E-02
         0.88125E-02
         0.88125E-02
         0.88125E-02
         0.88125E-02
         0.88125E-02
         0.88125E-02
         0.88125E-02
         0.88125E-02
         0.88125E-02
         0.88125E-02
         0.88125E-02
         0.88125E-02
         0.88125E-02
         0.88125E-02
         0.88125E-02
         0.88125E-02
         0.88125E-02
         0.88125E-02
         0.88125E-02
         0.88125E-02
         0.88125E-02
         0.88125E-02
         0.88125E-02
         0.88125E-02
         0.88125E-02
         0.88125E-02
         0.88125E-02
         0.88125E-02
         0.88125E-02
         0.88125E-02
         0.88125E-02
         0.88125E-02
         0.88125E-02
         0.88125E-02
         0.88125E-02
         0.88125E-02
         0.88125E-02
         0.88125E-02
         0.88125E-02
         0.88125E-02
         0.88125E-02
         0.88125E-02
         0.88125E-02
         0.88125E-02
         0.88125E-02
         0.88125E-02
         0.88125E-02
         0.88125E-02
         0.88125E-02
         0.88125E-02
         0.88125E-02
         0.88125E-02
         0.88125E-02
         0.88125E-02
         0.88125E-02
         0.88125E-02
         0.88125E-02
         0.88125E-02
         0.88125E-02
         0.88125E-02
         0.88125E-02
         0.97917E-02
         0.97917E-02
         0.97917E-02
         0.97917E-02
         0.97917E-02
         0.97917E-02
         0.97917E-02
         0.97917E-02
         0.97917E-02
         0.97917E-02
         0.97917E-02
         0.97917E-02
         0.97917E-02
         0.97917E-02
         0.97917E-02
         0.97917E-02
         0.97917E-02
         0.97917E-02
         0.97917E-02
         0.97917E-02
         0.97917E-02
         0.97917E-02
         0.97917E-02
         0.97917E-02
         0.97917E-02
         0.97917E-02
         0.97917E-02
         0.97917E-02
         0.97917E-02
         0.97917E-02
         0.97917E-02
         0.97917E-02
         0.97917E-02
         0.97917E-02
         0.97917E-02
         0.97917E-02
         0.97917E-02
         0.97917E-02
         0.97917E-02
         0.97917E-02
         0.97917E-02
         0.97917E-02
         0.97917E-02
         0.97917E-02
         0.97917E-02
         0.97917E-02
         0.97917E-02
         0.97917E-02
         0.97917E-02
         0.97917E-02
         0.97917E-02
         0.97917E-02
         0.97917E-02
         0.97917E-02
         0.97917E-02
         0.97917E-02
         0.97917E-02
         0.97917E-02
         0.97917E-02
         0.97917E-02
         0.97917E-02
         0.97917E-02
         0.97917E-02
         0.97917E-02
         0.97917E-02
         0.97917E-02
         0.97917E-02
         0.97917E-02
         0.97917E-02
         0.97917E-02
         0.97917E-02
         0.97917E-02
         0.97917E-02
         0.97917E-02
         0.97917E-02
         0.97917E-02
         0.97917E-02
         0.97917E-02
         0.10771E-01
         0.10771E-01
         0.10771E-01
         0.10771E-01
         0.10771E-01
         0.10771E-01
         0.10771E-01
         0.10771E-01
         0.10771E-01
         0.10771E-01
         0.10771E-01
         0.10771E-01
         0.10771E-01
         0.10771E-01
         0.10771E-01
         0.10771E-01
         0.10771E-01
         0.10771E-01
         0.10771E-01
         0.10771E-01
         0.10771E-01
         0.10771E-01
         0.10771E-01
         0.10771E-01
         0.10771E-01
         0.10771E-01
         0.10771E-01
         0.10771E-01
         0.10771E-01
         0.10771E-01
         0.10771E-01
         0.10771E-01
         0.10771E-01
         0.10771E-01
         0.10771E-01
         0.10771E-01
         0.10771E-01
         0.10771E-01
         0.10771E-01
         0.10771E-01
         0.10771E-01
         0.10771E-01
         0.10771E-01
         0.10771E-01
         0.10771E-01
         0.10771E-01
         0.10771E-01
         0.10771E-01
         0.10771E-01
         0.10771E-01
         0.10771E-01
         0.10771E-01
         0.10771E-01
         0.10771E-01
         0.10771E-01
         0.10771E-01
         0.10771E-01
         0.10771E-01
         0.10771E-01
         0.10771E-01
         0.10771E-01
         0.10771E-01
         0.10771E-01
         0.10771E-01
         0.10771E-01
         0.10771E-01
         0.10771E-01
         0.10771E-01
         0.10771E-01
         0.10771E-01
         0.10771E-01
         0.10771E-01
         0.10771E-01
         0.10771E-01
         0.10771E-01
         0.10771E-01
         0.10771E-01
         0.10771E-01
         0.11750E-01
         0.11750E-01
         0.11750E-01
         0.11750E-01
         0.11750E-01
         0.11750E-01
         0.11750E-01
         0.11750E-01
         0.11750E-01
         0.11750E-01
         0.11750E-01
         0.11750E-01
         0.11750E-01
         0.11750E-01
         0.11750E-01
         0.11750E-01
         0.11750E-01
         0.11750E-01
         0.11750E-01
         0.11750E-01
         0.11750E-01
         0.11750E-01
         0.11750E-01
         0.11750E-01
         0.11750E-01
         0.11750E-01
         0.11750E-01
         0.11750E-01
         0.11750E-01
         0.11750E-01
         0.11750E-01
         0.11750E-01
         0.11750E-01
         0.11750E-01
         0.11750E-01
         0.11750E-01
         0.11750E-01
         0.11750E-01
         0.11750E-01
         0.11750E-01
         0.11750E-01
         0.11750E-01
         0.11750E-01
         0.11750E-01
         0.11750E-01
         0.11750E-01
         0.11750E-01
         0.11750E-01
         0.11750E-01
         0.11750E-01
         0.11750E-01
         0.11750E-01
         0.11750E-01
         0.11750E-01
         0.11750E-01
         0.11750E-01
         0.11750E-01
         0.11750E-01
         0.11750E-01
         0.11750E-01
         0.11750E-01
         0.11750E-01
         0.11750E-01
         0.11750E-01
         0.11750E-01
         0.11750E-01
         0.11750E-01
         0.11750E-01
         0.11750E-01
         0.11750E-01
         0.11750E-01
         0.11750E-01
         0.11750E-01
         0.11750E-01
         0.11750E-01
         0.11750E-01
         0.11750E-01
         0.11750E-01
  
SCALARS                init_velocity_x  double 1
LOOKUP_TABLE default
         0.00000E+00
         0.00000E+00
         0.00000E+00
         0.00000E+00
         0.00000E+00
         0.00000E+00
         0.00000E+00
         0.00000E+00
         0.00000E+00
         0.00000E+00
         0.00000E+00
         0.00000E+00
         0.00000E+00
         0.00000E+00
         0.00000E+00
         0.00000E+00
         0.00000E+00
         0.00000E+00
         0.00000E+00
         0.00000E+00
         0.00000E+00
         0.00000E+00
         0.00000E+00
         0.00000E+00
         0.00000E+00
         0.00000E+00
         0.00000E+00
         0.00000E+00
         0.00000E+00
         0.00000E+00
         0.00000E+00
         0.00000E+00
         0.00000E+00
         0.00000E+00
         0.00000E+00
         0.00000E+00
         0.00000E+00
         0.00000E+00
         0.00000E+00
         0.00000E+00
         0.00000E+00
         0.00000E+00
         0.00000E+00
         0.00000E+00
         0.00000E+00
         0.00000E+00
         0.00000E+00
         0.00000E+00
         0.00000E+00
         0.00000E+00
         0.00000E+00
         0.00000E+00
         0.00000E+00
         0.00000E+00
         0.00000E+00
         0.00000E+00
         0.00000E+00
         0.00000E+00
         0.00000E+00
         0.00000E+00
         0.00000E+00
         0.00000E+00
         0.00000E+00
         0.00000E+00
         0.00000E+00
         0.00000E+00
         0.00000E+00
         0.00000E+00
         0.00000E+00
         0.00000E+00
         0.00000E+00
         0.00000E+00
         0.00000E+00
         0.00000E+00
         0.00000E+00
         0.00000E+00
         0.00000E+00
         0.00000E+00
         0.00000E+00
         0.00000E+00
         0.00000E+00
         0.00000E+00
         0.00000E+00
         0.00000E+00
         0.00000E+00
         0.00000E+00
         0.00000E+00
         0.00000E+00
         0.00000E+00
         0.00000E+00
         0.00000E+00
         0.00000E+00
         0.00000E+00
         0.00000E+00
         0.00000E+00
         0.00000E+00
         0.00000E+00
         0.00000E+00
         0.00000E+00
         0.00000E+00
         0.00000E+00
         0.00000E+00
         0.00000E+00
         0.00000E+00
         0.00000E+00
         0.00000E+00
         0.00000E+00
         0.00000E+00
         0.00000E+00
         0.00000E+00
         0.00000E+00
         0.00000E+00
         0.00000E+00
         0.00000E+00
         0.00000E+00
         0.00000E+00
         0.00000E+00
         0.00000E+00
         0.00000E+00
         0.00000E+00
         0.00000E+00
         0.00000E+00
         0.00000E+00
         0.00000E+00
         0.00000E+00
         0.00000E+00
         0.00000E+00
         0.00000E+00
         0.00000E+00
         0.00000E+00
         0.00000E+00
         0.00000E+00
         0.00000E+00
         0.00000E+00
         0.00000E+00
         0.00000E+00
         0.00000E+00
         0.00000E+00
         0.00000E+00
         0.00000E+00
         0.00000E+00
         0.00000E+00
         0.00000E+00
         0.00000E+00
         0.00000E+00
         0.00000E+00
         0.00000E+00
         0.00000E+00
         0.00000E+00
         0.00000E+00
         0.00000E+00
         0.00000E+00
         0.00000E+00
         0.00000E+00
         0.00000E+00
         0.00000E+00
         0.00000E+00
         0.00000E+00
         0.00000E+00
         0.00000E+00
         0.00000E+00
         0.00000E+00
         0.00000E+00
         0.00000E+00
         0.00000E+00
         0.00000E+00
         0.00000E+00
         0.00000E+00
         0.00000E+00
         0.00000E+00
         0.00000E+00
         0.00000E+00
         0.00000E+00
         0.00000E+00
         0.00000E+00
         0.00000E+00
         0.00000E+00
         0.00000E+00
         0.00000E+00
         0.00000E+00
         0.00000E+00
         0.00000E+00
         0.00000E+00
         0.00000E+00
         0.00000E+00
         0.00000E+00
         0.00000E+00
         0.00000E+00
         0.00000E+00
         0.00000E+00
         0.00000E+00
         0.00000E+00
         0.00000E+00
         0.00000E+00
         0.00000E+00
         0.00000E+00
         0.00000E+00
         0.00000E+00
         0.00000E+00
         0.00000E+00
         0.00000E+00
         0.00000E+00
         0.00000E+00
         0.00000E+00
         0.00000E+00
         0.00000E+00
         0.00000E+00
         0.00000E+00
         0.00000E+00
         0.00000E+00
         0.00000E+00
         0.00000E+00
         0.00000E+00
         0.00000E+00
         0.00000E+00
         0.00000E+00
         0.00000E+00
         0.00000E+00
         0.00000E+00
         0.00000E+00
         0.00000E+00
         0.00000E+00
         0.00000E+00
         0.00000E+00
         0.00000E+00
         0.00000E+00
         0.00000E+00
         0.00000E+00
         0.00000E+00
         0.00000E+00
         0.00000E+00
         0.00000E+00
         0.00000E+00
         0.00000E+00
         0.00000E+00
         0.00000E+00
         0.00000E+00
         0.00000E+00
         0.00000E+00
         0.00000E+00
         0.00000E+00
         0.00000E+00
         0.00000E+00
         0.00000E+00
         0.00000E+00
         0.00000E+00
         0.00000E+00
         0.00000E+00
         0.00000E+00
         0.00000E+00
         0.00000E+00
         0.00000E+00
         0.00000E+00
         0.00000E+00
         0.00000E+00
         0.00000E+00
         0.00000E+00
         0.00000E+00
         0.00000E+00
         0.00000E+00
         0.00000E+00
         0.00000E+00
         0.00000E+00
         0.00000E+00
         0.00000E+00
         0.00000E+00
         0.00000E+00
         0.00000E+00
         0.00000E+00
         0.00000E+00
         0.00000E+00
         0.00000E+00
         0.00000E+00
         0.00000E+00
         0.00000E+00
         0.00000E+00
         0.00000E+00
         0.00000E+00
         0.00000E+00
         0.00000E+00
         0.00000E+00
         0.00000E+00
         0.00000E+00
         0.00000E+00
         0.00000E+00
         0.00000E+00
         0.00000E+00
         0.00000E+00
         0.00000E+00
         0.00000E+00
         0.00000E+00
         0.00000E+00
         0.00000E+00
         0.00000E+00
         0.00000E+00
         0.00000E+00
         0.00000E+00
         0.00000E+00
         0.00000E+00
         0.00000E+00
         0.00000E+00
         0.00000E+00
         0.00000E+00
         0.00000E+00
         0.00000E+00
         0.00000E+00
         0.00000E+00
         0.00000E+00
         0.00000E+00
         0.00000E+00
         0.00000E+00
         0.00000E+00
         0.00000E+00
         0.00000E+00
         0.00000E+00
         0.00000E+00
         0.00000E+00
         0.00000E+00
         0.00000E+00
         0.00000E+00
         0.00000E+00
         0.00000E+00
         0.00000E+00
         0.00000E+00
         0.00000E+00
         0.00000E+00
         0.00000E+00
         0.00000E+00
         0.00000E+00
         0.00000E+00
         0.00000E+00
         0.00000E+00
         0.00000E+00
         0.00000E+00
         0.00000E+00
         0.00000E+00
         0.00000E+00
         0.00000E+00
         0.00000E+00
         0.00000E+00
         0.00000E+00
         0.00000E+00
         0.00000E+00
         0.00000E+00
         0.00000E+00
         0.00000E+00
         0.00000E+00
         0.00000E+00
         0.00000E+00
         0.00000E+00
         0.00000E+00
         0.00000E+00
         0.00000E+00
         0.00000E+00
         0.00000E+00
         0.00000E+00
         0.00000E+00
         0.00000E+00
         0.00000E+00
         0.00000E+00
         0.00000E+00
         0.00000E+00
         0.00000E+00
         0.00000E+00
         0.00000E+00
         0.00000E+00
         0.00000E+00
         0.00000E+00
         0.00000E+00
         0.00000E+00
         0.00000E+00
         0.00000E+00
         0.00000E+00
         0.00000E+00
         0.00000E+00
         0.00000E+00
         0.00000E+00
         0.00000E+00
         0.00000E+00
         0.00000E+00
         0.00000E+00
         0.00000E+00
         0.00000E+00
         0.00000E+00
         0.00000E+00
         0.00000E+00
         0.00000E+00
         0.00000E+00
         0.00000E+00
         0.00000E+00
         0.00000E+00
         0.00000E+00
         0.00000E+00
         0.00000E+00
         0.00000E+00
         0.00000E+00
         0.00000E+00
         0.00000E+00
         0.00000E+00
         0.00000E+00
         0.00000E+00
         0.00000E+00
         0.00000E+00
         0.00000E+00
         0.00000E+00
         0.00000E+00
         0.00000E+00
         0.00000E+00
         0.00000E+00
         0.00000E+00
         0.00000E+00
         0.00000E+00
         0.00000E+00
         0.00000E+00
         0.00000E+00
         0.00000E+00
         0.00000E+00
         0.00000E+00
         0.00000E+00
         0.00000E+00
         0.00000E+00
         0.00000E+00
         0.00000E+00
         0.00000E+00
         0.00000E+00
         0.00000E+00
         0.00000E+00
         0.00000E+00
         0.00000E+00
         0.00000E+00
         0.00000E+00
         0.00000E+00
         0.00000E+00
         0.00000E+00
         0.00000E+00
         0.00000E+00
         0.00000E+00
         0.00000E+00
         0.00000E+00
         0.00000E+00
         0.00000E+00
         0.00000E+00
         0.00000E+00
         0.00000E+00
         0.00000E+00
         0.00000E+00
         0.00000E+00
         0.00000E+00
         0.00000E+00
         0.00000E+00
         0.00000E+00
         0.00000E+00
         0.00000E+00
         0.00000E+00
         0.00000E+00
         0.00000E+00
         0.00000E+00
         0.00000E+00
         0.00000E+00
         0.00000E+00
         0.00000E+00
         0.00000E+00
         0.00000E+00
         0.00000E+00
         0.00000E+00
         0.00000E+00
         0.00000E+00
         0.00000E+00
         0.00000E+00
         0.00000E+00
         0.00000E+00
         0.00000E+00
         0.00000E+00
         0.00000E+00
         0.00000E+00
         0.00000E+00
         0.00000E+00
         0.00000E+00
         0.00000E+00
         0.00000E+00
         0.00000E+00
         0.00000E+00
         0.00000E+00
         0.00000E+00
         0.00000E+00
         0.00000E+00
         0.00000E+00
         0.00000E+00
         0.00000E+00
         0.00000E+00
         0.00000E+00
         0.00000E+00
         0.00000E+00
         0.00000E+00
         0.00000E+00
         0.00000E+00
         0.00000E+00
         0.00000E+00
         0.00000E+00
         0.00000E+00
         0.00000E+00
         0.00000E+00
         0.00000E+00
         0.00000E+00
         0.00000E+00
         0.00000E+00
         0.00000E+00
         0.00000E+00
         0.00000E+00
         0.00000E+00
         0.00000E+00
         0.00000E+00
         0.00000E+00
         0.00000E+00
         0.00000E+00
         0.00000E+00
         0.00000E+00
         0.00000E+00
         0.00000E+00
         0.00000E+00
         0.00000E+00
         0.00000E+00
         0.00000E+00
         0.00000E+00
         0.00000E+00
         0.00000E+00
         0.00000E+00
         0.00000E+00
         0.00000E+00
         0.00000E+00
         0.00000E+00
         0.00000E+00
         0.00000E+00
         0.00000E+00
         0.00000E+00
         0.00000E+00
         0.00000E+00
         0.00000E+00
         0.00000E+00
         0.00000E+00
         0.00000E+00
         0.00000E+00
         0.00000E+00
         0.00000E+00
         0.00000E+00
         0.00000E+00
         0.00000E+00
         0.00000E+00
         0.00000E+00
         0.00000E+00
         0.00000E+00
         0.00000E+00
         0.00000E+00
         0.00000E+00
         0.00000E+00
         0.00000E+00
         0.00000E+00
         0.00000E+00
         0.00000E+00
         0.00000E+00
         0.00000E+00
         0.00000E+00
         0.00000E+00
         0.00000E+00
         0.00000E+00
         0.00000E+00
         0.00000E+00
         0.00000E+00
         0.00000E+00
         0.00000E+00
         0.00000E+00
         0.00000E+00
         0.00000E+00
         0.00000E+00
         0.00000E+00
         0.00000E+00
         0.00000E+00
         0.00000E+00
         0.00000E+00
         0.00000E+00
         0.00000E+00
         0.00000E+00
         0.00000E+00
         0.00000E+00
         0.00000E+00
         0.00000E+00
         0.00000E+00
         0.00000E+00
         0.00000E+00
         0.00000E+00
         0.00000E+00
         0.00000E+00
         0.00000E+00
         0.00000E+00
         0.00000E+00
         0.00000E+00
         0.00000E+00
         0.00000E+00
         0.00000E+00
         0.00000E+00
         0.00000E+00
         0.00000E+00
         0.00000E+00
         0.00000E+00
         0.00000E+00
         0.00000E+00
         0.00000E+00
         0.00000E+00
         0.00000E+00
         0.00000E+00
         0.00000E+00
         0.00000E+00
         0.00000E+00
         0.00000E+00
         0.00000E+00
         0.00000E+00
         0.00000E+00
         0.00000E+00
         0.00000E+00
         0.00000E+00
         0.00000E+00
         0.00000E+00
         0.00000E+00
         0.00000E+00
         0.00000E+00
         0.00000E+00
         0.00000E+00
         0.00000E+00
         0.00000E+00
         0.00000E+00
         0.00000E+00
         0.00000E+00
         0.00000E+00
         0.00000E+00
         0.00000E+00
         0.00000E+00
         0.00000E+00
         0.00000E+00
         0.00000E+00
         0.00000E+00
         0.00000E+00
         0.00000E+00
         0.00000E+00
         0.00000E+00
         0.00000E+00
         0.00000E+00
         0.00000E+00
         0.00000E+00
         0.00000E+00
         0.00000E+00
         0.00000E+00
         0.00000E+00
         0.00000E+00
         0.00000E+00
         0.00000E+00
         0.00000E+00
         0.00000E+00
         0.00000E+00
         0.00000E+00
         0.00000E+00
         0.00000E+00
         0.00000E+00
         0.00000E+00
         0.00000E+00
         0.00000E+00
         0.00000E+00
         0.00000E+00
         0.00000E+00
         0.00000E+00
         0.00000E+00
         0.00000E+00
         0.00000E+00
         0.00000E+00
         0.00000E+00
         0.00000E+00
         0.00000E+00
         0.00000E+00
         0.00000E+00
         0.00000E+00
         0.00000E+00
         0.00000E+00
         0.00000E+00
         0.00000E+00
         0.00000E+00
         0.00000E+00
         0.00000E+00
         0.00000E+00
         0.00000E+00
         0.00000E+00
         0.00000E+00
         0.00000E+00
         0.00000E+00
         0.00000E+00
         0.00000E+00
         0.00000E+00
         0.00000E+00
         0.00000E+00
         0.00000E+00
         0.00000E+00
         0.00000E+00
         0.00000E+00
         0.00000E+00
         0.00000E+00
         0.00000E+00
         0.00000E+00
         0.00000E+00
         0.00000E+00
         0.00000E+00
         0.00000E+00
         0.00000E+00
         0.00000E+00
         0.00000E+00
         0.00000E+00
         0.00000E+00
         0.00000E+00
         0.00000E+00
         0.00000E+00
         0.00000E+00
         0.00000E+00
         0.00000E+00
         0.00000E+00
         0.00000E+00
         0.00000E+00
         0.00000E+00
         0.00000E+00
         0.00000E+00
         0.00000E+00
         0.00000E+00
         0.00000E+00
         0.00000E+00
         0.00000E+00
         0.00000E+00
         0.00000E+00
         0.00000E+00
         0.00000E+00
         0.00000E+00
         0.00000E+00
         0.00000E+00
         0.00000E+00
         0.00000E+00
         0.00000E+00
         0.00000E+00
         0.00000E+00
         0.00000E+00
         0.00000E+00
         0.00000E+00
         0.00000E+00
         0.00000E+00
         0.00000E+00
         0.00000E+00
         0.00000E+00
         0.00000E+00
         0.00000E+00
         0.00000E+00
         0.00000E+00
         0.00000E+00
         0.00000E+00
         0.00000E+00
         0.00000E+00
         0.00000E+00
         0.00000E+00
         0.00000E+00
         0.00000E+00
         0.00000E+00
         0.00000E+00
         0.00000E+00
         0.00000E+00
         0.00000E+00
         0.00000E+00
         0.00000E+00
         0.00000E+00
         0.00000E+00
         0.00000E+00
         0.00000E+00
         0.00000E+00
         0.00000E+00
         0.00000E+00
         0.00000E+00
         0.00000E+00
         0.00000E+00
         0.00000E+00
         0.00000E+00
         0.00000E+00
         0.00000E+00
         0.00000E+00
         0.00000E+00
         0.00000E+00
         0.00000E+00
         0.00000E+00
         0.00000E+00
         0.00000E+00
         0.00000E+00
         0.00000E+00
         0.00000E+00
         0.00000E+00
         0.00000E+00
         0.00000E+00
         0.00000E+00
         0.00000E+00
         0.00000E+00
         0.00000E+00
         0.00000E+00
         0.00000E+00
         0.00000E+00
         0.00000E+00
         0.00000E+00
         0.00000E+00
         0.00000E+00
         0.00000E+00
         0.00000E+00
         0.00000E+00
         0.00000E+00
         0.00000E+00
         0.00000E+00
         0.00000E+00
         0.00000E+00
         0.00000E+00
         0.00000E+00
         0.00000E+00
         0.00000E+00
         0.00000E+00
         0.00000E+00
         0.00000E+00
         0.00000E+00
         0.00000E+00
         0.00000E+00
         0.00000E+00
         0.00000E+00
         0.00000E+00
         0.00000E+00
         0.00000E+00
         0.00000E+00
         0.00000E+00
         0.00000E+00
         0.00000E+00
         0.00000E+00
         0.00000E+00
         0.00000E+00
         0.00000E+00
         0.00000E+00
         0.00000E+00
         0.00000E+00
         0.00000E+00
         0.00000E+00
         0.00000E+00
         0.00000E+00
         0.00000E+00
         0.00000E+00
         0.00000E+00
         0.00000E+00
         0.00000E+00
         0.00000E+00
         0.00000E+00
         0.00000E+00
         0.00000E+00
         0.00000E+00
         0.00000E+00
         0.00000E+00
         0.00000E+00
         0.00000E+00
         0.00000E+00
         0.00000E+00
         0.00000E+00
         0.00000E+00
         0.00000E+00
         0.00000E+00
         0.00000E+00
         0.00000E+00
         0.00000E+00
         0.00000E+00
         0.00000E+00
         0.00000E+00
         0.00000E+00
         0.00000E+00
         0.00000E+00
         0.00000E+00
         0.00000E+00
         0.00000E+00
         0.00000E+00
         0.00000E+00
         0.00000E+00
         0.00000E+00
         0.00000E+00
         0.00000E+00
         0.00000E+00
         0.00000E+00
         0.00000E+00
         0.00000E+00
         0.00000E+00
         0.00000E+00
         0.00000E+00
         0.00000E+00
         0.00000E+00
         0.00000E+00
         0.00000E+00
         0.00000E+00
         0.00000E+00
         0.00000E+00
         0.00000E+00
         0.00000E+00
         0.00000E+00
         0.00000E+00
         0.00000E+00
         0.00000E+00
         0.00000E+00
         0.00000E+00
         0.00000E+00
         0.00000E+00
         0.00000E+00
         0.00000E+00
         0.00000E+00
         0.00000E+00
         0.00000E+00
         0.00000E+00
         0.00000E+00
         0.00000E+00
         0.00000E+00
         0.00000E+00
         0.00000E+00
         0.00000E+00
         0.00000E+00
         0.00000E+00
         0.00000E+00
         0.00000E+00
         0.00000E+00
         0.00000E+00
         0.00000E+00
         0.00000E+00
         0.00000E+00
         0.00000E+00
         0.00000E+00
         0.00000E+00
         0.00000E+00
         0.00000E+00
         0.00000E+00
         0.00000E+00
         0.00000E+00
         0.00000E+00
         0.00000E+00
         0.00000E+00
         0.00000E+00
         0.00000E+00
         0.00000E+00
         0.00000E+00
         0.00000E+00
         0.00000E+00
         0.00000E+00
         0.00000E+00
         0.00000E+00
         0.00000E+00
         0.00000E+00
         0.00000E+00
         0.00000E+00
         0.00000E+00
         0.00000E+00
         0.00000E+00
         0.00000E+00
         0.00000E+00
         0.00000E+00
         0.00000E+00
         0.00000E+00
         0.00000E+00
         0.00000E+00
         0.00000E+00
         0.00000E+00
         0.00000E+00
         0.00000E+00
         0.00000E+00
         0.00000E+00
         0.00000E+00
         0.00000E+00
         0.00000E+00
         0.00000E+00
         0.00000E+00
         0.00000E+00
         0.00000E+00
         0.00000E+00
         0.00000E+00
         0.00000E+00
         0.00000E+00
         0.00000E+00
         0.00000E+00
         0.00000E+00
         0.00000E+00
         0.00000E+00
         0.00000E+00
         0.00000E+00
         0.00000E+00
         0.00000E+00
         0.00000E+00
         0.00000E+00
         0.00000E+00
         0.00000E+00
         0.00000E+00
         0.00000E+00
         0.00000E+00
         0.00000E+00
         0.00000E+00
         0.00000E+00
         0.00000E+00
         0.00000E+00
         0.00000E+00
         0.00000E+00
         0.00000E+00
         0.00000E+00
         0.00000E+00
         0.00000E+00
         0.00000E+00
         0.00000E+00
         0.00000E+00
         0.00000E+00
         0.00000E+00
         0.00000E+00
         0.00000E+00
         0.00000E+00
         0.00000E+00
         0.00000E+00
         0.00000E+00
         0.00000E+00
         0.00000E+00
         0.00000E+00
         0.00000E+00
         0.00000E+00
         0.00000E+00
         0.00000E+00
         0.00000E+00
         0.00000E+00
         0.00000E+00
         0.00000E+00
         0.00000E+00
         0.00000E+00
         0.00000E+00
         0.00000E+00
         0.00000E+00
         0.00000E+00
         0.00000E+00
         0.00000E+00
         0.00000E+00
         0.00000E+00
         0.00000E+00
         0.00000E+00
         0.00000E+00
         0.00000E+00
         0.00000E+00
         0.00000E+00
         0.00000E+00
         0.00000E+00
         0.00000E+00
         0.00000E+00
         0.00000E+00
         0.00000E+00
         0.00000E+00
         0.00000E+00
         0.00000E+00
         0.00000E+00
         0.00000E+00
         0.00000E+00
         0.00000E+00
         0.00000E+00
         0.00000E+00
         0.00000E+00
         0.00000E+00
         0.00000E+00
         0.00000E+00
         0.00000E+00
         0.00000E+00
         0.00000E+00
         0.00000E+00
         0.00000E+00
         0.00000E+00
         0.00000E+00
         0.00000E+00
         0.00000E+00
         0.00000E+00
         0.00000E+00
         0.00000E+00
         0.00000E+00
         0.00000E+00
         0.00000E+00
         0.00000E+00
         0.00000E+00
         0.00000E+00
         0.00000E+00
         0.00000E+00
         0.00000E+00
         0.00000E+00
         0.00000E+00
         0.00000E+00
         0.00000E+00
         0.00000E+00
         0.00000E+00
         0.00000E+00
         0.00000E+00
         0.00000E+00
         0.00000E+00
         0.00000E+00
         0.00000E+00
         0.00000E+00
         0.00000E+00
         0.00000E+00
         0.00000E+00
         0.00000E+00
         0.00000E+00
         0.00000E+00
         0.00000E+00
         0.00000E+00
         0.00000E+00
         0.00000E+00
         0.00000E+00
         0.00000E+00
         0.00000E+00
         0.00000E+00
         0.00000E+00
         0.00000E+00
         0.00000E+00
         0.00000E+00
         0.00000E+00
         0.00000E+00
         0.00000E+00
         0.00000E+00
         0.00000E+00
         0.00000E+00
         0.00000E+00
         0.00000E+00
         0.00000E+00
         0.00000E+00
         0.00000E+00
         0.00000E+00
         0.00000E+00
         0.00000E+00
         0.00000E+00
         0.00000E+00
         0.00000E+00
         0.00000E+00
         0.00000E+00
         0.00000E+00
         0.00000E+00
         0.00000E+00
         0.00000E+00
         0.00000E+00
         0.00000E+00
         0.00000E+00
         0.00000E+00
         0.00000E+00
         0.00000E+00
         0.00000E+00
         0.00000E+00
         0.00000E+00
         0.00000E+00
         0.00000E+00
         0.00000E+00
         0.00000E+00
         0.00000E+00
         0.00000E+00
         0.00000E+00
         0.00000E+00
         0.00000E+00
         0.00000E+00
         0.00000E+00
         0.00000E+00
         0.00000E+00
         0.00000E+00
         0.00000E+00
         0.00000E+00
         0.00000E+00
         0.00000E+00
         0.00000E+00
         0.00000E+00
         0.00000E+00
         0.00000E+00
         0.00000E+00
         0.00000E+00
         0.00000E+00
         0.00000E+00
         0.00000E+00
         0.00000E+00
         0.00000E+00
         0.00000E+00
         0.00000E+00
         0.00000E+00
         0.00000E+00
         0.00000E+00
         0.00000E+00
         0.00000E+00
         0.00000E+00
         0.00000E+00
         0.00000E+00
         0.00000E+00
         0.00000E+00
         0.00000E+00
         0.00000E+00
         0.00000E+00
         0.00000E+00
         0.00000E+00
         0.00000E+00
         0.00000E+00
         0.00000E+00
         0.00000E+00
         0.00000E+00
         0.00000E+00
         0.00000E+00
         0.00000E+00
         0.00000E+00
         0.00000E+00
         0.00000E+00
         0.00000E+00
         0.00000E+00
         0.00000E+00
         0.00000E+00
         0.00000E+00
         0.00000E+00
         0.00000E+00
         0.00000E+00
         0.00000E+00
         0.00000E+00
         0.00000E+00
         0.00000E+00
         0.00000E+00
         0.00000E+00
         0.00000E+00
         0.00000E+00
         0.00000E+00
         0.00000E+00
         0.00000E+00
         0.00000E+00
         0.00000E+00
         0.00000E+00
         0.00000E+00
         0.00000E+00
         0.00000E+00
         0.00000E+00
         0.00000E+00
         0.00000E+00
         0.00000E+00
         0.00000E+00
         0.00000E+00
         0.00000E+00
         0.00000E+00
         0.00000E+00
         0.00000E+00
         0.00000E+00
         0.00000E+00
         0.00000E+00
         0.00000E+00
         0.00000E+00
         0.00000E+00
         0.00000E+00
         0.00000E+00
         0.00000E+00
         0.00000E+00
         0.00000E+00
         0.00000E+00
         0.00000E+00
         0.00000E+00
         0.00000E+00
         0.00000E+00
         0.00000E+00
         0.00000E+00
         0.00000E+00
         0.00000E+00
         0.00000E+00
         0.00000E+00
         0.00000E+00
         0.00000E+00
         0.00000E+00
         0.00000E+00
         0.00000E+00
         0.00000E+00
         0.00000E+00
         0.00000E+00
         0.00000E+00
         0.00000E+00
         0.00000E+00
         0.00000E+00
         0.00000E+00
         0.00000E+00
         0.00000E+00
         0.00000E+00
         0.00000E+00
         0.00000E+00
         0.00000E+00
         0.00000E+00
         0.00000E+00
         0.00000E+00
         0.00000E+00
         0.00000E+00
         0.00000E+00
         0.00000E+00
         0.00000E+00
         0.00000E+00
         0.00000E+00
         0.00000E+00
         0.00000E+00
         0.00000E+00
         0.00000E+00
         0.00000E+00
         0.00000E+00
         0.00000E+00
         0.00000E+00
         0.00000E+00
         0.00000E+00
         0.00000E+00
         0.00000E+00
         0.00000E+00
         0.00000E+00
         0.00000E+00
         0.00000E+00
         0.00000E+00
         0.00000E+00
         0.00000E+00
         0.00000E+00
         0.00000E+00
         0.00000E+00
         0.00000E+00
         0.00000E+00
         0.00000E+00
         0.00000E+00
         0.00000E+00
         0.00000E+00
         0.00000E+00
         0.00000E+00
         0.00000E+00
         0.00000E+00
         0.00000E+00
         0.00000E+00
         0.00000E+00
         0.00000E+00
         0.00000E+00
         0.00000E+00
         0.00000E+00
         0.00000E+00
         0.00000E+00
         0.00000E+00
         0.00000E+00
         0.00000E+00
         0.00000E+00
         0.00000E+00
         0.00000E+00
         0.00000E+00
         0.00000E+00
         0.00000E+00
         0.00000E+00
         0.00000E+00
         0.00000E+00
         0.00000E+00
         0.00000E+00
         0.00000E+00
         0.00000E+00
         0.00000E+00
         0.00000E+00
         0.00000E+00
         0.00000E+00
         0.00000E+00
         0.00000E+00
         0.00000E+00
         0.00000E+00
         0.00000E+00
         0.00000E+00
         0.00000E+00
         0.00000E+00
         0.00000E+00
         0.00000E+00
         0.00000E+00
         0.00000E+00
         0.00000E+00
         0.00000E+00
         0.00000E+00
         0.00000E+00
         0.00000E+00
         0.00000E+00
         0.00000E+00
         0.00000E+00
         0.00000E+00
         0.00000E+00
         0.00000E+00
         0.00000E+00
         0.00000E+00
         0.00000E+00
         0.00000E+00
         0.00000E+00
         0.00000E+00
         0.00000E+00
         0.00000E+00
         0.00000E+00
         0.00000E+00
         0.00000E+00
         0.00000E+00
         0.00000E+00
         0.00000E+00
         0.00000E+00
         0.00000E+00
         0.00000E+00
         0.00000E+00
         0.00000E+00
         0.00000E+00
         0.00000E+00
         0.00000E+00
         0.00000E+00
         0.00000E+00
         0.00000E+00
         0.00000E+00
         0.00000E+00
         0.00000E+00
         0.00000E+00
         0.00000E+00
         0.00000E+00
         0.00000E+00
         0.00000E+00
         0.00000E+00
         0.00000E+00
         0.00000E+00
         0.00000E+00
         0.00000E+00
         0.00000E+00
         0.00000E+00
         0.00000E+00
         0.00000E+00
         0.00000E+00
         0.00000E+00
         0.00000E+00
         0.00000E+00
         0.00000E+00
         0.00000E+00
         0.00000E+00
         0.00000E+00
         0.00000E+00
         0.00000E+00
         0.00000E+00
         0.00000E+00
         0.00000E+00
         0.00000E+00
         0.00000E+00
         0.00000E+00
         0.00000E+00
         0.00000E+00
         0.00000E+00
         0.00000E+00
         0.00000E+00
         0.00000E+00
         0.00000E+00
         0.00000E+00
         0.00000E+00
         0.00000E+00
         0.00000E+00
         0.00000E+00
         0.00000E+00
         0.00000E+00
         0.00000E+00
         0.00000E+00
         0.00000E+00
         0.00000E+00
         0.00000E+00
         0.00000E+00
         0.00000E+00
         0.00000E+00
         0.00000E+00
         0.00000E+00
         0.00000E+00
         0.00000E+00
         0.00000E+00
         0.00000E+00
         0.00000E+00
         0.00000E+00
         0.00000E+00
         0.00000E+00
         0.00000E+00
         0.00000E+00
         0.00000E+00
         0.00000E+00
         0.00000E+00
         0.00000E+00
         0.00000E+00
         0.00000E+00
         0.00000E+00
         0.00000E+00
         0.00000E+00
         0.00000E+00
         0.00000E+00
         0.00000E+00
         0.00000E+00
         0.00000E+00
         0.00000E+00
         0.00000E+00
         0.00000E+00
         0.00000E+00
         0.00000E+00
         0.00000E+00
         0.00000E+00
         0.00000E+00
         0.00000E+00
         0.00000E+00
         0.00000E+00
         0.00000E+00
         0.00000E+00
         0.00000E+00
         0.00000E+00
         0.00000E+00
         0.00000E+00
         0.00000E+00
         0.00000E+00
         0.00000E+00
         0.00000E+00
         0.00000E+00
         0.00000E+00
         0.00000E+00
         0.00000E+00
         0.00000E+00
         0.00000E+00
         0.00000E+00
         0.00000E+00
         0.00000E+00
         0.00000E+00
         0.00000E+00
         0.00000E+00
         0.00000E+00
         0.00000E+00
         0.00000E+00
         0.00000E+00
         0.00000E+00
         0.00000E+00
         0.00000E+00
         0.00000E+00
         0.00000E+00
         0.00000E+00
         0.00000E+00
         0.00000E+00
         0.00000E+00
         0.00000E+00
         0.00000E+00
         0.00000E+00
         0.00000E+00
         0.00000E+00
         0.00000E+00
         0.00000E+00
         0.00000E+00
         0.00000E+00
         0.00000E+00
         0.00000E+00
         0.00000E+00
         0.00000E+00
         0.00000E+00
         0.00000E+00
         0.00000E+00
         0.00000E+00
         0.00000E+00
         0.00000E+00
         0.00000E+00
         0.00000E+00
         0.00000E+00
         0.00000E+00
         0.00000E+00
         0.00000E+00
         0.00000E+00
         0.00000E+00
         0.00000E+00
         0.00000E+00
         0.00000E+00
         0.00000E+00
         0.00000E+00
         0.00000E+00
         0.00000E+00
         0.00000E+00
         0.00000E+00
         0.00000E+00
         0.00000E+00
         0.00000E+00
         0.00000E+00
         0.00000E+00
         0.00000E+00
         0.00000E+00
         0.00000E+00
         0.00000E+00
         0.00000E+00
         0.00000E+00
         0.00000E+00
         0.00000E+00
         0.00000E+00
         0.00000E+00
         0.00000E+00
         0.00000E+00
         0.00000E+00
         0.00000E+00
         0.00000E+00
         0.00000E+00
         0.00000E+00
         0.00000E+00
         0.00000E+00
         0.00000E+00
         0.00000E+00
         0.00000E+00
         0.00000E+00
         0.00000E+00
         0.00000E+00
         0.00000E+00
         0.00000E+00
         0.00000E+00
         0.00000E+00
         0.00000E+00
         0.00000E+00
         0.00000E+00
         0.00000E+00
         0.00000E+00
         0.00000E+00
         0.00000E+00
         0.00000E+00
         0.00000E+00
         0.00000E+00
         0.00000E+00
         0.00000E+00
         0.00000E+00
         0.00000E+00
         0.00000E+00
         0.00000E+00
         0.00000E+00
         0.00000E+00
         0.00000E+00
         0.00000E+00
         0.00000E+00
         0.00000E+00
         0.00000E+00
         0.00000E+00
         0.00000E+00
         0.00000E+00
         0.00000E+00
         0.00000E+00
         0.00000E+00
         0.00000E+00
         0.00000E+00
         0.00000E+00
         0.00000E+00
         0.00000E+00
         0.00000E+00
         0.00000E+00
         0.00000E+00
         0.00000E+00
         0.00000E+00
         0.00000E+00
         0.00000E+00
         0.00000E+00
         0.00000E+00
         0.00000E+00
         0.00000E+00
         0.00000E+00
         0.00000E+00
         0.00000E+00
         0.00000E+00
         0.00000E+00
         0.00000E+00
         0.00000E+00
         0.00000E+00
         0.00000E+00
         0.00000E+00
         0.00000E+00
         0.00000E+00
         0.00000E+00
         0.00000E+00
         0.00000E+00
         0.00000E+00
         0.00000E+00
         0.00000E+00
         0.00000E+00
         0.00000E+00
         0.00000E+00
         0.00000E+00
         0.00000E+00
         0.00000E+00
         0.00000E+00
         0.00000E+00
         0.00000E+00
         0.00000E+00
         0.00000E+00
         0.00000E+00
         0.00000E+00
         0.00000E+00
         0.00000E+00
         0.00000E+00
         0.00000E+00
         0.00000E+00
         0.00000E+00
         0.00000E+00
         0.00000E+00
         0.00000E+00
         0.00000E+00
         0.00000E+00
         0.00000E+00
         0.00000E+00
         0.00000E+00
         0.00000E+00
         0.00000E+00
         0.00000E+00
         0.00000E+00
         0.00000E+00
         0.00000E+00
         0.00000E+00
         0.00000E+00
         0.00000E+00
         0.00000E+00
         0.00000E+00
         0.00000E+00
         0.00000E+00
         0.00000E+00
         0.00000E+00
         0.00000E+00
         0.00000E+00
         0.00000E+00
         0.00000E+00
         0.00000E+00
         0.00000E+00
         0.00000E+00
         0.00000E+00
         0.00000E+00
         0.00000E+00
         0.00000E+00
         0.00000E+00
         0.00000E+00
         0.00000E+00
         0.00000E+00
         0.00000E+00
         0.00000E+00
         0.00000E+00
         0.00000E+00
         0.00000E+00
         0.00000E+00
         0.00000E+00
         0.00000E+00
         0.00000E+00
         0.00000E+00
         0.00000E+00
         0.00000E+00
         0.00000E+00
         0.00000E+00
         0.00000E+00
         0.00000E+00
         0.00000E+00
         0.00000E+00
         0.00000E+00
         0.00000E+00
         0.00000E+00
         0.00000E+00
         0.00000E+00
         0.00000E+00
         0.00000E+00
         0.00000E+00
         0.00000E+00
         0.00000E+00
         0.00000E+00
         0.00000E+00
         0.00000E+00
         0.00000E+00
         0.00000E+00
         0.00000E+00
         0.00000E+00
         0.00000E+00
         0.00000E+00
         0.00000E+00
         0.00000E+00
         0.00000E+00
         0.00000E+00
         0.00000E+00
         0.00000E+00
         0.00000E+00
         0.00000E+00
         0.00000E+00
         0.00000E+00
         0.00000E+00
         0.00000E+00
         0.00000E+00
         0.00000E+00
         0.00000E+00
         0.00000E+00
         0.00000E+00
         0.00000E+00
         0.00000E+00
         0.00000E+00
         0.00000E+00
         0.00000E+00
         0.00000E+00
         0.00000E+00
         0.00000E+00
         0.00000E+00
         0.00000E+00
         0.00000E+00
         0.00000E+00
         0.00000E+00
         0.00000E+00
         0.00000E+00
         0.00000E+00
         0.00000E+00
         0.00000E+00
         0.00000E+00
         0.00000E+00
         0.00000E+00
         0.00000E+00
         0.00000E+00
         0.00000E+00
         0.00000E+00
         0.00000E+00
         0.00000E+00
         0.00000E+00
         0.00000E+00
         0.00000E+00
         0.00000E+00
         0.00000E+00
         0.00000E+00
         0.00000E+00
         0.00000E+00
         0.00000E+00
         0.00000E+00
         0.00000E+00
         0.00000E+00
         0.00000E+00
         0.00000E+00
         0.00000E+00
         0.00000E+00
         0.00000E+00
         0.00000E+00
         0.00000E+00
         0.00000E+00
         0.00000E+00
         0.00000E+00
         0.00000E+00
         0.00000E+00
         0.00000E+00
         0.00000E+00
         0.00000E+00
         0.00000E+00
         0.00000E+00
         0.00000E+00
         0.00000E+00
         0.00000E+00
         0.00000E+00
         0.00000E+00
         0.00000E+00
         0.00000E+00
         0.00000E+00
         0.00000E+00
         0.00000E+00
         0.00000E+00
         0.00000E+00
         0.00000E+00
         0.00000E+00
         0.00000E+00
         0.00000E+00
         0.00000E+00
         0.00000E+00
         0.00000E+00
         0.00000E+00
         0.00000E+00
         0.00000E+00
         0.00000E+00
         0.00000E+00
         0.00000E+00
         0.00000E+00
         0.00000E+00
         0.00000E+00
         0.00000E+00
         0.00000E+00
         0.00000E+00
         0.00000E+00
         0.00000E+00
         0.00000E+00
         0.00000E+00
         0.00000E+00
         0.00000E+00
         0.00000E+00
         0.00000E+00
         0.00000E+00
         0.00000E+00
         0.00000E+00
         0.00000E+00
         0.00000E+00
         0.00000E+00
         0.00000E+00
         0.00000E+00
         0.00000E+00
         0.00000E+00
         0.00000E+00
         0.00000E+00
         0.00000E+00
         0.00000E+00
         0.00000E+00
         0.00000E+00
         0.00000E+00
         0.00000E+00
         0.00000E+00
         0.00000E+00
         0.00000E+00
         0.00000E+00
         0.00000E+00
         0.00000E+00
         0.00000E+00
         0.00000E+00
         0.00000E+00
         0.00000E+00
         0.00000E+00
         0.00000E+00
         0.00000E+00
         0.00000E+00
         0.00000E+00
         0.00000E+00
         0.00000E+00
         0.00000E+00
         0.00000E+00
         0.00000E+00
         0.00000E+00
         0.00000E+00
         0.00000E+00
         0.00000E+00
         0.00000E+00
         0.00000E+00
         0.00000E+00
         0.00000E+00
         0.00000E+00
         0.00000E+00
         0.00000E+00
         0.00000E+00
         0.00000E+00
         0.00000E+00
         0.00000E+00
         0.00000E+00
         0.00000E+00
         0.00000E+00
         0.00000E+00
         0.00000E+00
         0.00000E+00
         0.00000E+00
         0.00000E+00
         0.00000E+00
         0.00000E+00
         0.00000E+00
         0.00000E+00
         0.00000E+00
         0.00000E+00
         0.00000E+00
         0.00000E+00
         0.00000E+00
         0.00000E+00
         0.00000E+00
         0.00000E+00
         0.00000E+00
         0.00000E+00
         0.00000E+00
         0.00000E+00
         0.00000E+00
         0.00000E+00
         0.00000E+00
         0.00000E+00
         0.00000E+00
         0.00000E+00
         0.00000E+00
  
SCALARS                init_velocity_y  double 1
LOOKUP_TABLE default
         0.00000E+00
         0.00000E+00
         0.00000E+00
         0.00000E+00
         0.00000E+00
         0.00000E+00
         0.00000E+00
         0.00000E+00
         0.00000E+00
         0.00000E+00
         0.00000E+00
         0.00000E+00
         0.00000E+00
         0.00000E+00
         0.00000E+00
         0.00000E+00
         0.00000E+00
         0.00000E+00
         0.00000E+00
         0.00000E+00
         0.00000E+00
         0.00000E+00
         0.00000E+00
         0.00000E+00
         0.00000E+00
         0.00000E+00
         0.00000E+00
         0.00000E+00
         0.00000E+00
         0.00000E+00
         0.00000E+00
         0.00000E+00
         0.00000E+00
         0.00000E+00
         0.00000E+00
         0.00000E+00
         0.00000E+00
         0.00000E+00
         0.00000E+00
         0.00000E+00
         0.00000E+00
         0.00000E+00
         0.00000E+00
         0.00000E+00
         0.00000E+00
         0.00000E+00
         0.00000E+00
         0.00000E+00
         0.00000E+00
         0.00000E+00
         0.00000E+00
         0.00000E+00
         0.00000E+00
         0.00000E+00
         0.00000E+00
         0.00000E+00
         0.00000E+00
         0.00000E+00
         0.00000E+00
         0.00000E+00
         0.00000E+00
         0.00000E+00
         0.00000E+00
         0.00000E+00
         0.00000E+00
         0.00000E+00
         0.00000E+00
         0.00000E+00
         0.00000E+00
         0.00000E+00
         0.00000E+00
         0.00000E+00
         0.00000E+00
         0.00000E+00
         0.00000E+00
         0.00000E+00
         0.00000E+00
         0.00000E+00
         0.00000E+00
         0.00000E+00
         0.00000E+00
         0.00000E+00
         0.00000E+00
         0.00000E+00
         0.00000E+00
         0.00000E+00
         0.00000E+00
         0.00000E+00
         0.00000E+00
         0.00000E+00
         0.00000E+00
         0.00000E+00
         0.00000E+00
         0.00000E+00
         0.00000E+00
         0.00000E+00
         0.00000E+00
         0.00000E+00
         0.00000E+00
         0.00000E+00
         0.00000E+00
         0.00000E+00
         0.00000E+00
         0.00000E+00
         0.00000E+00
         0.00000E+00
         0.00000E+00
         0.00000E+00
         0.00000E+00
         0.00000E+00
         0.00000E+00
         0.00000E+00
         0.00000E+00
         0.00000E+00
         0.00000E+00
         0.00000E+00
         0.00000E+00
         0.00000E+00
         0.00000E+00
         0.00000E+00
         0.00000E+00
         0.00000E+00
         0.00000E+00
         0.00000E+00
         0.00000E+00
         0.00000E+00
         0.00000E+00
         0.00000E+00
         0.00000E+00
         0.00000E+00
         0.00000E+00
         0.00000E+00
         0.00000E+00
         0.00000E+00
         0.00000E+00
         0.00000E+00
         0.00000E+00
         0.00000E+00
         0.00000E+00
         0.00000E+00
         0.00000E+00
         0.00000E+00
         0.00000E+00
         0.00000E+00
         0.00000E+00
         0.00000E+00
         0.00000E+00
         0.00000E+00
         0.00000E+00
         0.00000E+00
         0.00000E+00
         0.00000E+00
         0.00000E+00
         0.00000E+00
         0.00000E+00
         0.00000E+00
         0.00000E+00
         0.00000E+00
         0.00000E+00
         0.00000E+00
         0.00000E+00
         0.00000E+00
         0.00000E+00
         0.00000E+00
         0.00000E+00
         0.00000E+00
         0.00000E+00
         0.00000E+00
         0.00000E+00
         0.00000E+00
         0.00000E+00
         0.00000E+00
         0.00000E+00
         0.00000E+00
         0.00000E+00
         0.00000E+00
         0.00000E+00
         0.00000E+00
         0.00000E+00
         0.00000E+00
         0.00000E+00
         0.00000E+00
         0.00000E+00
         0.00000E+00
         0.00000E+00
         0.00000E+00
         0.00000E+00
         0.00000E+00
         0.00000E+00
         0.00000E+00
         0.00000E+00
         0.00000E+00
         0.00000E+00
         0.00000E+00
         0.00000E+00
         0.00000E+00
         0.00000E+00
         0.00000E+00
         0.00000E+00
         0.00000E+00
         0.00000E+00
         0.00000E+00
         0.00000E+00
         0.00000E+00
         0.00000E+00
         0.00000E+00
         0.00000E+00
         0.00000E+00
         0.00000E+00
         0.00000E+00
         0.00000E+00
         0.00000E+00
         0.00000E+00
         0.00000E+00
         0.00000E+00
         0.00000E+00
         0.00000E+00
         0.00000E+00
         0.00000E+00
         0.00000E+00
         0.00000E+00
         0.00000E+00
         0.00000E+00
         0.00000E+00
         0.00000E+00
         0.00000E+00
         0.00000E+00
         0.00000E+00
         0.00000E+00
         0.00000E+00
         0.00000E+00
         0.00000E+00
         0.00000E+00
         0.00000E+00
         0.00000E+00
         0.00000E+00
         0.00000E+00
         0.00000E+00
         0.00000E+00
         0.00000E+00
         0.00000E+00
         0.00000E+00
         0.00000E+00
         0.00000E+00
         0.00000E+00
         0.00000E+00
         0.00000E+00
         0.00000E+00
         0.00000E+00
         0.00000E+00
         0.00000E+00
         0.00000E+00
         0.00000E+00
         0.00000E+00
         0.00000E+00
         0.00000E+00
         0.00000E+00
         0.00000E+00
         0.00000E+00
         0.00000E+00
         0.00000E+00
         0.00000E+00
         0.00000E+00
         0.00000E+00
         0.00000E+00
         0.00000E+00
         0.00000E+00
         0.00000E+00
         0.00000E+00
         0.00000E+00
         0.00000E+00
         0.00000E+00
         0.00000E+00
         0.00000E+00
         0.00000E+00
         0.00000E+00
         0.00000E+00
         0.00000E+00
         0.00000E+00
         0.00000E+00
         0.00000E+00
         0.00000E+00
         0.00000E+00
         0.00000E+00
         0.00000E+00
         0.00000E+00
         0.00000E+00
         0.00000E+00
         0.00000E+00
         0.00000E+00
         0.00000E+00
         0.00000E+00
         0.00000E+00
         0.00000E+00
         0.00000E+00
         0.00000E+00
         0.00000E+00
         0.00000E+00
         0.00000E+00
         0.00000E+00
         0.00000E+00
         0.00000E+00
         0.00000E+00
         0.00000E+00
         0.00000E+00
         0.00000E+00
         0.00000E+00
         0.00000E+00
         0.00000E+00
         0.00000E+00
         0.00000E+00
         0.00000E+00
         0.00000E+00
         0.00000E+00
         0.00000E+00
         0.00000E+00
         0.00000E+00
         0.00000E+00
         0.00000E+00
         0.00000E+00
         0.00000E+00
         0.00000E+00
         0.00000E+00
         0.00000E+00
         0.00000E+00
         0.00000E+00
         0.00000E+00
         0.00000E+00
         0.00000E+00
         0.00000E+00
         0.00000E+00
         0.00000E+00
         0.00000E+00
         0.00000E+00
         0.00000E+00
         0.00000E+00
         0.00000E+00
         0.00000E+00
         0.00000E+00
         0.00000E+00
         0.00000E+00
         0.00000E+00
         0.00000E+00
         0.00000E+00
         0.00000E+00
         0.00000E+00
         0.00000E+00
         0.00000E+00
         0.00000E+00
         0.00000E+00
         0.00000E+00
         0.00000E+00
         0.00000E+00
         0.00000E+00
         0.00000E+00
         0.00000E+00
         0.00000E+00
         0.00000E+00
         0.00000E+00
         0.00000E+00
         0.00000E+00
         0.00000E+00
         0.00000E+00
         0.00000E+00
         0.00000E+00
         0.00000E+00
         0.00000E+00
         0.00000E+00
         0.00000E+00
         0.00000E+00
         0.00000E+00
         0.00000E+00
         0.00000E+00
         0.00000E+00
         0.00000E+00
         0.00000E+00
         0.00000E+00
         0.00000E+00
         0.00000E+00
         0.00000E+00
         0.00000E+00
         0.00000E+00
         0.00000E+00
         0.00000E+00
         0.00000E+00
         0.00000E+00
         0.00000E+00
         0.00000E+00
         0.00000E+00
         0.00000E+00
         0.00000E+00
         0.00000E+00
         0.00000E+00
         0.00000E+00
         0.00000E+00
         0.00000E+00
         0.00000E+00
         0.00000E+00
         0.00000E+00
         0.00000E+00
         0.00000E+00
         0.00000E+00
         0.00000E+00
         0.00000E+00
         0.00000E+00
         0.00000E+00
         0.00000E+00
         0.00000E+00
         0.00000E+00
         0.00000E+00
         0.00000E+00
         0.00000E+00
         0.00000E+00
         0.00000E+00
         0.00000E+00
         0.00000E+00
         0.00000E+00
         0.00000E+00
         0.00000E+00
         0.00000E+00
         0.00000E+00
         0.00000E+00
         0.00000E+00
         0.00000E+00
         0.00000E+00
         0.00000E+00
         0.00000E+00
         0.00000E+00
         0.00000E+00
         0.00000E+00
         0.00000E+00
         0.00000E+00
         0.00000E+00
         0.00000E+00
         0.00000E+00
         0.00000E+00
         0.00000E+00
         0.00000E+00
         0.00000E+00
         0.00000E+00
         0.00000E+00
         0.00000E+00
         0.00000E+00
         0.00000E+00
         0.00000E+00
         0.00000E+00
         0.00000E+00
         0.00000E+00
         0.00000E+00
         0.00000E+00
         0.00000E+00
         0.00000E+00
         0.00000E+00
         0.00000E+00
         0.00000E+00
         0.00000E+00
         0.00000E+00
         0.00000E+00
         0.00000E+00
         0.00000E+00
         0.00000E+00
         0.00000E+00
         0.00000E+00
         0.00000E+00
         0.00000E+00
         0.00000E+00
         0.00000E+00
         0.00000E+00
         0.00000E+00
         0.00000E+00
         0.00000E+00
         0.00000E+00
         0.00000E+00
         0.00000E+00
         0.00000E+00
         0.00000E+00
         0.00000E+00
         0.00000E+00
         0.00000E+00
         0.00000E+00
         0.00000E+00
         0.00000E+00
         0.00000E+00
         0.00000E+00
         0.00000E+00
         0.00000E+00
         0.00000E+00
         0.00000E+00
         0.00000E+00
         0.00000E+00
         0.00000E+00
         0.00000E+00
         0.00000E+00
         0.00000E+00
         0.00000E+00
         0.00000E+00
         0.00000E+00
         0.00000E+00
         0.00000E+00
         0.00000E+00
         0.00000E+00
         0.00000E+00
         0.00000E+00
         0.00000E+00
         0.00000E+00
         0.00000E+00
         0.00000E+00
         0.00000E+00
         0.00000E+00
         0.00000E+00
         0.00000E+00
         0.00000E+00
         0.00000E+00
         0.00000E+00
         0.00000E+00
         0.00000E+00
         0.00000E+00
         0.00000E+00
         0.00000E+00
         0.00000E+00
         0.00000E+00
         0.00000E+00
         0.00000E+00
         0.00000E+00
         0.00000E+00
         0.00000E+00
         0.00000E+00
         0.00000E+00
         0.00000E+00
         0.00000E+00
         0.00000E+00
         0.00000E+00
         0.00000E+00
         0.00000E+00
         0.00000E+00
         0.00000E+00
         0.00000E+00
         0.00000E+00
         0.00000E+00
         0.00000E+00
         0.00000E+00
         0.00000E+00
         0.00000E+00
         0.00000E+00
         0.00000E+00
         0.00000E+00
         0.00000E+00
         0.00000E+00
         0.00000E+00
         0.00000E+00
         0.00000E+00
         0.00000E+00
         0.00000E+00
         0.00000E+00
         0.00000E+00
         0.00000E+00
         0.00000E+00
         0.00000E+00
         0.00000E+00
         0.00000E+00
         0.00000E+00
         0.00000E+00
         0.00000E+00
         0.00000E+00
         0.00000E+00
         0.00000E+00
         0.00000E+00
         0.00000E+00
         0.00000E+00
         0.00000E+00
         0.00000E+00
         0.00000E+00
         0.00000E+00
         0.00000E+00
         0.00000E+00
         0.00000E+00
         0.00000E+00
         0.00000E+00
         0.00000E+00
         0.00000E+00
         0.00000E+00
         0.00000E+00
         0.00000E+00
         0.00000E+00
         0.00000E+00
         0.00000E+00
         0.00000E+00
         0.00000E+00
         0.00000E+00
         0.00000E+00
         0.00000E+00
         0.00000E+00
         0.00000E+00
         0.00000E+00
         0.00000E+00
         0.00000E+00
         0.00000E+00
         0.00000E+00
         0.00000E+00
         0.00000E+00
         0.00000E+00
         0.00000E+00
         0.00000E+00
         0.00000E+00
         0.00000E+00
         0.00000E+00
         0.00000E+00
         0.00000E+00
         0.00000E+00
         0.00000E+00
         0.00000E+00
         0.00000E+00
         0.00000E+00
         0.00000E+00
         0.00000E+00
         0.00000E+00
         0.00000E+00
         0.00000E+00
         0.00000E+00
         0.00000E+00
         0.00000E+00
         0.00000E+00
         0.00000E+00
         0.00000E+00
         0.00000E+00
         0.00000E+00
         0.00000E+00
         0.00000E+00
         0.00000E+00
         0.00000E+00
         0.00000E+00
         0.00000E+00
         0.00000E+00
         0.00000E+00
         0.00000E+00
         0.00000E+00
         0.00000E+00
         0.00000E+00
         0.00000E+00
         0.00000E+00
         0.00000E+00
         0.00000E+00
         0.00000E+00
         0.00000E+00
         0.00000E+00
         0.00000E+00
         0.00000E+00
         0.00000E+00
         0.00000E+00
         0.00000E+00
         0.00000E+00
         0.00000E+00
         0.00000E+00
         0.00000E+00
         0.00000E+00
         0.00000E+00
         0.00000E+00
         0.00000E+00
         0.00000E+00
         0.00000E+00
         0.00000E+00
         0.00000E+00
         0.00000E+00
         0.00000E+00
         0.00000E+00
         0.00000E+00
         0.00000E+00
         0.00000E+00
         0.00000E+00
         0.00000E+00
         0.00000E+00
         0.00000E+00
         0.00000E+00
         0.00000E+00
         0.00000E+00
         0.00000E+00
         0.00000E+00
         0.00000E+00
         0.00000E+00
         0.00000E+00
         0.00000E+00
         0.00000E+00
         0.00000E+00
         0.00000E+00
         0.00000E+00
         0.00000E+00
         0.00000E+00
         0.00000E+00
         0.00000E+00
         0.00000E+00
         0.00000E+00
         0.00000E+00
         0.00000E+00
         0.00000E+00
         0.00000E+00
         0.00000E+00
         0.00000E+00
         0.00000E+00
         0.00000E+00
         0.00000E+00
         0.00000E+00
         0.00000E+00
         0.00000E+00
         0.00000E+00
         0.00000E+00
         0.00000E+00
         0.00000E+00
         0.00000E+00
         0.00000E+00
         0.00000E+00
         0.00000E+00
         0.00000E+00
         0.00000E+00
         0.00000E+00
         0.00000E+00
         0.00000E+00
         0.00000E+00
         0.00000E+00
         0.00000E+00
         0.00000E+00
         0.00000E+00
         0.00000E+00
         0.00000E+00
         0.00000E+00
         0.00000E+00
         0.00000E+00
         0.00000E+00
         0.00000E+00
         0.00000E+00
         0.00000E+00
         0.00000E+00
         0.00000E+00
         0.00000E+00
         0.00000E+00
         0.00000E+00
         0.00000E+00
         0.00000E+00
         0.00000E+00
         0.00000E+00
         0.00000E+00
         0.00000E+00
         0.00000E+00
         0.00000E+00
         0.00000E+00
         0.00000E+00
         0.00000E+00
         0.00000E+00
         0.00000E+00
         0.00000E+00
         0.00000E+00
         0.00000E+00
         0.00000E+00
         0.00000E+00
         0.00000E+00
         0.00000E+00
         0.00000E+00
         0.00000E+00
         0.00000E+00
         0.00000E+00
         0.00000E+00
         0.00000E+00
         0.00000E+00
         0.00000E+00
         0.00000E+00
         0.00000E+00
         0.00000E+00
         0.00000E+00
         0.00000E+00
         0.00000E+00
         0.00000E+00
         0.00000E+00
         0.00000E+00
         0.00000E+00
         0.00000E+00
         0.00000E+00
         0.00000E+00
         0.00000E+00
         0.00000E+00
         0.00000E+00
         0.00000E+00
         0.00000E+00
         0.00000E+00
         0.00000E+00
         0.00000E+00
         0.00000E+00
         0.00000E+00
         0.00000E+00
         0.00000E+00
         0.00000E+00
         0.00000E+00
         0.00000E+00
         0.00000E+00
         0.00000E+00
         0.00000E+00
         0.00000E+00
         0.00000E+00
         0.00000E+00
         0.00000E+00
         0.00000E+00
         0.00000E+00
         0.00000E+00
         0.00000E+00
         0.00000E+00
         0.00000E+00
         0.00000E+00
         0.00000E+00
         0.00000E+00
         0.00000E+00
         0.00000E+00
         0.00000E+00
         0.00000E+00
         0.00000E+00
         0.00000E+00
         0.00000E+00
         0.00000E+00
         0.00000E+00
         0.00000E+00
         0.00000E+00
         0.00000E+00
         0.00000E+00
         0.00000E+00
         0.00000E+00
         0.00000E+00
         0.00000E+00
         0.00000E+00
         0.00000E+00
         0.00000E+00
         0.00000E+00
         0.00000E+00
         0.00000E+00
         0.00000E+00
         0.00000E+00
         0.00000E+00
         0.00000E+00
         0.00000E+00
         0.00000E+00
         0.00000E+00
         0.00000E+00
         0.00000E+00
         0.00000E+00
         0.00000E+00
         0.00000E+00
         0.00000E+00
         0.00000E+00
         0.00000E+00
         0.00000E+00
         0.00000E+00
         0.00000E+00
         0.00000E+00
         0.00000E+00
         0.00000E+00
         0.00000E+00
         0.00000E+00
         0.00000E+00
         0.00000E+00
         0.00000E+00
         0.00000E+00
         0.00000E+00
         0.00000E+00
         0.00000E+00
         0.00000E+00
         0.00000E+00
         0.00000E+00
         0.00000E+00
         0.00000E+00
         0.00000E+00
         0.00000E+00
         0.00000E+00
         0.00000E+00
         0.00000E+00
         0.00000E+00
         0.00000E+00
         0.00000E+00
         0.00000E+00
         0.00000E+00
         0.00000E+00
         0.00000E+00
         0.00000E+00
         0.00000E+00
         0.00000E+00
         0.00000E+00
         0.00000E+00
         0.00000E+00
         0.00000E+00
         0.00000E+00
         0.00000E+00
         0.00000E+00
         0.00000E+00
         0.00000E+00
         0.00000E+00
         0.00000E+00
         0.00000E+00
         0.00000E+00
         0.00000E+00
         0.00000E+00
         0.00000E+00
         0.00000E+00
         0.00000E+00
         0.00000E+00
         0.00000E+00
         0.00000E+00
         0.00000E+00
         0.00000E+00
         0.00000E+00
         0.00000E+00
         0.00000E+00
         0.00000E+00
         0.00000E+00
         0.00000E+00
         0.00000E+00
         0.00000E+00
         0.00000E+00
         0.00000E+00
         0.00000E+00
         0.00000E+00
         0.00000E+00
         0.00000E+00
         0.00000E+00
         0.00000E+00
         0.00000E+00
         0.00000E+00
         0.00000E+00
         0.00000E+00
         0.00000E+00
         0.00000E+00
         0.00000E+00
         0.00000E+00
         0.00000E+00
         0.00000E+00
         0.00000E+00
         0.00000E+00
         0.00000E+00
         0.00000E+00
         0.00000E+00
         0.00000E+00
         0.00000E+00
         0.00000E+00
         0.00000E+00
         0.00000E+00
         0.00000E+00
         0.00000E+00
         0.00000E+00
         0.00000E+00
         0.00000E+00
         0.00000E+00
         0.00000E+00
         0.00000E+00
         0.00000E+00
         0.00000E+00
         0.00000E+00
         0.00000E+00
         0.00000E+00
         0.00000E+00
         0.00000E+00
         0.00000E+00
         0.00000E+00
         0.00000E+00
         0.00000E+00
         0.00000E+00
         0.00000E+00
         0.00000E+00
         0.00000E+00
         0.00000E+00
         0.00000E+00
         0.00000E+00
         0.00000E+00
         0.00000E+00
         0.00000E+00
         0.00000E+00
         0.00000E+00
         0.00000E+00
         0.00000E+00
         0.00000E+00
         0.00000E+00
         0.00000E+00
         0.00000E+00
         0.00000E+00
         0.00000E+00
         0.00000E+00
         0.00000E+00
         0.00000E+00
         0.00000E+00
         0.00000E+00
         0.00000E+00
         0.00000E+00
         0.00000E+00
         0.00000E+00
         0.00000E+00
         0.00000E+00
         0.00000E+00
         0.00000E+00
         0.00000E+00
         0.00000E+00
         0.00000E+00
         0.00000E+00
         0.00000E+00
         0.00000E+00
         0.00000E+00
         0.00000E+00
         0.00000E+00
         0.00000E+00
         0.00000E+00
         0.00000E+00
         0.00000E+00
         0.00000E+00
         0.00000E+00
         0.00000E+00
         0.00000E+00
         0.00000E+00
         0.00000E+00
         0.00000E+00
         0.00000E+00
         0.00000E+00
         0.00000E+00
         0.00000E+00
         0.00000E+00
         0.00000E+00
         0.00000E+00
         0.00000E+00
         0.00000E+00
         0.00000E+00
         0.00000E+00
         0.00000E+00
         0.00000E+00
         0.00000E+00
         0.00000E+00
         0.00000E+00
         0.00000E+00
         0.00000E+00
         0.00000E+00
         0.00000E+00
         0.00000E+00
         0.00000E+00
         0.00000E+00
         0.00000E+00
         0.00000E+00
         0.00000E+00
         0.00000E+00
         0.00000E+00
         0.00000E+00
         0.00000E+00
         0.00000E+00
         0.00000E+00
         0.00000E+00
         0.00000E+00
         0.00000E+00
         0.00000E+00
         0.00000E+00
         0.00000E+00
         0.00000E+00
         0.00000E+00
         0.00000E+00
         0.00000E+00
         0.00000E+00
         0.00000E+00
         0.00000E+00
         0.00000E+00
         0.00000E+00
         0.00000E+00
         0.00000E+00
         0.00000E+00
         0.00000E+00
         0.00000E+00
         0.00000E+00
         0.00000E+00
         0.00000E+00
         0.00000E+00
         0.00000E+00
         0.00000E+00
         0.00000E+00
         0.00000E+00
         0.00000E+00
         0.00000E+00
         0.00000E+00
         0.00000E+00
         0.00000E+00
         0.00000E+00
         0.00000E+00
         0.00000E+00
         0.00000E+00
         0.00000E+00
         0.00000E+00
         0.00000E+00
         0.00000E+00
         0.00000E+00
         0.00000E+00
         0.00000E+00
         0.00000E+00
         0.00000E+00
         0.00000E+00
         0.00000E+00
         0.00000E+00
         0.00000E+00
         0.00000E+00
         0.00000E+00
         0.00000E+00
         0.00000E+00
         0.00000E+00
         0.00000E+00
         0.00000E+00
         0.00000E+00
         0.00000E+00
         0.00000E+00
         0.00000E+00
         0.00000E+00
         0.00000E+00
         0.00000E+00
         0.00000E+00
         0.00000E+00
         0.00000E+00
         0.00000E+00
         0.00000E+00
         0.00000E+00
         0.00000E+00
         0.00000E+00
         0.00000E+00
         0.00000E+00
         0.00000E+00
         0.00000E+00
         0.00000E+00
         0.00000E+00
         0.00000E+00
         0.00000E+00
         0.00000E+00
         0.00000E+00
         0.00000E+00
         0.00000E+00
         0.00000E+00
         0.00000E+00
         0.00000E+00
         0.00000E+00
         0.00000E+00
         0.00000E+00
         0.00000E+00
         0.00000E+00
         0.00000E+00
         0.00000E+00
         0.00000E+00
         0.00000E+00
         0.00000E+00
         0.00000E+00
         0.00000E+00
         0.00000E+00
         0.00000E+00
         0.00000E+00
         0.00000E+00
         0.00000E+00
         0.00000E+00
         0.00000E+00
         0.00000E+00
         0.00000E+00
         0.00000E+00
         0.00000E+00
         0.00000E+00
         0.00000E+00
         0.00000E+00
         0.00000E+00
         0.00000E+00
         0.00000E+00
         0.00000E+00
         0.00000E+00
         0.00000E+00
         0.00000E+00
         0.00000E+00
         0.00000E+00
         0.00000E+00
         0.00000E+00
         0.00000E+00
         0.00000E+00
         0.00000E+00
         0.00000E+00
         0.00000E+00
         0.00000E+00
         0.00000E+00
         0.00000E+00
         0.00000E+00
         0.00000E+00
         0.00000E+00
         0.00000E+00
         0.00000E+00
         0.00000E+00
         0.00000E+00
         0.00000E+00
         0.00000E+00
         0.00000E+00
         0.00000E+00
         0.00000E+00
         0.00000E+00
         0.00000E+00
         0.00000E+00
         0.00000E+00
         0.00000E+00
         0.00000E+00
         0.00000E+00
         0.00000E+00
         0.00000E+00
         0.00000E+00
         0.00000E+00
         0.00000E+00
         0.00000E+00
         0.00000E+00
         0.00000E+00
         0.00000E+00
         0.00000E+00
         0.00000E+00
         0.00000E+00
         0.00000E+00
         0.00000E+00
         0.00000E+00
         0.00000E+00
         0.00000E+00
         0.00000E+00
         0.00000E+00
         0.00000E+00
         0.00000E+00
         0.00000E+00
         0.00000E+00
         0.00000E+00
         0.00000E+00
         0.00000E+00
         0.00000E+00
         0.00000E+00
         0.00000E+00
         0.00000E+00
         0.00000E+00
         0.00000E+00
         0.00000E+00
         0.00000E+00
         0.00000E+00
         0.00000E+00
         0.00000E+00
         0.00000E+00
         0.00000E+00
         0.00000E+00
         0.00000E+00
         0.00000E+00
         0.00000E+00
         0.00000E+00
         0.00000E+00
         0.00000E+00
         0.00000E+00
         0.00000E+00
         0.00000E+00
         0.00000E+00
         0.00000E+00
         0.00000E+00
         0.00000E+00
         0.00000E+00
         0.00000E+00
         0.00000E+00
         0.00000E+00
         0.00000E+00
         0.00000E+00
         0.00000E+00
         0.00000E+00
         0.00000E+00
         0.00000E+00
         0.00000E+00
         0.00000E+00
         0.00000E+00
         0.00000E+00
         0.00000E+00
         0.00000E+00
         0.00000E+00
         0.00000E+00
         0.00000E+00
         0.00000E+00
         0.00000E+00
         0.00000E+00
         0.00000E+00
         0.00000E+00
         0.00000E+00
         0.00000E+00
         0.00000E+00
         0.00000E+00
         0.00000E+00
         0.00000E+00
         0.00000E+00
         0.00000E+00
         0.00000E+00
         0.00000E+00
         0.00000E+00
         0.00000E+00
         0.00000E+00
         0.00000E+00
         0.00000E+00
         0.00000E+00
         0.00000E+00
         0.00000E+00
         0.00000E+00
         0.00000E+00
         0.00000E+00
         0.00000E+00
         0.00000E+00
         0.00000E+00
         0.00000E+00
         0.00000E+00
         0.00000E+00
         0.00000E+00
         0.00000E+00
         0.00000E+00
         0.00000E+00
         0.00000E+00
         0.00000E+00
         0.00000E+00
         0.00000E+00
         0.00000E+00
         0.00000E+00
         0.00000E+00
         0.00000E+00
         0.00000E+00
         0.00000E+00
         0.00000E+00
         0.00000E+00
         0.00000E+00
         0.00000E+00
         0.00000E+00
         0.00000E+00
         0.00000E+00
         0.00000E+00
         0.00000E+00
         0.00000E+00
         0.00000E+00
         0.00000E+00
         0.00000E+00
         0.00000E+00
         0.00000E+00
         0.00000E+00
         0.00000E+00
         0.00000E+00
         0.00000E+00
         0.00000E+00
         0.00000E+00
         0.00000E+00
         0.00000E+00
         0.00000E+00
         0.00000E+00
         0.00000E+00
         0.00000E+00
         0.00000E+00
         0.00000E+00
         0.00000E+00
         0.00000E+00
         0.00000E+00
         0.00000E+00
         0.00000E+00
         0.00000E+00
         0.00000E+00
         0.00000E+00
         0.00000E+00
         0.00000E+00
         0.00000E+00
         0.00000E+00
         0.00000E+00
         0.00000E+00
         0.00000E+00
         0.00000E+00
         0.00000E+00
         0.00000E+00
         0.00000E+00
         0.00000E+00
         0.00000E+00
         0.00000E+00
         0.00000E+00
         0.00000E+00
         0.00000E+00
         0.00000E+00
         0.00000E+00
         0.00000E+00
         0.00000E+00
         0.00000E+00
         0.00000E+00
         0.00000E+00
         0.00000E+00
         0.00000E+00
         0.00000E+00
         0.00000E+00
         0.00000E+00
         0.00000E+00
         0.00000E+00
         0.00000E+00
         0.00000E+00
         0.00000E+00
         0.00000E+00
         0.00000E+00
         0.00000E+00
         0.00000E+00
         0.00000E+00
         0.00000E+00
         0.00000E+00
         0.00000E+00
         0.00000E+00
         0.00000E+00
         0.00000E+00
         0.00000E+00
         0.00000E+00
         0.00000E+00
         0.00000E+00
         0.00000E+00
         0.00000E+00
         0.00000E+00
         0.00000E+00
         0.00000E+00
         0.00000E+00
         0.00000E+00
         0.00000E+00
         0.00000E+00
         0.00000E+00
         0.00000E+00
         0.00000E+00
         0.00000E+00
         0.00000E+00
         0.00000E+00
         0.00000E+00
         0.00000E+00
         0.00000E+00
         0.00000E+00
         0.00000E+00
         0.00000E+00
         0.00000E+00
         0.00000E+00
         0.00000E+00
         0.00000E+00
         0.00000E+00
         0.00000E+00
         0.00000E+00
         0.00000E+00
         0.00000E+00
         0.00000E+00
         0.00000E+00
         0.00000E+00
         0.00000E+00
         0.00000E+00
         0.00000E+00
         0.00000E+00
         0.00000E+00
         0.00000E+00
         0.00000E+00
         0.00000E+00
         0.00000E+00
         0.00000E+00
         0.00000E+00
         0.00000E+00
         0.00000E+00
         0.00000E+00
         0.00000E+00
         0.00000E+00
         0.00000E+00
         0.00000E+00
         0.00000E+00
         0.00000E+00
         0.00000E+00
         0.00000E+00
         0.00000E+00
         0.00000E+00
         0.00000E+00
         0.00000E+00
         0.00000E+00
         0.00000E+00
         0.00000E+00
         0.00000E+00
         0.00000E+00
         0.00000E+00
         0.00000E+00
         0.00000E+00
         0.00000E+00
         0.00000E+00
         0.00000E+00
         0.00000E+00
         0.00000E+00
         0.00000E+00
         0.00000E+00
         0.00000E+00
         0.00000E+00
         0.00000E+00
         0.00000E+00
         0.00000E+00
         0.00000E+00
         0.00000E+00
         0.00000E+00
         0.00000E+00
         0.00000E+00
         0.00000E+00
         0.00000E+00
         0.00000E+00
         0.00000E+00
         0.00000E+00
         0.00000E+00
         0.00000E+00
         0.00000E+00
         0.00000E+00
         0.00000E+00
         0.00000E+00
         0.00000E+00
         0.00000E+00
         0.00000E+00
         0.00000E+00
         0.00000E+00
         0.00000E+00
         0.00000E+00
         0.00000E+00
         0.00000E+00
         0.00000E+00
         0.00000E+00
         0.00000E+00
         0.00000E+00
         0.00000E+00
         0.00000E+00
         0.00000E+00
         0.00000E+00
         0.00000E+00
         0.00000E+00
         0.00000E+00
         0.00000E+00
         0.00000E+00
         0.00000E+00
         0.00000E+00
         0.00000E+00
         0.00000E+00
         0.00000E+00
         0.00000E+00
         0.00000E+00
         0.00000E+00
         0.00000E+00
         0.00000E+00
         0.00000E+00
         0.00000E+00
         0.00000E+00
         0.00000E+00
         0.00000E+00
         0.00000E+00
         0.00000E+00
         0.00000E+00
         0.00000E+00
         0.00000E+00
         0.00000E+00
         0.00000E+00
         0.00000E+00
         0.00000E+00
         0.00000E+00
         0.00000E+00
         0.00000E+00
         0.00000E+00
         0.00000E+00
         0.00000E+00
         0.00000E+00
         0.00000E+00
         0.00000E+00
         0.00000E+00
         0.00000E+00
         0.00000E+00
         0.00000E+00
         0.00000E+00
         0.00000E+00
         0.00000E+00
         0.00000E+00
         0.00000E+00
         0.00000E+00
         0.00000E+00
         0.00000E+00
         0.00000E+00
         0.00000E+00
         0.00000E+00
         0.00000E+00
         0.00000E+00
         0.00000E+00
         0.00000E+00
         0.00000E+00
         0.00000E+00
         0.00000E+00
         0.00000E+00
         0.00000E+00
         0.00000E+00
         0.00000E+00
         0.00000E+00
         0.00000E+00
         0.00000E+00
         0.00000E+00
         0.00000E+00
         0.00000E+00
         0.00000E+00
         0.00000E+00
         0.00000E+00
         0.00000E+00
         0.00000E+00
         0.00000E+00
         0.00000E+00
         0.00000E+00
         0.00000E+00
         0.00000E+00
         0.00000E+00
         0.00000E+00
         0.00000E+00
         0.00000E+00
         0.00000E+00
         0.00000E+00
         0.00000E+00
         0.00000E+00
         0.00000E+00
         0.00000E+00
         0.00000E+00
         0.00000E+00
         0.00000E+00
         0.00000E+00
         0.00000E+00
         0.00000E+00
         0.00000E+00
         0.00000E+00
         0.00000E+00
         0.00000E+00
         0.00000E+00
         0.00000E+00
         0.00000E+00
         0.00000E+00
         0.00000E+00
         0.00000E+00
         0.00000E+00
         0.00000E+00
         0.00000E+00
         0.00000E+00
         0.00000E+00
         0.00000E+00
         0.00000E+00
         0.00000E+00
         0.00000E+00
         0.00000E+00
         0.00000E+00
         0.00000E+00
         0.00000E+00
         0.00000E+00
         0.00000E+00
         0.00000E+00
         0.00000E+00
         0.00000E+00
         0.00000E+00
         0.00000E+00
         0.00000E+00
         0.00000E+00
         0.00000E+00
         0.00000E+00
         0.00000E+00
         0.00000E+00
         0.00000E+00
         0.00000E+00
         0.00000E+00
         0.00000E+00
         0.00000E+00
         0.00000E+00
         0.00000E+00
         0.00000E+00
         0.00000E+00
         0.00000E+00
         0.00000E+00
         0.00000E+00
         0.00000E+00
         0.00000E+00
         0.00000E+00
         0.00000E+00
         0.00000E+00
         0.00000E+00
         0.00000E+00
         0.00000E+00
         0.00000E+00
         0.00000E+00
         0.00000E+00
         0.00000E+00
         0.00000E+00
         0.00000E+00
         0.00000E+00
         0.00000E+00
         0.00000E+00
         0.00000E+00
         0.00000E+00
         0.00000E+00
         0.00000E+00
         0.00000E+00
         0.00000E+00
         0.00000E+00
         0.00000E+00
         0.00000E+00
         0.00000E+00
         0.00000E+00
         0.00000E+00
         0.00000E+00
         0.00000E+00
         0.00000E+00
         0.00000E+00
         0.00000E+00
         0.00000E+00
         0.00000E+00
         0.00000E+00
         0.00000E+00
         0.00000E+00
         0.00000E+00
         0.00000E+00
         0.00000E+00
         0.00000E+00
         0.00000E+00
         0.00000E+00
         0.00000E+00
         0.00000E+00
         0.00000E+00
         0.00000E+00
         0.00000E+00
         0.00000E+00
         0.00000E+00
         0.00000E+00
         0.00000E+00
         0.00000E+00
         0.00000E+00
         0.00000E+00
         0.00000E+00
         0.00000E+00
         0.00000E+00
         0.00000E+00
         0.00000E+00
         0.00000E+00
         0.00000E+00
         0.00000E+00
         0.00000E+00
         0.00000E+00
         0.00000E+00
         0.00000E+00
         0.00000E+00
         0.00000E+00
         0.00000E+00
         0.00000E+00
         0.00000E+00
         0.00000E+00
         0.00000E+00
         0.00000E+00
         0.00000E+00
         0.00000E+00
         0.00000E+00
         0.00000E+00
         0.00000E+00
         0.00000E+00
         0.00000E+00
         0.00000E+00
         0.00000E+00
         0.00000E+00
         0.00000E+00
         0.00000E+00
         0.00000E+00
         0.00000E+00
         0.00000E+00
         0.00000E+00
         0.00000E+00
         0.00000E+00
         0.00000E+00
         0.00000E+00
         0.00000E+00
         0.00000E+00
         0.00000E+00
         0.00000E+00
         0.00000E+00
         0.00000E+00
         0.00000E+00
         0.00000E+00
         0.00000E+00
         0.00000E+00
         0.00000E+00
         0.00000E+00
         0.00000E+00
         0.00000E+00
         0.00000E+00
         0.00000E+00
         0.00000E+00
         0.00000E+00
         0.00000E+00
         0.00000E+00
         0.00000E+00
         0.00000E+00
         0.00000E+00
         0.00000E+00
         0.00000E+00
         0.00000E+00
         0.00000E+00
         0.00000E+00
         0.00000E+00
         0.00000E+00
         0.00000E+00
         0.00000E+00
         0.00000E+00
         0.00000E+00
         0.00000E+00
         0.00000E+00
         0.00000E+00
         0.00000E+00
         0.00000E+00
         0.00000E+00
         0.00000E+00
         0.00000E+00
         0.00000E+00
         0.00000E+00
         0.00000E+00
         0.00000E+00
         0.00000E+00
         0.00000E+00
         0.00000E+00
         0.00000E+00
         0.00000E+00
         0.00000E+00
         0.00000E+00
         0.00000E+00
         0.00000E+00
         0.00000E+00
         0.00000E+00
         0.00000E+00
         0.00000E+00
         0.00000E+00
         0.00000E+00
         0.00000E+00
         0.00000E+00
         0.00000E+00
         0.00000E+00
         0.00000E+00
         0.00000E+00
         0.00000E+00
         0.00000E+00
         0.00000E+00
         0.00000E+00
         0.00000E+00
         0.00000E+00
         0.00000E+00
         0.00000E+00
         0.00000E+00
         0.00000E+00
         0.00000E+00
         0.00000E+00
         0.00000E+00
         0.00000E+00
         0.00000E+00
         0.00000E+00
         0.00000E+00
         0.00000E+00
         0.00000E+00
         0.00000E+00
         0.00000E+00
         0.00000E+00
         0.00000E+00
         0.00000E+00
         0.00000E+00
         0.00000E+00
         0.00000E+00
         0.00000E+00
         0.00000E+00
         0.00000E+00
         0.00000E+00
         0.00000E+00
         0.00000E+00
         0.00000E+00
         0.00000E+00
         0.00000E+00
         0.00000E+00
         0.00000E+00
         0.00000E+00
         0.00000E+00
         0.00000E+00
         0.00000E+00
         0.00000E+00
         0.00000E+00
         0.00000E+00
         0.00000E+00
         0.00000E+00
         0.00000E+00
         0.00000E+00
         0.00000E+00
         0.00000E+00
         0.00000E+00
         0.00000E+00
         0.00000E+00
         0.00000E+00
         0.00000E+00
         0.00000E+00
         0.00000E+00
         0.00000E+00
         0.00000E+00
         0.00000E+00
         0.00000E+00
         0.00000E+00
         0.00000E+00
         0.00000E+00
         0.00000E+00
         0.00000E+00
         0.00000E+00
         0.00000E+00
         0.00000E+00
         0.00000E+00
         0.00000E+00
         0.00000E+00
         0.00000E+00
         0.00000E+00
         0.00000E+00
         0.00000E+00
         0.00000E+00
         0.00000E+00
         0.00000E+00
         0.00000E+00
         0.00000E+00
         0.00000E+00
         0.00000E+00
         0.00000E+00
         0.00000E+00
         0.00000E+00
         0.00000E+00
         0.00000E+00
         0.00000E+00
         0.00000E+00
         0.00000E+00
         0.00000E+00
         0.00000E+00
         0.00000E+00
         0.00000E+00
         0.00000E+00
         0.00000E+00
         0.00000E+00
         0.00000E+00
         0.00000E+00
         0.00000E+00
         0.00000E+00
         0.00000E+00
         0.00000E+00
         0.00000E+00
         0.00000E+00
         0.00000E+00
         0.00000E+00
         0.00000E+00
         0.00000E+00
         0.00000E+00
         0.00000E+00
         0.00000E+00
         0.00000E+00
         0.00000E+00
         0.00000E+00
         0.00000E+00
         0.00000E+00
         0.00000E+00
         0.00000E+00
         0.00000E+00
         0.00000E+00
         0.00000E+00
         0.00000E+00
         0.00000E+00
         0.00000E+00
         0.00000E+00
         0.00000E+00
         0.00000E+00
         0.00000E+00
         0.00000E+00
  
SCALARS                init_velocity_z  double 1
LOOKUP_TABLE default
        -0.37300E+03
        -0.37300E+03
        -0.37300E+03
        -0.37300E+03
        -0.37300E+03
        -0.37300E+03
        -0.37300E+03
        -0.37300E+03
        -0.37300E+03
        -0.37300E+03
        -0.37300E+03
        -0.37300E+03
        -0.37300E+03
        -0.37300E+03
        -0.37300E+03
        -0.37300E+03
        -0.37300E+03
        -0.37300E+03
        -0.37300E+03
        -0.37300E+03
        -0.37300E+03
        -0.37300E+03
        -0.37300E+03
        -0.37300E+03
        -0.37300E+03
        -0.37300E+03
        -0.37300E+03
        -0.37300E+03
        -0.37300E+03
        -0.37300E+03
        -0.37300E+03
        -0.37300E+03
        -0.37300E+03
        -0.37300E+03
        -0.37300E+03
        -0.37300E+03
        -0.37300E+03
        -0.37300E+03
        -0.37300E+03
        -0.37300E+03
        -0.37300E+03
        -0.37300E+03
        -0.37300E+03
        -0.37300E+03
        -0.37300E+03
        -0.37300E+03
        -0.37300E+03
        -0.37300E+03
        -0.37300E+03
        -0.37300E+03
        -0.37300E+03
        -0.37300E+03
        -0.37300E+03
        -0.37300E+03
        -0.37300E+03
        -0.37300E+03
        -0.37300E+03
        -0.37300E+03
        -0.37300E+03
        -0.37300E+03
        -0.37300E+03
        -0.37300E+03
        -0.37300E+03
        -0.37300E+03
        -0.37300E+03
        -0.37300E+03
        -0.37300E+03
        -0.37300E+03
        -0.37300E+03
        -0.37300E+03
        -0.37300E+03
        -0.37300E+03
        -0.37300E+03
        -0.37300E+03
        -0.37300E+03
        -0.37300E+03
        -0.37300E+03
        -0.37300E+03
        -0.37300E+03
        -0.37300E+03
        -0.37300E+03
        -0.37300E+03
        -0.37300E+03
        -0.37300E+03
        -0.37300E+03
        -0.37300E+03
        -0.37300E+03
        -0.37300E+03
        -0.37300E+03
        -0.37300E+03
        -0.37300E+03
        -0.37300E+03
        -0.37300E+03
        -0.37300E+03
        -0.37300E+03
        -0.37300E+03
        -0.37300E+03
        -0.37300E+03
        -0.37300E+03
        -0.37300E+03
        -0.37300E+03
        -0.37300E+03
        -0.37300E+03
        -0.37300E+03
        -0.37300E+03
        -0.37300E+03
        -0.37300E+03
        -0.37300E+03
        -0.37300E+03
        -0.37300E+03
        -0.37300E+03
        -0.37300E+03
        -0.37300E+03
        -0.37300E+03
        -0.37300E+03
        -0.37300E+03
        -0.37300E+03
        -0.37300E+03
        -0.37300E+03
        -0.37300E+03
        -0.37300E+03
        -0.37300E+03
        -0.37300E+03
        -0.37300E+03
        -0.37300E+03
        -0.37300E+03
        -0.37300E+03
        -0.37300E+03
        -0.37300E+03
        -0.37300E+03
        -0.37300E+03
        -0.37300E+03
        -0.37300E+03
        -0.37300E+03
        -0.37300E+03
        -0.37300E+03
        -0.37300E+03
        -0.37300E+03
        -0.37300E+03
        -0.37300E+03
        -0.37300E+03
        -0.37300E+03
        -0.37300E+03
        -0.37300E+03
        -0.37300E+03
        -0.37300E+03
        -0.37300E+03
        -0.37300E+03
        -0.37300E+03
        -0.37300E+03
        -0.37300E+03
        -0.37300E+03
        -0.37300E+03
        -0.37300E+03
        -0.37300E+03
        -0.37300E+03
        -0.37300E+03
        -0.37300E+03
        -0.37300E+03
        -0.37300E+03
        -0.37300E+03
        -0.37300E+03
        -0.37300E+03
        -0.37300E+03
        -0.37300E+03
        -0.37300E+03
        -0.37300E+03
        -0.37300E+03
        -0.37300E+03
        -0.37300E+03
        -0.37300E+03
        -0.37300E+03
        -0.37300E+03
        -0.37300E+03
        -0.37300E+03
        -0.37300E+03
        -0.37300E+03
        -0.37300E+03
        -0.37300E+03
        -0.37300E+03
        -0.37300E+03
        -0.37300E+03
        -0.37300E+03
        -0.37300E+03
        -0.37300E+03
        -0.37300E+03
        -0.37300E+03
        -0.37300E+03
        -0.37300E+03
        -0.37300E+03
        -0.37300E+03
        -0.37300E+03
        -0.37300E+03
        -0.37300E+03
        -0.37300E+03
        -0.37300E+03
        -0.37300E+03
        -0.37300E+03
        -0.37300E+03
        -0.37300E+03
        -0.37300E+03
        -0.37300E+03
        -0.37300E+03
        -0.37300E+03
        -0.37300E+03
        -0.37300E+03
        -0.37300E+03
        -0.37300E+03
        -0.37300E+03
        -0.37300E+03
        -0.37300E+03
        -0.37300E+03
        -0.37300E+03
        -0.37300E+03
        -0.37300E+03
        -0.37300E+03
        -0.37300E+03
        -0.37300E+03
        -0.37300E+03
        -0.37300E+03
        -0.37300E+03
        -0.37300E+03
        -0.37300E+03
        -0.37300E+03
        -0.37300E+03
        -0.37300E+03
        -0.37300E+03
        -0.37300E+03
        -0.37300E+03
        -0.37300E+03
        -0.37300E+03
        -0.37300E+03
        -0.37300E+03
        -0.37300E+03
        -0.37300E+03
        -0.37300E+03
        -0.37300E+03
        -0.37300E+03
        -0.37300E+03
        -0.37300E+03
        -0.37300E+03
        -0.37300E+03
        -0.37300E+03
        -0.37300E+03
        -0.37300E+03
        -0.37300E+03
        -0.37300E+03
        -0.37300E+03
        -0.37300E+03
        -0.37300E+03
        -0.37300E+03
        -0.37300E+03
        -0.37300E+03
        -0.37300E+03
        -0.37300E+03
        -0.37300E+03
        -0.37300E+03
        -0.37300E+03
        -0.37300E+03
        -0.37300E+03
        -0.37300E+03
        -0.37300E+03
        -0.37300E+03
        -0.37300E+03
        -0.37300E+03
        -0.37300E+03
        -0.37300E+03
        -0.37300E+03
        -0.37300E+03
        -0.37300E+03
        -0.37300E+03
        -0.37300E+03
        -0.37300E+03
        -0.37300E+03
        -0.37300E+03
        -0.37300E+03
        -0.37300E+03
        -0.37300E+03
        -0.37300E+03
        -0.37300E+03
        -0.37300E+03
        -0.37300E+03
        -0.37300E+03
        -0.37300E+03
        -0.37300E+03
        -0.37300E+03
        -0.37300E+03
        -0.37300E+03
        -0.37300E+03
        -0.37300E+03
        -0.37300E+03
        -0.37300E+03
        -0.37300E+03
        -0.37300E+03
        -0.37300E+03
        -0.37300E+03
        -0.37300E+03
        -0.37300E+03
        -0.37300E+03
        -0.37300E+03
        -0.37300E+03
        -0.37300E+03
        -0.37300E+03
        -0.37300E+03
        -0.37300E+03
        -0.37300E+03
        -0.37300E+03
        -0.37300E+03
        -0.37300E+03
        -0.37300E+03
        -0.37300E+03
        -0.37300E+03
        -0.37300E+03
        -0.37300E+03
        -0.37300E+03
        -0.37300E+03
        -0.37300E+03
        -0.37300E+03
        -0.37300E+03
        -0.37300E+03
        -0.37300E+03
        -0.37300E+03
        -0.37300E+03
        -0.37300E+03
        -0.37300E+03
        -0.37300E+03
        -0.37300E+03
        -0.37300E+03
        -0.37300E+03
        -0.37300E+03
        -0.37300E+03
        -0.37300E+03
        -0.37300E+03
        -0.37300E+03
        -0.37300E+03
        -0.37300E+03
        -0.37300E+03
        -0.37300E+03
        -0.37300E+03
        -0.37300E+03
        -0.37300E+03
        -0.37300E+03
        -0.37300E+03
        -0.37300E+03
        -0.37300E+03
        -0.37300E+03
        -0.37300E+03
        -0.37300E+03
        -0.37300E+03
        -0.37300E+03
        -0.37300E+03
        -0.37300E+03
        -0.37300E+03
        -0.37300E+03
        -0.37300E+03
        -0.37300E+03
        -0.37300E+03
        -0.37300E+03
        -0.37300E+03
        -0.37300E+03
        -0.37300E+03
        -0.37300E+03
        -0.37300E+03
        -0.37300E+03
        -0.37300E+03
        -0.37300E+03
        -0.37300E+03
        -0.37300E+03
        -0.37300E+03
        -0.37300E+03
        -0.37300E+03
        -0.37300E+03
        -0.37300E+03
        -0.37300E+03
        -0.37300E+03
        -0.37300E+03
        -0.37300E+03
        -0.37300E+03
        -0.37300E+03
        -0.37300E+03
        -0.37300E+03
        -0.37300E+03
        -0.37300E+03
        -0.37300E+03
        -0.37300E+03
        -0.37300E+03
        -0.37300E+03
        -0.37300E+03
        -0.37300E+03
        -0.37300E+03
        -0.37300E+03
        -0.37300E+03
        -0.37300E+03
        -0.37300E+03
        -0.37300E+03
        -0.37300E+03
        -0.37300E+03
        -0.37300E+03
        -0.37300E+03
        -0.37300E+03
        -0.37300E+03
        -0.37300E+03
        -0.37300E+03
        -0.37300E+03
        -0.37300E+03
        -0.37300E+03
        -0.37300E+03
        -0.37300E+03
        -0.37300E+03
        -0.37300E+03
        -0.37300E+03
        -0.37300E+03
        -0.37300E+03
        -0.37300E+03
        -0.37300E+03
        -0.37300E+03
        -0.37300E+03
        -0.37300E+03
        -0.37300E+03
        -0.37300E+03
        -0.37300E+03
        -0.37300E+03
        -0.37300E+03
        -0.37300E+03
        -0.37300E+03
        -0.37300E+03
        -0.37300E+03
        -0.37300E+03
        -0.37300E+03
        -0.37300E+03
        -0.37300E+03
        -0.37300E+03
        -0.37300E+03
        -0.37300E+03
        -0.37300E+03
        -0.37300E+03
        -0.37300E+03
        -0.37300E+03
        -0.37300E+03
        -0.37300E+03
        -0.37300E+03
        -0.37300E+03
        -0.37300E+03
        -0.37300E+03
        -0.37300E+03
        -0.37300E+03
        -0.37300E+03
        -0.37300E+03
        -0.37300E+03
        -0.37300E+03
        -0.37300E+03
        -0.37300E+03
        -0.37300E+03
        -0.37300E+03
        -0.37300E+03
        -0.37300E+03
        -0.37300E+03
        -0.37300E+03
        -0.37300E+03
        -0.37300E+03
        -0.37300E+03
        -0.37300E+03
        -0.37300E+03
        -0.37300E+03
        -0.37300E+03
        -0.37300E+03
        -0.37300E+03
        -0.37300E+03
        -0.37300E+03
        -0.37300E+03
        -0.37300E+03
        -0.37300E+03
        -0.37300E+03
        -0.37300E+03
        -0.37300E+03
        -0.37300E+03
        -0.37300E+03
        -0.37300E+03
        -0.37300E+03
        -0.37300E+03
        -0.37300E+03
        -0.37300E+03
        -0.37300E+03
        -0.37300E+03
        -0.37300E+03
        -0.37300E+03
        -0.37300E+03
        -0.37300E+03
        -0.37300E+03
        -0.37300E+03
        -0.37300E+03
        -0.37300E+03
        -0.37300E+03
        -0.37300E+03
        -0.37300E+03
        -0.37300E+03
        -0.37300E+03
        -0.37300E+03
        -0.37300E+03
        -0.37300E+03
        -0.37300E+03
        -0.37300E+03
        -0.37300E+03
        -0.37300E+03
        -0.37300E+03
        -0.37300E+03
        -0.37300E+03
        -0.37300E+03
        -0.37300E+03
        -0.37300E+03
        -0.37300E+03
        -0.37300E+03
        -0.37300E+03
        -0.37300E+03
        -0.37300E+03
        -0.37300E+03
        -0.37300E+03
        -0.37300E+03
        -0.37300E+03
        -0.37300E+03
        -0.37300E+03
        -0.37300E+03
        -0.37300E+03
        -0.37300E+03
        -0.37300E+03
        -0.37300E+03
        -0.37300E+03
        -0.37300E+03
        -0.37300E+03
        -0.37300E+03
        -0.37300E+03
        -0.37300E+03
        -0.37300E+03
        -0.37300E+03
        -0.37300E+03
        -0.37300E+03
        -0.37300E+03
        -0.37300E+03
        -0.37300E+03
        -0.37300E+03
        -0.37300E+03
        -0.37300E+03
        -0.37300E+03
        -0.37300E+03
        -0.37300E+03
        -0.37300E+03
        -0.37300E+03
        -0.37300E+03
        -0.37300E+03
        -0.37300E+03
        -0.37300E+03
        -0.37300E+03
        -0.37300E+03
        -0.37300E+03
        -0.37300E+03
        -0.37300E+03
        -0.37300E+03
        -0.37300E+03
        -0.37300E+03
        -0.37300E+03
        -0.37300E+03
        -0.37300E+03
        -0.37300E+03
        -0.37300E+03
        -0.37300E+03
        -0.37300E+03
        -0.37300E+03
        -0.37300E+03
        -0.37300E+03
        -0.37300E+03
        -0.37300E+03
        -0.37300E+03
        -0.37300E+03
        -0.37300E+03
        -0.37300E+03
        -0.37300E+03
        -0.37300E+03
        -0.37300E+03
        -0.37300E+03
        -0.37300E+03
        -0.37300E+03
        -0.37300E+03
        -0.37300E+03
        -0.37300E+03
        -0.37300E+03
        -0.37300E+03
        -0.37300E+03
        -0.37300E+03
        -0.37300E+03
        -0.37300E+03
        -0.37300E+03
        -0.37300E+03
        -0.37300E+03
        -0.37300E+03
        -0.37300E+03
        -0.37300E+03
        -0.37300E+03
        -0.37300E+03
        -0.37300E+03
        -0.37300E+03
        -0.37300E+03
        -0.37300E+03
        -0.37300E+03
        -0.37300E+03
        -0.37300E+03
        -0.37300E+03
        -0.37300E+03
        -0.37300E+03
        -0.37300E+03
        -0.37300E+03
        -0.37300E+03
        -0.37300E+03
        -0.37300E+03
        -0.37300E+03
        -0.37300E+03
        -0.37300E+03
        -0.37300E+03
        -0.37300E+03
        -0.37300E+03
        -0.37300E+03
        -0.37300E+03
        -0.37300E+03
        -0.37300E+03
        -0.37300E+03
        -0.37300E+03
        -0.37300E+03
        -0.37300E+03
        -0.37300E+03
        -0.37300E+03
        -0.37300E+03
        -0.37300E+03
        -0.37300E+03
        -0.37300E+03
        -0.37300E+03
        -0.37300E+03
        -0.37300E+03
        -0.37300E+03
        -0.37300E+03
        -0.37300E+03
        -0.37300E+03
        -0.37300E+03
        -0.37300E+03
        -0.37300E+03
        -0.37300E+03
        -0.37300E+03
        -0.37300E+03
        -0.37300E+03
        -0.37300E+03
        -0.37300E+03
        -0.37300E+03
        -0.37300E+03
        -0.37300E+03
        -0.37300E+03
        -0.37300E+03
        -0.37300E+03
        -0.37300E+03
        -0.37300E+03
        -0.37300E+03
        -0.37300E+03
        -0.37300E+03
        -0.37300E+03
        -0.37300E+03
        -0.37300E+03
        -0.37300E+03
        -0.37300E+03
        -0.37300E+03
        -0.37300E+03
        -0.37300E+03
        -0.37300E+03
        -0.37300E+03
        -0.37300E+03
        -0.37300E+03
        -0.37300E+03
        -0.37300E+03
        -0.37300E+03
        -0.37300E+03
        -0.37300E+03
        -0.37300E+03
        -0.37300E+03
        -0.37300E+03
        -0.37300E+03
        -0.37300E+03
        -0.37300E+03
        -0.37300E+03
        -0.37300E+03
        -0.37300E+03
        -0.37300E+03
        -0.37300E+03
        -0.37300E+03
        -0.37300E+03
        -0.37300E+03
        -0.37300E+03
        -0.37300E+03
        -0.37300E+03
        -0.37300E+03
        -0.37300E+03
        -0.37300E+03
        -0.37300E+03
        -0.37300E+03
        -0.37300E+03
        -0.37300E+03
        -0.37300E+03
        -0.37300E+03
        -0.37300E+03
        -0.37300E+03
        -0.37300E+03
        -0.37300E+03
        -0.37300E+03
        -0.37300E+03
        -0.37300E+03
        -0.37300E+03
        -0.37300E+03
        -0.37300E+03
        -0.37300E+03
        -0.37300E+03
        -0.37300E+03
        -0.37300E+03
        -0.37300E+03
        -0.37300E+03
        -0.37300E+03
        -0.37300E+03
        -0.37300E+03
        -0.37300E+03
        -0.37300E+03
        -0.37300E+03
        -0.37300E+03
        -0.37300E+03
        -0.37300E+03
        -0.37300E+03
        -0.37300E+03
        -0.37300E+03
        -0.37300E+03
        -0.37300E+03
        -0.37300E+03
        -0.37300E+03
        -0.37300E+03
        -0.37300E+03
        -0.37300E+03
        -0.37300E+03
        -0.37300E+03
        -0.37300E+03
        -0.37300E+03
        -0.37300E+03
        -0.37300E+03
        -0.37300E+03
        -0.37300E+03
        -0.37300E+03
        -0.37300E+03
        -0.37300E+03
        -0.37300E+03
        -0.37300E+03
        -0.37300E+03
        -0.37300E+03
        -0.37300E+03
        -0.37300E+03
        -0.37300E+03
        -0.37300E+03
        -0.37300E+03
        -0.37300E+03
        -0.37300E+03
        -0.37300E+03
        -0.37300E+03
        -0.37300E+03
        -0.37300E+03
        -0.37300E+03
        -0.37300E+03
        -0.37300E+03
        -0.37300E+03
        -0.37300E+03
        -0.37300E+03
        -0.37300E+03
        -0.37300E+03
        -0.37300E+03
        -0.37300E+03
        -0.37300E+03
        -0.37300E+03
        -0.37300E+03
        -0.37300E+03
        -0.37300E+03
        -0.37300E+03
        -0.37300E+03
        -0.37300E+03
        -0.37300E+03
        -0.37300E+03
        -0.37300E+03
        -0.37300E+03
        -0.37300E+03
        -0.37300E+03
        -0.37300E+03
        -0.37300E+03
        -0.37300E+03
        -0.37300E+03
        -0.37300E+03
        -0.37300E+03
        -0.37300E+03
        -0.37300E+03
        -0.37300E+03
        -0.37300E+03
        -0.37300E+03
        -0.37300E+03
        -0.37300E+03
        -0.37300E+03
        -0.37300E+03
        -0.37300E+03
        -0.37300E+03
        -0.37300E+03
        -0.37300E+03
        -0.37300E+03
        -0.37300E+03
        -0.37300E+03
        -0.37300E+03
        -0.37300E+03
        -0.37300E+03
        -0.37300E+03
        -0.37300E+03
        -0.37300E+03
        -0.37300E+03
        -0.37300E+03
        -0.37300E+03
        -0.37300E+03
        -0.37300E+03
        -0.37300E+03
        -0.37300E+03
        -0.37300E+03
        -0.37300E+03
        -0.37300E+03
        -0.37300E+03
        -0.37300E+03
        -0.37300E+03
        -0.37300E+03
        -0.37300E+03
        -0.37300E+03
        -0.37300E+03
        -0.37300E+03
        -0.37300E+03
        -0.37300E+03
        -0.37300E+03
        -0.37300E+03
        -0.37300E+03
        -0.37300E+03
        -0.37300E+03
        -0.37300E+03
        -0.37300E+03
        -0.37300E+03
        -0.37300E+03
        -0.37300E+03
        -0.37300E+03
        -0.37300E+03
        -0.37300E+03
        -0.37300E+03
        -0.37300E+03
        -0.37300E+03
        -0.37300E+03
        -0.37300E+03
        -0.37300E+03
        -0.37300E+03
        -0.37300E+03
        -0.37300E+03
        -0.37300E+03
        -0.37300E+03
        -0.37300E+03
        -0.37300E+03
        -0.37300E+03
        -0.37300E+03
        -0.37300E+03
        -0.37300E+03
        -0.37300E+03
        -0.37300E+03
        -0.37300E+03
        -0.37300E+03
        -0.37300E+03
        -0.37300E+03
        -0.37300E+03
        -0.37300E+03
        -0.37300E+03
        -0.37300E+03
        -0.37300E+03
        -0.37300E+03
        -0.37300E+03
        -0.37300E+03
        -0.37300E+03
        -0.37300E+03
        -0.37300E+03
        -0.37300E+03
        -0.37300E+03
        -0.37300E+03
        -0.37300E+03
        -0.37300E+03
        -0.37300E+03
        -0.37300E+03
        -0.37300E+03
        -0.37300E+03
        -0.37300E+03
        -0.37300E+03
        -0.37300E+03
        -0.37300E+03
        -0.37300E+03
        -0.37300E+03
        -0.37300E+03
        -0.37300E+03
        -0.37300E+03
        -0.37300E+03
        -0.37300E+03
        -0.37300E+03
        -0.37300E+03
        -0.37300E+03
        -0.37300E+03
        -0.37300E+03
        -0.37300E+03
        -0.37300E+03
        -0.37300E+03
        -0.37300E+03
        -0.37300E+03
        -0.37300E+03
        -0.37300E+03
        -0.37300E+03
        -0.37300E+03
        -0.37300E+03
        -0.37300E+03
        -0.37300E+03
        -0.37300E+03
        -0.37300E+03
        -0.37300E+03
        -0.37300E+03
        -0.37300E+03
        -0.37300E+03
        -0.37300E+03
        -0.37300E+03
        -0.37300E+03
        -0.37300E+03
        -0.37300E+03
        -0.37300E+03
        -0.37300E+03
        -0.37300E+03
        -0.37300E+03
        -0.37300E+03
        -0.37300E+03
        -0.37300E+03
        -0.37300E+03
        -0.37300E+03
        -0.37300E+03
        -0.37300E+03
        -0.37300E+03
        -0.37300E+03
        -0.37300E+03
        -0.37300E+03
        -0.37300E+03
        -0.37300E+03
        -0.37300E+03
        -0.37300E+03
        -0.37300E+03
        -0.37300E+03
        -0.37300E+03
        -0.37300E+03
        -0.37300E+03
        -0.37300E+03
        -0.37300E+03
        -0.37300E+03
        -0.37300E+03
        -0.37300E+03
        -0.37300E+03
        -0.37300E+03
        -0.37300E+03
        -0.37300E+03
        -0.37300E+03
        -0.37300E+03
        -0.37300E+03
        -0.37300E+03
        -0.37300E+03
        -0.37300E+03
        -0.37300E+03
        -0.37300E+03
        -0.37300E+03
        -0.37300E+03
        -0.37300E+03
        -0.37300E+03
        -0.37300E+03
        -0.37300E+03
        -0.37300E+03
        -0.37300E+03
        -0.37300E+03
        -0.37300E+03
        -0.37300E+03
        -0.37300E+03
        -0.37300E+03
        -0.37300E+03
        -0.37300E+03
        -0.37300E+03
        -0.37300E+03
        -0.37300E+03
        -0.37300E+03
        -0.37300E+03
        -0.37300E+03
        -0.37300E+03
        -0.37300E+03
        -0.37300E+03
        -0.37300E+03
        -0.37300E+03
        -0.37300E+03
        -0.37300E+03
        -0.37300E+03
        -0.37300E+03
        -0.37300E+03
        -0.37300E+03
        -0.37300E+03
        -0.37300E+03
        -0.37300E+03
        -0.37300E+03
        -0.37300E+03
        -0.37300E+03
        -0.37300E+03
        -0.37300E+03
        -0.37300E+03
        -0.37300E+03
        -0.37300E+03
        -0.37300E+03
        -0.37300E+03
        -0.37300E+03
        -0.37300E+03
        -0.37300E+03
        -0.37300E+03
        -0.37300E+03
        -0.37300E+03
        -0.37300E+03
        -0.37300E+03
        -0.37300E+03
        -0.37300E+03
        -0.37300E+03
        -0.37300E+03
        -0.37300E+03
        -0.37300E+03
        -0.37300E+03
        -0.37300E+03
        -0.37300E+03
        -0.37300E+03
        -0.37300E+03
        -0.37300E+03
        -0.37300E+03
        -0.37300E+03
        -0.37300E+03
        -0.37300E+03
        -0.37300E+03
        -0.37300E+03
        -0.37300E+03
        -0.37300E+03
        -0.37300E+03
        -0.37300E+03
        -0.37300E+03
        -0.37300E+03
        -0.37300E+03
        -0.37300E+03
        -0.37300E+03
        -0.37300E+03
        -0.37300E+03
        -0.37300E+03
        -0.37300E+03
        -0.37300E+03
        -0.37300E+03
        -0.37300E+03
        -0.37300E+03
        -0.37300E+03
        -0.37300E+03
        -0.37300E+03
        -0.37300E+03
        -0.37300E+03
        -0.37300E+03
        -0.37300E+03
        -0.37300E+03
        -0.37300E+03
        -0.37300E+03
        -0.37300E+03
        -0.37300E+03
        -0.37300E+03
        -0.37300E+03
        -0.37300E+03
        -0.37300E+03
        -0.37300E+03
        -0.37300E+03
        -0.37300E+03
        -0.37300E+03
        -0.37300E+03
        -0.37300E+03
        -0.37300E+03
        -0.37300E+03
        -0.37300E+03
        -0.37300E+03
        -0.37300E+03
        -0.37300E+03
        -0.37300E+03
        -0.37300E+03
        -0.37300E+03
        -0.37300E+03
        -0.37300E+03
        -0.37300E+03
        -0.37300E+03
        -0.37300E+03
        -0.37300E+03
        -0.37300E+03
        -0.37300E+03
        -0.37300E+03
        -0.37300E+03
        -0.37300E+03
        -0.37300E+03
        -0.37300E+03
        -0.37300E+03
        -0.37300E+03
        -0.37300E+03
        -0.37300E+03
        -0.37300E+03
        -0.37300E+03
        -0.37300E+03
        -0.37300E+03
        -0.37300E+03
        -0.37300E+03
        -0.37300E+03
        -0.37300E+03
        -0.37300E+03
        -0.37300E+03
        -0.37300E+03
        -0.37300E+03
        -0.37300E+03
        -0.37300E+03
        -0.37300E+03
        -0.37300E+03
        -0.37300E+03
        -0.37300E+03
        -0.37300E+03
        -0.37300E+03
        -0.37300E+03
        -0.37300E+03
        -0.37300E+03
        -0.37300E+03
        -0.37300E+03
        -0.37300E+03
        -0.37300E+03
        -0.37300E+03
        -0.37300E+03
        -0.37300E+03
        -0.37300E+03
        -0.37300E+03
        -0.37300E+03
        -0.37300E+03
        -0.37300E+03
        -0.37300E+03
        -0.37300E+03
        -0.37300E+03
        -0.37300E+03
        -0.37300E+03
        -0.37300E+03
        -0.37300E+03
        -0.37300E+03
        -0.37300E+03
        -0.37300E+03
        -0.37300E+03
        -0.37300E+03
        -0.37300E+03
        -0.37300E+03
        -0.37300E+03
        -0.37300E+03
        -0.37300E+03
        -0.37300E+03
        -0.37300E+03
        -0.37300E+03
        -0.37300E+03
        -0.37300E+03
        -0.37300E+03
        -0.37300E+03
        -0.37300E+03
        -0.37300E+03
        -0.37300E+03
        -0.37300E+03
        -0.37300E+03
        -0.37300E+03
        -0.37300E+03
        -0.37300E+03
        -0.37300E+03
        -0.37300E+03
        -0.37300E+03
        -0.37300E+03
        -0.37300E+03
        -0.37300E+03
        -0.37300E+03
        -0.37300E+03
        -0.37300E+03
        -0.37300E+03
        -0.37300E+03
        -0.37300E+03
        -0.37300E+03
        -0.37300E+03
        -0.37300E+03
        -0.37300E+03
        -0.37300E+03
        -0.37300E+03
        -0.37300E+03
        -0.37300E+03
        -0.37300E+03
        -0.37300E+03
        -0.37300E+03
        -0.37300E+03
        -0.37300E+03
        -0.37300E+03
        -0.37300E+03
        -0.37300E+03
        -0.37300E+03
        -0.37300E+03
        -0.37300E+03
        -0.37300E+03
        -0.37300E+03
        -0.37300E+03
        -0.37300E+03
        -0.37300E+03
        -0.37300E+03
        -0.37300E+03
        -0.37300E+03
        -0.37300E+03
        -0.37300E+03
        -0.37300E+03
        -0.37300E+03
        -0.37300E+03
        -0.37300E+03
        -0.37300E+03
        -0.37300E+03
        -0.37300E+03
        -0.37300E+03
        -0.37300E+03
        -0.37300E+03
        -0.37300E+03
        -0.37300E+03
        -0.37300E+03
        -0.37300E+03
        -0.37300E+03
        -0.37300E+03
        -0.37300E+03
        -0.37300E+03
        -0.37300E+03
        -0.37300E+03
        -0.37300E+03
        -0.37300E+03
        -0.37300E+03
        -0.37300E+03
        -0.37300E+03
        -0.37300E+03
        -0.37300E+03
        -0.37300E+03
        -0.37300E+03
        -0.37300E+03
        -0.37300E+03
        -0.37300E+03
        -0.37300E+03
        -0.37300E+03
        -0.37300E+03
        -0.37300E+03
        -0.37300E+03
        -0.37300E+03
        -0.37300E+03
        -0.37300E+03
        -0.37300E+03
        -0.37300E+03
        -0.37300E+03
        -0.37300E+03
        -0.37300E+03
        -0.37300E+03
        -0.37300E+03
        -0.37300E+03
        -0.37300E+03
        -0.37300E+03
        -0.37300E+03
        -0.37300E+03
        -0.37300E+03
        -0.37300E+03
        -0.37300E+03
        -0.37300E+03
        -0.37300E+03
        -0.37300E+03
        -0.37300E+03
        -0.37300E+03
        -0.37300E+03
        -0.37300E+03
        -0.37300E+03
        -0.37300E+03
        -0.37300E+03
        -0.37300E+03
        -0.37300E+03
        -0.37300E+03
        -0.37300E+03
        -0.37300E+03
        -0.37300E+03
        -0.37300E+03
        -0.37300E+03
        -0.37300E+03
        -0.37300E+03
        -0.37300E+03
        -0.37300E+03
        -0.37300E+03
        -0.37300E+03
        -0.37300E+03
        -0.37300E+03
        -0.37300E+03
        -0.37300E+03
        -0.37300E+03
        -0.37300E+03
        -0.37300E+03
        -0.37300E+03
        -0.37300E+03
        -0.37300E+03
        -0.37300E+03
        -0.37300E+03
        -0.37300E+03
        -0.37300E+03
        -0.37300E+03
        -0.37300E+03
        -0.37300E+03
        -0.37300E+03
        -0.37300E+03
        -0.37300E+03
        -0.37300E+03
        -0.37300E+03
        -0.37300E+03
        -0.37300E+03
        -0.37300E+03
        -0.37300E+03
        -0.37300E+03
        -0.37300E+03
        -0.37300E+03
        -0.37300E+03
        -0.37300E+03
        -0.37300E+03
        -0.37300E+03
        -0.37300E+03
        -0.37300E+03
        -0.37300E+03
        -0.37300E+03
        -0.37300E+03
        -0.37300E+03
        -0.37300E+03
        -0.37300E+03
        -0.37300E+03
        -0.37300E+03
        -0.37300E+03
        -0.37300E+03
        -0.37300E+03
        -0.37300E+03
        -0.37300E+03
        -0.37300E+03
        -0.37300E+03
        -0.37300E+03
        -0.37300E+03
        -0.37300E+03
        -0.37300E+03
        -0.37300E+03
        -0.37300E+03
        -0.37300E+03
        -0.37300E+03
        -0.37300E+03
        -0.37300E+03
        -0.37300E+03
        -0.37300E+03
        -0.37300E+03
        -0.37300E+03
        -0.37300E+03
        -0.37300E+03
        -0.37300E+03
        -0.37300E+03
        -0.37300E+03
        -0.37300E+03
        -0.37300E+03
        -0.37300E+03
        -0.37300E+03
        -0.37300E+03
        -0.37300E+03
        -0.37300E+03
        -0.37300E+03
        -0.37300E+03
        -0.37300E+03
        -0.37300E+03
        -0.37300E+03
        -0.37300E+03
        -0.37300E+03
        -0.37300E+03
        -0.37300E+03
        -0.37300E+03
        -0.37300E+03
        -0.37300E+03
        -0.37300E+03
        -0.37300E+03
        -0.37300E+03
        -0.37300E+03
        -0.37300E+03
        -0.37300E+03
        -0.37300E+03
        -0.37300E+03
        -0.37300E+03
        -0.37300E+03
        -0.37300E+03
        -0.37300E+03
        -0.37300E+03
        -0.37300E+03
        -0.37300E+03
        -0.37300E+03
        -0.37300E+03
        -0.37300E+03
        -0.37300E+03
        -0.37300E+03
        -0.37300E+03
        -0.37300E+03
        -0.37300E+03
        -0.37300E+03
        -0.37300E+03
        -0.37300E+03
        -0.37300E+03
        -0.37300E+03
        -0.37300E+03
        -0.37300E+03
        -0.37300E+03
        -0.37300E+03
        -0.37300E+03
        -0.37300E+03
        -0.37300E+03
        -0.37300E+03
        -0.37300E+03
        -0.37300E+03
        -0.37300E+03
        -0.37300E+03
        -0.37300E+03
        -0.37300E+03
        -0.37300E+03
        -0.37300E+03
        -0.37300E+03
        -0.37300E+03
        -0.37300E+03
        -0.37300E+03
        -0.37300E+03
        -0.37300E+03
        -0.37300E+03
        -0.37300E+03
        -0.37300E+03
        -0.37300E+03
        -0.37300E+03
        -0.37300E+03
        -0.37300E+03
        -0.37300E+03
        -0.37300E+03
        -0.37300E+03
        -0.37300E+03
        -0.37300E+03
        -0.37300E+03
        -0.37300E+03
        -0.37300E+03
        -0.37300E+03
        -0.37300E+03
        -0.37300E+03
        -0.37300E+03
        -0.37300E+03
        -0.37300E+03
        -0.37300E+03
        -0.37300E+03
        -0.37300E+03
        -0.37300E+03
        -0.37300E+03
        -0.37300E+03
        -0.37300E+03
        -0.37300E+03
        -0.37300E+03
        -0.37300E+03
        -0.37300E+03
        -0.37300E+03
        -0.37300E+03
        -0.37300E+03
        -0.37300E+03
        -0.37300E+03
        -0.37300E+03
        -0.37300E+03
        -0.37300E+03
        -0.37300E+03
        -0.37300E+03
        -0.37300E+03
        -0.37300E+03
        -0.37300E+03
        -0.37300E+03
        -0.37300E+03
        -0.37300E+03
        -0.37300E+03
        -0.37300E+03
        -0.37300E+03
        -0.37300E+03
        -0.37300E+03
        -0.37300E+03
        -0.37300E+03
        -0.37300E+03
        -0.37300E+03
        -0.37300E+03
        -0.37300E+03
        -0.37300E+03
        -0.37300E+03
        -0.37300E+03
        -0.37300E+03
        -0.37300E+03
        -0.37300E+03
        -0.37300E+03
        -0.37300E+03
        -0.37300E+03
        -0.37300E+03
        -0.37300E+03
        -0.37300E+03
        -0.37300E+03
        -0.37300E+03
        -0.37300E+03
        -0.37300E+03
        -0.37300E+03
        -0.37300E+03
        -0.37300E+03
        -0.37300E+03
        -0.37300E+03
        -0.37300E+03
        -0.37300E+03
        -0.37300E+03
        -0.37300E+03
        -0.37300E+03
        -0.37300E+03
        -0.37300E+03
        -0.37300E+03
        -0.37300E+03
        -0.37300E+03
        -0.37300E+03
        -0.37300E+03
        -0.37300E+03
        -0.37300E+03
        -0.37300E+03
        -0.37300E+03
        -0.37300E+03
        -0.37300E+03
        -0.37300E+03
        -0.37300E+03
        -0.37300E+03
        -0.37300E+03
        -0.37300E+03
        -0.37300E+03
        -0.37300E+03
        -0.37300E+03
        -0.37300E+03
        -0.37300E+03
        -0.37300E+03
        -0.37300E+03
        -0.37300E+03
        -0.37300E+03
        -0.37300E+03
        -0.37300E+03
        -0.37300E+03
        -0.37300E+03
        -0.37300E+03
        -0.37300E+03
        -0.37300E+03
        -0.37300E+03
        -0.37300E+03
        -0.37300E+03
        -0.37300E+03
        -0.37300E+03
        -0.37300E+03
        -0.37300E+03
        -0.37300E+03
        -0.37300E+03
        -0.37300E+03
        -0.37300E+03
        -0.37300E+03
        -0.37300E+03
        -0.37300E+03
        -0.37300E+03
        -0.37300E+03
        -0.37300E+03
        -0.37300E+03
        -0.37300E+03
        -0.37300E+03
        -0.37300E+03
        -0.37300E+03
        -0.37300E+03
        -0.37300E+03
        -0.37300E+03
        -0.37300E+03
        -0.37300E+03
        -0.37300E+03
        -0.37300E+03
        -0.37300E+03
        -0.37300E+03
        -0.37300E+03
        -0.37300E+03
        -0.37300E+03
        -0.37300E+03
        -0.37300E+03
        -0.37300E+03
        -0.37300E+03
        -0.37300E+03
        -0.37300E+03
        -0.37300E+03
        -0.37300E+03
        -0.37300E+03
        -0.37300E+03
        -0.37300E+03
        -0.37300E+03
        -0.37300E+03
        -0.37300E+03
        -0.37300E+03
        -0.37300E+03
        -0.37300E+03
        -0.37300E+03
        -0.37300E+03
        -0.37300E+03
        -0.37300E+03
        -0.37300E+03
        -0.37300E+03
        -0.37300E+03
        -0.37300E+03
        -0.37300E+03
        -0.37300E+03
        -0.37300E+03
        -0.37300E+03
        -0.37300E+03
        -0.37300E+03
        -0.37300E+03
        -0.37300E+03
        -0.37300E+03
        -0.37300E+03
        -0.37300E+03
        -0.37300E+03
        -0.37300E+03
        -0.37300E+03
        -0.37300E+03
        -0.37300E+03
        -0.37300E+03
        -0.37300E+03
        -0.37300E+03
        -0.37300E+03
        -0.37300E+03
        -0.37300E+03
        -0.37300E+03
        -0.37300E+03
        -0.37300E+03
        -0.37300E+03
        -0.37300E+03
        -0.37300E+03
        -0.37300E+03
        -0.37300E+03
        -0.37300E+03
        -0.37300E+03
        -0.37300E+03
        -0.37300E+03
        -0.37300E+03
        -0.37300E+03
        -0.37300E+03
        -0.37300E+03
        -0.37300E+03
        -0.37300E+03
        -0.37300E+03
        -0.37300E+03
        -0.37300E+03
        -0.37300E+03
        -0.37300E+03
        -0.37300E+03
        -0.37300E+03
        -0.37300E+03
        -0.37300E+03
        -0.37300E+03
        -0.37300E+03
        -0.37300E+03
        -0.37300E+03
        -0.37300E+03
        -0.37300E+03
        -0.37300E+03
        -0.37300E+03
        -0.37300E+03
        -0.37300E+03
        -0.37300E+03
        -0.37300E+03
        -0.37300E+03
        -0.37300E+03
        -0.37300E+03
        -0.37300E+03
        -0.37300E+03
        -0.37300E+03
        -0.37300E+03
        -0.37300E+03
        -0.37300E+03
        -0.37300E+03
        -0.37300E+03
        -0.37300E+03
        -0.37300E+03
        -0.37300E+03
        -0.37300E+03
        -0.37300E+03
        -0.37300E+03
        -0.37300E+03
        -0.37300E+03
        -0.37300E+03
        -0.37300E+03
        -0.37300E+03
        -0.37300E+03
        -0.37300E+03
        -0.37300E+03
        -0.37300E+03
        -0.37300E+03
        -0.37300E+03
        -0.37300E+03
        -0.37300E+03
        -0.37300E+03
        -0.37300E+03
        -0.37300E+03
        -0.37300E+03
        -0.37300E+03
        -0.37300E+03
        -0.37300E+03
        -0.37300E+03
        -0.37300E+03
        -0.37300E+03
        -0.37300E+03
        -0.37300E+03
        -0.37300E+03
        -0.37300E+03
        -0.37300E+03
        -0.37300E+03
        -0.37300E+03
        -0.37300E+03
        -0.37300E+03
        -0.37300E+03
        -0.37300E+03
        -0.37300E+03
        -0.37300E+03
        -0.37300E+03
        -0.37300E+03
        -0.37300E+03
        -0.37300E+03
        -0.37300E+03
        -0.37300E+03
        -0.37300E+03
        -0.37300E+03
        -0.37300E+03
        -0.37300E+03
        -0.37300E+03
        -0.37300E+03
        -0.37300E+03
        -0.37300E+03
        -0.37300E+03
        -0.37300E+03
        -0.37300E+03
        -0.37300E+03
        -0.37300E+03
        -0.37300E+03
        -0.37300E+03
        -0.37300E+03
        -0.37300E+03
        -0.37300E+03
        -0.37300E+03
        -0.37300E+03
        -0.37300E+03
        -0.37300E+03
        -0.37300E+03
        -0.37300E+03
        -0.37300E+03
        -0.37300E+03
        -0.37300E+03
        -0.37300E+03
        -0.37300E+03
        -0.37300E+03
        -0.37300E+03
        -0.37300E+03
        -0.37300E+03
        -0.37300E+03
        -0.37300E+03
        -0.37300E+03
        -0.37300E+03
        -0.37300E+03
        -0.37300E+03
        -0.37300E+03
        -0.37300E+03
        -0.37300E+03
        -0.37300E+03
        -0.37300E+03
        -0.37300E+03
        -0.37300E+03
        -0.37300E+03
        -0.37300E+03
        -0.37300E+03
        -0.37300E+03
        -0.37300E+03
        -0.37300E+03
        -0.37300E+03
        -0.37300E+03
        -0.37300E+03
        -0.37300E+03
        -0.37300E+03
        -0.37300E+03
        -0.37300E+03
        -0.37300E+03
        -0.37300E+03
        -0.37300E+03
        -0.37300E+03
        -0.37300E+03
        -0.37300E+03
        -0.37300E+03
        -0.37300E+03
        -0.37300E+03
        -0.37300E+03
        -0.37300E+03
        -0.37300E+03
        -0.37300E+03
        -0.37300E+03
        -0.37300E+03
        -0.37300E+03
        -0.37300E+03
        -0.37300E+03
        -0.37300E+03
        -0.37300E+03
        -0.37300E+03
        -0.37300E+03
        -0.37300E+03
        -0.37300E+03
        -0.37300E+03
        -0.37300E+03
        -0.37300E+03
        -0.37300E+03
        -0.37300E+03
        -0.37300E+03
        -0.37300E+03
        -0.37300E+03
        -0.37300E+03
        -0.37300E+03
        -0.37300E+03
        -0.37300E+03
        -0.37300E+03
        -0.37300E+03
        -0.37300E+03
        -0.37300E+03
        -0.37300E+03
        -0.37300E+03
        -0.37300E+03
        -0.37300E+03
        -0.37300E+03
        -0.37300E+03
        -0.37300E+03
        -0.37300E+03
        -0.37300E+03
        -0.37300E+03
        -0.37300E+03
        -0.37300E+03
        -0.37300E+03
        -0.37300E+03
        -0.37300E+03
        -0.37300E+03
        -0.37300E+03
        -0.37300E+03
        -0.37300E+03
        -0.37300E+03
        -0.37300E+03
        -0.37300E+03
        -0.37300E+03
        -0.37300E+03
        -0.37300E+03
        -0.37300E+03
        -0.37300E+03
        -0.37300E+03
        -0.37300E+03
        -0.37300E+03
        -0.37300E+03
        -0.37300E+03
        -0.37300E+03
        -0.37300E+03
        -0.37300E+03
        -0.37300E+03
        -0.37300E+03
        -0.37300E+03
        -0.37300E+03
        -0.37300E+03
        -0.37300E+03
        -0.37300E+03
        -0.37300E+03
        -0.37300E+03
        -0.37300E+03
        -0.37300E+03
        -0.37300E+03
        -0.37300E+03
        -0.37300E+03
        -0.37300E+03
        -0.37300E+03
        -0.37300E+03
        -0.37300E+03
        -0.37300E+03
        -0.37300E+03
        -0.37300E+03
        -0.37300E+03
        -0.37300E+03
        -0.37300E+03
        -0.37300E+03
        -0.37300E+03
        -0.37300E+03
        -0.37300E+03
        -0.37300E+03
        -0.37300E+03
        -0.37300E+03
        -0.37300E+03
        -0.37300E+03
        -0.37300E+03
        -0.37300E+03
        -0.37300E+03
        -0.37300E+03
        -0.37300E+03
        -0.37300E+03
        -0.37300E+03
        -0.37300E+03
        -0.37300E+03
        -0.37300E+03
        -0.37300E+03
        -0.37300E+03
        -0.37300E+03
        -0.37300E+03
        -0.37300E+03
        -0.37300E+03
        -0.37300E+03
        -0.37300E+03
        -0.37300E+03
        -0.37300E+03
        -0.37300E+03
        -0.37300E+03
        -0.37300E+03
        -0.37300E+03
        -0.37300E+03
        -0.37300E+03
        -0.37300E+03
        -0.37300E+03
        -0.37300E+03
        -0.37300E+03
        -0.37300E+03
        -0.37300E+03
        -0.37300E+03
        -0.37300E+03
        -0.37300E+03
        -0.37300E+03
        -0.37300E+03
        -0.37300E+03
        -0.37300E+03
        -0.37300E+03
        -0.37300E+03
        -0.37300E+03
        -0.37300E+03
        -0.37300E+03
        -0.37300E+03
        -0.37300E+03
        -0.37300E+03
        -0.37300E+03
        -0.37300E+03
        -0.37300E+03
        -0.37300E+03
        -0.37300E+03
  
SCALARS              normalized_window  double 1
LOOKUP_TABLE default
         0.27500E+01
         0.27500E+01
         0.27500E+01
         0.27500E+01
         0.27500E+01
         0.27500E+01
         0.27500E+01
         0.27500E+01
         0.27500E+01
         0.27500E+01
         0.27500E+01
         0.27500E+01
         0.27500E+01
         0.27500E+01
         0.27500E+01
         0.27500E+01
         0.27500E+01
         0.27500E+01
         0.27500E+01
         0.27500E+01
         0.27500E+01
         0.27500E+01
         0.27500E+01
         0.27500E+01
         0.27500E+01
         0.27500E+01
         0.27500E+01
         0.27500E+01
         0.27500E+01
         0.27500E+01
         0.27500E+01
         0.27500E+01
         0.27500E+01
         0.27500E+01
         0.27500E+01
         0.27500E+01
         0.27500E+01
         0.27500E+01
         0.27500E+01
         0.27500E+01
         0.27500E+01
         0.27500E+01
         0.27500E+01
         0.27500E+01
         0.27500E+01
         0.27500E+01
         0.27500E+01
         0.27500E+01
         0.27500E+01
         0.27500E+01
         0.27500E+01
         0.27500E+01
         0.27500E+01
         0.27500E+01
         0.27500E+01
         0.27500E+01
         0.27500E+01
         0.27500E+01
         0.27500E+01
         0.27500E+01
         0.27500E+01
         0.27500E+01
         0.27500E+01
         0.27500E+01
         0.27500E+01
         0.27500E+01
         0.27500E+01
         0.27500E+01
         0.27500E+01
         0.27500E+01
         0.27500E+01
         0.27500E+01
         0.27500E+01
         0.27500E+01
         0.27500E+01
         0.27500E+01
         0.27500E+01
         0.27500E+01
         0.27500E+01
         0.27500E+01
         0.27500E+01
         0.27500E+01
         0.27500E+01
         0.27500E+01
         0.27500E+01
         0.27500E+01
         0.27500E+01
         0.27500E+01
         0.27500E+01
         0.27500E+01
         0.27500E+01
         0.27500E+01
         0.27500E+01
         0.27500E+01
         0.27500E+01
         0.27500E+01
         0.27500E+01
         0.27500E+01
         0.27500E+01
         0.27500E+01
         0.27500E+01
         0.27500E+01
         0.27500E+01
         0.27500E+01
         0.27500E+01
         0.27500E+01
         0.27500E+01
         0.27500E+01
         0.27500E+01
         0.27500E+01
         0.27500E+01
         0.27500E+01
         0.27500E+01
         0.27500E+01
         0.27500E+01
         0.27500E+01
         0.27500E+01
         0.27500E+01
         0.27500E+01
         0.27500E+01
         0.27500E+01
         0.27500E+01
         0.27500E+01
         0.27500E+01
         0.27500E+01
         0.27500E+01
         0.27500E+01
         0.27500E+01
         0.27500E+01
         0.27500E+01
         0.27500E+01
         0.27500E+01
         0.27500E+01
         0.27500E+01
         0.27500E+01
         0.27500E+01
         0.27500E+01
         0.27500E+01
         0.27500E+01
         0.27500E+01
         0.27500E+01
         0.27500E+01
         0.27500E+01
         0.27500E+01
         0.27500E+01
         0.27500E+01
         0.27500E+01
         0.27500E+01
         0.27500E+01
         0.27500E+01
         0.27500E+01
         0.27500E+01
         0.27500E+01
         0.27500E+01
         0.27500E+01
         0.27500E+01
         0.27500E+01
         0.27500E+01
         0.27500E+01
         0.27500E+01
         0.27500E+01
         0.27500E+01
         0.27500E+01
         0.27500E+01
         0.27500E+01
         0.27500E+01
         0.27500E+01
         0.27500E+01
         0.27500E+01
         0.27500E+01
         0.27500E+01
         0.27500E+01
         0.27500E+01
         0.27500E+01
         0.27500E+01
         0.27500E+01
         0.27500E+01
         0.27500E+01
         0.27500E+01
         0.27500E+01
         0.27500E+01
         0.27500E+01
         0.27500E+01
         0.27500E+01
         0.27500E+01
         0.27500E+01
         0.27500E+01
         0.27500E+01
         0.27500E+01
         0.27500E+01
         0.27500E+01
         0.27500E+01
         0.27500E+01
         0.27500E+01
         0.27500E+01
         0.27500E+01
         0.27500E+01
         0.27500E+01
         0.27500E+01
         0.27500E+01
         0.27500E+01
         0.27500E+01
         0.27500E+01
         0.27500E+01
         0.27500E+01
         0.27500E+01
         0.27500E+01
         0.27500E+01
         0.27500E+01
         0.27500E+01
         0.27500E+01
         0.27500E+01
         0.27500E+01
         0.27500E+01
         0.27500E+01
         0.27500E+01
         0.27500E+01
         0.27500E+01
         0.27500E+01
         0.27500E+01
         0.27500E+01
         0.27500E+01
         0.27500E+01
         0.27500E+01
         0.27500E+01
         0.27500E+01
         0.27500E+01
         0.27500E+01
         0.27500E+01
         0.27500E+01
         0.27500E+01
         0.27500E+01
         0.27500E+01
         0.27500E+01
         0.27500E+01
         0.27500E+01
         0.27500E+01
         0.27500E+01
         0.27500E+01
         0.27500E+01
         0.27500E+01
         0.27500E+01
         0.27500E+01
         0.27500E+01
         0.27500E+01
         0.27500E+01
         0.27500E+01
         0.27500E+01
         0.27500E+01
         0.27500E+01
         0.27500E+01
         0.27500E+01
         0.27500E+01
         0.27500E+01
         0.27500E+01
         0.27500E+01
         0.27500E+01
         0.27500E+01
         0.27500E+01
         0.27500E+01
         0.27500E+01
         0.27500E+01
         0.27500E+01
         0.27500E+01
         0.27500E+01
         0.27500E+01
         0.27500E+01
         0.27500E+01
         0.27500E+01
         0.27500E+01
         0.27500E+01
         0.27500E+01
         0.27500E+01
         0.27500E+01
         0.27500E+01
         0.27500E+01
         0.27500E+01
         0.27500E+01
         0.27500E+01
         0.27500E+01
         0.27500E+01
         0.27500E+01
         0.27500E+01
         0.27500E+01
         0.27500E+01
         0.27500E+01
         0.27500E+01
         0.27500E+01
         0.27500E+01
         0.27500E+01
         0.27500E+01
         0.27500E+01
         0.27500E+01
         0.27500E+01
         0.27500E+01
         0.27500E+01
         0.27500E+01
         0.27500E+01
         0.27500E+01
         0.27500E+01
         0.27500E+01
         0.27500E+01
         0.27500E+01
         0.27500E+01
         0.27500E+01
         0.27500E+01
         0.27500E+01
         0.27500E+01
         0.27500E+01
         0.27500E+01
         0.27500E+01
         0.27500E+01
         0.27500E+01
         0.27500E+01
         0.27500E+01
         0.27500E+01
         0.27500E+01
         0.27500E+01
         0.27500E+01
         0.27500E+01
         0.27500E+01
         0.27500E+01
         0.27500E+01
         0.27500E+01
         0.27500E+01
         0.27500E+01
         0.27500E+01
         0.27500E+01
         0.27500E+01
         0.27500E+01
         0.27500E+01
         0.27500E+01
         0.27500E+01
         0.27500E+01
         0.27500E+01
         0.27500E+01
         0.27500E+01
         0.27500E+01
         0.27500E+01
         0.27500E+01
         0.27500E+01
         0.27500E+01
         0.27500E+01
         0.27500E+01
         0.27500E+01
         0.27500E+01
         0.27500E+01
         0.27500E+01
         0.27500E+01
         0.27500E+01
         0.27500E+01
         0.27500E+01
         0.27500E+01
         0.27500E+01
         0.27500E+01
         0.27500E+01
         0.27500E+01
         0.27500E+01
         0.27500E+01
         0.27500E+01
         0.27500E+01
         0.27500E+01
         0.27500E+01
         0.27500E+01
         0.27500E+01
         0.27500E+01
         0.27500E+01
         0.27500E+01
         0.27500E+01
         0.27500E+01
         0.27500E+01
         0.27500E+01
         0.27500E+01
         0.27500E+01
         0.27500E+01
         0.27500E+01
         0.27500E+01
         0.27500E+01
         0.27500E+01
         0.27500E+01
         0.27500E+01
         0.27500E+01
         0.27500E+01
         0.27500E+01
         0.27500E+01
         0.27500E+01
         0.27500E+01
         0.27500E+01
         0.27500E+01
         0.27500E+01
         0.27500E+01
         0.27500E+01
         0.27500E+01
         0.27500E+01
         0.27500E+01
         0.27500E+01
         0.27500E+01
         0.27500E+01
         0.27500E+01
         0.27500E+01
         0.27500E+01
         0.27500E+01
         0.27500E+01
         0.27500E+01
         0.27500E+01
         0.27500E+01
         0.27500E+01
         0.27500E+01
         0.27500E+01
         0.27500E+01
         0.27500E+01
         0.27500E+01
         0.27500E+01
         0.27500E+01
         0.27500E+01
         0.27500E+01
         0.27500E+01
         0.27500E+01
         0.27500E+01
         0.27500E+01
         0.27500E+01
         0.27500E+01
         0.27500E+01
         0.27500E+01
         0.27500E+01
         0.27500E+01
         0.27500E+01
         0.27500E+01
         0.27500E+01
         0.27500E+01
         0.27500E+01
         0.27500E+01
         0.27500E+01
         0.27500E+01
         0.27500E+01
         0.27500E+01
         0.27500E+01
         0.27500E+01
         0.27500E+01
         0.27500E+01
         0.27500E+01
         0.27500E+01
         0.27500E+01
         0.27500E+01
         0.27500E+01
         0.27500E+01
         0.27500E+01
         0.27500E+01
         0.27500E+01
         0.27500E+01
         0.27500E+01
         0.27500E+01
         0.27500E+01
         0.27500E+01
         0.27500E+01
         0.27500E+01
         0.27500E+01
         0.27500E+01
         0.27500E+01
         0.27500E+01
         0.27500E+01
         0.27500E+01
         0.27500E+01
         0.27500E+01
         0.27500E+01
         0.27500E+01
         0.27500E+01
         0.27500E+01
         0.27500E+01
         0.27500E+01
         0.27500E+01
         0.27500E+01
         0.27500E+01
         0.27500E+01
         0.27500E+01
         0.27500E+01
         0.27500E+01
         0.27500E+01
         0.27500E+01
         0.27500E+01
         0.27500E+01
         0.27500E+01
         0.27500E+01
         0.27500E+01
         0.27500E+01
         0.27500E+01
         0.27500E+01
         0.27500E+01
         0.27500E+01
         0.27500E+01
         0.27500E+01
         0.27500E+01
         0.27500E+01
         0.27500E+01
         0.27500E+01
         0.27500E+01
         0.27500E+01
         0.27500E+01
         0.27500E+01
         0.27500E+01
         0.27500E+01
         0.27500E+01
         0.27500E+01
         0.27500E+01
         0.27500E+01
         0.27500E+01
         0.27500E+01
         0.27500E+01
         0.27500E+01
         0.27500E+01
         0.27500E+01
         0.27500E+01
         0.27500E+01
         0.27500E+01
         0.27500E+01
         0.27500E+01
         0.27500E+01
         0.27500E+01
         0.27500E+01
         0.27500E+01
         0.27500E+01
         0.27500E+01
         0.27500E+01
         0.27500E+01
         0.27500E+01
         0.27500E+01
         0.27500E+01
         0.27500E+01
         0.27500E+01
         0.27500E+01
         0.27500E+01
         0.27500E+01
         0.27500E+01
         0.27500E+01
         0.27500E+01
         0.27500E+01
         0.27500E+01
         0.27500E+01
         0.27500E+01
         0.27500E+01
         0.27500E+01
         0.27500E+01
         0.27500E+01
         0.27500E+01
         0.27500E+01
         0.27500E+01
         0.27500E+01
         0.27500E+01
         0.27500E+01
         0.27500E+01
         0.27500E+01
         0.27500E+01
         0.27500E+01
         0.27500E+01
         0.27500E+01
         0.27500E+01
         0.27500E+01
         0.27500E+01
         0.27500E+01
         0.27500E+01
         0.27500E+01
         0.27500E+01
         0.27500E+01
         0.27500E+01
         0.27500E+01
         0.27500E+01
         0.27500E+01
         0.27500E+01
         0.27500E+01
         0.27500E+01
         0.27500E+01
         0.27500E+01
         0.27500E+01
         0.27500E+01
         0.27500E+01
         0.27500E+01
         0.27500E+01
         0.27500E+01
         0.27500E+01
         0.27500E+01
         0.27500E+01
         0.27500E+01
         0.27500E+01
         0.27500E+01
         0.27500E+01
         0.27500E+01
         0.27500E+01
         0.27500E+01
         0.27500E+01
         0.27500E+01
         0.27500E+01
         0.27500E+01
         0.27500E+01
         0.27500E+01
         0.27500E+01
         0.27500E+01
         0.27500E+01
         0.27500E+01
         0.27500E+01
         0.27500E+01
         0.27500E+01
         0.27500E+01
         0.27500E+01
         0.27500E+01
         0.27500E+01
         0.27500E+01
         0.27500E+01
         0.27500E+01
         0.27500E+01
         0.27500E+01
         0.27500E+01
         0.27500E+01
         0.27500E+01
         0.27500E+01
         0.27500E+01
         0.27500E+01
         0.27500E+01
         0.27500E+01
         0.27500E+01
         0.27500E+01
         0.27500E+01
         0.27500E+01
         0.27500E+01
         0.27500E+01
         0.27500E+01
         0.27500E+01
         0.27500E+01
         0.27500E+01
         0.27500E+01
         0.27500E+01
         0.27500E+01
         0.27500E+01
         0.27500E+01
         0.27500E+01
         0.27500E+01
         0.27500E+01
         0.27500E+01
         0.27500E+01
         0.27500E+01
         0.27500E+01
         0.27500E+01
         0.27500E+01
         0.27500E+01
         0.27500E+01
         0.27500E+01
         0.27500E+01
         0.27500E+01
         0.27500E+01
         0.27500E+01
         0.27500E+01
         0.27500E+01
         0.27500E+01
         0.27500E+01
         0.27500E+01
         0.27500E+01
         0.27500E+01
         0.27500E+01
         0.27500E+01
         0.27500E+01
         0.27500E+01
         0.27500E+01
         0.27500E+01
         0.27500E+01
         0.27500E+01
         0.27500E+01
         0.27500E+01
         0.27500E+01
         0.27500E+01
         0.27500E+01
         0.27500E+01
         0.27500E+01
         0.27500E+01
         0.27500E+01
         0.27500E+01
         0.27500E+01
         0.27500E+01
         0.27500E+01
         0.27500E+01
         0.27500E+01
         0.27500E+01
         0.27500E+01
         0.27500E+01
         0.27500E+01
         0.27500E+01
         0.27500E+01
         0.27500E+01
         0.27500E+01
         0.27500E+01
         0.27500E+01
         0.27500E+01
         0.27500E+01
         0.27500E+01
         0.27500E+01
         0.27500E+01
         0.27500E+01
         0.27500E+01
         0.27500E+01
         0.27500E+01
         0.27500E+01
         0.27500E+01
         0.27500E+01
         0.27500E+01
         0.27500E+01
         0.27500E+01
         0.27500E+01
         0.27500E+01
         0.27500E+01
         0.27500E+01
         0.27500E+01
         0.27500E+01
         0.27500E+01
         0.27500E+01
         0.27500E+01
         0.27500E+01
         0.27500E+01
         0.27500E+01
         0.27500E+01
         0.27500E+01
         0.27500E+01
         0.27500E+01
         0.27500E+01
         0.27500E+01
         0.27500E+01
         0.27500E+01
         0.27500E+01
         0.27500E+01
         0.27500E+01
         0.27500E+01
         0.27500E+01
         0.27500E+01
         0.27500E+01
         0.27500E+01
         0.27500E+01
         0.27500E+01
         0.27500E+01
         0.27500E+01
         0.27500E+01
         0.27500E+01
         0.27500E+01
         0.27500E+01
         0.27500E+01
         0.27500E+01
         0.27500E+01
         0.27500E+01
         0.27500E+01
         0.27500E+01
         0.27500E+01
         0.27500E+01
         0.27500E+01
         0.27500E+01
         0.27500E+01
         0.27500E+01
         0.27500E+01
         0.27500E+01
         0.27500E+01
         0.27500E+01
         0.27500E+01
         0.27500E+01
         0.27500E+01
         0.27500E+01
         0.27500E+01
         0.27500E+01
         0.27500E+01
         0.27500E+01
         0.27500E+01
         0.27500E+01
         0.27500E+01
         0.27500E+01
         0.27500E+01
         0.27500E+01
         0.27500E+01
         0.27500E+01
         0.27500E+01
         0.27500E+01
         0.27500E+01
         0.27500E+01
         0.27500E+01
         0.27500E+01
         0.27500E+01
         0.27500E+01
         0.27500E+01
         0.27500E+01
         0.27500E+01
         0.27500E+01
         0.27500E+01
         0.27500E+01
         0.27500E+01
         0.27500E+01
         0.27500E+01
         0.27500E+01
         0.27500E+01
         0.27500E+01
         0.27500E+01
         0.27500E+01
         0.27500E+01
         0.27500E+01
         0.27500E+01
         0.27500E+01
         0.27500E+01
         0.27500E+01
         0.27500E+01
         0.27500E+01
         0.27500E+01
         0.27500E+01
         0.27500E+01
         0.27500E+01
         0.27500E+01
         0.27500E+01
         0.27500E+01
         0.27500E+01
         0.27500E+01
         0.27500E+01
         0.27500E+01
         0.27500E+01
         0.27500E+01
         0.27500E+01
         0.27500E+01
         0.27500E+01
         0.27500E+01
         0.27500E+01
         0.27500E+01
         0.27500E+01
         0.27500E+01
         0.27500E+01
         0.27500E+01
         0.27500E+01
         0.27500E+01
         0.27500E+01
         0.27500E+01
         0.27500E+01
         0.27500E+01
         0.27500E+01
         0.27500E+01
         0.27500E+01
         0.27500E+01
         0.27500E+01
         0.27500E+01
         0.27500E+01
         0.27500E+01
         0.27500E+01
         0.27500E+01
         0.27500E+01
         0.27500E+01
         0.27500E+01
         0.27500E+01
         0.27500E+01
         0.27500E+01
         0.27500E+01
         0.27500E+01
         0.27500E+01
         0.27500E+01
         0.27500E+01
         0.27500E+01
         0.27500E+01
         0.27500E+01
         0.27500E+01
         0.27500E+01
         0.27500E+01
         0.27500E+01
         0.27500E+01
         0.27500E+01
         0.27500E+01
         0.27500E+01
         0.27500E+01
         0.27500E+01
         0.27500E+01
         0.27500E+01
         0.27500E+01
         0.27500E+01
         0.27500E+01
         0.27500E+01
         0.27500E+01
         0.27500E+01
         0.27500E+01
         0.27500E+01
         0.27500E+01
         0.27500E+01
         0.27500E+01
         0.27500E+01
         0.27500E+01
         0.27500E+01
         0.27500E+01
         0.27500E+01
         0.27500E+01
         0.27500E+01
         0.27500E+01
         0.27500E+01
         0.27500E+01
         0.27500E+01
         0.27500E+01
         0.27500E+01
         0.27500E+01
         0.27500E+01
         0.27500E+01
         0.27500E+01
         0.27500E+01
         0.27500E+01
         0.27500E+01
         0.27500E+01
         0.27500E+01
         0.27500E+01
         0.27500E+01
         0.27500E+01
         0.27500E+01
         0.27500E+01
         0.27500E+01
         0.27500E+01
         0.27500E+01
         0.27500E+01
         0.27500E+01
         0.27500E+01
         0.27500E+01
         0.27500E+01
         0.27500E+01
         0.27500E+01
         0.27500E+01
         0.27500E+01
         0.27500E+01
         0.27500E+01
         0.27500E+01
         0.27500E+01
         0.27500E+01
         0.27500E+01
         0.27500E+01
         0.27500E+01
         0.27500E+01
         0.27500E+01
         0.27500E+01
         0.27500E+01
         0.27500E+01
         0.27500E+01
         0.27500E+01
         0.27500E+01
         0.27500E+01
         0.27500E+01
         0.27500E+01
         0.27500E+01
         0.27500E+01
         0.27500E+01
         0.27500E+01
         0.27500E+01
         0.27500E+01
         0.27500E+01
         0.27500E+01
         0.27500E+01
         0.27500E+01
         0.27500E+01
         0.27500E+01
         0.27500E+01
         0.27500E+01
         0.27500E+01
         0.27500E+01
         0.27500E+01
         0.27500E+01
         0.27500E+01
         0.27500E+01
         0.27500E+01
         0.27500E+01
         0.27500E+01
         0.27500E+01
         0.27500E+01
         0.27500E+01
         0.27500E+01
         0.27500E+01
         0.27500E+01
         0.27500E+01
         0.27500E+01
         0.27500E+01
         0.27500E+01
         0.27500E+01
         0.27500E+01
         0.27500E+01
         0.27500E+01
         0.27500E+01
         0.27500E+01
         0.27500E+01
         0.27500E+01
         0.27500E+01
         0.27500E+01
         0.27500E+01
         0.27500E+01
         0.27500E+01
         0.27500E+01
         0.27500E+01
         0.27500E+01
         0.27500E+01
         0.27500E+01
         0.27500E+01
         0.27500E+01
         0.27500E+01
         0.27500E+01
         0.27500E+01
         0.27500E+01
         0.27500E+01
         0.27500E+01
         0.27500E+01
         0.27500E+01
         0.27500E+01
         0.27500E+01
         0.27500E+01
         0.27500E+01
         0.27500E+01
         0.27500E+01
         0.27500E+01
         0.27500E+01
         0.27500E+01
         0.27500E+01
         0.27500E+01
         0.27500E+01
         0.27500E+01
         0.27500E+01
         0.27500E+01
         0.27500E+01
         0.27500E+01
         0.27500E+01
         0.27500E+01
         0.27500E+01
         0.27500E+01
         0.27500E+01
         0.27500E+01
         0.27500E+01
         0.27500E+01
         0.27500E+01
         0.27500E+01
         0.27500E+01
         0.27500E+01
         0.27500E+01
         0.27500E+01
         0.27500E+01
         0.27500E+01
         0.27500E+01
         0.27500E+01
         0.27500E+01
         0.27500E+01
         0.27500E+01
         0.27500E+01
         0.27500E+01
         0.27500E+01
         0.27500E+01
         0.27500E+01
         0.27500E+01
         0.27500E+01
         0.27500E+01
         0.27500E+01
         0.27500E+01
         0.27500E+01
         0.27500E+01
         0.27500E+01
         0.27500E+01
         0.27500E+01
         0.27500E+01
         0.27500E+01
         0.27500E+01
         0.27500E+01
         0.27500E+01
         0.27500E+01
         0.27500E+01
         0.27500E+01
         0.27500E+01
         0.27500E+01
         0.27500E+01
         0.27500E+01
         0.27500E+01
         0.27500E+01
         0.27500E+01
         0.27500E+01
         0.27500E+01
         0.27500E+01
         0.27500E+01
         0.27500E+01
         0.27500E+01
         0.27500E+01
         0.27500E+01
         0.27500E+01
         0.27500E+01
         0.27500E+01
         0.27500E+01
         0.27500E+01
         0.27500E+01
         0.27500E+01
         0.27500E+01
         0.27500E+01
         0.27500E+01
         0.27500E+01
         0.27500E+01
         0.27500E+01
         0.27500E+01
         0.27500E+01
         0.27500E+01
         0.27500E+01
         0.27500E+01
         0.27500E+01
         0.27500E+01
         0.27500E+01
         0.27500E+01
         0.27500E+01
         0.27500E+01
         0.27500E+01
         0.27500E+01
         0.27500E+01
         0.27500E+01
         0.27500E+01
         0.27500E+01
         0.27500E+01
         0.27500E+01
         0.27500E+01
         0.27500E+01
         0.27500E+01
         0.27500E+01
         0.27500E+01
         0.27500E+01
         0.27500E+01
         0.27500E+01
         0.27500E+01
         0.27500E+01
         0.27500E+01
         0.27500E+01
         0.27500E+01
         0.27500E+01
         0.27500E+01
         0.27500E+01
         0.27500E+01
         0.27500E+01
         0.27500E+01
         0.27500E+01
         0.27500E+01
         0.27500E+01
         0.27500E+01
         0.27500E+01
         0.27500E+01
         0.27500E+01
         0.27500E+01
         0.27500E+01
         0.27500E+01
         0.27500E+01
         0.27500E+01
         0.27500E+01
         0.27500E+01
         0.27500E+01
         0.27500E+01
         0.27500E+01
         0.27500E+01
         0.27500E+01
         0.27500E+01
         0.27500E+01
         0.27500E+01
         0.27500E+01
         0.27500E+01
         0.27500E+01
         0.27500E+01
         0.27500E+01
         0.27500E+01
         0.27500E+01
         0.27500E+01
         0.27500E+01
         0.27500E+01
         0.27500E+01
         0.27500E+01
         0.27500E+01
         0.27500E+01
         0.27500E+01
         0.27500E+01
         0.27500E+01
         0.27500E+01
         0.27500E+01
         0.27500E+01
         0.27500E+01
         0.27500E+01
         0.27500E+01
         0.27500E+01
         0.27500E+01
         0.27500E+01
         0.27500E+01
         0.27500E+01
         0.27500E+01
         0.27500E+01
         0.27500E+01
         0.27500E+01
         0.27500E+01
         0.27500E+01
         0.27500E+01
         0.27500E+01
         0.27500E+01
         0.27500E+01
         0.27500E+01
         0.27500E+01
         0.27500E+01
         0.27500E+01
         0.27500E+01
         0.27500E+01
         0.27500E+01
         0.27500E+01
         0.27500E+01
         0.27500E+01
         0.27500E+01
         0.27500E+01
         0.27500E+01
         0.27500E+01
         0.27500E+01
         0.27500E+01
         0.27500E+01
         0.27500E+01
         0.27500E+01
         0.27500E+01
         0.27500E+01
         0.27500E+01
         0.27500E+01
         0.27500E+01
         0.27500E+01
         0.27500E+01
         0.27500E+01
         0.27500E+01
         0.27500E+01
         0.27500E+01
         0.27500E+01
         0.27500E+01
         0.27500E+01
         0.27500E+01
         0.27500E+01
         0.27500E+01
         0.27500E+01
         0.27500E+01
         0.27500E+01
         0.27500E+01
         0.27500E+01
         0.27500E+01
         0.27500E+01
         0.27500E+01
         0.27500E+01
         0.27500E+01
         0.27500E+01
         0.27500E+01
         0.27500E+01
         0.27500E+01
         0.27500E+01
         0.27500E+01
         0.27500E+01
         0.27500E+01
         0.27500E+01
         0.27500E+01
         0.27500E+01
         0.27500E+01
         0.27500E+01
         0.27500E+01
         0.27500E+01
         0.27500E+01
         0.27500E+01
         0.27500E+01
         0.27500E+01
         0.27500E+01
         0.27500E+01
         0.27500E+01
         0.27500E+01
         0.27500E+01
         0.27500E+01
         0.27500E+01
         0.27500E+01
         0.27500E+01
         0.27500E+01
         0.27500E+01
         0.27500E+01
         0.27500E+01
         0.27500E+01
         0.27500E+01
         0.27500E+01
         0.27500E+01
         0.27500E+01
         0.27500E+01
         0.27500E+01
         0.27500E+01
         0.27500E+01
         0.27500E+01
         0.27500E+01
         0.27500E+01
         0.27500E+01
         0.27500E+01
         0.27500E+01
         0.27500E+01
         0.27500E+01
         0.27500E+01
         0.27500E+01
         0.27500E+01
         0.27500E+01
         0.27500E+01
         0.27500E+01
         0.27500E+01
         0.27500E+01
         0.27500E+01
         0.27500E+01
         0.27500E+01
         0.27500E+01
         0.27500E+01
         0.27500E+01
         0.27500E+01
         0.27500E+01
         0.27500E+01
         0.27500E+01
         0.27500E+01
         0.27500E+01
         0.27500E+01
         0.27500E+01
         0.27500E+01
         0.27500E+01
         0.27500E+01
         0.27500E+01
         0.27500E+01
         0.27500E+01
         0.27500E+01
         0.27500E+01
         0.27500E+01
         0.27500E+01
         0.27500E+01
         0.27500E+01
         0.27500E+01
         0.27500E+01
         0.27500E+01
         0.27500E+01
         0.27500E+01
         0.27500E+01
         0.27500E+01
         0.27500E+01
         0.27500E+01
         0.27500E+01
         0.27500E+01
         0.27500E+01
         0.27500E+01
         0.27500E+01
         0.27500E+01
         0.27500E+01
         0.27500E+01
         0.27500E+01
         0.27500E+01
         0.27500E+01
         0.27500E+01
         0.27500E+01
         0.27500E+01
         0.27500E+01
         0.27500E+01
         0.27500E+01
         0.27500E+01
         0.27500E+01
         0.27500E+01
         0.27500E+01
         0.27500E+01
         0.27500E+01
         0.27500E+01
         0.27500E+01
         0.27500E+01
         0.27500E+01
         0.27500E+01
         0.27500E+01
         0.27500E+01
         0.27500E+01
         0.27500E+01
         0.27500E+01
         0.27500E+01
         0.27500E+01
         0.27500E+01
         0.27500E+01
         0.27500E+01
         0.27500E+01
         0.27500E+01
         0.27500E+01
         0.27500E+01
         0.27500E+01
         0.27500E+01
         0.27500E+01
         0.27500E+01
         0.27500E+01
         0.27500E+01
         0.27500E+01
         0.27500E+01
         0.27500E+01
         0.27500E+01
         0.27500E+01
         0.27500E+01
         0.27500E+01
         0.27500E+01
         0.27500E+01
         0.27500E+01
         0.27500E+01
         0.27500E+01
         0.27500E+01
         0.27500E+01
         0.27500E+01
         0.27500E+01
         0.27500E+01
         0.27500E+01
         0.27500E+01
         0.27500E+01
         0.27500E+01
         0.27500E+01
         0.27500E+01
         0.27500E+01
         0.27500E+01
         0.27500E+01
         0.27500E+01
         0.27500E+01
         0.27500E+01
         0.27500E+01
         0.27500E+01
         0.27500E+01
         0.27500E+01
         0.27500E+01
         0.27500E+01
         0.27500E+01
         0.27500E+01
         0.27500E+01
         0.27500E+01
         0.27500E+01
         0.27500E+01
         0.27500E+01
         0.27500E+01
         0.27500E+01
         0.27500E+01
         0.27500E+01
         0.27500E+01
         0.27500E+01
         0.27500E+01
         0.27500E+01
         0.27500E+01
         0.27500E+01
         0.27500E+01
         0.27500E+01
         0.27500E+01
         0.27500E+01
         0.27500E+01
         0.27500E+01
         0.27500E+01
         0.27500E+01
         0.27500E+01
         0.27500E+01
         0.27500E+01
         0.27500E+01
         0.27500E+01
         0.27500E+01
         0.27500E+01
         0.27500E+01
         0.27500E+01
         0.27500E+01
         0.27500E+01
         0.27500E+01
         0.27500E+01
         0.27500E+01
         0.27500E+01
         0.27500E+01
         0.27500E+01
         0.27500E+01
         0.27500E+01
         0.27500E+01
         0.27500E+01
         0.27500E+01
         0.27500E+01
         0.27500E+01
         0.27500E+01
         0.27500E+01
         0.27500E+01
         0.27500E+01
         0.27500E+01
         0.27500E+01
         0.27500E+01
         0.27500E+01
         0.27500E+01
         0.27500E+01
         0.27500E+01
         0.27500E+01
         0.27500E+01
         0.27500E+01
         0.27500E+01
         0.27500E+01
         0.27500E+01
         0.27500E+01
         0.27500E+01
         0.27500E+01
         0.27500E+01
         0.27500E+01
         0.27500E+01
         0.27500E+01
         0.27500E+01
         0.27500E+01
         0.27500E+01
         0.27500E+01
         0.27500E+01
         0.27500E+01
         0.27500E+01
         0.27500E+01
         0.27500E+01
         0.27500E+01
         0.27500E+01
         0.27500E+01
         0.27500E+01
         0.27500E+01
         0.27500E+01
         0.27500E+01
         0.27500E+01
         0.27500E+01
         0.27500E+01
         0.27500E+01
         0.27500E+01
         0.27500E+01
         0.27500E+01
         0.27500E+01
         0.27500E+01
         0.27500E+01
         0.27500E+01
         0.27500E+01
         0.27500E+01
         0.27500E+01
         0.27500E+01
         0.27500E+01
         0.27500E+01
         0.27500E+01
         0.27500E+01
         0.27500E+01
         0.27500E+01
         0.27500E+01
         0.27500E+01
         0.27500E+01
         0.27500E+01
         0.27500E+01
         0.27500E+01
         0.27500E+01
         0.27500E+01
         0.27500E+01
         0.27500E+01
         0.27500E+01
         0.27500E+01
         0.27500E+01
         0.27500E+01
         0.27500E+01
         0.27500E+01
         0.27500E+01
         0.27500E+01
         0.27500E+01
         0.27500E+01
         0.27500E+01
         0.27500E+01
         0.27500E+01
         0.27500E+01
         0.27500E+01
         0.27500E+01
         0.27500E+01
         0.27500E+01
         0.27500E+01
         0.27500E+01
         0.27500E+01
         0.27500E+01
         0.27500E+01
         0.27500E+01
         0.27500E+01
         0.27500E+01
         0.27500E+01
         0.27500E+01
         0.27500E+01
         0.27500E+01
         0.27500E+01
         0.27500E+01
         0.27500E+01
         0.27500E+01
         0.27500E+01
         0.27500E+01
         0.27500E+01
         0.27500E+01
         0.27500E+01
         0.27500E+01
         0.27500E+01
         0.27500E+01
         0.27500E+01
         0.27500E+01
         0.27500E+01
         0.27500E+01
         0.27500E+01
         0.27500E+01
         0.27500E+01
         0.27500E+01
         0.27500E+01
         0.27500E+01
         0.27500E+01
         0.27500E+01
         0.27500E+01
         0.27500E+01
         0.27500E+01
         0.27500E+01
         0.27500E+01
         0.27500E+01
         0.27500E+01
         0.27500E+01
         0.27500E+01
         0.27500E+01
         0.27500E+01
         0.27500E+01
         0.27500E+01
         0.27500E+01
         0.27500E+01
         0.27500E+01
         0.27500E+01
         0.27500E+01
         0.27500E+01
         0.27500E+01
         0.27500E+01
         0.27500E+01
         0.27500E+01
         0.27500E+01
         0.27500E+01
         0.27500E+01
         0.27500E+01
         0.27500E+01
         0.27500E+01
         0.27500E+01
         0.27500E+01
         0.27500E+01
         0.27500E+01
         0.27500E+01
         0.27500E+01
         0.27500E+01
         0.27500E+01
         0.27500E+01
         0.27500E+01
         0.27500E+01
         0.27500E+01
         0.27500E+01
         0.27500E+01
         0.27500E+01
         0.27500E+01
         0.27500E+01
         0.27500E+01
         0.27500E+01
         0.27500E+01
         0.27500E+01
         0.27500E+01
         0.27500E+01
         0.27500E+01
         0.27500E+01
         0.27500E+01
         0.27500E+01
         0.27500E+01
         0.27500E+01
         0.27500E+01
         0.27500E+01
         0.27500E+01
         0.27500E+01
         0.27500E+01
         0.27500E+01
         0.27500E+01
         0.27500E+01
         0.27500E+01
         0.27500E+01
         0.27500E+01
         0.27500E+01
         0.27500E+01
         0.27500E+01
         0.27500E+01
         0.27500E+01
         0.27500E+01
         0.27500E+01
         0.27500E+01
         0.27500E+01
         0.27500E+01
         0.27500E+01
         0.27500E+01
         0.27500E+01
         0.27500E+01
         0.27500E+01
         0.27500E+01
         0.27500E+01
         0.27500E+01
         0.27500E+01
         0.27500E+01
         0.27500E+01
         0.27500E+01
         0.27500E+01
         0.27500E+01
         0.27500E+01
         0.27500E+01
         0.27500E+01
         0.27500E+01
         0.27500E+01
         0.27500E+01
         0.27500E+01
         0.27500E+01
         0.27500E+01
         0.27500E+01
         0.27500E+01
         0.27500E+01
         0.27500E+01
         0.27500E+01
         0.27500E+01
         0.27500E+01
         0.27500E+01
         0.27500E+01
         0.27500E+01
         0.27500E+01
         0.27500E+01
         0.27500E+01
         0.27500E+01
         0.27500E+01
         0.27500E+01
         0.27500E+01
         0.27500E+01
         0.27500E+01
         0.27500E+01
         0.27500E+01
         0.27500E+01
         0.27500E+01
         0.27500E+01
         0.27500E+01
         0.27500E+01
         0.27500E+01
         0.27500E+01
         0.27500E+01
         0.27500E+01
         0.27500E+01
         0.27500E+01
         0.27500E+01
         0.27500E+01
         0.27500E+01
         0.27500E+01
         0.27500E+01
         0.27500E+01
         0.27500E+01
         0.27500E+01
         0.27500E+01
         0.27500E+01
         0.27500E+01
         0.27500E+01
         0.27500E+01
         0.27500E+01
         0.27500E+01
         0.27500E+01
         0.27500E+01
         0.27500E+01
         0.27500E+01
         0.27500E+01
         0.27500E+01
         0.27500E+01
         0.27500E+01
         0.27500E+01
         0.27500E+01
         0.27500E+01
         0.27500E+01
         0.27500E+01
         0.27500E+01
         0.27500E+01
         0.27500E+01
         0.27500E+01
         0.27500E+01
         0.27500E+01
         0.27500E+01
         0.27500E+01
         0.27500E+01
         0.27500E+01
         0.27500E+01
         0.27500E+01
         0.27500E+01
         0.27500E+01
         0.27500E+01
         0.27500E+01
         0.27500E+01
         0.27500E+01
         0.27500E+01
         0.27500E+01
         0.27500E+01
         0.27500E+01
         0.27500E+01
         0.27500E+01
         0.27500E+01
         0.27500E+01
         0.27500E+01
         0.27500E+01
         0.27500E+01
         0.27500E+01
         0.27500E+01
         0.27500E+01
         0.27500E+01
         0.27500E+01
         0.27500E+01
         0.27500E+01
         0.27500E+01
         0.27500E+01
         0.27500E+01
         0.27500E+01
         0.27500E+01
         0.27500E+01
         0.27500E+01
         0.27500E+01
         0.27500E+01
         0.27500E+01
         0.27500E+01
         0.27500E+01
         0.27500E+01
         0.27500E+01
         0.27500E+01
         0.27500E+01
         0.27500E+01
         0.27500E+01
         0.27500E+01
         0.27500E+01
         0.27500E+01
         0.27500E+01
         0.27500E+01
         0.27500E+01
         0.27500E+01
         0.27500E+01
         0.27500E+01
         0.27500E+01
         0.27500E+01
         0.27500E+01
         0.27500E+01
         0.27500E+01
         0.27500E+01
         0.27500E+01
         0.27500E+01
         0.27500E+01
         0.27500E+01
         0.27500E+01
         0.27500E+01
         0.27500E+01
         0.27500E+01
         0.27500E+01
         0.27500E+01
         0.27500E+01
         0.27500E+01
         0.27500E+01
         0.27500E+01
         0.27500E+01
         0.27500E+01
         0.27500E+01
         0.27500E+01
         0.27500E+01
         0.27500E+01
         0.27500E+01
         0.27500E+01
         0.27500E+01
         0.27500E+01
         0.27500E+01
         0.27500E+01
         0.27500E+01
         0.27500E+01
         0.27500E+01
         0.27500E+01
         0.27500E+01
         0.27500E+01
         0.27500E+01
         0.27500E+01
         0.27500E+01
         0.27500E+01
         0.27500E+01
         0.27500E+01
         0.27500E+01
         0.27500E+01
         0.27500E+01
         0.27500E+01
         0.27500E+01
         0.27500E+01
         0.27500E+01
         0.27500E+01
         0.27500E+01
         0.27500E+01
         0.27500E+01
         0.27500E+01
         0.27500E+01
         0.27500E+01
         0.27500E+01
         0.27500E+01
         0.27500E+01
         0.27500E+01
         0.27500E+01
         0.27500E+01
         0.27500E+01
         0.27500E+01
         0.27500E+01
         0.27500E+01
         0.27500E+01
         0.27500E+01
         0.27500E+01
         0.27500E+01
         0.27500E+01
         0.27500E+01
         0.27500E+01
         0.27500E+01
         0.27500E+01
         0.27500E+01
         0.27500E+01
         0.27500E+01
         0.27500E+01
         0.27500E+01
         0.27500E+01
         0.27500E+01
         0.27500E+01
         0.27500E+01
         0.27500E+01
         0.27500E+01
         0.27500E+01
         0.27500E+01
         0.27500E+01
         0.27500E+01
         0.27500E+01
         0.27500E+01
         0.27500E+01
         0.27500E+01
         0.27500E+01
         0.27500E+01
         0.27500E+01
         0.27500E+01
         0.27500E+01
         0.27500E+01
         0.27500E+01
         0.27500E+01
         0.27500E+01
         0.27500E+01
         0.27500E+01
         0.27500E+01
         0.27500E+01
         0.27500E+01
         0.27500E+01
         0.27500E+01
         0.27500E+01
         0.27500E+01
         0.27500E+01
         0.27500E+01
         0.27500E+01
         0.27500E+01
         0.27500E+01
         0.27500E+01
         0.27500E+01
         0.27500E+01
         0.27500E+01
         0.27500E+01
         0.27500E+01
         0.27500E+01
         0.27500E+01
         0.27500E+01
         0.27500E+01
         0.27500E+01
         0.27500E+01
         0.27500E+01
         0.27500E+01
         0.27500E+01
         0.27500E+01
         0.27500E+01
         0.27500E+01
         0.27500E+01
         0.27500E+01
         0.27500E+01
         0.27500E+01
         0.27500E+01
         0.27500E+01
         0.27500E+01
         0.27500E+01
         0.27500E+01
  
SCALARS              physical_window_x  double 1
LOOKUP_TABLE default
         0.42419E-02
         0.35201E-02
         0.37624E-02
         0.42419E-02
         0.42417E-02
         0.35201E-02
         0.37618E-02
         0.42417E-02
         0.37624E-02
         0.37624E-02
         0.37618E-02
         0.37618E-02
         0.30086E-02
         0.32069E-02
         0.30084E-02
         0.32067E-02
         0.42419E-02
         0.32069E-02
         0.42417E-02
         0.32067E-02
         0.24180E-02
         0.29942E-02
         0.32396E-02
         0.24180E-02
         0.29933E-02
         0.32385E-02
         0.26608E-02
         0.27190E-02
         0.26608E-02
         0.27190E-02
         0.42687E-02
         0.36511E-02
         0.42687E-02
         0.42687E-02
         0.36511E-02
         0.42687E-02
         0.32069E-02
         0.29739E-02
         0.32066E-02
         0.29739E-02
         0.34652E-02
         0.32621E-02
         0.34652E-02
         0.32621E-02
         0.37123E-02
         0.32069E-02
         0.37123E-02
         0.32066E-02
         0.30844E-02
         0.30844E-02
         0.35191E-02
         0.35189E-02
         0.26925E-02
         0.26925E-02
         0.26925E-02
         0.26925E-02
         0.24643E-02
         0.27651E-02
         0.24643E-02
         0.27651E-02
         0.42687E-02
         0.35191E-02
         0.42687E-02
         0.35189E-02
         0.42687E-02
         0.42687E-02
         0.34658E-02
         0.34648E-02
         0.27274E-02
         0.31799E-02
         0.27273E-02
         0.31796E-02
         0.32396E-02
         0.32385E-02
         0.26964E-02
         0.26960E-02
         0.27828E-02
         0.27828E-02
         0.27828E-02
         0.27828E-02
         0.27004E-02
         0.31883E-02
         0.27003E-02
         0.31880E-02
         0.31883E-02
         0.31880E-02
         0.37123E-02
         0.37123E-02
         0.36245E-02
         0.36245E-02
         0.28253E-02
         0.31642E-02
         0.28253E-02
         0.31636E-02
         0.33485E-02
         0.33485E-02
         0.33485E-02
         0.33485E-02
         0.31978E-02
         0.31969E-02
         0.29849E-02
         0.32843E-02
         0.29849E-02
         0.32843E-02
         0.27274E-02
         0.31109E-02
         0.27273E-02
         0.31109E-02
         0.31799E-02
         0.31796E-02
         0.32396E-02
         0.32385E-02
         0.32396E-02
         0.32385E-02
         0.29942E-02
         0.29933E-02
         0.27190E-02
         0.27190E-02
         0.26964E-02
         0.26960E-02
         0.27828E-02
         0.27828E-02
         0.27828E-02
         0.27828E-02
         0.27004E-02
         0.27003E-02
         0.31883E-02
         0.31880E-02
         0.31883E-02
         0.31880E-02
         0.32621E-02
         0.32621E-02
         0.34652E-02
         0.34652E-02
         0.37123E-02
         0.37123E-02
         0.37123E-02
         0.37123E-02
         0.36245E-02
         0.36245E-02
         0.28253E-02
         0.28253E-02
         0.29097E-02
         0.29087E-02
         0.32389E-02
         0.32378E-02
         0.32389E-02
         0.32378E-02
         0.31978E-02
         0.31969E-02
         0.29849E-02
         0.29849E-02
         0.32843E-02
         0.32843E-02
         0.32843E-02
         0.32843E-02
         0.42420E-02
         0.35201E-02
         0.37629E-02
         0.42420E-02
         0.37629E-02
         0.37629E-02
         0.30087E-02
         0.32071E-02
         0.42420E-02
         0.32071E-02
         0.24178E-02
         0.29952E-02
         0.32407E-02
         0.26596E-02
         0.27191E-02
         0.42679E-02
         0.36502E-02
         0.42679E-02
         0.32071E-02
         0.29727E-02
         0.34648E-02
         0.32622E-02
         0.37119E-02
         0.32071E-02
         0.30833E-02
         0.35193E-02
         0.26910E-02
         0.26910E-02
         0.24638E-02
         0.27644E-02
         0.42679E-02
         0.35193E-02
         0.42679E-02
         0.34670E-02
         0.27274E-02
         0.31802E-02
         0.32407E-02
         0.26968E-02
         0.27828E-02
         0.27828E-02
         0.27005E-02
         0.31885E-02
         0.31885E-02
         0.37119E-02
         0.36244E-02
         0.28250E-02
         0.31647E-02
         0.33484E-02
         0.33484E-02
         0.31986E-02
         0.29848E-02
         0.32841E-02
         0.27274E-02
         0.31099E-02
         0.31802E-02
         0.32407E-02
         0.32407E-02
         0.29952E-02
         0.27191E-02
         0.26968E-02
         0.27828E-02
         0.27828E-02
         0.27005E-02
         0.31885E-02
         0.31885E-02
         0.32622E-02
         0.34648E-02
         0.37119E-02
         0.37119E-02
         0.36244E-02
         0.28250E-02
         0.29106E-02
         0.32401E-02
         0.32401E-02
         0.31986E-02
         0.29848E-02
         0.32841E-02
         0.32841E-02
         0.42421E-02
         0.35201E-02
         0.37634E-02
         0.42421E-02
         0.37634E-02
         0.37634E-02
         0.30089E-02
         0.32073E-02
         0.42421E-02
         0.32073E-02
         0.24177E-02
         0.29961E-02
         0.32418E-02
         0.26584E-02
         0.27191E-02
         0.42670E-02
         0.36493E-02
         0.42670E-02
         0.32073E-02
         0.29714E-02
         0.34644E-02
         0.32623E-02
         0.37115E-02
         0.32073E-02
         0.30822E-02
         0.35195E-02
         0.26896E-02
         0.26896E-02
         0.24633E-02
         0.27638E-02
         0.42670E-02
         0.35195E-02
         0.42670E-02
         0.34681E-02
         0.27275E-02
         0.31805E-02
         0.32418E-02
         0.26972E-02
         0.27828E-02
         0.27828E-02
         0.27006E-02
         0.31888E-02
         0.31888E-02
         0.37115E-02
         0.36243E-02
         0.28247E-02
         0.31652E-02
         0.33483E-02
         0.33483E-02
         0.31995E-02
         0.29847E-02
         0.32839E-02
         0.27275E-02
         0.31090E-02
         0.31805E-02
         0.32418E-02
         0.32418E-02
         0.29961E-02
         0.27191E-02
         0.26972E-02
         0.27828E-02
         0.27828E-02
         0.27006E-02
         0.31888E-02
         0.31888E-02
         0.32623E-02
         0.34644E-02
         0.37115E-02
         0.37115E-02
         0.36243E-02
         0.28247E-02
         0.29116E-02
         0.32412E-02
         0.32412E-02
         0.31995E-02
         0.29847E-02
         0.32839E-02
         0.32839E-02
         0.42423E-02
         0.35200E-02
         0.37639E-02
         0.42423E-02
         0.37639E-02
         0.37639E-02
         0.30091E-02
         0.32075E-02
         0.42423E-02
         0.32075E-02
         0.24176E-02
         0.29970E-02
         0.32428E-02
         0.26572E-02
         0.27192E-02
         0.42662E-02
         0.36483E-02
         0.42662E-02
         0.32075E-02
         0.29702E-02
         0.34639E-02
         0.32624E-02
         0.37111E-02
         0.32075E-02
         0.30811E-02
         0.35197E-02
         0.26881E-02
         0.26881E-02
         0.24628E-02
         0.27631E-02
         0.42662E-02
         0.35197E-02
         0.42662E-02
         0.34692E-02
         0.27276E-02
         0.31808E-02
         0.32428E-02
         0.26975E-02
         0.27828E-02
         0.27828E-02
         0.27007E-02
         0.31890E-02
         0.31890E-02
         0.37111E-02
         0.36242E-02
         0.28243E-02
         0.31658E-02
         0.33482E-02
         0.33482E-02
         0.32003E-02
         0.29846E-02
         0.32837E-02
         0.27276E-02
         0.31081E-02
         0.31808E-02
         0.32428E-02
         0.32428E-02
         0.29970E-02
         0.27192E-02
         0.26975E-02
         0.27828E-02
         0.27828E-02
         0.27007E-02
         0.31890E-02
         0.31890E-02
         0.32624E-02
         0.34639E-02
         0.37111E-02
         0.37111E-02
         0.36242E-02
         0.28243E-02
         0.29125E-02
         0.32423E-02
         0.32423E-02
         0.32003E-02
         0.29846E-02
         0.32837E-02
         0.32837E-02
         0.42424E-02
         0.35200E-02
         0.37644E-02
         0.42424E-02
         0.37644E-02
         0.37644E-02
         0.30093E-02
         0.32077E-02
         0.42424E-02
         0.32077E-02
         0.24174E-02
         0.29979E-02
         0.32439E-02
         0.26559E-02
         0.27192E-02
         0.42653E-02
         0.36474E-02
         0.42653E-02
         0.32077E-02
         0.29690E-02
         0.34635E-02
         0.32624E-02
         0.37108E-02
         0.32077E-02
         0.30799E-02
         0.35199E-02
         0.26867E-02
         0.26867E-02
         0.24623E-02
         0.27625E-02
         0.42653E-02
         0.35199E-02
         0.42653E-02
         0.34703E-02
         0.27276E-02
         0.31812E-02
         0.32439E-02
         0.26979E-02
         0.27828E-02
         0.27828E-02
         0.27008E-02
         0.31893E-02
         0.31893E-02
         0.37108E-02
         0.36241E-02
         0.28240E-02
         0.31663E-02
         0.33481E-02
         0.33481E-02
         0.32012E-02
         0.29844E-02
         0.32835E-02
         0.27276E-02
         0.31071E-02
         0.31812E-02
         0.32439E-02
         0.32439E-02
         0.29979E-02
         0.27192E-02
         0.26979E-02
         0.27828E-02
         0.27828E-02
         0.27008E-02
         0.31893E-02
         0.31893E-02
         0.32624E-02
         0.34635E-02
         0.37108E-02
         0.37108E-02
         0.36241E-02
         0.28240E-02
         0.29135E-02
         0.32434E-02
         0.32434E-02
         0.32012E-02
         0.29844E-02
         0.32835E-02
         0.32835E-02
         0.42425E-02
         0.35200E-02
         0.37649E-02
         0.42425E-02
         0.37649E-02
         0.37649E-02
         0.30095E-02
         0.32079E-02
         0.42425E-02
         0.32079E-02
         0.24173E-02
         0.29989E-02
         0.32450E-02
         0.26547E-02
         0.27193E-02
         0.42645E-02
         0.36465E-02
         0.42645E-02
         0.32079E-02
         0.29677E-02
         0.34631E-02
         0.32625E-02
         0.37104E-02
         0.32079E-02
         0.30788E-02
         0.35201E-02
         0.26852E-02
         0.26852E-02
         0.24618E-02
         0.27618E-02
         0.42645E-02
         0.35201E-02
         0.42645E-02
         0.34715E-02
         0.27277E-02
         0.31815E-02
         0.32450E-02
         0.26983E-02
         0.27828E-02
         0.27828E-02
         0.27009E-02
         0.31895E-02
         0.31895E-02
         0.37104E-02
         0.36239E-02
         0.28237E-02
         0.31668E-02
         0.33480E-02
         0.33480E-02
         0.32020E-02
         0.29843E-02
         0.32833E-02
         0.27277E-02
         0.31062E-02
         0.31815E-02
         0.32450E-02
         0.32450E-02
         0.29989E-02
         0.27193E-02
         0.26983E-02
         0.27828E-02
         0.27828E-02
         0.27009E-02
         0.31895E-02
         0.31895E-02
         0.32625E-02
         0.34631E-02
         0.37104E-02
         0.37104E-02
         0.36239E-02
         0.28237E-02
         0.29145E-02
         0.32445E-02
         0.32445E-02
         0.32020E-02
         0.29843E-02
         0.32833E-02
         0.32833E-02
         0.42427E-02
         0.35200E-02
         0.37654E-02
         0.42427E-02
         0.37654E-02
         0.37654E-02
         0.30097E-02
         0.32081E-02
         0.42427E-02
         0.32081E-02
         0.24171E-02
         0.29998E-02
         0.32461E-02
         0.26535E-02
         0.27193E-02
         0.42636E-02
         0.36455E-02
         0.42636E-02
         0.32081E-02
         0.29665E-02
         0.34626E-02
         0.32626E-02
         0.37100E-02
         0.32081E-02
         0.30777E-02
         0.35203E-02
         0.26838E-02
         0.26838E-02
         0.24613E-02
         0.27611E-02
         0.42636E-02
         0.35203E-02
         0.42636E-02
         0.34726E-02
         0.27278E-02
         0.31818E-02
         0.32461E-02
         0.26987E-02
         0.27827E-02
         0.27827E-02
         0.27010E-02
         0.31898E-02
         0.31898E-02
         0.37100E-02
         0.36238E-02
         0.28234E-02
         0.31673E-02
         0.33479E-02
         0.33479E-02
         0.32029E-02
         0.29842E-02
         0.32831E-02
         0.27278E-02
         0.31052E-02
         0.31818E-02
         0.32461E-02
         0.32461E-02
         0.29998E-02
         0.27193E-02
         0.26987E-02
         0.27827E-02
         0.27827E-02
         0.27010E-02
         0.31898E-02
         0.31898E-02
         0.32626E-02
         0.34626E-02
         0.37100E-02
         0.37100E-02
         0.36238E-02
         0.28234E-02
         0.29154E-02
         0.32457E-02
         0.32457E-02
         0.32029E-02
         0.29842E-02
         0.32831E-02
         0.32831E-02
         0.42428E-02
         0.35199E-02
         0.37660E-02
         0.42428E-02
         0.37660E-02
         0.37660E-02
         0.30099E-02
         0.32083E-02
         0.42428E-02
         0.32083E-02
         0.24170E-02
         0.30007E-02
         0.32471E-02
         0.26523E-02
         0.27194E-02
         0.42628E-02
         0.36446E-02
         0.42628E-02
         0.32083E-02
         0.29652E-02
         0.34622E-02
         0.32627E-02
         0.37096E-02
         0.32083E-02
         0.30766E-02
         0.35205E-02
         0.26823E-02
         0.26823E-02
         0.24608E-02
         0.27605E-02
         0.42628E-02
         0.35205E-02
         0.42628E-02
         0.34737E-02
         0.27279E-02
         0.31821E-02
         0.32471E-02
         0.26991E-02
         0.27827E-02
         0.27827E-02
         0.27011E-02
         0.31900E-02
         0.31900E-02
         0.37096E-02
         0.36237E-02
         0.28231E-02
         0.31679E-02
         0.33478E-02
         0.33478E-02
         0.32038E-02
         0.29841E-02
         0.32829E-02
         0.27279E-02
         0.31043E-02
         0.31821E-02
         0.32471E-02
         0.32471E-02
         0.30007E-02
         0.27194E-02
         0.26991E-02
         0.27827E-02
         0.27827E-02
         0.27011E-02
         0.31900E-02
         0.31900E-02
         0.32627E-02
         0.34622E-02
         0.37096E-02
         0.37096E-02
         0.36237E-02
         0.28231E-02
         0.29164E-02
         0.32468E-02
         0.32468E-02
         0.32038E-02
         0.29841E-02
         0.32829E-02
         0.32829E-02
         0.42429E-02
         0.35199E-02
         0.37665E-02
         0.42429E-02
         0.37665E-02
         0.37665E-02
         0.30101E-02
         0.32085E-02
         0.42429E-02
         0.32085E-02
         0.24168E-02
         0.30017E-02
         0.32482E-02
         0.26510E-02
         0.27194E-02
         0.42619E-02
         0.36437E-02
         0.42619E-02
         0.32085E-02
         0.29640E-02
         0.34618E-02
         0.32627E-02
         0.37092E-02
         0.32085E-02
         0.30755E-02
         0.35207E-02
         0.26808E-02
         0.26808E-02
         0.24603E-02
         0.27599E-02
         0.42619E-02
         0.35207E-02
         0.42619E-02
         0.34748E-02
         0.27279E-02
         0.31824E-02
         0.32482E-02
         0.26994E-02
         0.27827E-02
         0.27827E-02
         0.27012E-02
         0.31902E-02
         0.31902E-02
         0.37092E-02
         0.36236E-02
         0.28227E-02
         0.31684E-02
         0.33477E-02
         0.33477E-02
         0.32046E-02
         0.29840E-02
         0.32827E-02
         0.27279E-02
         0.31034E-02
         0.31824E-02
         0.32482E-02
         0.32482E-02
         0.30017E-02
         0.27194E-02
         0.26994E-02
         0.27827E-02
         0.27827E-02
         0.27012E-02
         0.31902E-02
         0.31902E-02
         0.32627E-02
         0.34618E-02
         0.37092E-02
         0.37092E-02
         0.36236E-02
         0.28227E-02
         0.29173E-02
         0.32479E-02
         0.32479E-02
         0.32046E-02
         0.29840E-02
         0.32827E-02
         0.32827E-02
         0.42431E-02
         0.35199E-02
         0.37670E-02
         0.42431E-02
         0.37670E-02
         0.37670E-02
         0.30102E-02
         0.32087E-02
         0.42431E-02
         0.32087E-02
         0.24167E-02
         0.30026E-02
         0.32493E-02
         0.26498E-02
         0.27194E-02
         0.42611E-02
         0.36427E-02
         0.42611E-02
         0.32087E-02
         0.29628E-02
         0.34613E-02
         0.32628E-02
         0.37089E-02
         0.32087E-02
         0.30744E-02
         0.35209E-02
         0.26794E-02
         0.26794E-02
         0.24598E-02
         0.27592E-02
         0.42611E-02
         0.35209E-02
         0.42611E-02
         0.34759E-02
         0.27280E-02
         0.31827E-02
         0.32493E-02
         0.26998E-02
         0.27827E-02
         0.27827E-02
         0.27013E-02
         0.31905E-02
         0.31905E-02
         0.37089E-02
         0.36235E-02
         0.28224E-02
         0.31689E-02
         0.33476E-02
         0.33476E-02
         0.32055E-02
         0.29839E-02
         0.32825E-02
         0.27280E-02
         0.31024E-02
         0.31827E-02
         0.32493E-02
         0.32493E-02
         0.30026E-02
         0.27194E-02
         0.26998E-02
         0.27827E-02
         0.27827E-02
         0.27013E-02
         0.31905E-02
         0.31905E-02
         0.32628E-02
         0.34613E-02
         0.37089E-02
         0.37089E-02
         0.36235E-02
         0.28224E-02
         0.29183E-02
         0.32490E-02
         0.32490E-02
         0.32055E-02
         0.29839E-02
         0.32825E-02
         0.32825E-02
         0.42432E-02
         0.35199E-02
         0.37675E-02
         0.42432E-02
         0.37675E-02
         0.37675E-02
         0.30104E-02
         0.32089E-02
         0.42432E-02
         0.32089E-02
         0.24166E-02
         0.30035E-02
         0.32504E-02
         0.26486E-02
         0.27195E-02
         0.42603E-02
         0.36418E-02
         0.42603E-02
         0.32089E-02
         0.29615E-02
         0.34609E-02
         0.32629E-02
         0.37085E-02
         0.32089E-02
         0.30732E-02
         0.35211E-02
         0.26779E-02
         0.26779E-02
         0.24593E-02
         0.27585E-02
         0.42603E-02
         0.35211E-02
         0.42603E-02
         0.34771E-02
         0.27281E-02
         0.31830E-02
         0.32504E-02
         0.27002E-02
         0.27827E-02
         0.27827E-02
         0.27014E-02
         0.31907E-02
         0.31907E-02
         0.37085E-02
         0.36233E-02
         0.28221E-02
         0.31694E-02
         0.33475E-02
         0.33475E-02
         0.32063E-02
         0.29838E-02
         0.32823E-02
         0.27281E-02
         0.31015E-02
         0.31830E-02
         0.32504E-02
         0.32504E-02
         0.30035E-02
         0.27195E-02
         0.27002E-02
         0.27827E-02
         0.27827E-02
         0.27014E-02
         0.31907E-02
         0.31907E-02
         0.32629E-02
         0.34609E-02
         0.37085E-02
         0.37085E-02
         0.36233E-02
         0.28221E-02
         0.29193E-02
         0.32501E-02
         0.32501E-02
         0.32063E-02
         0.29838E-02
         0.32823E-02
         0.32823E-02
         0.42433E-02
         0.35199E-02
         0.37680E-02
         0.42433E-02
         0.37680E-02
         0.37680E-02
         0.30106E-02
         0.32091E-02
         0.42433E-02
         0.32091E-02
         0.24164E-02
         0.30045E-02
         0.32514E-02
         0.26474E-02
         0.27195E-02
         0.42594E-02
         0.36409E-02
         0.42594E-02
         0.32091E-02
         0.29603E-02
         0.34605E-02
         0.32630E-02
         0.37081E-02
         0.32091E-02
         0.30721E-02
         0.35213E-02
         0.26765E-02
         0.26765E-02
         0.24588E-02
         0.27579E-02
         0.42594E-02
         0.35213E-02
         0.42594E-02
         0.34782E-02
         0.27281E-02
         0.31833E-02
         0.32514E-02
         0.27006E-02
         0.27826E-02
         0.27826E-02
         0.27015E-02
         0.31910E-02
         0.31910E-02
         0.37081E-02
         0.36232E-02
         0.28218E-02
         0.31700E-02
         0.33474E-02
         0.33474E-02
         0.32072E-02
         0.29836E-02
         0.32821E-02
         0.27281E-02
         0.31005E-02
         0.31833E-02
         0.32514E-02
         0.32514E-02
         0.30045E-02
         0.27195E-02
         0.27006E-02
         0.27826E-02
         0.27826E-02
         0.27015E-02
         0.31910E-02
         0.31910E-02
         0.32630E-02
         0.34605E-02
         0.37081E-02
         0.37081E-02
         0.36232E-02
         0.28218E-02
         0.29202E-02
         0.32512E-02
         0.32512E-02
         0.32072E-02
         0.29836E-02
         0.32821E-02
         0.32821E-02
         0.42435E-02
         0.35199E-02
         0.37685E-02
         0.42435E-02
         0.37685E-02
         0.37685E-02
         0.30108E-02
         0.32093E-02
         0.42435E-02
         0.32093E-02
         0.24163E-02
         0.30054E-02
         0.32525E-02
         0.26461E-02
         0.27196E-02
         0.42586E-02
         0.36399E-02
         0.42586E-02
         0.32093E-02
         0.29591E-02
         0.34601E-02
         0.32630E-02
         0.37077E-02
         0.32093E-02
         0.30710E-02
         0.35215E-02
         0.26750E-02
         0.26750E-02
         0.24583E-02
         0.27572E-02
         0.42586E-02
         0.35215E-02
         0.42586E-02
         0.34793E-02
         0.27282E-02
         0.31836E-02
         0.32525E-02
         0.27010E-02
         0.27826E-02
         0.27826E-02
         0.27016E-02
         0.31912E-02
         0.31912E-02
         0.37077E-02
         0.36231E-02
         0.28215E-02
         0.31705E-02
         0.33473E-02
         0.33473E-02
         0.32080E-02
         0.29835E-02
         0.32819E-02
         0.27282E-02
         0.30996E-02
         0.31836E-02
         0.32525E-02
         0.32525E-02
         0.30054E-02
         0.27196E-02
         0.27010E-02
         0.27826E-02
         0.27826E-02
         0.27016E-02
         0.31912E-02
         0.31912E-02
         0.32630E-02
         0.34601E-02
         0.37077E-02
         0.37077E-02
         0.36231E-02
         0.28215E-02
         0.29212E-02
         0.32524E-02
         0.32524E-02
         0.32080E-02
         0.29835E-02
         0.32819E-02
         0.32819E-02
         0.42436E-02
         0.35198E-02
         0.37690E-02
         0.42436E-02
         0.37690E-02
         0.37690E-02
         0.30110E-02
         0.32095E-02
         0.42436E-02
         0.32095E-02
         0.24162E-02
         0.30064E-02
         0.32536E-02
         0.26449E-02
         0.27196E-02
         0.42577E-02
         0.36390E-02
         0.42577E-02
         0.32096E-02
         0.29578E-02
         0.34596E-02
         0.32631E-02
         0.37074E-02
         0.32096E-02
         0.30699E-02
         0.35217E-02
         0.26735E-02
         0.26735E-02
         0.24578E-02
         0.27566E-02
         0.42577E-02
         0.35217E-02
         0.42577E-02
         0.34804E-02
         0.27283E-02
         0.31839E-02
         0.32536E-02
         0.27013E-02
         0.27826E-02
         0.27826E-02
         0.27017E-02
         0.31915E-02
         0.31915E-02
         0.37074E-02
         0.36230E-02
         0.28211E-02
         0.31710E-02
         0.33472E-02
         0.33472E-02
         0.32089E-02
         0.29834E-02
         0.32817E-02
         0.27283E-02
         0.30986E-02
         0.31839E-02
         0.32536E-02
         0.32536E-02
         0.30064E-02
         0.27196E-02
         0.27013E-02
         0.27826E-02
         0.27826E-02
         0.27017E-02
         0.31915E-02
         0.31915E-02
         0.32631E-02
         0.34596E-02
         0.37074E-02
         0.37074E-02
         0.36230E-02
         0.28211E-02
         0.29221E-02
         0.32535E-02
         0.32535E-02
         0.32089E-02
         0.29834E-02
         0.32817E-02
         0.32817E-02
         0.42437E-02
         0.35198E-02
         0.37695E-02
         0.42437E-02
         0.37695E-02
         0.37695E-02
         0.30112E-02
         0.32097E-02
         0.42437E-02
         0.32097E-02
         0.24160E-02
         0.30073E-02
         0.32547E-02
         0.26437E-02
         0.27197E-02
         0.42569E-02
         0.36381E-02
         0.42569E-02
         0.32098E-02
         0.29566E-02
         0.34592E-02
         0.32632E-02
         0.37070E-02
         0.32098E-02
         0.30688E-02
         0.35219E-02
         0.26721E-02
         0.26721E-02
         0.24573E-02
         0.27560E-02
         0.42569E-02
         0.35219E-02
         0.42569E-02
         0.34815E-02
         0.27284E-02
         0.31843E-02
         0.32547E-02
         0.27017E-02
         0.27826E-02
         0.27826E-02
         0.27018E-02
         0.31917E-02
         0.31917E-02
         0.37070E-02
         0.36229E-02
         0.28208E-02
         0.31716E-02
         0.33471E-02
         0.33471E-02
         0.32097E-02
         0.29833E-02
         0.32815E-02
         0.27284E-02
         0.30977E-02
         0.31843E-02
         0.32547E-02
         0.32547E-02
         0.30073E-02
         0.27197E-02
         0.27017E-02
         0.27826E-02
         0.27826E-02
         0.27018E-02
         0.31917E-02
         0.31917E-02
         0.32632E-02
         0.34592E-02
         0.37070E-02
         0.37070E-02
         0.36229E-02
         0.28208E-02
         0.29231E-02
         0.32546E-02
         0.32546E-02
         0.32097E-02
         0.29833E-02
         0.32815E-02
         0.32815E-02
         0.42439E-02
         0.35198E-02
         0.37701E-02
         0.42439E-02
         0.37701E-02
         0.37701E-02
         0.30113E-02
         0.32099E-02
         0.42439E-02
         0.32099E-02
         0.24159E-02
         0.30082E-02
         0.32558E-02
         0.26425E-02
         0.27197E-02
         0.42560E-02
         0.36371E-02
         0.42560E-02
         0.32100E-02
         0.29554E-02
         0.34588E-02
         0.32633E-02
         0.37066E-02
         0.32100E-02
         0.30677E-02
         0.35221E-02
         0.26706E-02
         0.26706E-02
         0.24568E-02
         0.27553E-02
         0.42560E-02
         0.35221E-02
         0.42560E-02
         0.34827E-02
         0.27284E-02
         0.31846E-02
         0.32558E-02
         0.27021E-02
         0.27826E-02
         0.27826E-02
         0.27019E-02
         0.31920E-02
         0.31920E-02
         0.37066E-02
         0.36227E-02
         0.28205E-02
         0.31721E-02
         0.33470E-02
         0.33470E-02
         0.32106E-02
         0.29831E-02
         0.32813E-02
         0.27284E-02
         0.30968E-02
         0.31846E-02
         0.32558E-02
         0.32558E-02
         0.30082E-02
         0.27197E-02
         0.27021E-02
         0.27826E-02
         0.27826E-02
         0.27019E-02
         0.31920E-02
         0.31920E-02
         0.32633E-02
         0.34588E-02
         0.37066E-02
         0.37066E-02
         0.36227E-02
         0.28205E-02
         0.29241E-02
         0.32557E-02
         0.32557E-02
         0.32106E-02
         0.29831E-02
         0.32813E-02
         0.32813E-02
         0.42440E-02
         0.35198E-02
         0.37706E-02
         0.42440E-02
         0.37706E-02
         0.37706E-02
         0.30115E-02
         0.32101E-02
         0.42440E-02
         0.32101E-02
         0.24158E-02
         0.30091E-02
         0.32568E-02
         0.26412E-02
         0.27198E-02
         0.42552E-02
         0.36362E-02
         0.42552E-02
         0.32102E-02
         0.29541E-02
         0.34583E-02
         0.32633E-02
         0.37062E-02
         0.32102E-02
         0.30665E-02
         0.35223E-02
         0.26692E-02
         0.26692E-02
         0.24563E-02
         0.27546E-02
         0.42552E-02
         0.35223E-02
         0.42552E-02
         0.34838E-02
         0.27285E-02
         0.31849E-02
         0.32568E-02
         0.27025E-02
         0.27826E-02
         0.27826E-02
         0.27020E-02
         0.31922E-02
         0.31922E-02
         0.37062E-02
         0.36226E-02
         0.28202E-02
         0.31726E-02
         0.33469E-02
         0.33469E-02
         0.32114E-02
         0.29830E-02
         0.32811E-02
         0.27285E-02
         0.30958E-02
         0.31849E-02
         0.32568E-02
         0.32568E-02
         0.30091E-02
         0.27198E-02
         0.27025E-02
         0.27826E-02
         0.27826E-02
         0.27020E-02
         0.31922E-02
         0.31922E-02
         0.32633E-02
         0.34583E-02
         0.37062E-02
         0.37062E-02
         0.36226E-02
         0.28202E-02
         0.29250E-02
         0.32568E-02
         0.32568E-02
         0.32114E-02
         0.29830E-02
         0.32811E-02
         0.32811E-02
         0.42441E-02
         0.35198E-02
         0.37711E-02
         0.42441E-02
         0.37711E-02
         0.37711E-02
         0.30117E-02
         0.32103E-02
         0.42441E-02
         0.32103E-02
         0.24156E-02
         0.30101E-02
         0.32579E-02
         0.26400E-02
         0.27198E-02
         0.42543E-02
         0.36353E-02
         0.42543E-02
         0.32104E-02
         0.29529E-02
         0.34579E-02
         0.32634E-02
         0.37058E-02
         0.32104E-02
         0.30654E-02
         0.35225E-02
         0.26677E-02
         0.26677E-02
         0.24558E-02
         0.27540E-02
         0.42543E-02
         0.35225E-02
         0.42543E-02
         0.34849E-02
         0.27286E-02
         0.31852E-02
         0.32579E-02
         0.27029E-02
         0.27826E-02
         0.27826E-02
         0.27021E-02
         0.31924E-02
         0.31924E-02
         0.37058E-02
         0.36225E-02
         0.28198E-02
         0.31731E-02
         0.33468E-02
         0.33468E-02
         0.32123E-02
         0.29829E-02
         0.32809E-02
         0.27286E-02
         0.30949E-02
         0.31852E-02
         0.32579E-02
         0.32579E-02
         0.30101E-02
         0.27198E-02
         0.27029E-02
         0.27826E-02
         0.27826E-02
         0.27021E-02
         0.31924E-02
         0.31924E-02
         0.32634E-02
         0.34579E-02
         0.37058E-02
         0.37058E-02
         0.36225E-02
         0.28198E-02
         0.29260E-02
         0.32579E-02
         0.32579E-02
         0.32123E-02
         0.29829E-02
         0.32809E-02
         0.32809E-02
         0.42443E-02
         0.35197E-02
         0.37716E-02
         0.42443E-02
         0.37716E-02
         0.37716E-02
         0.30119E-02
         0.32105E-02
         0.42443E-02
         0.32105E-02
         0.24155E-02
         0.30110E-02
         0.32590E-02
         0.26388E-02
         0.27199E-02
         0.42535E-02
         0.36343E-02
         0.42535E-02
         0.32106E-02
         0.29517E-02
         0.34575E-02
         0.32635E-02
         0.37055E-02
         0.32106E-02
         0.30643E-02
         0.35227E-02
         0.26663E-02
         0.26663E-02
         0.24553E-02
         0.27533E-02
         0.42535E-02
         0.35227E-02
         0.42535E-02
         0.34860E-02
         0.27286E-02
         0.31855E-02
         0.32590E-02
         0.27032E-02
         0.27826E-02
         0.27826E-02
         0.27022E-02
         0.31927E-02
         0.31927E-02
         0.37055E-02
         0.36224E-02
         0.28195E-02
         0.31737E-02
         0.33467E-02
         0.33467E-02
         0.32132E-02
         0.29828E-02
         0.32807E-02
         0.27286E-02
         0.30939E-02
         0.31855E-02
         0.32590E-02
         0.32590E-02
         0.30110E-02
         0.27199E-02
         0.27032E-02
         0.27826E-02
         0.27826E-02
         0.27022E-02
         0.31927E-02
         0.31927E-02
         0.32635E-02
         0.34575E-02
         0.37055E-02
         0.37055E-02
         0.36224E-02
         0.28195E-02
         0.29269E-02
         0.32591E-02
         0.32591E-02
         0.32132E-02
         0.29828E-02
         0.32807E-02
         0.32807E-02
         0.42444E-02
         0.35197E-02
         0.37721E-02
         0.42444E-02
         0.37721E-02
         0.37721E-02
         0.30121E-02
         0.32107E-02
         0.42444E-02
         0.32107E-02
         0.24154E-02
         0.30119E-02
         0.32601E-02
         0.26376E-02
         0.27199E-02
         0.42527E-02
         0.36334E-02
         0.42527E-02
         0.32108E-02
         0.29504E-02
         0.34571E-02
         0.32636E-02
         0.37051E-02
         0.32108E-02
         0.30632E-02
         0.35229E-02
         0.26648E-02
         0.26648E-02
         0.24552E-02
         0.27527E-02
         0.42527E-02
         0.35229E-02
         0.42527E-02
         0.34871E-02
         0.27287E-02
         0.31858E-02
         0.32601E-02
         0.27036E-02
         0.27825E-02
         0.27825E-02
         0.27023E-02
         0.31929E-02
         0.31929E-02
         0.37051E-02
         0.36223E-02
         0.28192E-02
         0.31742E-02
         0.33466E-02
         0.33466E-02
         0.32140E-02
         0.29827E-02
         0.32805E-02
         0.27287E-02
         0.30930E-02
         0.31858E-02
         0.32601E-02
         0.32601E-02
         0.30119E-02
         0.27199E-02
         0.27036E-02
         0.27825E-02
         0.27825E-02
         0.27023E-02
         0.31929E-02
         0.31929E-02
         0.32636E-02
         0.34571E-02
         0.37051E-02
         0.37051E-02
         0.36223E-02
         0.28192E-02
         0.29279E-02
         0.32602E-02
         0.32602E-02
         0.32140E-02
         0.29827E-02
         0.32805E-02
         0.32805E-02
         0.42445E-02
         0.35197E-02
         0.37726E-02
         0.42445E-02
         0.37726E-02
         0.37726E-02
         0.30123E-02
         0.32108E-02
         0.42445E-02
         0.32108E-02
         0.24152E-02
         0.30129E-02
         0.32611E-02
         0.26363E-02
         0.27200E-02
         0.42518E-02
         0.36325E-02
         0.42518E-02
         0.32110E-02
         0.29492E-02
         0.34566E-02
         0.32636E-02
         0.37047E-02
         0.32110E-02
         0.30621E-02
         0.35231E-02
         0.26633E-02
         0.26633E-02
         0.24554E-02
         0.27520E-02
         0.42518E-02
         0.35231E-02
         0.42518E-02
         0.34882E-02
         0.27288E-02
         0.31861E-02
         0.32611E-02
         0.27040E-02
         0.27825E-02
         0.27825E-02
         0.27024E-02
         0.31932E-02
         0.31932E-02
         0.37047E-02
         0.36222E-02
         0.28189E-02
         0.31747E-02
         0.33465E-02
         0.33465E-02
         0.32149E-02
         0.29826E-02
         0.32803E-02
         0.27288E-02
         0.30921E-02
         0.31861E-02
         0.32611E-02
         0.32611E-02
         0.30129E-02
         0.27200E-02
         0.27040E-02
         0.27825E-02
         0.27825E-02
         0.27024E-02
         0.31932E-02
         0.31932E-02
         0.32636E-02
         0.34566E-02
         0.37047E-02
         0.37047E-02
         0.36222E-02
         0.28189E-02
         0.29289E-02
         0.32613E-02
         0.32613E-02
         0.32149E-02
         0.29826E-02
         0.32803E-02
         0.32803E-02
         0.42447E-02
         0.35196E-02
         0.37732E-02
         0.42447E-02
         0.37732E-02
         0.37732E-02
         0.30125E-02
         0.32111E-02
         0.42447E-02
         0.32111E-02
         0.24151E-02
         0.30138E-02
         0.32622E-02
         0.26351E-02
         0.27200E-02
         0.42510E-02
         0.36315E-02
         0.42510E-02
         0.32112E-02
         0.29480E-02
         0.34562E-02
         0.32637E-02
         0.37043E-02
         0.32112E-02
         0.30610E-02
         0.35233E-02
         0.26619E-02
         0.26619E-02
         0.24557E-02
         0.27514E-02
         0.42510E-02
         0.35233E-02
         0.42510E-02
         0.34894E-02
         0.27289E-02
         0.31864E-02
         0.32622E-02
         0.27044E-02
         0.27825E-02
         0.27825E-02
         0.27025E-02
         0.31934E-02
         0.31934E-02
         0.37043E-02
         0.36220E-02
         0.28186E-02
         0.31753E-02
         0.33464E-02
         0.33464E-02
         0.32157E-02
         0.29824E-02
         0.32801E-02
         0.27289E-02
         0.30911E-02
         0.31864E-02
         0.32622E-02
         0.32622E-02
         0.30138E-02
         0.27200E-02
         0.27044E-02
         0.27825E-02
         0.27825E-02
         0.27025E-02
         0.31934E-02
         0.31934E-02
         0.32637E-02
         0.34562E-02
         0.37043E-02
         0.37043E-02
         0.36220E-02
         0.28186E-02
         0.29298E-02
         0.32624E-02
         0.32624E-02
         0.32157E-02
         0.29824E-02
         0.32801E-02
         0.32801E-02
         0.42448E-02
         0.35196E-02
         0.37737E-02
         0.42448E-02
         0.37737E-02
         0.37737E-02
         0.30126E-02
         0.32112E-02
         0.42448E-02
         0.32112E-02
         0.24150E-02
         0.30147E-02
         0.32633E-02
         0.26339E-02
         0.27200E-02
         0.42501E-02
         0.36306E-02
         0.42501E-02
         0.32114E-02
         0.29467E-02
         0.34558E-02
         0.32638E-02
         0.37039E-02
         0.32114E-02
         0.30598E-02
         0.35235E-02
         0.26604E-02
         0.26604E-02
         0.24559E-02
         0.27507E-02
         0.42501E-02
         0.35235E-02
         0.42501E-02
         0.34905E-02
         0.27289E-02
         0.31867E-02
         0.32633E-02
         0.27048E-02
         0.27825E-02
         0.27825E-02
         0.27026E-02
         0.31937E-02
         0.31937E-02
         0.37039E-02
         0.36219E-02
         0.28183E-02
         0.31758E-02
         0.33463E-02
         0.33463E-02
         0.32166E-02
         0.29823E-02
         0.32799E-02
         0.27289E-02
         0.30902E-02
         0.31867E-02
         0.32633E-02
         0.32633E-02
         0.30147E-02
         0.27200E-02
         0.27048E-02
         0.27825E-02
         0.27825E-02
         0.27026E-02
         0.31937E-02
         0.31937E-02
         0.32638E-02
         0.34558E-02
         0.37039E-02
         0.37039E-02
         0.36219E-02
         0.28183E-02
         0.29308E-02
         0.32635E-02
         0.32635E-02
         0.32166E-02
         0.29823E-02
         0.32799E-02
         0.32799E-02
         0.42448E-02
         0.35196E-02
         0.37737E-02
         0.42448E-02
         0.37737E-02
         0.37737E-02
         0.30126E-02
         0.32112E-02
         0.42448E-02
         0.32112E-02
         0.24148E-02
         0.30147E-02
         0.32633E-02
         0.26327E-02
         0.27200E-02
         0.42493E-02
         0.36297E-02
         0.42493E-02
         0.32114E-02
         0.29455E-02
         0.34553E-02
         0.32638E-02
         0.37036E-02
         0.32114E-02
         0.30587E-02
         0.35235E-02
         0.26590E-02
         0.26590E-02
         0.24559E-02
         0.27501E-02
         0.42493E-02
         0.35235E-02
         0.42493E-02
         0.34905E-02
         0.27289E-02
         0.31867E-02
         0.32633E-02
         0.27048E-02
         0.27825E-02
         0.27825E-02
         0.27026E-02
         0.31937E-02
         0.31937E-02
         0.37036E-02
         0.36218E-02
         0.28180E-02
         0.31758E-02
         0.33462E-02
         0.33462E-02
         0.32166E-02
         0.29822E-02
         0.32797E-02
         0.27289E-02
         0.30892E-02
         0.31867E-02
         0.32633E-02
         0.32633E-02
         0.30147E-02
         0.27200E-02
         0.27048E-02
         0.27825E-02
         0.27825E-02
         0.27026E-02
         0.31937E-02
         0.31937E-02
         0.32638E-02
         0.34553E-02
         0.37036E-02
         0.37036E-02
         0.36218E-02
         0.28180E-02
         0.29308E-02
         0.32635E-02
         0.32635E-02
         0.32166E-02
         0.29822E-02
         0.32797E-02
         0.32797E-02
  
SCALARS              physical_window_y  double 1
LOOKUP_TABLE default
         0.43155E-02
         0.43155E-02
         0.43155E-02
         0.43155E-02
         0.43155E-02
         0.43155E-02
         0.43155E-02
         0.43155E-02
         0.34883E-02
         0.34883E-02
         0.34882E-02
         0.34882E-02
         0.32826E-02
         0.32142E-02
         0.32826E-02
         0.32142E-02
         0.37863E-02
         0.31884E-02
         0.37863E-02
         0.31884E-02
         0.27172E-02
         0.33887E-02
         0.37164E-02
         0.27172E-02
         0.33887E-02
         0.37164E-02
         0.27582E-02
         0.28966E-02
         0.27582E-02
         0.28954E-02
         0.37007E-02
         0.35859E-02
         0.37863E-02
         0.37007E-02
         0.35824E-02
         0.37863E-02
         0.29875E-02
         0.29875E-02
         0.29867E-02
         0.29867E-02
         0.28561E-02
         0.26860E-02
         0.28556E-02
         0.26852E-02
         0.29518E-02
         0.28068E-02
         0.29517E-02
         0.28066E-02
         0.29975E-02
         0.29949E-02
         0.37007E-02
         0.37007E-02
         0.28693E-02
         0.28693E-02
         0.28693E-02
         0.28693E-02
         0.27602E-02
         0.26193E-02
         0.27602E-02
         0.26193E-02
         0.37007E-02
         0.37007E-02
         0.37007E-02
         0.37007E-02
         0.37685E-02
         0.37665E-02
         0.37685E-02
         0.37665E-02
         0.30230E-02
         0.37003E-02
         0.30229E-02
         0.37003E-02
         0.37164E-02
         0.37164E-02
         0.31934E-02
         0.31921E-02
         0.32777E-02
         0.32771E-02
         0.32777E-02
         0.32771E-02
         0.27006E-02
         0.25920E-02
         0.27006E-02
         0.25920E-02
         0.25916E-02
         0.25916E-02
         0.29715E-02
         0.29715E-02
         0.29715E-02
         0.29715E-02
         0.26477E-02
         0.29102E-02
         0.26477E-02
         0.29102E-02
         0.34085E-02
         0.34085E-02
         0.35350E-02
         0.35350E-02
         0.35350E-02
         0.35350E-02
         0.29766E-02
         0.32272E-02
         0.29763E-02
         0.32254E-02
         0.29087E-02
         0.29835E-02
         0.29087E-02
         0.29825E-02
         0.37003E-02
         0.37003E-02
         0.37164E-02
         0.37164E-02
         0.37164E-02
         0.37164E-02
         0.33887E-02
         0.33887E-02
         0.28966E-02
         0.28954E-02
         0.31934E-02
         0.31921E-02
         0.32777E-02
         0.32771E-02
         0.32777E-02
         0.32771E-02
         0.27006E-02
         0.27006E-02
         0.25920E-02
         0.25920E-02
         0.25916E-02
         0.25916E-02
         0.26860E-02
         0.26852E-02
         0.28561E-02
         0.28556E-02
         0.29518E-02
         0.29517E-02
         0.29715E-02
         0.29715E-02
         0.29715E-02
         0.29715E-02
         0.26477E-02
         0.26477E-02
         0.27685E-02
         0.27685E-02
         0.34085E-02
         0.34085E-02
         0.35350E-02
         0.35350E-02
         0.35350E-02
         0.35350E-02
         0.29766E-02
         0.29763E-02
         0.31381E-02
         0.31368E-02
         0.31381E-02
         0.31368E-02
         0.43153E-02
         0.43153E-02
         0.43153E-02
         0.43153E-02
         0.34883E-02
         0.34883E-02
         0.32812E-02
         0.32132E-02
         0.37858E-02
         0.31880E-02
         0.27155E-02
         0.33883E-02
         0.37163E-02
         0.27535E-02
         0.28978E-02
         0.37004E-02
         0.35894E-02
         0.37858E-02
         0.29882E-02
         0.29882E-02
         0.28566E-02
         0.26867E-02
         0.29519E-02
         0.28071E-02
         0.30001E-02
         0.37004E-02
         0.28667E-02
         0.28667E-02
         0.27589E-02
         0.26183E-02
         0.37004E-02
         0.37004E-02
         0.37706E-02
         0.37706E-02
         0.30232E-02
         0.36991E-02
         0.37163E-02
         0.31947E-02
         0.32784E-02
         0.32784E-02
         0.27006E-02
         0.25920E-02
         0.25909E-02
         0.29715E-02
         0.29715E-02
         0.26476E-02
         0.29101E-02
         0.34078E-02
         0.35344E-02
         0.35344E-02
         0.29769E-02
         0.32290E-02
         0.29059E-02
         0.29845E-02
         0.36991E-02
         0.37163E-02
         0.37163E-02
         0.33883E-02
         0.28978E-02
         0.31947E-02
         0.32784E-02
         0.32784E-02
         0.27006E-02
         0.25920E-02
         0.25909E-02
         0.26867E-02
         0.28566E-02
         0.29519E-02
         0.29715E-02
         0.29715E-02
         0.26476E-02
         0.27685E-02
         0.34078E-02
         0.35344E-02
         0.35344E-02
         0.29769E-02
         0.31395E-02
         0.31395E-02
         0.43150E-02
         0.43150E-02
         0.43150E-02
         0.43150E-02
         0.34884E-02
         0.34884E-02
         0.32798E-02
         0.32122E-02
         0.37853E-02
         0.31876E-02
         0.27137E-02
         0.33879E-02
         0.37162E-02
         0.27488E-02
         0.28990E-02
         0.37001E-02
         0.35930E-02
         0.37853E-02
         0.29889E-02
         0.29889E-02
         0.28571E-02
         0.26875E-02
         0.29521E-02
         0.28074E-02
         0.30027E-02
         0.37001E-02
         0.28641E-02
         0.28641E-02
         0.27576E-02
         0.26173E-02
         0.37001E-02
         0.37001E-02
         0.37727E-02
         0.37727E-02
         0.30234E-02
         0.36979E-02
         0.37162E-02
         0.31960E-02
         0.32790E-02
         0.32790E-02
         0.27006E-02
         0.25920E-02
         0.25902E-02
         0.29715E-02
         0.29715E-02
         0.26476E-02
         0.29100E-02
         0.34071E-02
         0.35339E-02
         0.35339E-02
         0.29772E-02
         0.32307E-02
         0.29032E-02
         0.29855E-02
         0.36979E-02
         0.37162E-02
         0.37162E-02
         0.33879E-02
         0.28990E-02
         0.31960E-02
         0.32790E-02
         0.32790E-02
         0.27006E-02
         0.25920E-02
         0.25902E-02
         0.26875E-02
         0.28571E-02
         0.29521E-02
         0.29715E-02
         0.29715E-02
         0.26476E-02
         0.27684E-02
         0.34071E-02
         0.35339E-02
         0.35339E-02
         0.29772E-02
         0.31408E-02
         0.31408E-02
         0.43148E-02
         0.43148E-02
         0.43148E-02
         0.43148E-02
         0.34885E-02
         0.34885E-02
         0.32783E-02
         0.32112E-02
         0.37849E-02
         0.31872E-02
         0.27120E-02
         0.33875E-02
         0.37161E-02
         0.27441E-02
         0.29003E-02
         0.36998E-02
         0.35965E-02
         0.37849E-02
         0.29896E-02
         0.29896E-02
         0.28575E-02
         0.26882E-02
         0.29522E-02
         0.28077E-02
         0.30053E-02
         0.36998E-02
         0.28615E-02
         0.28615E-02
         0.27563E-02
         0.26163E-02
         0.36998E-02
         0.36998E-02
         0.37747E-02
         0.37747E-02
         0.30236E-02
         0.36967E-02
         0.37161E-02
         0.31973E-02
         0.32796E-02
         0.32796E-02
         0.27006E-02
         0.25920E-02
         0.25895E-02
         0.29714E-02
         0.29714E-02
         0.26475E-02
         0.29099E-02
         0.34063E-02
         0.35333E-02
         0.35333E-02
         0.29775E-02
         0.32325E-02
         0.29004E-02
         0.29865E-02
         0.36967E-02
         0.37161E-02
         0.37161E-02
         0.33875E-02
         0.29003E-02
         0.31973E-02
         0.32796E-02
         0.32796E-02
         0.27006E-02
         0.25920E-02
         0.25895E-02
         0.26882E-02
         0.28575E-02
         0.29522E-02
         0.29714E-02
         0.29714E-02
         0.26475E-02
         0.27684E-02
         0.34063E-02
         0.35333E-02
         0.35333E-02
         0.29775E-02
         0.31422E-02
         0.31422E-02
         0.43145E-02
         0.43145E-02
         0.43145E-02
         0.43145E-02
         0.34886E-02
         0.34886E-02
         0.32769E-02
         0.32102E-02
         0.37844E-02
         0.31868E-02
         0.27103E-02
         0.33871E-02
         0.37160E-02
         0.27394E-02
         0.29015E-02
         0.36995E-02
         0.36000E-02
         0.37844E-02
         0.29903E-02
         0.29903E-02
         0.28580E-02
         0.26890E-02
         0.29523E-02
         0.28079E-02
         0.30079E-02
         0.36995E-02
         0.28589E-02
         0.28589E-02
         0.27550E-02
         0.26152E-02
         0.36995E-02
         0.36995E-02
         0.37768E-02
         0.37768E-02
         0.30238E-02
         0.36956E-02
         0.37160E-02
         0.31986E-02
         0.32802E-02
         0.32802E-02
         0.27006E-02
         0.25920E-02
         0.25887E-02
         0.29714E-02
         0.29714E-02
         0.26475E-02
         0.29098E-02
         0.34056E-02
         0.35327E-02
         0.35327E-02
         0.29778E-02
         0.32342E-02
         0.28977E-02
         0.29875E-02
         0.36956E-02
         0.37160E-02
         0.37160E-02
         0.33871E-02
         0.29015E-02
         0.31986E-02
         0.32802E-02
         0.32802E-02
         0.27006E-02
         0.25920E-02
         0.25887E-02
         0.26890E-02
         0.28580E-02
         0.29523E-02
         0.29714E-02
         0.29714E-02
         0.26475E-02
         0.27683E-02
         0.34056E-02
         0.35327E-02
         0.35327E-02
         0.29778E-02
         0.31435E-02
         0.31435E-02
         0.43143E-02
         0.43143E-02
         0.43143E-02
         0.43143E-02
         0.34887E-02
         0.34887E-02
         0.32755E-02
         0.32091E-02
         0.37839E-02
         0.31864E-02
         0.27086E-02
         0.33867E-02
         0.37159E-02
         0.27347E-02
         0.29027E-02
         0.36991E-02
         0.36036E-02
         0.37839E-02
         0.29920E-02
         0.29920E-02
         0.28585E-02
         0.26897E-02
         0.29525E-02
         0.28082E-02
         0.30105E-02
         0.36991E-02
         0.28563E-02
         0.28563E-02
         0.27537E-02
         0.26142E-02
         0.36991E-02
         0.36991E-02
         0.37789E-02
         0.37789E-02
         0.30240E-02
         0.36944E-02
         0.37159E-02
         0.31999E-02
         0.32808E-02
         0.32808E-02
         0.27006E-02
         0.25920E-02
         0.25880E-02
         0.29714E-02
         0.29714E-02
         0.26474E-02
         0.29097E-02
         0.34049E-02
         0.35322E-02
         0.35322E-02
         0.29781E-02
         0.32360E-02
         0.28949E-02
         0.29885E-02
         0.36944E-02
         0.37159E-02
         0.37159E-02
         0.33867E-02
         0.29027E-02
         0.31999E-02
         0.32808E-02
         0.32808E-02
         0.27006E-02
         0.25920E-02
         0.25880E-02
         0.26897E-02
         0.28585E-02
         0.29525E-02
         0.29714E-02
         0.29714E-02
         0.26474E-02
         0.27683E-02
         0.34049E-02
         0.35322E-02
         0.35322E-02
         0.29781E-02
         0.31449E-02
         0.31449E-02
         0.43140E-02
         0.43140E-02
         0.43140E-02
         0.43140E-02
         0.34888E-02
         0.34888E-02
         0.32740E-02
         0.32081E-02
         0.37834E-02
         0.31860E-02
         0.27069E-02
         0.33863E-02
         0.37158E-02
         0.27299E-02
         0.29039E-02
         0.36988E-02
         0.36071E-02
         0.37834E-02
         0.29946E-02
         0.29946E-02
         0.28589E-02
         0.26905E-02
         0.29526E-02
         0.28085E-02
         0.30131E-02
         0.36988E-02
         0.28538E-02
         0.28538E-02
         0.27524E-02
         0.26132E-02
         0.36988E-02
         0.36988E-02
         0.37809E-02
         0.37809E-02
         0.30241E-02
         0.36932E-02
         0.37158E-02
         0.32012E-02
         0.32814E-02
         0.32814E-02
         0.27006E-02
         0.25920E-02
         0.25873E-02
         0.29714E-02
         0.29714E-02
         0.26473E-02
         0.29097E-02
         0.34041E-02
         0.35316E-02
         0.35316E-02
         0.29784E-02
         0.32378E-02
         0.28921E-02
         0.29895E-02
         0.36932E-02
         0.37158E-02
         0.37158E-02
         0.33863E-02
         0.29039E-02
         0.32012E-02
         0.32814E-02
         0.32814E-02
         0.27006E-02
         0.25920E-02
         0.25873E-02
         0.26905E-02
         0.28589E-02
         0.29526E-02
         0.29714E-02
         0.29714E-02
         0.26473E-02
         0.27683E-02
         0.34041E-02
         0.35316E-02
         0.35316E-02
         0.29784E-02
         0.31463E-02
         0.31463E-02
         0.43138E-02
         0.43138E-02
         0.43138E-02
         0.43138E-02
         0.34888E-02
         0.34888E-02
         0.32726E-02
         0.32071E-02
         0.37830E-02
         0.31856E-02
         0.27051E-02
         0.33859E-02
         0.37157E-02
         0.27252E-02
         0.29051E-02
         0.36985E-02
         0.36106E-02
         0.37830E-02
         0.29972E-02
         0.29972E-02
         0.28594E-02
         0.26912E-02
         0.29528E-02
         0.28087E-02
         0.30156E-02
         0.36985E-02
         0.28512E-02
         0.28512E-02
         0.27512E-02
         0.26122E-02
         0.36985E-02
         0.36985E-02
         0.37830E-02
         0.37830E-02
         0.30243E-02
         0.36920E-02
         0.37157E-02
         0.32025E-02
         0.32821E-02
         0.32821E-02
         0.27006E-02
         0.25920E-02
         0.25866E-02
         0.29714E-02
         0.29714E-02
         0.26473E-02
         0.29096E-02
         0.34034E-02
         0.35310E-02
         0.35310E-02
         0.29787E-02
         0.32396E-02
         0.28894E-02
         0.29905E-02
         0.36920E-02
         0.37157E-02
         0.37157E-02
         0.33859E-02
         0.29051E-02
         0.32025E-02
         0.32821E-02
         0.32821E-02
         0.27006E-02
         0.25920E-02
         0.25866E-02
         0.26912E-02
         0.28594E-02
         0.29528E-02
         0.29714E-02
         0.29714E-02
         0.26473E-02
         0.27682E-02
         0.34034E-02
         0.35310E-02
         0.35310E-02
         0.29787E-02
         0.31476E-02
         0.31476E-02
         0.43135E-02
         0.43135E-02
         0.43135E-02
         0.43135E-02
         0.34889E-02
         0.34889E-02
         0.32712E-02
         0.32061E-02
         0.37825E-02
         0.31852E-02
         0.27034E-02
         0.33856E-02
         0.37156E-02
         0.27205E-02
         0.29063E-02
         0.36982E-02
         0.36142E-02
         0.37851E-02
         0.29998E-02
         0.29998E-02
         0.28599E-02
         0.26920E-02
         0.29529E-02
         0.28090E-02
         0.30182E-02
         0.36982E-02
         0.28486E-02
         0.28486E-02
         0.27499E-02
         0.26112E-02
         0.36982E-02
         0.36982E-02
         0.37851E-02
         0.37851E-02
         0.30245E-02
         0.36908E-02
         0.37156E-02
         0.32038E-02
         0.32827E-02
         0.32827E-02
         0.27006E-02
         0.25920E-02
         0.25859E-02
         0.29714E-02
         0.29714E-02
         0.26472E-02
         0.29095E-02
         0.34027E-02
         0.35304E-02
         0.35304E-02
         0.29790E-02
         0.32413E-02
         0.28866E-02
         0.29915E-02
         0.36908E-02
         0.37156E-02
         0.37156E-02
         0.33856E-02
         0.29063E-02
         0.32038E-02
         0.32827E-02
         0.32827E-02
         0.27006E-02
         0.25920E-02
         0.25859E-02
         0.26920E-02
         0.28599E-02
         0.29529E-02
         0.29714E-02
         0.29714E-02
         0.26472E-02
         0.27682E-02
         0.34027E-02
         0.35304E-02
         0.35304E-02
         0.29790E-02
         0.31490E-02
         0.31490E-02
         0.43133E-02
         0.43133E-02
         0.43133E-02
         0.43133E-02
         0.34890E-02
         0.34890E-02
         0.32698E-02
         0.32051E-02
         0.37820E-02
         0.31848E-02
         0.27017E-02
         0.33851E-02
         0.37155E-02
         0.27158E-02
         0.29075E-02
         0.36979E-02
         0.36177E-02
         0.37871E-02
         0.30024E-02
         0.30024E-02
         0.28603E-02
         0.26927E-02
         0.29530E-02
         0.28093E-02
         0.30208E-02
         0.36979E-02
         0.28460E-02
         0.28460E-02
         0.27486E-02
         0.26101E-02
         0.36979E-02
         0.36979E-02
         0.37871E-02
         0.37871E-02
         0.30247E-02
         0.36896E-02
         0.37155E-02
         0.32051E-02
         0.32833E-02
         0.32833E-02
         0.27006E-02
         0.25920E-02
         0.25851E-02
         0.29714E-02
         0.29714E-02
         0.26472E-02
         0.29094E-02
         0.34019E-02
         0.35299E-02
         0.35299E-02
         0.29793E-02
         0.32431E-02
         0.28838E-02
         0.29925E-02
         0.36896E-02
         0.37155E-02
         0.37155E-02
         0.33851E-02
         0.29075E-02
         0.32051E-02
         0.32833E-02
         0.32833E-02
         0.27006E-02
         0.25920E-02
         0.25851E-02
         0.26927E-02
         0.28603E-02
         0.29530E-02
         0.29714E-02
         0.29714E-02
         0.26472E-02
         0.27681E-02
         0.34019E-02
         0.35299E-02
         0.35299E-02
         0.29793E-02
         0.31503E-02
         0.31503E-02
         0.43130E-02
         0.43130E-02
         0.43130E-02
         0.43130E-02
         0.34891E-02
         0.34891E-02
         0.32683E-02
         0.32041E-02
         0.37816E-02
         0.31844E-02
         0.27000E-02
         0.33848E-02
         0.37154E-02
         0.27111E-02
         0.29087E-02
         0.36976E-02
         0.36213E-02
         0.37892E-02
         0.30050E-02
         0.30050E-02
         0.28608E-02
         0.26935E-02
         0.29532E-02
         0.28096E-02
         0.30234E-02
         0.36976E-02
         0.28434E-02
         0.28434E-02
         0.27472E-02
         0.26091E-02
         0.36976E-02
         0.36976E-02
         0.37892E-02
         0.37892E-02
         0.30249E-02
         0.36885E-02
         0.37154E-02
         0.32064E-02
         0.32839E-02
         0.32839E-02
         0.27006E-02
         0.25920E-02
         0.25844E-02
         0.29714E-02
         0.29714E-02
         0.26471E-02
         0.29094E-02
         0.34012E-02
         0.35293E-02
         0.35293E-02
         0.29797E-02
         0.32449E-02
         0.28811E-02
         0.29935E-02
         0.36885E-02
         0.37154E-02
         0.37154E-02
         0.33848E-02
         0.29087E-02
         0.32064E-02
         0.32839E-02
         0.32839E-02
         0.27006E-02
         0.25920E-02
         0.25844E-02
         0.26935E-02
         0.28608E-02
         0.29532E-02
         0.29714E-02
         0.29714E-02
         0.26471E-02
         0.27681E-02
         0.34012E-02
         0.35293E-02
         0.35293E-02
         0.29797E-02
         0.31517E-02
         0.31517E-02
         0.43128E-02
         0.43128E-02
         0.43128E-02
         0.43128E-02
         0.34892E-02
         0.34892E-02
         0.32669E-02
         0.32031E-02
         0.37811E-02
         0.31840E-02
         0.26982E-02
         0.33844E-02
         0.37152E-02
         0.27063E-02
         0.29099E-02
         0.36973E-02
         0.36248E-02
         0.37913E-02
         0.30076E-02
         0.30076E-02
         0.28613E-02
         0.26942E-02
         0.29533E-02
         0.28099E-02
         0.30260E-02
         0.36973E-02
         0.28408E-02
         0.28408E-02
         0.27460E-02
         0.26081E-02
         0.36973E-02
         0.36973E-02
         0.37913E-02
         0.37913E-02
         0.30250E-02
         0.36873E-02
         0.37152E-02
         0.32077E-02
         0.32845E-02
         0.32845E-02
         0.27006E-02
         0.25920E-02
         0.25837E-02
         0.29714E-02
         0.29714E-02
         0.26471E-02
         0.29093E-02
         0.34005E-02
         0.35287E-02
         0.35287E-02
         0.29800E-02
         0.32467E-02
         0.28783E-02
         0.29945E-02
         0.36873E-02
         0.37152E-02
         0.37152E-02
         0.33844E-02
         0.29099E-02
         0.32077E-02
         0.32845E-02
         0.32845E-02
         0.27006E-02
         0.25920E-02
         0.25837E-02
         0.26942E-02
         0.28613E-02
         0.29533E-02
         0.29714E-02
         0.29714E-02
         0.26471E-02
         0.27681E-02
         0.34005E-02
         0.35287E-02
         0.35287E-02
         0.29800E-02
         0.31530E-02
         0.31530E-02
         0.43125E-02
         0.43125E-02
         0.43125E-02
         0.43125E-02
         0.34893E-02
         0.34893E-02
         0.32655E-02
         0.32021E-02
         0.37806E-02
         0.31836E-02
         0.26965E-02
         0.33840E-02
         0.37151E-02
         0.27016E-02
         0.29111E-02
         0.36969E-02
         0.36283E-02
         0.37933E-02
         0.30102E-02
         0.30102E-02
         0.28617E-02
         0.26950E-02
         0.29535E-02
         0.28101E-02
         0.30286E-02
         0.36969E-02
         0.28382E-02
         0.28382E-02
         0.27447E-02
         0.26071E-02
         0.36969E-02
         0.36969E-02
         0.37933E-02
         0.37933E-02
         0.30252E-02
         0.36861E-02
         0.37151E-02
         0.32090E-02
         0.32852E-02
         0.32852E-02
         0.27006E-02
         0.25920E-02
         0.25830E-02
         0.29714E-02
         0.29714E-02
         0.26470E-02
         0.29092E-02
         0.33997E-02
         0.35282E-02
         0.35282E-02
         0.29803E-02
         0.32484E-02
         0.28755E-02
         0.29955E-02
         0.36861E-02
         0.37151E-02
         0.37151E-02
         0.33840E-02
         0.29111E-02
         0.32090E-02
         0.32852E-02
         0.32852E-02
         0.27006E-02
         0.25920E-02
         0.25830E-02
         0.26950E-02
         0.28617E-02
         0.29535E-02
         0.29714E-02
         0.29714E-02
         0.26470E-02
         0.27680E-02
         0.33997E-02
         0.35282E-02
         0.35282E-02
         0.29803E-02
         0.31544E-02
         0.31544E-02
         0.43123E-02
         0.43123E-02
         0.43123E-02
         0.43123E-02
         0.34893E-02
         0.34893E-02
         0.32640E-02
         0.32011E-02
         0.37801E-02
         0.31832E-02
         0.26948E-02
         0.33836E-02
         0.37150E-02
         0.26969E-02
         0.29123E-02
         0.36966E-02
         0.36319E-02
         0.37954E-02
         0.30128E-02
         0.30128E-02
         0.28622E-02
         0.26957E-02
         0.29536E-02
         0.28104E-02
         0.30312E-02
         0.36966E-02
         0.28357E-02
         0.28357E-02
         0.27434E-02
         0.26061E-02
         0.36966E-02
         0.36966E-02
         0.37954E-02
         0.37954E-02
         0.30254E-02
         0.36849E-02
         0.37150E-02
         0.32103E-02
         0.32858E-02
         0.32858E-02
         0.27006E-02
         0.25920E-02
         0.25823E-02
         0.29714E-02
         0.29714E-02
         0.26470E-02
         0.29091E-02
         0.33990E-02
         0.35276E-02
         0.35276E-02
         0.29806E-02
         0.32502E-02
         0.28728E-02
         0.29965E-02
         0.36849E-02
         0.37150E-02
         0.37150E-02
         0.33836E-02
         0.29123E-02
         0.32103E-02
         0.32858E-02
         0.32858E-02
         0.27006E-02
         0.25920E-02
         0.25823E-02
         0.26957E-02
         0.28622E-02
         0.29536E-02
         0.29714E-02
         0.29714E-02
         0.26470E-02
         0.27680E-02
         0.33990E-02
         0.35276E-02
         0.35276E-02
         0.29806E-02
         0.31557E-02
         0.31557E-02
         0.43120E-02
         0.43120E-02
         0.43120E-02
         0.43120E-02
         0.34894E-02
         0.34894E-02
         0.32626E-02
         0.32001E-02
         0.37797E-02
         0.31828E-02
         0.26931E-02
         0.33832E-02
         0.37149E-02
         0.26922E-02
         0.29135E-02
         0.36963E-02
         0.36354E-02
         0.37975E-02
         0.30154E-02
         0.30154E-02
         0.28627E-02
         0.26965E-02
         0.29537E-02
         0.28107E-02
         0.30338E-02
         0.36963E-02
         0.28331E-02
         0.28331E-02
         0.27421E-02
         0.26051E-02
         0.36963E-02
         0.36963E-02
         0.37975E-02
         0.37975E-02
         0.30256E-02
         0.36838E-02
         0.37149E-02
         0.32116E-02
         0.32864E-02
         0.32864E-02
         0.27006E-02
         0.25920E-02
         0.25815E-02
         0.29714E-02
         0.29714E-02
         0.26469E-02
         0.29090E-02
         0.33983E-02
         0.35270E-02
         0.35270E-02
         0.29809E-02
         0.32519E-02
         0.28700E-02
         0.29975E-02
         0.36838E-02
         0.37149E-02
         0.37149E-02
         0.33832E-02
         0.29135E-02
         0.32116E-02
         0.32864E-02
         0.32864E-02
         0.27006E-02
         0.25920E-02
         0.25815E-02
         0.26965E-02
         0.28627E-02
         0.29537E-02
         0.29714E-02
         0.29714E-02
         0.26469E-02
         0.27680E-02
         0.33983E-02
         0.35270E-02
         0.35270E-02
         0.29809E-02
         0.31571E-02
         0.31571E-02
         0.43118E-02
         0.43118E-02
         0.43118E-02
         0.43118E-02
         0.34895E-02
         0.34895E-02
         0.32612E-02
         0.31990E-02
         0.37792E-02
         0.31824E-02
         0.26913E-02
         0.33828E-02
         0.37148E-02
         0.26875E-02
         0.29148E-02
         0.36960E-02
         0.36390E-02
         0.37995E-02
         0.30180E-02
         0.30180E-02
         0.28631E-02
         0.26972E-02
         0.29539E-02
         0.28110E-02
         0.30364E-02
         0.36960E-02
         0.28305E-02
         0.28305E-02
         0.27408E-02
         0.26040E-02
         0.36960E-02
         0.36960E-02
         0.37995E-02
         0.37995E-02
         0.30258E-02
         0.36826E-02
         0.37148E-02
         0.32129E-02
         0.32870E-02
         0.32870E-02
         0.27006E-02
         0.25920E-02
         0.25808E-02
         0.29713E-02
         0.29713E-02
         0.26468E-02
         0.29089E-02
         0.33975E-02
         0.35264E-02
         0.35264E-02
         0.29812E-02
         0.32537E-02
         0.28672E-02
         0.29985E-02
         0.36826E-02
         0.37148E-02
         0.37148E-02
         0.33828E-02
         0.29148E-02
         0.32129E-02
         0.32870E-02
         0.32870E-02
         0.27006E-02
         0.25920E-02
         0.25808E-02
         0.26972E-02
         0.28631E-02
         0.29539E-02
         0.29713E-02
         0.29713E-02
         0.26468E-02
         0.27679E-02
         0.33975E-02
         0.35264E-02
         0.35264E-02
         0.29812E-02
         0.31585E-02
         0.31585E-02
         0.43115E-02
         0.43115E-02
         0.43115E-02
         0.43115E-02
         0.34896E-02
         0.34896E-02
         0.32597E-02
         0.31980E-02
         0.37787E-02
         0.31820E-02
         0.26896E-02
         0.33824E-02
         0.37147E-02
         0.26827E-02
         0.29160E-02
         0.36957E-02
         0.36425E-02
         0.38016E-02
         0.30206E-02
         0.30206E-02
         0.28636E-02
         0.26980E-02
         0.29540E-02
         0.28112E-02
         0.30390E-02
         0.36957E-02
         0.28279E-02
         0.28279E-02
         0.27395E-02
         0.26030E-02
         0.36957E-02
         0.36957E-02
         0.38016E-02
         0.38016E-02
         0.30260E-02
         0.36814E-02
         0.37147E-02
         0.32141E-02
         0.32876E-02
         0.32876E-02
         0.27006E-02
         0.25920E-02
         0.25801E-02
         0.29713E-02
         0.29713E-02
         0.26468E-02
         0.29089E-02
         0.33968E-02
         0.35259E-02
         0.35259E-02
         0.29815E-02
         0.32555E-02
         0.28645E-02
         0.29995E-02
         0.36814E-02
         0.37147E-02
         0.37147E-02
         0.33824E-02
         0.29160E-02
         0.32141E-02
         0.32876E-02
         0.32876E-02
         0.27006E-02
         0.25920E-02
         0.25801E-02
         0.26980E-02
         0.28636E-02
         0.29540E-02
         0.29713E-02
         0.29713E-02
         0.26468E-02
         0.27679E-02
         0.33968E-02
         0.35259E-02
         0.35259E-02
         0.29815E-02
         0.31598E-02
         0.31598E-02
         0.43113E-02
         0.43113E-02
         0.43113E-02
         0.43113E-02
         0.34897E-02
         0.34897E-02
         0.32583E-02
         0.31970E-02
         0.37783E-02
         0.31816E-02
         0.26879E-02
         0.33820E-02
         0.37146E-02
         0.26780E-02
         0.29172E-02
         0.36954E-02
         0.36460E-02
         0.38037E-02
         0.30232E-02
         0.30232E-02
         0.28641E-02
         0.26987E-02
         0.29542E-02
         0.28115E-02
         0.30416E-02
         0.36954E-02
         0.28253E-02
         0.28253E-02
         0.27382E-02
         0.26020E-02
         0.36954E-02
         0.36954E-02
         0.38037E-02
         0.38037E-02
         0.30261E-02
         0.36802E-02
         0.37146E-02
         0.32154E-02
         0.32882E-02
         0.32882E-02
         0.27006E-02
         0.25921E-02
         0.25794E-02
         0.29713E-02
         0.29713E-02
         0.26467E-02
         0.29088E-02
         0.33961E-02
         0.35253E-02
         0.35253E-02
         0.29818E-02
         0.32573E-02
         0.28617E-02
         0.30005E-02
         0.36802E-02
         0.37146E-02
         0.37146E-02
         0.33820E-02
         0.29172E-02
         0.32154E-02
         0.32882E-02
         0.32882E-02
         0.27006E-02
         0.25921E-02
         0.25794E-02
         0.26987E-02
         0.28641E-02
         0.29542E-02
         0.29713E-02
         0.29713E-02
         0.26467E-02
         0.27678E-02
         0.33961E-02
         0.35253E-02
         0.35253E-02
         0.29818E-02
         0.31612E-02
         0.31612E-02
         0.43110E-02
         0.43110E-02
         0.43110E-02
         0.43110E-02
         0.34898E-02
         0.34898E-02
         0.32569E-02
         0.31960E-02
         0.37778E-02
         0.31812E-02
         0.26862E-02
         0.33816E-02
         0.37145E-02
         0.26733E-02
         0.29184E-02
         0.36950E-02
         0.36495E-02
         0.38057E-02
         0.30258E-02
         0.30258E-02
         0.28645E-02
         0.26995E-02
         0.29543E-02
         0.28118E-02
         0.30442E-02
         0.36950E-02
         0.28227E-02
         0.28227E-02
         0.27369E-02
         0.26010E-02
         0.36950E-02
         0.36950E-02
         0.38057E-02
         0.38057E-02
         0.30263E-02
         0.36790E-02
         0.37145E-02
         0.32167E-02
         0.32889E-02
         0.32889E-02
         0.27006E-02
         0.25921E-02
         0.25787E-02
         0.29713E-02
         0.29713E-02
         0.26467E-02
         0.29087E-02
         0.33953E-02
         0.35247E-02
         0.35247E-02
         0.29821E-02
         0.32590E-02
         0.28589E-02
         0.30015E-02
         0.36790E-02
         0.37145E-02
         0.37145E-02
         0.33816E-02
         0.29184E-02
         0.32167E-02
         0.32889E-02
         0.32889E-02
         0.27006E-02
         0.25921E-02
         0.25787E-02
         0.26995E-02
         0.28645E-02
         0.29543E-02
         0.29713E-02
         0.29713E-02
         0.26467E-02
         0.27678E-02
         0.33953E-02
         0.35247E-02
         0.35247E-02
         0.29821E-02
         0.31625E-02
         0.31625E-02
         0.43108E-02
         0.43108E-02
         0.43108E-02
         0.43108E-02
         0.34898E-02
         0.34898E-02
         0.32555E-02
         0.31950E-02
         0.37773E-02
         0.31808E-02
         0.26845E-02
         0.33812E-02
         0.37144E-02
         0.26686E-02
         0.29196E-02
         0.36948E-02
         0.36531E-02
         0.38078E-02
         0.30285E-02
         0.30285E-02
         0.28650E-02
         0.27002E-02
         0.29544E-02
         0.28120E-02
         0.30467E-02
         0.36948E-02
         0.28201E-02
         0.28201E-02
         0.27356E-02
         0.26000E-02
         0.36948E-02
         0.36948E-02
         0.38078E-02
         0.38078E-02
         0.30265E-02
         0.36779E-02
         0.37144E-02
         0.32181E-02
         0.32895E-02
         0.32895E-02
         0.27006E-02
         0.25921E-02
         0.25779E-02
         0.29713E-02
         0.29713E-02
         0.26466E-02
         0.29086E-02
         0.33946E-02
         0.35242E-02
         0.35242E-02
         0.29824E-02
         0.32608E-02
         0.28562E-02
         0.30025E-02
         0.36779E-02
         0.37144E-02
         0.37144E-02
         0.33812E-02
         0.29196E-02
         0.32181E-02
         0.32895E-02
         0.32895E-02
         0.27006E-02
         0.25921E-02
         0.25779E-02
         0.27002E-02
         0.28650E-02
         0.29544E-02
         0.29713E-02
         0.29713E-02
         0.26466E-02
         0.27678E-02
         0.33946E-02
         0.35242E-02
         0.35242E-02
         0.29824E-02
         0.31639E-02
         0.31639E-02
         0.43105E-02
         0.43105E-02
         0.43105E-02
         0.43105E-02
         0.34899E-02
         0.34899E-02
         0.32540E-02
         0.31940E-02
         0.37768E-02
         0.31804E-02
         0.26827E-02
         0.33808E-02
         0.37143E-02
         0.26639E-02
         0.29208E-02
         0.36944E-02
         0.36566E-02
         0.38099E-02
         0.30311E-02
         0.30311E-02
         0.28655E-02
         0.27010E-02
         0.29546E-02
         0.28123E-02
         0.30493E-02
         0.36944E-02
         0.28175E-02
         0.28175E-02
         0.27343E-02
         0.25990E-02
         0.36944E-02
         0.36944E-02
         0.38099E-02
         0.38099E-02
         0.30267E-02
         0.36767E-02
         0.37143E-02
         0.32193E-02
         0.32901E-02
         0.32901E-02
         0.27006E-02
         0.25921E-02
         0.25772E-02
         0.29713E-02
         0.29713E-02
         0.26466E-02
         0.29085E-02
         0.33939E-02
         0.35236E-02
         0.35236E-02
         0.29827E-02
         0.32626E-02
         0.28534E-02
         0.30035E-02
         0.36767E-02
         0.37143E-02
         0.37143E-02
         0.33808E-02
         0.29208E-02
         0.32193E-02
         0.32901E-02
         0.32901E-02
         0.27006E-02
         0.25921E-02
         0.25772E-02
         0.27010E-02
         0.28655E-02
         0.29546E-02
         0.29713E-02
         0.29713E-02
         0.26466E-02
         0.27677E-02
         0.33939E-02
         0.35236E-02
         0.35236E-02
         0.29827E-02
         0.31652E-02
         0.31652E-02
         0.43103E-02
         0.43103E-02
         0.43103E-02
         0.43103E-02
         0.34900E-02
         0.34900E-02
         0.32526E-02
         0.31930E-02
         0.37764E-02
         0.31800E-02
         0.26810E-02
         0.33804E-02
         0.37142E-02
         0.26591E-02
         0.29220E-02
         0.36941E-02
         0.36602E-02
         0.38119E-02
         0.30337E-02
         0.30337E-02
         0.28660E-02
         0.27017E-02
         0.29547E-02
         0.28126E-02
         0.30519E-02
         0.36941E-02
         0.28150E-02
         0.28150E-02
         0.27330E-02
         0.25979E-02
         0.36941E-02
         0.36941E-02
         0.38119E-02
         0.38119E-02
         0.30269E-02
         0.36755E-02
         0.37142E-02
         0.32206E-02
         0.32907E-02
         0.32907E-02
         0.27006E-02
         0.25921E-02
         0.25765E-02
         0.29713E-02
         0.29713E-02
         0.26465E-02
         0.29085E-02
         0.33931E-02
         0.35230E-02
         0.35230E-02
         0.29830E-02
         0.32643E-02
         0.28507E-02
         0.30045E-02
         0.36755E-02
         0.37142E-02
         0.37142E-02
         0.33804E-02
         0.29220E-02
         0.32206E-02
         0.32907E-02
         0.32907E-02
         0.27006E-02
         0.25921E-02
         0.25765E-02
         0.27017E-02
         0.28660E-02
         0.29547E-02
         0.29713E-02
         0.29713E-02
         0.26465E-02
         0.27677E-02
         0.33931E-02
         0.35230E-02
         0.35230E-02
         0.29830E-02
         0.31666E-02
         0.31666E-02
         0.43100E-02
         0.43100E-02
         0.43100E-02
         0.43100E-02
         0.34901E-02
         0.34901E-02
         0.32512E-02
         0.31920E-02
         0.37759E-02
         0.31796E-02
         0.26793E-02
         0.33800E-02
         0.37141E-02
         0.26544E-02
         0.29232E-02
         0.36938E-02
         0.36637E-02
         0.38140E-02
         0.30363E-02
         0.30363E-02
         0.28664E-02
         0.27025E-02
         0.29548E-02
         0.28129E-02
         0.30545E-02
         0.36938E-02
         0.28124E-02
         0.28124E-02
         0.27317E-02
         0.25969E-02
         0.36938E-02
         0.36938E-02
         0.38140E-02
         0.38140E-02
         0.30271E-02
         0.36743E-02
         0.37141E-02
         0.32219E-02
         0.32913E-02
         0.32913E-02
         0.27006E-02
         0.25921E-02
         0.25758E-02
         0.29713E-02
         0.29713E-02
         0.26465E-02
         0.29084E-02
         0.33924E-02
         0.35224E-02
         0.35224E-02
         0.29833E-02
         0.32661E-02
         0.28479E-02
         0.30055E-02
         0.36743E-02
         0.37141E-02
         0.37141E-02
         0.33800E-02
         0.29232E-02
         0.32219E-02
         0.32913E-02
         0.32913E-02
         0.27006E-02
         0.25921E-02
         0.25758E-02
         0.27025E-02
         0.28664E-02
         0.29548E-02
         0.29713E-02
         0.29713E-02
         0.26465E-02
         0.27677E-02
         0.33924E-02
         0.35224E-02
         0.35224E-02
         0.29833E-02
         0.31680E-02
         0.31680E-02
         0.43098E-02
         0.43098E-02
         0.43098E-02
         0.43098E-02
         0.34901E-02
         0.34901E-02
         0.32498E-02
         0.31910E-02
         0.37754E-02
         0.31792E-02
         0.26776E-02
         0.33796E-02
         0.37140E-02
         0.26497E-02
         0.29232E-02
         0.36935E-02
         0.36637E-02
         0.38140E-02
         0.30363E-02
         0.30363E-02
         0.28664E-02
         0.27025E-02
         0.29548E-02
         0.28129E-02
         0.30545E-02
         0.36935E-02
         0.28098E-02
         0.28098E-02
         0.27304E-02
         0.25959E-02
         0.36935E-02
         0.36935E-02
         0.38140E-02
         0.38140E-02
         0.30271E-02
         0.36731E-02
         0.37140E-02
         0.32219E-02
         0.32913E-02
         0.32913E-02
         0.27006E-02
         0.25921E-02
         0.25751E-02
         0.29713E-02
         0.29713E-02
         0.26464E-02
         0.29083E-02
         0.33916E-02
         0.35219E-02
         0.35219E-02
         0.29833E-02
         0.32661E-02
         0.28451E-02
         0.30055E-02
         0.36731E-02
         0.37140E-02
         0.37140E-02
         0.33796E-02
         0.29232E-02
         0.32219E-02
         0.32913E-02
         0.32913E-02
         0.27006E-02
         0.25921E-02
         0.25751E-02
         0.27025E-02
         0.28664E-02
         0.29548E-02
         0.29713E-02
         0.29713E-02
         0.26464E-02
         0.27676E-02
         0.33916E-02
         0.35219E-02
         0.35219E-02
         0.29833E-02
         0.31680E-02
         0.31680E-02
  
SCALARS              physical_window_z  double 1
LOOKUP_TABLE default
         0.26928E-02
         0.26928E-02
         0.26928E-02
         0.26928E-02
         0.26928E-02
         0.26928E-02
         0.26928E-02
         0.26928E-02
         0.26928E-02
         0.26928E-02
         0.26928E-02
         0.26928E-02
         0.26928E-02
         0.26928E-02
         0.26928E-02
         0.26928E-02
         0.26928E-02
         0.26928E-02
         0.26928E-02
         0.26928E-02
         0.26928E-02
         0.26928E-02
         0.26928E-02
         0.26928E-02
         0.26928E-02
         0.26928E-02
         0.26928E-02
         0.26928E-02
         0.26928E-02
         0.26928E-02
         0.26928E-02
         0.26928E-02
         0.26928E-02
         0.26928E-02
         0.26928E-02
         0.26928E-02
         0.26928E-02
         0.26928E-02
         0.26928E-02
         0.26928E-02
         0.26928E-02
         0.26928E-02
         0.26928E-02
         0.26928E-02
         0.26928E-02
         0.26928E-02
         0.26928E-02
         0.26928E-02
         0.26928E-02
         0.26928E-02
         0.26928E-02
         0.26928E-02
         0.26928E-02
         0.26928E-02
         0.26928E-02
         0.26928E-02
         0.26928E-02
         0.26928E-02
         0.26928E-02
         0.26928E-02
         0.26928E-02
         0.26928E-02
         0.26928E-02
         0.26928E-02
         0.26928E-02
         0.26928E-02
         0.26928E-02
         0.26928E-02
         0.26928E-02
         0.26928E-02
         0.26928E-02
         0.26928E-02
         0.26928E-02
         0.26928E-02
         0.26928E-02
         0.26928E-02
         0.26928E-02
         0.26928E-02
         0.26928E-02
         0.26928E-02
         0.26928E-02
         0.26928E-02
         0.26928E-02
         0.26928E-02
         0.26928E-02
         0.26928E-02
         0.26928E-02
         0.26928E-02
         0.26928E-02
         0.26928E-02
         0.26928E-02
         0.26928E-02
         0.26928E-02
         0.26928E-02
         0.26928E-02
         0.26928E-02
         0.26928E-02
         0.26928E-02
         0.26928E-02
         0.26928E-02
         0.26928E-02
         0.26928E-02
         0.26928E-02
         0.26928E-02
         0.26928E-02
         0.26928E-02
         0.26928E-02
         0.26928E-02
         0.26928E-02
         0.26928E-02
         0.26928E-02
         0.26928E-02
         0.26928E-02
         0.26928E-02
         0.26928E-02
         0.26928E-02
         0.26928E-02
         0.26928E-02
         0.26928E-02
         0.26928E-02
         0.26928E-02
         0.26928E-02
         0.26928E-02
         0.26928E-02
         0.26928E-02
         0.26928E-02
         0.26928E-02
         0.26928E-02
         0.26928E-02
         0.26928E-02
         0.26928E-02
         0.26928E-02
         0.26928E-02
         0.26928E-02
         0.26928E-02
         0.26928E-02
         0.26928E-02
         0.26928E-02
         0.26928E-02
         0.26928E-02
         0.26928E-02
         0.26928E-02
         0.26928E-02
         0.26928E-02
         0.26928E-02
         0.26928E-02
         0.26928E-02
         0.26928E-02
         0.26928E-02
         0.26928E-02
         0.26928E-02
         0.26928E-02
         0.26928E-02
         0.26928E-02
         0.26928E-02
         0.26928E-02
         0.26927E-02
         0.26927E-02
         0.26927E-02
         0.26927E-02
         0.26927E-02
         0.26927E-02
         0.26927E-02
         0.26927E-02
         0.26927E-02
         0.26927E-02
         0.26927E-02
         0.26927E-02
         0.26927E-02
         0.26927E-02
         0.26927E-02
         0.26927E-02
         0.26927E-02
         0.26927E-02
         0.26927E-02
         0.26927E-02
         0.26927E-02
         0.26927E-02
         0.26927E-02
         0.26927E-02
         0.26927E-02
         0.26927E-02
         0.26927E-02
         0.26927E-02
         0.26927E-02
         0.26927E-02
         0.26927E-02
         0.26927E-02
         0.26927E-02
         0.26927E-02
         0.26927E-02
         0.26927E-02
         0.26927E-02
         0.26927E-02
         0.26927E-02
         0.26927E-02
         0.26927E-02
         0.26927E-02
         0.26927E-02
         0.26927E-02
         0.26927E-02
         0.26927E-02
         0.26927E-02
         0.26927E-02
         0.26927E-02
         0.26927E-02
         0.26927E-02
         0.26927E-02
         0.26927E-02
         0.26927E-02
         0.26927E-02
         0.26927E-02
         0.26927E-02
         0.26927E-02
         0.26927E-02
         0.26927E-02
         0.26927E-02
         0.26927E-02
         0.26927E-02
         0.26927E-02
         0.26927E-02
         0.26927E-02
         0.26927E-02
         0.26927E-02
         0.26927E-02
         0.26927E-02
         0.26927E-02
         0.26927E-02
         0.26927E-02
         0.26927E-02
         0.26927E-02
         0.26927E-02
         0.26927E-02
         0.26927E-02
         0.26927E-02
         0.26927E-02
         0.26927E-02
         0.26927E-02
         0.26927E-02
         0.26927E-02
         0.26927E-02
         0.26927E-02
         0.26927E-02
         0.26927E-02
         0.26927E-02
         0.26927E-02
         0.26927E-02
         0.26927E-02
         0.26927E-02
         0.26927E-02
         0.26927E-02
         0.26927E-02
         0.26927E-02
         0.26927E-02
         0.26927E-02
         0.26927E-02
         0.26927E-02
         0.26927E-02
         0.26927E-02
         0.26927E-02
         0.26927E-02
         0.26927E-02
         0.26927E-02
         0.26927E-02
         0.26927E-02
         0.26927E-02
         0.26927E-02
         0.26927E-02
         0.26927E-02
         0.26927E-02
         0.26927E-02
         0.26927E-02
         0.26927E-02
         0.26927E-02
         0.26927E-02
         0.26927E-02
         0.26927E-02
         0.26927E-02
         0.26927E-02
         0.26927E-02
         0.26927E-02
         0.26927E-02
         0.26927E-02
         0.26927E-02
         0.26927E-02
         0.26927E-02
         0.26927E-02
         0.26927E-02
         0.26927E-02
         0.26927E-02
         0.26927E-02
         0.26927E-02
         0.26927E-02
         0.26927E-02
         0.26927E-02
         0.26927E-02
         0.26927E-02
         0.26927E-02
         0.26927E-02
         0.26927E-02
         0.26927E-02
         0.26927E-02
         0.26927E-02
         0.26927E-02
         0.26927E-02
         0.26927E-02
         0.26927E-02
         0.26927E-02
         0.26927E-02
         0.26927E-02
         0.26927E-02
         0.26927E-02
         0.26927E-02
         0.26927E-02
         0.26927E-02
         0.26927E-02
         0.26927E-02
         0.26927E-02
         0.26927E-02
         0.26927E-02
         0.26927E-02
         0.26927E-02
         0.26927E-02
         0.26927E-02
         0.26927E-02
         0.26927E-02
         0.26927E-02
         0.26927E-02
         0.26927E-02
         0.26927E-02
         0.26927E-02
         0.26927E-02
         0.26927E-02
         0.26927E-02
         0.26927E-02
         0.26927E-02
         0.26927E-02
         0.26927E-02
         0.26927E-02
         0.26927E-02
         0.26927E-02
         0.26927E-02
         0.26927E-02
         0.26927E-02
         0.26927E-02
         0.26927E-02
         0.26927E-02
         0.26927E-02
         0.26927E-02
         0.26927E-02
         0.26927E-02
         0.26927E-02
         0.26927E-02
         0.26927E-02
         0.26927E-02
         0.26927E-02
         0.26927E-02
         0.26927E-02
         0.26927E-02
         0.26927E-02
         0.26927E-02
         0.26927E-02
         0.26927E-02
         0.26927E-02
         0.26927E-02
         0.26927E-02
         0.26927E-02
         0.26927E-02
         0.26927E-02
         0.26927E-02
         0.26927E-02
         0.26927E-02
         0.26927E-02
         0.26927E-02
         0.26927E-02
         0.26927E-02
         0.26927E-02
         0.26927E-02
         0.26927E-02
         0.26927E-02
         0.26927E-02
         0.26927E-02
         0.26927E-02
         0.26927E-02
         0.26927E-02
         0.26927E-02
         0.26927E-02
         0.26927E-02
         0.26927E-02
         0.26927E-02
         0.26927E-02
         0.26927E-02
         0.26927E-02
         0.26927E-02
         0.26927E-02
         0.26927E-02
         0.26927E-02
         0.26927E-02
         0.26927E-02
         0.26927E-02
         0.26927E-02
         0.26927E-02
         0.26927E-02
         0.26927E-02
         0.26927E-02
         0.26927E-02
         0.26927E-02
         0.26927E-02
         0.26927E-02
         0.26927E-02
         0.26927E-02
         0.26927E-02
         0.26927E-02
         0.26927E-02
         0.26927E-02
         0.26927E-02
         0.26927E-02
         0.26927E-02
         0.26927E-02
         0.26927E-02
         0.26927E-02
         0.26927E-02
         0.26927E-02
         0.26927E-02
         0.26927E-02
         0.26927E-02
         0.26927E-02
         0.26927E-02
         0.26927E-02
         0.26927E-02
         0.26927E-02
         0.26927E-02
         0.26927E-02
         0.26927E-02
         0.26927E-02
         0.26927E-02
         0.26927E-02
         0.26927E-02
         0.26927E-02
         0.26927E-02
         0.26927E-02
         0.26927E-02
         0.26927E-02
         0.26927E-02
         0.26927E-02
         0.26927E-02
         0.26927E-02
         0.26927E-02
         0.26927E-02
         0.26927E-02
         0.26927E-02
         0.26927E-02
         0.26927E-02
         0.26927E-02
         0.26927E-02
         0.26927E-02
         0.26927E-02
         0.26927E-02
         0.26927E-02
         0.26927E-02
         0.26927E-02
         0.26927E-02
         0.26927E-02
         0.26927E-02
         0.26927E-02
         0.26927E-02
         0.26927E-02
         0.26927E-02
         0.26927E-02
         0.26927E-02
         0.26927E-02
         0.26927E-02
         0.26927E-02
         0.26927E-02
         0.26927E-02
         0.26927E-02
         0.26927E-02
         0.26927E-02
         0.26927E-02
         0.26927E-02
         0.26927E-02
         0.26927E-02
         0.26927E-02
         0.26927E-02
         0.26927E-02
         0.26927E-02
         0.26927E-02
         0.26927E-02
         0.26927E-02
         0.26927E-02
         0.26927E-02
         0.26927E-02
         0.26927E-02
         0.26927E-02
         0.26927E-02
         0.26927E-02
         0.26927E-02
         0.26927E-02
         0.26927E-02
         0.26927E-02
         0.26927E-02
         0.26927E-02
         0.26927E-02
         0.26927E-02
         0.26927E-02
         0.26927E-02
         0.26927E-02
         0.26927E-02
         0.26927E-02
         0.26927E-02
         0.26927E-02
         0.26927E-02
         0.26927E-02
         0.26927E-02
         0.26927E-02
         0.26927E-02
         0.26927E-02
         0.26927E-02
         0.26927E-02
         0.26927E-02
         0.26927E-02
         0.26927E-02
         0.26927E-02
         0.26927E-02
         0.26927E-02
         0.26927E-02
         0.26927E-02
         0.26927E-02
         0.26927E-02
         0.26927E-02
         0.26927E-02
         0.26927E-02
         0.26927E-02
         0.26927E-02
         0.26927E-02
         0.26927E-02
         0.26927E-02
         0.26927E-02
         0.26927E-02
         0.26927E-02
         0.26927E-02
         0.26927E-02
         0.26927E-02
         0.26927E-02
         0.26927E-02
         0.26927E-02
         0.26927E-02
         0.26927E-02
         0.26927E-02
         0.26927E-02
         0.26927E-02
         0.26927E-02
         0.26927E-02
         0.26927E-02
         0.26927E-02
         0.26927E-02
         0.26927E-02
         0.26927E-02
         0.26927E-02
         0.26927E-02
         0.26927E-02
         0.26927E-02
         0.26927E-02
         0.26927E-02
         0.26927E-02
         0.26927E-02
         0.26927E-02
         0.26927E-02
         0.26927E-02
         0.26927E-02
         0.26927E-02
         0.26927E-02
         0.26927E-02
         0.26927E-02
         0.26927E-02
         0.26927E-02
         0.26927E-02
         0.26927E-02
         0.26927E-02
         0.26927E-02
         0.26927E-02
         0.26927E-02
         0.26927E-02
         0.26927E-02
         0.26927E-02
         0.26927E-02
         0.26927E-02
         0.26927E-02
         0.26927E-02
         0.26927E-02
         0.26927E-02
         0.26927E-02
         0.26927E-02
         0.26927E-02
         0.26927E-02
         0.26927E-02
         0.26927E-02
         0.26927E-02
         0.26927E-02
         0.26927E-02
         0.26927E-02
         0.26927E-02
         0.26927E-02
         0.26927E-02
         0.26927E-02
         0.26927E-02
         0.26927E-02
         0.26927E-02
         0.26927E-02
         0.26927E-02
         0.26927E-02
         0.26927E-02
         0.26927E-02
         0.26927E-02
         0.26927E-02
         0.26927E-02
         0.26927E-02
         0.26927E-02
         0.26927E-02
         0.26927E-02
         0.26927E-02
         0.26927E-02
         0.26927E-02
         0.26927E-02
         0.26927E-02
         0.26927E-02
         0.26927E-02
         0.26927E-02
         0.26927E-02
         0.26927E-02
         0.26927E-02
         0.26927E-02
         0.26927E-02
         0.26927E-02
         0.26927E-02
         0.26927E-02
         0.26927E-02
         0.26927E-02
         0.26927E-02
         0.26927E-02
         0.26927E-02
         0.26927E-02
         0.26927E-02
         0.26927E-02
         0.26927E-02
         0.26927E-02
         0.26927E-02
         0.26927E-02
         0.26927E-02
         0.26927E-02
         0.26927E-02
         0.26927E-02
         0.26927E-02
         0.26927E-02
         0.26927E-02
         0.26927E-02
         0.26927E-02
         0.26927E-02
         0.26927E-02
         0.26927E-02
         0.26927E-02
         0.26927E-02
         0.26927E-02
         0.26927E-02
         0.26927E-02
         0.26927E-02
         0.26927E-02
         0.26927E-02
         0.26927E-02
         0.26927E-02
         0.26927E-02
         0.26927E-02
         0.26927E-02
         0.26927E-02
         0.26927E-02
         0.26927E-02
         0.26927E-02
         0.26927E-02
         0.26927E-02
         0.26927E-02
         0.26927E-02
         0.26927E-02
         0.26927E-02
         0.26927E-02
         0.26927E-02
         0.26927E-02
         0.26927E-02
         0.26927E-02
         0.26927E-02
         0.26927E-02
         0.26927E-02
         0.26927E-02
         0.26927E-02
         0.26927E-02
         0.26927E-02
         0.26927E-02
         0.26927E-02
         0.26927E-02
         0.26927E-02
         0.26927E-02
         0.26927E-02
         0.26927E-02
         0.26927E-02
         0.26927E-02
         0.26927E-02
         0.26927E-02
         0.26927E-02
         0.26927E-02
         0.26927E-02
         0.26927E-02
         0.26927E-02
         0.26927E-02
         0.26927E-02
         0.26927E-02
         0.26927E-02
         0.26927E-02
         0.26927E-02
         0.26927E-02
         0.26927E-02
         0.26927E-02
         0.26927E-02
         0.26927E-02
         0.26927E-02
         0.26927E-02
         0.26927E-02
         0.26927E-02
         0.26927E-02
         0.26927E-02
         0.26927E-02
         0.26927E-02
         0.26927E-02
         0.26927E-02
         0.26927E-02
         0.26927E-02
         0.26927E-02
         0.26927E-02
         0.26927E-02
         0.26927E-02
         0.26927E-02
         0.26927E-02
         0.26927E-02
         0.26927E-02
         0.26927E-02
         0.26927E-02
         0.26927E-02
         0.26927E-02
         0.26927E-02
         0.26927E-02
         0.26927E-02
         0.26927E-02
         0.26927E-02
         0.26927E-02
         0.26927E-02
         0.26927E-02
         0.26927E-02
         0.26927E-02
         0.26927E-02
         0.26927E-02
         0.26927E-02
         0.26927E-02
         0.26927E-02
         0.26927E-02
         0.26927E-02
         0.26927E-02
         0.26927E-02
         0.26927E-02
         0.26927E-02
         0.26927E-02
         0.26927E-02
         0.26927E-02
         0.26927E-02
         0.26927E-02
         0.26927E-02
         0.26927E-02
         0.26927E-02
         0.26927E-02
         0.26927E-02
         0.26927E-02
         0.26927E-02
         0.26927E-02
         0.26927E-02
         0.26927E-02
         0.26927E-02
         0.26927E-02
         0.26927E-02
         0.26927E-02
         0.26927E-02
         0.26927E-02
         0.26927E-02
         0.26927E-02
         0.26927E-02
         0.26927E-02
         0.26927E-02
         0.26927E-02
         0.26927E-02
         0.26927E-02
         0.26927E-02
         0.26927E-02
         0.26927E-02
         0.26927E-02
         0.26927E-02
         0.26927E-02
         0.26927E-02
         0.26927E-02
         0.26927E-02
         0.26927E-02
         0.26927E-02
         0.26927E-02
         0.26927E-02
         0.26927E-02
         0.26927E-02
         0.26927E-02
         0.26927E-02
         0.26927E-02
         0.26927E-02
         0.26927E-02
         0.26927E-02
         0.26927E-02
         0.26927E-02
         0.26927E-02
         0.26927E-02
         0.26927E-02
         0.26927E-02
         0.26927E-02
         0.26927E-02
         0.26927E-02
         0.26927E-02
         0.26927E-02
         0.26927E-02
         0.26927E-02
         0.26927E-02
         0.26927E-02
         0.26927E-02
         0.26927E-02
         0.26927E-02
         0.26927E-02
         0.26927E-02
         0.26927E-02
         0.26927E-02
         0.26927E-02
         0.26927E-02
         0.26927E-02
         0.26927E-02
         0.26927E-02
         0.26927E-02
         0.26927E-02
         0.26927E-02
         0.26927E-02
         0.26927E-02
         0.26927E-02
         0.26927E-02
         0.26927E-02
         0.26927E-02
         0.26927E-02
         0.26927E-02
         0.26927E-02
         0.26927E-02
         0.26927E-02
         0.26927E-02
         0.26927E-02
         0.26927E-02
         0.26927E-02
         0.26927E-02
         0.26927E-02
         0.26927E-02
         0.26927E-02
         0.26927E-02
         0.26927E-02
         0.26927E-02
         0.26927E-02
         0.26927E-02
         0.26927E-02
         0.26927E-02
         0.26927E-02
         0.26927E-02
         0.26927E-02
         0.26927E-02
         0.26927E-02
         0.26927E-02
         0.26927E-02
         0.26927E-02
         0.26927E-02
         0.26927E-02
         0.26927E-02
         0.26927E-02
         0.26927E-02
         0.26927E-02
         0.26927E-02
         0.26927E-02
         0.26927E-02
         0.26927E-02
         0.26927E-02
         0.26927E-02
         0.26927E-02
         0.26927E-02
         0.26927E-02
         0.26927E-02
         0.26927E-02
         0.26927E-02
         0.26927E-02
         0.26927E-02
         0.26927E-02
         0.26927E-02
         0.26927E-02
         0.26927E-02
         0.26927E-02
         0.26927E-02
         0.26927E-02
         0.26927E-02
         0.26927E-02
         0.26927E-02
         0.26927E-02
         0.26927E-02
         0.26927E-02
         0.26927E-02
         0.26927E-02
         0.26927E-02
         0.26927E-02
         0.26927E-02
         0.26927E-02
         0.26927E-02
         0.26927E-02
         0.26927E-02
         0.26927E-02
         0.26927E-02
         0.26927E-02
         0.26927E-02
         0.26927E-02
         0.26927E-02
         0.26927E-02
         0.26927E-02
         0.26927E-02
         0.26927E-02
         0.26927E-02
         0.26927E-02
         0.26927E-02
         0.26927E-02
         0.26927E-02
         0.26927E-02
         0.26927E-02
         0.26927E-02
         0.26927E-02
         0.26927E-02
         0.26927E-02
         0.26927E-02
         0.26927E-02
         0.26927E-02
         0.26927E-02
         0.26927E-02
         0.26927E-02
         0.26927E-02
         0.26927E-02
         0.26927E-02
         0.26927E-02
         0.26927E-02
         0.26927E-02
         0.26927E-02
         0.26927E-02
         0.26927E-02
         0.26927E-02
         0.26927E-02
         0.26927E-02
         0.26927E-02
         0.26927E-02
         0.26927E-02
         0.26927E-02
         0.26927E-02
         0.26927E-02
         0.26927E-02
         0.26927E-02
         0.26927E-02
         0.26927E-02
         0.26927E-02
         0.26927E-02
         0.26927E-02
         0.26927E-02
         0.26927E-02
         0.26927E-02
         0.26927E-02
         0.26927E-02
         0.26927E-02
         0.26927E-02
         0.26927E-02
         0.26927E-02
         0.26927E-02
         0.26927E-02
         0.26927E-02
         0.26927E-02
         0.26927E-02
         0.26927E-02
         0.26927E-02
         0.26927E-02
         0.26927E-02
         0.26927E-02
         0.26927E-02
         0.26927E-02
         0.26927E-02
         0.26927E-02
         0.26927E-02
         0.26927E-02
         0.26927E-02
         0.26927E-02
         0.26927E-02
         0.26927E-02
         0.26927E-02
         0.26927E-02
         0.26927E-02
         0.26927E-02
         0.26927E-02
         0.26927E-02
         0.26927E-02
         0.26927E-02
         0.26927E-02
         0.26927E-02
         0.26927E-02
         0.26927E-02
         0.26927E-02
         0.26927E-02
         0.26927E-02
         0.26927E-02
         0.26927E-02
         0.26927E-02
         0.26927E-02
         0.26927E-02
         0.26927E-02
         0.26927E-02
         0.26927E-02
         0.26927E-02
         0.26927E-02
         0.26927E-02
         0.26927E-02
         0.26927E-02
         0.26927E-02
         0.26927E-02
         0.26927E-02
         0.26927E-02
         0.26927E-02
         0.26927E-02
         0.26927E-02
         0.26927E-02
         0.26927E-02
         0.26927E-02
         0.26927E-02
         0.26927E-02
         0.26927E-02
         0.26927E-02
         0.26927E-02
         0.26927E-02
         0.26927E-02
         0.26927E-02
         0.26927E-02
         0.26927E-02
         0.26927E-02
         0.26927E-02
         0.26927E-02
         0.26927E-02
         0.26927E-02
         0.26927E-02
         0.26927E-02
         0.26927E-02
         0.26927E-02
         0.26927E-02
         0.26927E-02
         0.26927E-02
         0.26927E-02
         0.26927E-02
         0.26927E-02
         0.26927E-02
         0.26927E-02
         0.26927E-02
         0.26927E-02
         0.26927E-02
         0.26927E-02
         0.26927E-02
         0.26927E-02
         0.26927E-02
         0.26927E-02
         0.26927E-02
         0.26927E-02
         0.26927E-02
         0.26927E-02
         0.26927E-02
         0.26927E-02
         0.26927E-02
         0.26927E-02
         0.26927E-02
         0.26927E-02
         0.26927E-02
         0.26927E-02
         0.26927E-02
         0.26927E-02
         0.26927E-02
         0.26927E-02
         0.26927E-02
         0.26927E-02
         0.26927E-02
         0.26927E-02
         0.26927E-02
         0.26927E-02
         0.26927E-02
         0.26927E-02
         0.26927E-02
         0.26927E-02
         0.26927E-02
         0.26927E-02
         0.26927E-02
         0.26927E-02
         0.26927E-02
         0.26927E-02
         0.26927E-02
         0.26927E-02
         0.26927E-02
         0.26927E-02
         0.26927E-02
         0.26927E-02
         0.26927E-02
         0.26927E-02
         0.26927E-02
         0.26927E-02
         0.26927E-02
         0.26927E-02
         0.26927E-02
         0.26927E-02
         0.26927E-02
         0.26927E-02
         0.26927E-02
         0.26927E-02
         0.26927E-02
         0.26927E-02
         0.26927E-02
         0.26927E-02
         0.26927E-02
         0.26927E-02
         0.26927E-02
         0.26927E-02
         0.26927E-02
         0.26927E-02
         0.26927E-02
         0.26927E-02
         0.26927E-02
         0.26927E-02
         0.26927E-02
         0.26927E-02
         0.26927E-02
         0.26927E-02
         0.26927E-02
         0.26927E-02
         0.26927E-02
         0.26927E-02
         0.26927E-02
         0.26927E-02
         0.26927E-02
         0.26927E-02
         0.26927E-02
         0.26927E-02
         0.26927E-02
         0.26927E-02
         0.26927E-02
         0.26927E-02
         0.26927E-02
         0.26927E-02
         0.26927E-02
         0.26927E-02
         0.26927E-02
         0.26927E-02
         0.26927E-02
         0.26927E-02
         0.26927E-02
         0.26927E-02
         0.26927E-02
         0.26927E-02
         0.26927E-02
         0.26927E-02
         0.26927E-02
         0.26927E-02
         0.26927E-02
         0.26927E-02
         0.26927E-02
         0.26927E-02
         0.26927E-02
         0.26927E-02
         0.26927E-02
         0.26927E-02
         0.26927E-02
         0.26927E-02
         0.26927E-02
         0.26927E-02
         0.26927E-02
         0.26927E-02
         0.26927E-02
         0.26927E-02
         0.26927E-02
         0.26927E-02
         0.26927E-02
         0.26927E-02
         0.26927E-02
         0.26927E-02
         0.26927E-02
         0.26927E-02
         0.26927E-02
         0.26927E-02
         0.26927E-02
         0.26927E-02
         0.26927E-02
         0.26927E-02
         0.26927E-02
         0.26927E-02
         0.26927E-02
         0.26927E-02
         0.26927E-02
         0.26927E-02
         0.26927E-02
         0.26927E-02
         0.26927E-02
         0.26927E-02
         0.26927E-02
         0.26927E-02
         0.26927E-02
         0.26927E-02
         0.26927E-02
         0.26927E-02
         0.26927E-02
         0.26927E-02
         0.26927E-02
         0.26927E-02
         0.26927E-02
         0.26927E-02
         0.26927E-02
         0.26927E-02
         0.26927E-02
         0.26927E-02
         0.26927E-02
         0.26927E-02
         0.26927E-02
         0.26927E-02
         0.26927E-02
         0.26927E-02
         0.26927E-02
         0.26927E-02
         0.26927E-02
         0.26927E-02
         0.26927E-02
         0.26927E-02
         0.26927E-02
         0.26927E-02
         0.26927E-02
         0.26927E-02
         0.26927E-02
         0.26927E-02
         0.26927E-02
         0.26927E-02
         0.26927E-02
         0.26927E-02
         0.26927E-02
         0.26927E-02
         0.26927E-02
         0.26927E-02
         0.26927E-02
         0.26927E-02
         0.26927E-02
         0.26927E-02
         0.26927E-02
         0.26927E-02
         0.26927E-02
         0.26927E-02
         0.26927E-02
         0.26927E-02
         0.26927E-02
         0.26927E-02
         0.26927E-02
         0.26927E-02
         0.26927E-02
         0.26927E-02
         0.26927E-02
         0.26927E-02
         0.26927E-02
         0.26927E-02
         0.26927E-02
         0.26927E-02
         0.26927E-02
         0.26927E-02
         0.26927E-02
         0.26927E-02
         0.26927E-02
         0.26927E-02
         0.26927E-02
         0.26927E-02
         0.26927E-02
         0.26927E-02
         0.26927E-02
         0.26927E-02
         0.26927E-02
         0.26927E-02
         0.26927E-02
         0.26927E-02
         0.26927E-02
         0.26927E-02
         0.26927E-02
         0.26927E-02
         0.26927E-02
         0.26927E-02
         0.26927E-02
         0.26927E-02
         0.26927E-02
         0.26927E-02
         0.26927E-02
         0.26927E-02
         0.26927E-02
         0.26927E-02
         0.26927E-02
         0.26927E-02
         0.26927E-02
         0.26927E-02
         0.26927E-02
         0.26927E-02
         0.26927E-02
         0.26927E-02
         0.26927E-02
         0.26927E-02
         0.26927E-02
         0.26927E-02
         0.26927E-02
         0.26927E-02
         0.26927E-02
         0.26927E-02
         0.26927E-02
         0.26927E-02
         0.26927E-02
         0.26927E-02
         0.26927E-02
         0.26927E-02
         0.26927E-02
         0.26927E-02
         0.26927E-02
         0.26927E-02
         0.26927E-02
         0.26927E-02
         0.26927E-02
         0.26927E-02
         0.26927E-02
         0.26927E-02
         0.26927E-02
         0.26927E-02
         0.26927E-02
         0.26927E-02
         0.26927E-02
         0.26927E-02
         0.26927E-02
         0.26927E-02
         0.26927E-02
         0.26927E-02
         0.26927E-02
         0.26927E-02
         0.26927E-02
         0.26927E-02
         0.26927E-02
         0.26927E-02
         0.26927E-02
         0.26927E-02
         0.26927E-02
         0.26927E-02
         0.26927E-02
         0.26927E-02
         0.26927E-02
         0.26927E-02
         0.26927E-02
         0.26927E-02
         0.26927E-02
         0.26927E-02
         0.26927E-02
         0.26927E-02
         0.26927E-02
         0.26927E-02
         0.26927E-02
         0.26927E-02
         0.26927E-02
         0.26927E-02
         0.26927E-02
         0.26927E-02
         0.26927E-02
         0.26927E-02
         0.26927E-02
         0.26927E-02
         0.26927E-02
         0.26927E-02
         0.26927E-02
         0.26927E-02
         0.26927E-02
         0.26927E-02
         0.26927E-02
         0.26927E-02
         0.26927E-02
         0.26927E-02
         0.26927E-02
         0.26927E-02
         0.26927E-02
         0.26927E-02
         0.26927E-02
         0.26927E-02
         0.26927E-02
         0.26927E-02
         0.26927E-02
         0.26927E-02
         0.26927E-02
         0.26927E-02
         0.26927E-02
         0.26927E-02
         0.26927E-02
         0.26927E-02
         0.26927E-02
         0.26927E-02
         0.26927E-02
         0.26927E-02
         0.26927E-02
         0.26927E-02
         0.26927E-02
         0.26927E-02
         0.26927E-02
         0.26927E-02
         0.26927E-02
         0.26927E-02
         0.26927E-02
         0.26927E-02
         0.26927E-02
         0.26927E-02
         0.26927E-02
         0.26927E-02
         0.26927E-02
         0.26927E-02
         0.26927E-02
         0.26927E-02
         0.26927E-02
         0.26927E-02
         0.26927E-02
         0.26927E-02
         0.26927E-02
         0.26927E-02
         0.26927E-02
         0.26927E-02
         0.26927E-02
         0.26927E-02
         0.26927E-02
         0.26927E-02
         0.26927E-02
         0.26927E-02
         0.26927E-02
         0.26927E-02
         0.26927E-02
         0.26927E-02
         0.26927E-02
         0.26927E-02
         0.26927E-02
         0.26927E-02
         0.26927E-02
         0.26927E-02
         0.26927E-02
         0.26927E-02
         0.26927E-02
         0.26927E-02
         0.26927E-02
         0.26927E-02
         0.26927E-02
         0.26927E-02
         0.26927E-02
         0.26927E-02
         0.26927E-02
         0.26927E-02
         0.26927E-02
         0.26927E-02
         0.26927E-02
         0.26927E-02
         0.26927E-02
         0.26927E-02
         0.26927E-02
         0.26927E-02
         0.26927E-02
         0.26927E-02
         0.26927E-02
         0.26927E-02
         0.26927E-02
         0.26927E-02
         0.26927E-02
         0.26927E-02
         0.26927E-02
         0.26927E-02
         0.26927E-02
         0.26927E-02
         0.26927E-02
         0.26927E-02
         0.26927E-02
         0.26927E-02
         0.26927E-02
         0.26927E-02
         0.26927E-02
         0.26927E-02
         0.26927E-02
         0.26927E-02
         0.26927E-02
         0.26927E-02
         0.26927E-02
         0.26927E-02
         0.26927E-02
         0.26927E-02
         0.26927E-02
         0.26927E-02
         0.26927E-02
         0.26927E-02
         0.26927E-02
         0.26927E-02
         0.26927E-02
         0.26927E-02
         0.26927E-02
         0.26927E-02
         0.26927E-02
         0.26927E-02
         0.26927E-02
         0.26927E-02
         0.26927E-02
         0.26927E-02
         0.26927E-02
         0.26927E-02
         0.26927E-02
         0.26927E-02
         0.26927E-02
         0.26927E-02
         0.26927E-02
         0.26927E-02
         0.26927E-02
         0.26927E-02
         0.26927E-02
         0.26927E-02
         0.26927E-02
         0.26927E-02
         0.26927E-02
         0.26927E-02
         0.26927E-02
         0.26927E-02
         0.26927E-02
         0.26927E-02
         0.26927E-02
         0.26927E-02
         0.26927E-02
         0.26927E-02
         0.26927E-02
         0.26927E-02
         0.26927E-02
         0.26927E-02
         0.26927E-02
         0.26927E-02
         0.26927E-02
         0.26927E-02
         0.26927E-02
         0.26927E-02
         0.26927E-02
         0.26927E-02
         0.26927E-02
         0.26927E-02
         0.26927E-02
         0.26927E-02
         0.26927E-02
         0.26927E-02
         0.26927E-02
         0.26927E-02
         0.26927E-02
         0.26927E-02
         0.26927E-02
         0.26927E-02
         0.26927E-02
         0.26927E-02
         0.26927E-02
         0.26927E-02
         0.26927E-02
         0.26927E-02
         0.26927E-02
         0.26927E-02
         0.26927E-02
         0.26927E-02
         0.26927E-02
         0.26927E-02
         0.26927E-02
         0.26927E-02
         0.26927E-02
         0.26927E-02
         0.26927E-02
         0.26927E-02
         0.26927E-02
         0.26927E-02
         0.26927E-02
         0.26927E-02
         0.26927E-02
         0.26927E-02
         0.26927E-02
         0.26927E-02
         0.26927E-02
         0.26927E-02
         0.26927E-02
         0.26927E-02
         0.26927E-02
         0.26927E-02
         0.26927E-02
         0.26927E-02
         0.26927E-02
         0.26927E-02
         0.26927E-02
         0.26927E-02
         0.26927E-02
         0.26927E-02
         0.26927E-02
         0.26927E-02
         0.26927E-02
         0.26927E-02
         0.26927E-02
         0.26927E-02
         0.26927E-02
         0.26927E-02
         0.26927E-02
         0.26927E-02
         0.26927E-02
         0.26927E-02
         0.26927E-02
         0.26927E-02
         0.26927E-02
         0.26927E-02
         0.26927E-02
         0.26927E-02
         0.26927E-02
         0.26927E-02
         0.26927E-02
         0.26927E-02
         0.26927E-02
         0.26927E-02
         0.26927E-02
         0.26927E-02
         0.26927E-02
         0.26927E-02
         0.26927E-02
         0.26927E-02
         0.26927E-02
         0.26927E-02
         0.26927E-02
         0.26927E-02
         0.26927E-02
         0.26927E-02
         0.26927E-02
         0.26927E-02
         0.26927E-02
         0.26927E-02
         0.26927E-02
         0.26927E-02
         0.26927E-02
         0.26927E-02
         0.26927E-02
         0.26927E-02
         0.26927E-02
         0.26927E-02
         0.26927E-02
         0.26927E-02
         0.26927E-02
         0.26927E-02
         0.26927E-02
         0.26927E-02
         0.26927E-02
         0.26927E-02
         0.26927E-02
         0.26927E-02
         0.26927E-02
         0.26927E-02
         0.26927E-02
         0.26927E-02
         0.26927E-02
         0.26927E-02
         0.26927E-02
         0.26927E-02
         0.26927E-02
         0.26927E-02
         0.26927E-02
         0.26927E-02
         0.26927E-02
         0.26927E-02
         0.26927E-02
         0.26927E-02
         0.26927E-02
         0.26927E-02
         0.26927E-02
         0.26927E-02
         0.26927E-02
         0.26927E-02
         0.26927E-02
         0.26927E-02
         0.26927E-02
         0.26927E-02
         0.26927E-02
         0.26927E-02
         0.26927E-02
         0.26927E-02
         0.26927E-02
         0.26927E-02
         0.26927E-02
         0.26927E-02
         0.26927E-02
         0.26927E-02
         0.26927E-02
         0.26927E-02
         0.26927E-02
         0.26927E-02
         0.26927E-02
         0.26927E-02
         0.26927E-02
         0.26927E-02
         0.26927E-02
         0.26927E-02
         0.26927E-02
         0.26927E-02
         0.26927E-02
         0.26927E-02
         0.26927E-02
         0.26927E-02
         0.26927E-02
         0.26927E-02
         0.26927E-02
         0.26927E-02
         0.26927E-02
         0.26927E-02
         0.26927E-02
         0.26927E-02
         0.26927E-02
         0.26927E-02
         0.26927E-02
         0.26927E-02
         0.26927E-02
         0.26927E-02
         0.26927E-02
         0.26927E-02
         0.26927E-02
         0.26927E-02
         0.26927E-02
         0.26927E-02
         0.26927E-02
         0.26927E-02
         0.26927E-02
         0.26927E-02
         0.26927E-02
         0.26927E-02
         0.26927E-02
         0.26927E-02
         0.26927E-02
         0.26927E-02
         0.26927E-02
         0.26927E-02
         0.26927E-02
         0.26927E-02
         0.26927E-02
         0.26927E-02
         0.26927E-02
         0.26927E-02
         0.26927E-02
         0.26927E-02
         0.26927E-02
         0.26927E-02
         0.26927E-02
         0.26927E-02
         0.26927E-02
         0.26927E-02
         0.26927E-02
         0.26927E-02
         0.26927E-02
         0.26927E-02
         0.26927E-02
         0.26927E-02
         0.26927E-02
         0.26927E-02
         0.26927E-02
         0.26927E-02
         0.26927E-02
         0.26927E-02
         0.26927E-02
         0.26927E-02
         0.26927E-02
         0.26927E-02
         0.26927E-02
         0.26927E-02
         0.26927E-02
         0.26927E-02
         0.26927E-02
         0.26927E-02
         0.26927E-02
         0.26927E-02
         0.26927E-02
         0.26927E-02
         0.26927E-02
         0.26927E-02
         0.26927E-02
         0.26927E-02
         0.26927E-02
         0.26928E-02
         0.26928E-02
         0.26928E-02
         0.26928E-02
         0.26928E-02
         0.26928E-02
         0.26928E-02
         0.26928E-02
         0.26928E-02
         0.26928E-02
         0.26928E-02
         0.26928E-02
         0.26928E-02
         0.26928E-02
         0.26928E-02
         0.26928E-02
         0.26928E-02
         0.26928E-02
         0.26928E-02
         0.26928E-02
         0.26928E-02
         0.26928E-02
         0.26928E-02
         0.26928E-02
         0.26928E-02
         0.26928E-02
         0.26928E-02
         0.26928E-02
         0.26928E-02
         0.26928E-02
         0.26928E-02
         0.26928E-02
         0.26928E-02
         0.26928E-02
         0.26928E-02
         0.26928E-02
         0.26928E-02
         0.26928E-02
         0.26928E-02
         0.26928E-02
         0.26928E-02
         0.26928E-02
         0.26928E-02
         0.26928E-02
         0.26928E-02
         0.26928E-02
         0.26928E-02
         0.26928E-02
         0.26928E-02
         0.26928E-02
         0.26928E-02
         0.26928E-02
         0.26928E-02
         0.26928E-02
         0.26928E-02
         0.26928E-02
         0.26928E-02
         0.26928E-02
         0.26928E-02
         0.26928E-02
         0.26928E-02
         0.26928E-02
         0.26928E-02
         0.26928E-02
         0.26928E-02
         0.26928E-02
         0.26928E-02
         0.26928E-02
         0.26928E-02
         0.26928E-02
         0.26928E-02
         0.26928E-02
         0.26928E-02
         0.26928E-02
         0.26928E-02
         0.26928E-02
         0.26928E-02
         0.26928E-02
         0.26928E-02
         0.26928E-02
         0.26928E-02
         0.26928E-02
         0.26928E-02
         0.26928E-02
         0.26928E-02
         0.26928E-02
         0.26928E-02
         0.26928E-02
         0.26928E-02
         0.26928E-02
         0.26928E-02
         0.26928E-02
         0.26928E-02
         0.26928E-02
         0.26928E-02
         0.26928E-02
         0.26928E-02
         0.26928E-02
         0.26928E-02
         0.26928E-02
         0.26928E-02
         0.26928E-02
         0.26928E-02
         0.26928E-02
         0.26928E-02
         0.26928E-02
         0.26928E-02
         0.26928E-02
         0.26928E-02
         0.26928E-02
         0.26928E-02
         0.26928E-02
         0.26928E-02
         0.26928E-02
         0.26928E-02
         0.26928E-02
         0.26928E-02
         0.26928E-02
         0.26928E-02
         0.26928E-02
         0.26928E-02
         0.26928E-02
         0.26928E-02
         0.26928E-02
         0.26928E-02
         0.26928E-02
         0.26928E-02
         0.26928E-02
         0.26928E-02
         0.26928E-02
         0.26928E-02
         0.26928E-02
         0.26928E-02
         0.26928E-02
         0.26928E-02
         0.26928E-02
         0.26928E-02
         0.26928E-02
         0.26928E-02
         0.26928E-02
         0.26928E-02
         0.26928E-02
         0.26928E-02
         0.26928E-02
         0.26928E-02
         0.26928E-02
         0.26928E-02
         0.26928E-02
         0.26928E-02
         0.26928E-02
         0.26928E-02
         0.26928E-02
         0.26928E-02
         0.26928E-02
         0.26928E-02
         0.26928E-02
  
SCALARS                   nodal_volume  double 1
LOOKUP_TABLE default
         0.91140E-09
         0.72412E-09
         0.77574E-09
         0.13316E-08
         0.45570E-09
         0.36211E-09
         0.38787E-09
         0.66566E-09
         0.71537E-09
         0.91211E-09
         0.35767E-09
         0.45600E-09
         0.51195E-09
         0.61532E-09
         0.25605E-09
         0.30776E-09
         0.10101E-08
         0.74536E-09
         0.50500E-09
         0.37281E-09
         0.30273E-09
         0.57012E-09
         0.62699E-09
         0.15144E-09
         0.28509E-09
         0.31352E-09
         0.51329E-09
         0.64933E-09
         0.25683E-09
         0.32471E-09
         0.12026E-08
         0.93909E-09
         0.11935E-08
         0.60122E-09
         0.46945E-09
         0.59663E-09
         0.70296E-09
         0.80270E-09
         0.35149E-09
         0.40134E-09
         0.75859E-09
         0.84013E-09
         0.37932E-09
         0.42007E-09
         0.64542E-09
         0.40086E-09
         0.32274E-09
         0.20045E-09
         0.76288E-09
         0.38153E-09
         0.63346E-09
         0.31675E-09
         0.66583E-09
         0.33318E-09
         0.68008E-09
         0.34022E-09
         0.58930E-09
         0.71738E-09
         0.29472E-09
         0.35874E-09
         0.90938E-09
         0.64302E-09
         0.45469E-09
         0.32154E-09
         0.10152E-08
         0.50747E-09
         0.88120E-09
         0.44042E-09
         0.40077E-09
         0.61872E-09
         0.20039E-09
         0.30940E-09
         0.70206E-09
         0.35106E-09
         0.74172E-09
         0.37089E-09
         0.71539E-09
         0.35770E-09
         0.56226E-09
         0.28113E-09
         0.35349E-09
         0.58452E-09
         0.17675E-09
         0.29229E-09
         0.77354E-09
         0.38679E-09
         0.62469E-09
         0.31238E-09
         0.54957E-09
         0.27483E-09
         0.36009E-09
         0.61365E-09
         0.18007E-09
         0.30685E-09
         0.83268E-09
         0.41635E-09
         0.87287E-09
         0.43642E-09
         0.70438E-09
         0.35217E-09
         0.43365E-09
         0.74413E-09
         0.21683E-09
         0.37198E-09
         0.27660E-09
         0.35144E-09
         0.13833E-09
         0.17573E-09
         0.32921E-09
         0.16465E-09
         0.38764E-09
         0.19382E-09
         0.37797E-09
         0.18897E-09
         0.36707E-09
         0.18352E-09
         0.39112E-09
         0.19552E-09
         0.41268E-09
         0.20627E-09
         0.38876E-09
         0.19433E-09
         0.30402E-09
         0.15200E-09
         0.24796E-09
         0.12398E-09
         0.31999E-09
         0.16000E-09
         0.42608E-09
         0.21303E-09
         0.46805E-09
         0.23401E-09
         0.44933E-09
         0.22466E-09
         0.40550E-09
         0.20276E-09
         0.36826E-09
         0.18414E-09
         0.29911E-09
         0.14956E-09
         0.25178E-09
         0.12591E-09
         0.32888E-09
         0.16445E-09
         0.43529E-09
         0.21765E-09
         0.44963E-09
         0.22482E-09
         0.36384E-09
         0.18194E-09
         0.29543E-09
         0.14774E-09
         0.36126E-09
         0.18063E-09
         0.42771E-09
         0.21386E-09
         0.91143E-09
         0.72396E-09
         0.77579E-09
         0.13322E-08
         0.71547E-09
         0.91237E-09
         0.51167E-09
         0.61494E-09
         0.10105E-08
         0.74486E-09
         0.30244E-09
         0.57001E-09
         0.62694E-09
         0.51257E-09
         0.64918E-09
         0.12029E-08
         0.93950E-09
         0.11941E-08
         0.70298E-09
         0.80279E-09
         0.75855E-09
         0.84015E-09
         0.64535E-09
         0.40081E-09
         0.76254E-09
         0.63339E-09
         0.66483E-09
         0.67941E-09
         0.58904E-09
         0.71721E-09
         0.90946E-09
         0.64293E-09
         0.10157E-08
         0.88199E-09
         0.40076E-09
         0.61859E-09
         0.70195E-09
         0.74166E-09
         0.71543E-09
         0.56228E-09
         0.35349E-09
         0.58443E-09
         0.77349E-09
         0.62459E-09
         0.54943E-09
         0.35999E-09
         0.61359E-09
         0.83268E-09
         0.87299E-09
         0.70451E-09
         0.43366E-09
         0.74449E-09
         0.27651E-09
         0.35143E-09
         0.32904E-09
         0.38765E-09
         0.37805E-09
         0.36714E-09
         0.39129E-09
         0.41297E-09
         0.38899E-09
         0.30408E-09
         0.24798E-09
         0.31999E-09
         0.42613E-09
         0.46815E-09
         0.44938E-09
         0.40548E-09
         0.36823E-09
         0.29908E-09
         0.25174E-09
         0.32885E-09
         0.43527E-09
         0.44962E-09
         0.36376E-09
         0.29536E-09
         0.36130E-09
         0.42769E-09
         0.91151E-09
         0.72383E-09
         0.77587E-09
         0.13329E-08
         0.71560E-09
         0.91267E-09
         0.51142E-09
         0.61459E-09
         0.10109E-08
         0.74439E-09
         0.30216E-09
         0.56992E-09
         0.62691E-09
         0.51187E-09
         0.64906E-09
         0.12033E-08
         0.93995E-09
         0.11947E-08
         0.70302E-09
         0.80291E-09
         0.75853E-09
         0.84020E-09
         0.64530E-09
         0.40078E-09
         0.76223E-09
         0.63335E-09
         0.66385E-09
         0.67875E-09
         0.58880E-09
         0.71706E-09
         0.90957E-09
         0.64286E-09
         0.10162E-08
         0.88281E-09
         0.40076E-09
         0.61849E-09
         0.70188E-09
         0.74162E-09
         0.71550E-09
         0.56232E-09
         0.35350E-09
         0.58436E-09
         0.77347E-09
         0.62452E-09
         0.54931E-09
         0.35990E-09
         0.61355E-09
         0.83270E-09
         0.87315E-09
         0.70467E-09
         0.43368E-09
         0.74487E-09
         0.27643E-09
         0.35143E-09
         0.32889E-09
         0.38767E-09
         0.37814E-09
         0.36723E-09
         0.39147E-09
         0.41328E-09
         0.38923E-09
         0.30416E-09
         0.24800E-09
         0.32001E-09
         0.42620E-09
         0.46826E-09
         0.44944E-09
         0.40548E-09
         0.36821E-09
         0.29906E-09
         0.25171E-09
         0.32883E-09
         0.43527E-09
         0.44963E-09
         0.36369E-09
         0.29530E-09
         0.36135E-09
         0.42769E-09
         0.91156E-09
         0.72368E-09
         0.77594E-09
         0.13335E-08
         0.71571E-09
         0.91295E-09
         0.51115E-09
         0.61422E-09
         0.10112E-08
         0.74389E-09
         0.30187E-09
         0.56982E-09
         0.62686E-09
         0.51116E-09
         0.64892E-09
         0.12036E-08
         0.94038E-09
         0.11953E-08
         0.70304E-09
         0.80300E-09
         0.75850E-09
         0.84023E-09
         0.64523E-09
         0.40073E-09
         0.76190E-09
         0.63330E-09
         0.66285E-09
         0.67809E-09
         0.58855E-09
         0.71689E-09
         0.90966E-09
         0.64278E-09
         0.10168E-08
         0.88361E-09
         0.40076E-09
         0.61837E-09
         0.70178E-09
         0.74156E-09
         0.71554E-09
         0.56234E-09
         0.35350E-09
         0.58428E-09
         0.77343E-09
         0.62442E-09
         0.54918E-09
         0.35981E-09
         0.61349E-09
         0.83271E-09
         0.87328E-09
         0.70481E-09
         0.43369E-09
         0.74524E-09
         0.27634E-09
         0.35142E-09
         0.32873E-09
         0.38768E-09
         0.37823E-09
         0.36731E-09
         0.39163E-09
         0.41358E-09
         0.38945E-09
         0.30422E-09
         0.24802E-09
         0.32001E-09
         0.42625E-09
         0.46837E-09
         0.44949E-09
         0.40546E-09
         0.36819E-09
         0.29904E-09
         0.25167E-09
         0.32881E-09
         0.43526E-09
         0.44963E-09
         0.36362E-09
         0.29523E-09
         0.36139E-09
         0.42768E-09
         0.91161E-09
         0.72353E-09
         0.77600E-09
         0.13341E-08
         0.71583E-09
         0.91323E-09
         0.51088E-09
         0.61386E-09
         0.10116E-08
         0.74341E-09
         0.30158E-09
         0.56972E-09
         0.62682E-09
         0.51045E-09
         0.64879E-09
         0.12040E-08
         0.94081E-09
         0.11959E-08
         0.70307E-09
         0.80310E-09
         0.75847E-09
         0.84027E-09
         0.64517E-09
         0.40069E-09
         0.76158E-09
         0.63325E-09
         0.66186E-09
         0.67742E-09
         0.58831E-09
         0.71673E-09
         0.90975E-09
         0.64270E-09
         0.10173E-08
         0.88441E-09
         0.40075E-09
         0.61825E-09
         0.70169E-09
         0.74151E-09
         0.71559E-09
         0.56237E-09
         0.35350E-09
         0.58420E-09
         0.77339E-09
         0.62433E-09
         0.54905E-09
         0.35972E-09
         0.61344E-09
         0.83272E-09
         0.87341E-09
         0.70496E-09
         0.43370E-09
         0.74562E-09
         0.27626E-09
         0.35142E-09
         0.32857E-09
         0.38770E-09
         0.37832E-09
         0.36739E-09
         0.39181E-09
         0.41387E-09
         0.38968E-09
         0.30429E-09
         0.24804E-09
         0.32002E-09
         0.42631E-09
         0.46847E-09
         0.44954E-09
         0.40545E-09
         0.36816E-09
         0.29901E-09
         0.25163E-09
         0.32878E-09
         0.43525E-09
         0.44963E-09
         0.36354E-09
         0.29517E-09
         0.36144E-09
         0.42766E-09
         0.91167E-09
         0.72338E-09
         0.77607E-09
         0.13348E-08
         0.71594E-09
         0.91351E-09
         0.51062E-09
         0.61349E-09
         0.10119E-08
         0.74292E-09
         0.30129E-09
         0.56962E-09
         0.62678E-09
         0.50974E-09
         0.64865E-09
         0.12044E-08
         0.94125E-09
         0.11965E-08
         0.70310E-09
         0.80321E-09
         0.75844E-09
         0.84031E-09
         0.64511E-09
         0.40065E-09
         0.76125E-09
         0.63320E-09
         0.66087E-09
         0.67676E-09
         0.58806E-09
         0.71657E-09
         0.90984E-09
         0.64263E-09
         0.10179E-08
         0.88522E-09
         0.40075E-09
         0.61813E-09
         0.70160E-09
         0.74146E-09
         0.71564E-09
         0.56240E-09
         0.35350E-09
         0.58412E-09
         0.77336E-09
         0.62425E-09
         0.54892E-09
         0.35963E-09
         0.61339E-09
         0.83274E-09
         0.87355E-09
         0.70511E-09
         0.43371E-09
         0.74599E-09
         0.27618E-09
         0.35141E-09
         0.32841E-09
         0.38771E-09
         0.37841E-09
         0.36747E-09
         0.39198E-09
         0.41417E-09
         0.38992E-09
         0.30436E-09
         0.24806E-09
         0.32003E-09
         0.42637E-09
         0.46858E-09
         0.44960E-09
         0.40544E-09
         0.36814E-09
         0.29899E-09
         0.25159E-09
         0.32876E-09
         0.43525E-09
         0.44963E-09
         0.36347E-09
         0.29511E-09
         0.36148E-09
         0.42766E-09
         0.91171E-09
         0.72323E-09
         0.77613E-09
         0.13354E-08
         0.71606E-09
         0.91379E-09
         0.51035E-09
         0.61313E-09
         0.10123E-08
         0.74243E-09
         0.30101E-09
         0.56952E-09
         0.62674E-09
         0.50903E-09
         0.64851E-09
         0.12047E-08
         0.94167E-09
         0.11971E-08
         0.70312E-09
         0.80331E-09
         0.75840E-09
         0.84034E-09
         0.64504E-09
         0.40061E-09
         0.76092E-09
         0.63314E-09
         0.65988E-09
         0.67609E-09
         0.58781E-09
         0.71641E-09
         0.90993E-09
         0.64255E-09
         0.10184E-08
         0.88601E-09
         0.40075E-09
         0.61801E-09
         0.70151E-09
         0.74140E-09
         0.71569E-09
         0.56243E-09
         0.35350E-09
         0.58404E-09
         0.77332E-09
         0.62416E-09
         0.54879E-09
         0.35953E-09
         0.61334E-09
         0.83274E-09
         0.87368E-09
         0.70525E-09
         0.43372E-09
         0.74636E-09
         0.27609E-09
         0.35141E-09
         0.32825E-09
         0.38772E-09
         0.37849E-09
         0.36754E-09
         0.39215E-09
         0.41447E-09
         0.39014E-09
         0.30443E-09
         0.24808E-09
         0.32004E-09
         0.42642E-09
         0.46868E-09
         0.44965E-09
         0.40543E-09
         0.36812E-09
         0.29897E-09
         0.25155E-09
         0.32874E-09
         0.43524E-09
         0.44963E-09
         0.36340E-09
         0.29504E-09
         0.36153E-09
         0.42764E-09
         0.91176E-09
         0.72308E-09
         0.77620E-09
         0.13360E-08
         0.71617E-09
         0.91407E-09
         0.51008E-09
         0.61276E-09
         0.10126E-08
         0.74195E-09
         0.30072E-09
         0.56942E-09
         0.62670E-09
         0.50832E-09
         0.64838E-09
         0.12051E-08
         0.94210E-09
         0.11977E-08
         0.70314E-09
         0.80341E-09
         0.75837E-09
         0.84038E-09
         0.64498E-09
         0.40056E-09
         0.76060E-09
         0.63309E-09
         0.65888E-09
         0.67542E-09
         0.58756E-09
         0.71624E-09
         0.91002E-09
         0.64247E-09
         0.10189E-08
         0.88682E-09
         0.40074E-09
         0.61790E-09
         0.70142E-09
         0.74135E-09
         0.71574E-09
         0.56245E-09
         0.35351E-09
         0.58396E-09
         0.77328E-09
         0.62407E-09
         0.54866E-09
         0.35944E-09
         0.61329E-09
         0.83275E-09
         0.87382E-09
         0.70539E-09
         0.43373E-09
         0.74673E-09
         0.27601E-09
         0.35140E-09
         0.32809E-09
         0.38774E-09
         0.37858E-09
         0.36762E-09
         0.39232E-09
         0.41477E-09
         0.39037E-09
         0.30450E-09
         0.24810E-09
         0.32005E-09
         0.42648E-09
         0.46879E-09
         0.44970E-09
         0.40541E-09
         0.36809E-09
         0.29894E-09
         0.25151E-09
         0.32871E-09
         0.43523E-09
         0.44963E-09
         0.36333E-09
         0.29497E-09
         0.36157E-09
         0.42763E-09
         0.91182E-09
         0.72293E-09
         0.77627E-09
         0.13367E-08
         0.71629E-09
         0.91436E-09
         0.50982E-09
         0.61240E-09
         0.10130E-08
         0.74146E-09
         0.30043E-09
         0.56932E-09
         0.62666E-09
         0.50762E-09
         0.64825E-09
         0.12054E-08
         0.94253E-09
         0.11983E-08
         0.70317E-09
         0.80351E-09
         0.75834E-09
         0.84041E-09
         0.64491E-09
         0.40053E-09
         0.76028E-09
         0.63304E-09
         0.65790E-09
         0.67476E-09
         0.58731E-09
         0.71609E-09
         0.91012E-09
         0.64239E-09
         0.10195E-08
         0.88762E-09
         0.40074E-09
         0.61778E-09
         0.70133E-09
         0.74130E-09
         0.71579E-09
         0.56249E-09
         0.35351E-09
         0.58388E-09
         0.77324E-09
         0.62398E-09
         0.54853E-09
         0.35935E-09
         0.61324E-09
         0.83277E-09
         0.87396E-09
         0.70554E-09
         0.43375E-09
         0.74711E-09
         0.27592E-09
         0.35140E-09
         0.32793E-09
         0.38775E-09
         0.37867E-09
         0.36770E-09
         0.39249E-09
         0.41507E-09
         0.39061E-09
         0.30457E-09
         0.24812E-09
         0.32006E-09
         0.42654E-09
         0.46890E-09
         0.44975E-09
         0.40540E-09
         0.36807E-09
         0.29892E-09
         0.25148E-09
         0.32869E-09
         0.43522E-09
         0.44963E-09
         0.36325E-09
         0.29491E-09
         0.36162E-09
         0.42762E-09
         0.91187E-09
         0.72278E-09
         0.77633E-09
         0.13373E-08
         0.71640E-09
         0.91463E-09
         0.50955E-09
         0.61204E-09
         0.10134E-08
         0.74098E-09
         0.30015E-09
         0.56922E-09
         0.62662E-09
         0.50691E-09
         0.64811E-09
         0.12058E-08
         0.94296E-09
         0.11989E-08
         0.70320E-09
         0.80361E-09
         0.75831E-09
         0.84045E-09
         0.64485E-09
         0.40048E-09
         0.75995E-09
         0.63298E-09
         0.65690E-09
         0.67409E-09
         0.58706E-09
         0.71592E-09
         0.91020E-09
         0.64231E-09
         0.10200E-08
         0.88843E-09
         0.40074E-09
         0.61766E-09
         0.70124E-09
         0.74124E-09
         0.71584E-09
         0.56251E-09
         0.35351E-09
         0.58380E-09
         0.77320E-09
         0.62389E-09
         0.54840E-09
         0.35926E-09
         0.61318E-09
         0.83277E-09
         0.87409E-09
         0.70568E-09
         0.43376E-09
         0.74748E-09
         0.27584E-09
         0.35139E-09
         0.32777E-09
         0.38777E-09
         0.37876E-09
         0.36778E-09
         0.39266E-09
         0.41536E-09
         0.39084E-09
         0.30464E-09
         0.24814E-09
         0.32006E-09
         0.42659E-09
         0.46900E-09
         0.44980E-09
         0.40539E-09
         0.36805E-09
         0.29890E-09
         0.25144E-09
         0.32867E-09
         0.43521E-09
         0.44963E-09
         0.36318E-09
         0.29485E-09
         0.36166E-09
         0.42761E-09
         0.91192E-09
         0.72263E-09
         0.77640E-09
         0.13380E-08
         0.71652E-09
         0.91491E-09
         0.50928E-09
         0.61167E-09
         0.10137E-08
         0.74049E-09
         0.29986E-09
         0.56912E-09
         0.62657E-09
         0.50620E-09
         0.64797E-09
         0.12061E-08
         0.94339E-09
         0.11995E-08
         0.70322E-09
         0.80371E-09
         0.75827E-09
         0.84048E-09
         0.64478E-09
         0.40044E-09
         0.75962E-09
         0.63293E-09
         0.65591E-09
         0.67343E-09
         0.58681E-09
         0.71576E-09
         0.91029E-09
         0.64223E-09
         0.10205E-08
         0.88923E-09
         0.40073E-09
         0.61754E-09
         0.70114E-09
         0.74119E-09
         0.71588E-09
         0.56254E-09
         0.35351E-09
         0.58372E-09
         0.77316E-09
         0.62380E-09
         0.54827E-09
         0.35917E-09
         0.61313E-09
         0.83278E-09
         0.87422E-09
         0.70582E-09
         0.43377E-09
         0.74785E-09
         0.27575E-09
         0.35138E-09
         0.32761E-09
         0.38778E-09
         0.37885E-09
         0.36786E-09
         0.39283E-09
         0.41566E-09
         0.39107E-09
         0.30470E-09
         0.24816E-09
         0.32007E-09
         0.42665E-09
         0.46911E-09
         0.44985E-09
         0.40538E-09
         0.36802E-09
         0.29887E-09
         0.25140E-09
         0.32864E-09
         0.43520E-09
         0.44963E-09
         0.36310E-09
         0.29478E-09
         0.36170E-09
         0.42760E-09
         0.91198E-09
         0.72248E-09
         0.77646E-09
         0.13386E-08
         0.71663E-09
         0.91520E-09
         0.50901E-09
         0.61131E-09
         0.10141E-08
         0.74000E-09
         0.29957E-09
         0.56902E-09
         0.62653E-09
         0.50549E-09
         0.64784E-09
         0.12065E-08
         0.94382E-09
         0.12002E-08
         0.70325E-09
         0.80381E-09
         0.75824E-09
         0.84052E-09
         0.64472E-09
         0.40040E-09
         0.75929E-09
         0.63288E-09
         0.65492E-09
         0.67276E-09
         0.58657E-09
         0.71560E-09
         0.91038E-09
         0.64216E-09
         0.10211E-08
         0.89003E-09
         0.40073E-09
         0.61742E-09
         0.70105E-09
         0.74114E-09
         0.71593E-09
         0.56257E-09
         0.35351E-09
         0.58364E-09
         0.77313E-09
         0.62371E-09
         0.54814E-09
         0.35908E-09
         0.61308E-09
         0.83280E-09
         0.87436E-09
         0.70597E-09
         0.43378E-09
         0.74823E-09
         0.27567E-09
         0.35138E-09
         0.32745E-09
         0.38779E-09
         0.37893E-09
         0.36794E-09
         0.39300E-09
         0.41596E-09
         0.39130E-09
         0.30477E-09
         0.24818E-09
         0.32008E-09
         0.42671E-09
         0.46921E-09
         0.44991E-09
         0.40537E-09
         0.36800E-09
         0.29885E-09
         0.25136E-09
         0.32862E-09
         0.43520E-09
         0.44963E-09
         0.36303E-09
         0.29472E-09
         0.36175E-09
         0.42759E-09
         0.91203E-09
         0.72233E-09
         0.77653E-09
         0.13392E-08
         0.71675E-09
         0.91547E-09
         0.50875E-09
         0.61094E-09
         0.10144E-08
         0.73952E-09
         0.29928E-09
         0.56892E-09
         0.62649E-09
         0.50478E-09
         0.64770E-09
         0.12068E-08
         0.94424E-09
         0.12008E-08
         0.70327E-09
         0.80391E-09
         0.75821E-09
         0.84055E-09
         0.64465E-09
         0.40035E-09
         0.75896E-09
         0.63282E-09
         0.65393E-09
         0.67210E-09
         0.58632E-09
         0.71543E-09
         0.91047E-09
         0.64208E-09
         0.10216E-08
         0.89084E-09
         0.40073E-09
         0.61730E-09
         0.70096E-09
         0.74108E-09
         0.71598E-09
         0.56259E-09
         0.35351E-09
         0.58356E-09
         0.77309E-09
         0.62362E-09
         0.54801E-09
         0.35898E-09
         0.61303E-09
         0.83281E-09
         0.87449E-09
         0.70611E-09
         0.43379E-09
         0.74860E-09
         0.27558E-09
         0.35137E-09
         0.32729E-09
         0.38781E-09
         0.37902E-09
         0.36802E-09
         0.39317E-09
         0.41625E-09
         0.39153E-09
         0.30484E-09
         0.24820E-09
         0.32009E-09
         0.42677E-09
         0.46932E-09
         0.44996E-09
         0.40536E-09
         0.36798E-09
         0.29883E-09
         0.25132E-09
         0.32859E-09
         0.43519E-09
         0.44963E-09
         0.36296E-09
         0.29465E-09
         0.36179E-09
         0.42758E-09
         0.91208E-09
         0.72218E-09
         0.77659E-09
         0.13399E-08
         0.71686E-09
         0.91576E-09
         0.50848E-09
         0.61058E-09
         0.10148E-08
         0.73903E-09
         0.29900E-09
         0.56882E-09
         0.62645E-09
         0.50408E-09
         0.64757E-09
         0.12072E-08
         0.94467E-09
         0.12014E-08
         0.70330E-09
         0.80401E-09
         0.75818E-09
         0.84059E-09
         0.64459E-09
         0.40031E-09
         0.75864E-09
         0.63277E-09
         0.65294E-09
         0.67143E-09
         0.58607E-09
         0.71527E-09
         0.91057E-09
         0.64200E-09
         0.10221E-08
         0.89164E-09
         0.40072E-09
         0.61719E-09
         0.70087E-09
         0.74103E-09
         0.71603E-09
         0.56262E-09
         0.35352E-09
         0.58348E-09
         0.77305E-09
         0.62354E-09
         0.54788E-09
         0.35889E-09
         0.61298E-09
         0.83282E-09
         0.87463E-09
         0.70626E-09
         0.43380E-09
         0.74897E-09
         0.27550E-09
         0.35137E-09
         0.32713E-09
         0.38782E-09
         0.37911E-09
         0.36810E-09
         0.39334E-09
         0.41655E-09
         0.39176E-09
         0.30491E-09
         0.24822E-09
         0.32010E-09
         0.42682E-09
         0.46942E-09
         0.45001E-09
         0.40534E-09
         0.36796E-09
         0.29881E-09
         0.25128E-09
         0.32857E-09
         0.43518E-09
         0.44963E-09
         0.36288E-09
         0.29459E-09
         0.36184E-09
         0.42757E-09
         0.91214E-09
         0.72204E-09
         0.77666E-09
         0.13405E-08
         0.71698E-09
         0.91604E-09
         0.50822E-09
         0.61022E-09
         0.10151E-08
         0.73855E-09
         0.29871E-09
         0.56872E-09
         0.62641E-09
         0.50337E-09
         0.64743E-09
         0.12075E-08
         0.94510E-09
         0.12020E-08
         0.70333E-09
         0.80411E-09
         0.75815E-09
         0.84063E-09
         0.64453E-09
         0.40027E-09
         0.75831E-09
         0.63272E-09
         0.65196E-09
         0.67077E-09
         0.58582E-09
         0.71511E-09
         0.91066E-09
         0.64192E-09
         0.10227E-08
         0.89245E-09
         0.40072E-09
         0.61707E-09
         0.70078E-09
         0.74098E-09
         0.71608E-09
         0.56265E-09
         0.35352E-09
         0.58340E-09
         0.77301E-09
         0.62345E-09
         0.54775E-09
         0.35880E-09
         0.61293E-09
         0.83283E-09
         0.87476E-09
         0.70641E-09
         0.43382E-09
         0.74935E-09
         0.27541E-09
         0.35136E-09
         0.32697E-09
         0.38784E-09
         0.37920E-09
         0.36818E-09
         0.39352E-09
         0.41685E-09
         0.39199E-09
         0.30498E-09
         0.24824E-09
         0.32011E-09
         0.42688E-09
         0.46953E-09
         0.45007E-09
         0.40533E-09
         0.36793E-09
         0.29878E-09
         0.25124E-09
         0.32855E-09
         0.43517E-09
         0.44963E-09
         0.36281E-09
         0.29452E-09
         0.36188E-09
         0.42756E-09
         0.91219E-09
         0.72188E-09
         0.77672E-09
         0.13412E-08
         0.71709E-09
         0.91632E-09
         0.50795E-09
         0.60986E-09
         0.10155E-08
         0.73806E-09
         0.29842E-09
         0.56862E-09
         0.62636E-09
         0.50266E-09
         0.64730E-09
         0.12079E-08
         0.94552E-09
         0.12026E-08
         0.70335E-09
         0.80421E-09
         0.75811E-09
         0.84066E-09
         0.64446E-09
         0.40023E-09
         0.75798E-09
         0.63267E-09
         0.65096E-09
         0.67010E-09
         0.58557E-09
         0.71494E-09
         0.91074E-09
         0.64184E-09
         0.10232E-08
         0.89325E-09
         0.40072E-09
         0.61695E-09
         0.70069E-09
         0.74092E-09
         0.71612E-09
         0.56268E-09
         0.35352E-09
         0.58332E-09
         0.77297E-09
         0.62336E-09
         0.54762E-09
         0.35871E-09
         0.61287E-09
         0.83284E-09
         0.87489E-09
         0.70655E-09
         0.43383E-09
         0.74972E-09
         0.27533E-09
         0.35136E-09
         0.32681E-09
         0.38785E-09
         0.37929E-09
         0.36825E-09
         0.39369E-09
         0.41715E-09
         0.39222E-09
         0.30505E-09
         0.24826E-09
         0.32011E-09
         0.42694E-09
         0.46963E-09
         0.45011E-09
         0.40532E-09
         0.36791E-09
         0.29876E-09
         0.25120E-09
         0.32853E-09
         0.43516E-09
         0.44962E-09
         0.36274E-09
         0.29445E-09
         0.36192E-09
         0.42755E-09
         0.91224E-09
         0.72173E-09
         0.77679E-09
         0.13418E-08
         0.71720E-09
         0.91660E-09
         0.50768E-09
         0.60949E-09
         0.10158E-08
         0.73758E-09
         0.29814E-09
         0.56852E-09
         0.62632E-09
         0.50195E-09
         0.64716E-09
         0.12082E-08
         0.94595E-09
         0.12032E-08
         0.70337E-09
         0.80431E-09
         0.75808E-09
         0.84069E-09
         0.64440E-09
         0.40018E-09
         0.75766E-09
         0.63262E-09
         0.64998E-09
         0.66943E-09
         0.58532E-09
         0.71478E-09
         0.91083E-09
         0.64176E-09
         0.10238E-08
         0.89406E-09
         0.40071E-09
         0.61683E-09
         0.70059E-09
         0.74087E-09
         0.71617E-09
         0.56270E-09
         0.35352E-09
         0.58324E-09
         0.77294E-09
         0.62327E-09
         0.54749E-09
         0.35861E-09
         0.61282E-09
         0.83284E-09
         0.87503E-09
         0.70669E-09
         0.43384E-09
         0.75009E-09
         0.27524E-09
         0.35135E-09
         0.32665E-09
         0.38786E-09
         0.37937E-09
         0.36833E-09
         0.39386E-09
         0.41745E-09
         0.39245E-09
         0.30512E-09
         0.24828E-09
         0.32012E-09
         0.42699E-09
         0.46974E-09
         0.45017E-09
         0.40531E-09
         0.36788E-09
         0.29873E-09
         0.25117E-09
         0.32850E-09
         0.43515E-09
         0.44962E-09
         0.36266E-09
         0.29439E-09
         0.36197E-09
         0.42754E-09
         0.91230E-09
         0.72159E-09
         0.77686E-09
         0.13425E-08
         0.71732E-09
         0.91688E-09
         0.50742E-09
         0.60913E-09
         0.10162E-08
         0.73710E-09
         0.29785E-09
         0.56842E-09
         0.62628E-09
         0.50125E-09
         0.64703E-09
         0.12086E-08
         0.94638E-09
         0.12038E-08
         0.70340E-09
         0.80441E-09
         0.75805E-09
         0.84073E-09
         0.64433E-09
         0.40014E-09
         0.75733E-09
         0.63257E-09
         0.64899E-09
         0.66877E-09
         0.58508E-09
         0.71462E-09
         0.91093E-09
         0.64169E-09
         0.10243E-08
         0.89487E-09
         0.40071E-09
         0.61671E-09
         0.70051E-09
         0.74082E-09
         0.71622E-09
         0.56273E-09
         0.35352E-09
         0.58316E-09
         0.77290E-09
         0.62318E-09
         0.54737E-09
         0.35852E-09
         0.61277E-09
         0.83286E-09
         0.87517E-09
         0.70684E-09
         0.43385E-09
         0.75047E-09
         0.27516E-09
         0.35135E-09
         0.32649E-09
         0.38788E-09
         0.37946E-09
         0.36841E-09
         0.39403E-09
         0.41775E-09
         0.39268E-09
         0.30519E-09
         0.24830E-09
         0.32013E-09
         0.42705E-09
         0.46985E-09
         0.45022E-09
         0.40530E-09
         0.36786E-09
         0.29871E-09
         0.25113E-09
         0.32848E-09
         0.43515E-09
         0.44962E-09
         0.36259E-09
         0.29433E-09
         0.36201E-09
         0.42753E-09
         0.91235E-09
         0.72143E-09
         0.77692E-09
         0.13431E-08
         0.71743E-09
         0.91716E-09
         0.50715E-09
         0.60877E-09
         0.10165E-08
         0.73661E-09
         0.29757E-09
         0.56832E-09
         0.62624E-09
         0.50054E-09
         0.64689E-09
         0.12089E-08
         0.94680E-09
         0.12044E-08
         0.70342E-09
         0.80450E-09
         0.75802E-09
         0.84076E-09
         0.64427E-09
         0.40010E-09
         0.75700E-09
         0.63251E-09
         0.64800E-09
         0.66810E-09
         0.58482E-09
         0.71445E-09
         0.91101E-09
         0.64161E-09
         0.10248E-08
         0.89567E-09
         0.40071E-09
         0.61659E-09
         0.70041E-09
         0.74077E-09
         0.71627E-09
         0.56276E-09
         0.35352E-09
         0.58308E-09
         0.77286E-09
         0.62309E-09
         0.54723E-09
         0.35843E-09
         0.61272E-09
         0.83287E-09
         0.87530E-09
         0.70698E-09
         0.43386E-09
         0.75084E-09
         0.27507E-09
         0.35134E-09
         0.32633E-09
         0.38789E-09
         0.37955E-09
         0.36849E-09
         0.39420E-09
         0.41804E-09
         0.39291E-09
         0.30525E-09
         0.24832E-09
         0.32014E-09
         0.42711E-09
         0.46995E-09
         0.45027E-09
         0.40528E-09
         0.36784E-09
         0.29869E-09
         0.25109E-09
         0.32845E-09
         0.43514E-09
         0.44962E-09
         0.36252E-09
         0.29426E-09
         0.36206E-09
         0.42751E-09
         0.91240E-09
         0.72128E-09
         0.77698E-09
         0.13437E-08
         0.71755E-09
         0.91744E-09
         0.50688E-09
         0.60841E-09
         0.10169E-08
         0.73612E-09
         0.29728E-09
         0.56822E-09
         0.62619E-09
         0.49984E-09
         0.64676E-09
         0.12093E-08
         0.94723E-09
         0.12050E-08
         0.70345E-09
         0.80460E-09
         0.75798E-09
         0.84080E-09
         0.64420E-09
         0.40006E-09
         0.75667E-09
         0.63246E-09
         0.64701E-09
         0.66744E-09
         0.58457E-09
         0.71429E-09
         0.91110E-09
         0.64153E-09
         0.10254E-08
         0.89648E-09
         0.40070E-09
         0.61647E-09
         0.70032E-09
         0.74071E-09
         0.71632E-09
         0.56279E-09
         0.35353E-09
         0.58300E-09
         0.77282E-09
         0.62300E-09
         0.54710E-09
         0.35834E-09
         0.61266E-09
         0.83288E-09
         0.87543E-09
         0.70713E-09
         0.43387E-09
         0.75122E-09
         0.27499E-09
         0.35133E-09
         0.32617E-09
         0.38790E-09
         0.37964E-09
         0.36857E-09
         0.39437E-09
         0.41834E-09
         0.39314E-09
         0.30532E-09
         0.24834E-09
         0.32014E-09
         0.42716E-09
         0.47005E-09
         0.45032E-09
         0.40527E-09
         0.36781E-09
         0.29866E-09
         0.25105E-09
         0.32843E-09
         0.43513E-09
         0.44962E-09
         0.36244E-09
         0.29419E-09
         0.36210E-09
         0.42750E-09
         0.91246E-09
         0.72114E-09
         0.77705E-09
         0.13444E-08
         0.71767E-09
         0.91773E-09
         0.50662E-09
         0.60805E-09
         0.10173E-08
         0.73564E-09
         0.29700E-09
         0.56812E-09
         0.62616E-09
         0.49914E-09
         0.64663E-09
         0.12097E-08
         0.94766E-09
         0.12056E-08
         0.70348E-09
         0.80471E-09
         0.75796E-09
         0.84084E-09
         0.64414E-09
         0.40002E-09
         0.75635E-09
         0.63241E-09
         0.64603E-09
         0.66678E-09
         0.58433E-09
         0.71413E-09
         0.91120E-09
         0.64146E-09
         0.10259E-08
         0.89729E-09
         0.40070E-09
         0.61636E-09
         0.70023E-09
         0.74067E-09
         0.71637E-09
         0.56282E-09
         0.35353E-09
         0.58293E-09
         0.77279E-09
         0.62291E-09
         0.54698E-09
         0.35825E-09
         0.61261E-09
         0.83289E-09
         0.87557E-09
         0.70728E-09
         0.43389E-09
         0.75160E-09
         0.27491E-09
         0.35133E-09
         0.32601E-09
         0.38792E-09
         0.37972E-09
         0.36865E-09
         0.39454E-09
         0.41864E-09
         0.39337E-09
         0.30539E-09
         0.24836E-09
         0.32015E-09
         0.42722E-09
         0.47016E-09
         0.45038E-09
         0.40526E-09
         0.36779E-09
         0.29864E-09
         0.25101E-09
         0.32841E-09
         0.43512E-09
         0.44962E-09
         0.36237E-09
         0.29413E-09
         0.36215E-09
         0.42750E-09
         0.91249E-09
         0.72097E-09
         0.77710E-09
         0.13450E-08
         0.71777E-09
         0.91799E-09
         0.50634E-09
         0.60767E-09
         0.10176E-08
         0.73514E-09
         0.29670E-09
         0.56801E-09
         0.62610E-09
         0.49842E-09
         0.64648E-09
         0.12100E-08
         0.94806E-09
         0.12062E-08
         0.70349E-09
         0.80479E-09
         0.75791E-09
         0.84086E-09
         0.64406E-09
         0.39997E-09
         0.75600E-09
         0.63234E-09
         0.64503E-09
         0.66610E-09
         0.58407E-09
         0.71395E-09
         0.91127E-09
         0.64136E-09
         0.10264E-08
         0.89808E-09
         0.40069E-09
         0.61622E-09
         0.70012E-09
         0.74060E-09
         0.71641E-09
         0.56283E-09
         0.35352E-09
         0.58283E-09
         0.77273E-09
         0.62281E-09
         0.54684E-09
         0.35815E-09
         0.61255E-09
         0.83288E-09
         0.87569E-09
         0.70741E-09
         0.43389E-09
         0.75195E-09
         0.27482E-09
         0.35132E-09
         0.32584E-09
         0.38793E-09
         0.37980E-09
         0.36872E-09
         0.39470E-09
         0.41893E-09
         0.39360E-09
         0.30545E-09
         0.24837E-09
         0.32016E-09
         0.42727E-09
         0.47026E-09
         0.45042E-09
         0.40524E-09
         0.36776E-09
         0.29861E-09
         0.25097E-09
         0.32838E-09
         0.43510E-09
         0.44961E-09
         0.36229E-09
         0.29406E-09
         0.36218E-09
         0.42748E-09
         0.91256E-09
         0.72083E-09
         0.77718E-09
         0.13457E-08
         0.71789E-09
         0.91829E-09
         0.50608E-09
         0.60732E-09
         0.10180E-08
         0.73467E-09
         0.29642E-09
         0.56792E-09
         0.62607E-09
         0.49772E-09
         0.64636E-09
         0.12103E-08
         0.94850E-09
         0.12068E-08
         0.70352E-09
         0.80490E-09
         0.75789E-09
         0.84091E-09
         0.64401E-09
         0.39993E-09
         0.75569E-09
         0.63230E-09
         0.64405E-09
         0.66544E-09
         0.58382E-09
         0.71379E-09
         0.91137E-09
         0.64129E-09
         0.10270E-08
         0.89890E-09
         0.40069E-09
         0.61611E-09
         0.70004E-09
         0.74056E-09
         0.71646E-09
         0.56287E-09
         0.35353E-09
         0.58276E-09
         0.77271E-09
         0.62273E-09
         0.54672E-09
         0.35806E-09
         0.61251E-09
         0.83291E-09
         0.87583E-09
         0.70756E-09
         0.43391E-09
         0.75234E-09
         0.27474E-09
         0.35132E-09
         0.32569E-09
         0.38794E-09
         0.37990E-09
         0.36881E-09
         0.39488E-09
         0.41923E-09
         0.39383E-09
         0.30553E-09
         0.24840E-09
         0.32017E-09
         0.42734E-09
         0.47037E-09
         0.45048E-09
         0.40524E-09
         0.36774E-09
         0.29859E-09
         0.25093E-09
         0.32836E-09
         0.43510E-09
         0.44962E-09
         0.36222E-09
         0.29400E-09
         0.36223E-09
         0.42747E-09
         0.45631E-09
         0.36039E-09
         0.38862E-09
         0.67302E-09
         0.35899E-09
         0.45923E-09
         0.25298E-09
         0.30358E-09
         0.50909E-09
         0.36723E-09
         0.14815E-09
         0.28394E-09
         0.31303E-09
         0.24869E-09
         0.32316E-09
         0.60528E-09
         0.47437E-09
         0.60357E-09
         0.35178E-09
         0.40249E-09
         0.37895E-09
         0.42048E-09
         0.32200E-09
         0.19996E-09
         0.37777E-09
         0.31615E-09
         0.32179E-09
         0.33257E-09
         0.29186E-09
         0.35687E-09
         0.45572E-09
         0.32064E-09
         0.51365E-09
         0.44967E-09
         0.20035E-09
         0.30804E-09
         0.35001E-09
         0.37028E-09
         0.35826E-09
         0.28145E-09
         0.17677E-09
         0.29137E-09
         0.38636E-09
         0.31135E-09
         0.27333E-09
         0.17901E-09
         0.30625E-09
         0.41647E-09
         0.43797E-09
         0.35383E-09
         0.21697E-09
         0.37628E-09
         0.13735E-09
         0.17566E-09
         0.16281E-09
         0.19398E-09
         0.18998E-09
         0.18443E-09
         0.19749E-09
         0.20970E-09
         0.19698E-09
         0.15279E-09
         0.12421E-09
         0.16009E-09
         0.21369E-09
         0.23522E-09
         0.22526E-09
         0.20262E-09
         0.18387E-09
         0.14930E-09
         0.12546E-09
         0.16418E-09
         0.21756E-09
         0.22482E-09
         0.18110E-09
         0.14699E-09
         0.18113E-09
         0.21374E-09
  
SCALARS               pre_disp_force_x  double 1
LOOKUP_TABLE default
         0.00000E+00
         0.00000E+00
         0.00000E+00
         0.00000E+00
         0.00000E+00
         0.00000E+00
         0.00000E+00
         0.00000E+00
         0.00000E+00
         0.00000E+00
         0.00000E+00
         0.00000E+00
         0.00000E+00
         0.00000E+00
         0.00000E+00
         0.00000E+00
         0.00000E+00
         0.00000E+00
         0.00000E+00
         0.00000E+00
         0.00000E+00
         0.00000E+00
         0.00000E+00
         0.00000E+00
         0.00000E+00
         0.00000E+00
         0.00000E+00
         0.00000E+00
         0.00000E+00
         0.00000E+00
         0.00000E+00
         0.00000E+00
         0.00000E+00
         0.00000E+00
         0.00000E+00
         0.00000E+00
         0.00000E+00
         0.00000E+00
         0.00000E+00
         0.00000E+00
         0.00000E+00
         0.00000E+00
         0.00000E+00
         0.00000E+00
         0.00000E+00
         0.00000E+00
         0.00000E+00
         0.00000E+00
         0.00000E+00
         0.00000E+00
         0.00000E+00
         0.00000E+00
         0.00000E+00
         0.00000E+00
         0.00000E+00
         0.00000E+00
         0.00000E+00
         0.00000E+00
         0.00000E+00
         0.00000E+00
         0.00000E+00
         0.00000E+00
         0.00000E+00
         0.00000E+00
         0.00000E+00
         0.00000E+00
         0.00000E+00
         0.00000E+00
         0.00000E+00
         0.00000E+00
         0.00000E+00
         0.00000E+00
         0.00000E+00
         0.00000E+00
         0.00000E+00
         0.00000E+00
         0.00000E+00
         0.00000E+00
         0.00000E+00
         0.00000E+00
         0.00000E+00
         0.00000E+00
         0.00000E+00
         0.00000E+00
         0.00000E+00
         0.00000E+00
         0.00000E+00
         0.00000E+00
         0.00000E+00
         0.00000E+00
         0.00000E+00
         0.00000E+00
         0.00000E+00
         0.00000E+00
         0.00000E+00
         0.00000E+00
         0.00000E+00
         0.00000E+00
         0.00000E+00
         0.00000E+00
         0.00000E+00
         0.00000E+00
         0.00000E+00
         0.00000E+00
         0.00000E+00
         0.00000E+00
         0.00000E+00
         0.00000E+00
         0.00000E+00
         0.00000E+00
         0.00000E+00
         0.00000E+00
         0.00000E+00
         0.00000E+00
         0.00000E+00
         0.00000E+00
         0.00000E+00
         0.00000E+00
         0.00000E+00
         0.00000E+00
         0.00000E+00
         0.00000E+00
         0.00000E+00
         0.00000E+00
         0.00000E+00
         0.00000E+00
         0.00000E+00
         0.00000E+00
         0.00000E+00
         0.00000E+00
         0.00000E+00
         0.00000E+00
         0.00000E+00
         0.00000E+00
         0.00000E+00
         0.00000E+00
         0.00000E+00
         0.00000E+00
         0.00000E+00
         0.00000E+00
         0.00000E+00
         0.00000E+00
         0.00000E+00
         0.00000E+00
         0.00000E+00
         0.00000E+00
         0.00000E+00
         0.00000E+00
         0.00000E+00
         0.00000E+00
         0.00000E+00
         0.00000E+00
         0.00000E+00
         0.00000E+00
         0.00000E+00
         0.00000E+00
         0.00000E+00
         0.00000E+00
         0.00000E+00
         0.00000E+00
         0.00000E+00
         0.00000E+00
         0.00000E+00
         0.00000E+00
         0.00000E+00
         0.00000E+00
         0.00000E+00
         0.00000E+00
         0.00000E+00
         0.00000E+00
         0.00000E+00
         0.00000E+00
         0.00000E+00
         0.00000E+00
         0.00000E+00
         0.00000E+00
         0.00000E+00
         0.00000E+00
         0.00000E+00
         0.00000E+00
         0.00000E+00
         0.00000E+00
         0.00000E+00
         0.00000E+00
         0.00000E+00
         0.00000E+00
         0.00000E+00
         0.00000E+00
         0.00000E+00
         0.00000E+00
         0.00000E+00
         0.00000E+00
         0.00000E+00
         0.00000E+00
         0.00000E+00
         0.00000E+00
         0.00000E+00
         0.00000E+00
         0.00000E+00
         0.00000E+00
         0.00000E+00
         0.00000E+00
         0.00000E+00
         0.00000E+00
         0.00000E+00
         0.00000E+00
         0.00000E+00
         0.00000E+00
         0.00000E+00
         0.00000E+00
         0.00000E+00
         0.00000E+00
         0.00000E+00
         0.00000E+00
         0.00000E+00
         0.00000E+00
         0.00000E+00
         0.00000E+00
         0.00000E+00
         0.00000E+00
         0.00000E+00
         0.00000E+00
         0.00000E+00
         0.00000E+00
         0.00000E+00
         0.00000E+00
         0.00000E+00
         0.00000E+00
         0.00000E+00
         0.00000E+00
         0.00000E+00
         0.00000E+00
         0.00000E+00
         0.00000E+00
         0.00000E+00
         0.00000E+00
         0.00000E+00
         0.00000E+00
         0.00000E+00
         0.00000E+00
         0.00000E+00
         0.00000E+00
         0.00000E+00
         0.00000E+00
         0.00000E+00
         0.00000E+00
         0.00000E+00
         0.00000E+00
         0.00000E+00
         0.00000E+00
         0.00000E+00
         0.00000E+00
         0.00000E+00
         0.00000E+00
         0.00000E+00
         0.00000E+00
         0.00000E+00
         0.00000E+00
         0.00000E+00
         0.00000E+00
         0.00000E+00
         0.00000E+00
         0.00000E+00
         0.00000E+00
         0.00000E+00
         0.00000E+00
         0.00000E+00
         0.00000E+00
         0.00000E+00
         0.00000E+00
         0.00000E+00
         0.00000E+00
         0.00000E+00
         0.00000E+00
         0.00000E+00
         0.00000E+00
         0.00000E+00
         0.00000E+00
         0.00000E+00
         0.00000E+00
         0.00000E+00
         0.00000E+00
         0.00000E+00
         0.00000E+00
         0.00000E+00
         0.00000E+00
         0.00000E+00
         0.00000E+00
         0.00000E+00
         0.00000E+00
         0.00000E+00
         0.00000E+00
         0.00000E+00
         0.00000E+00
         0.00000E+00
         0.00000E+00
         0.00000E+00
         0.00000E+00
         0.00000E+00
         0.00000E+00
         0.00000E+00
         0.00000E+00
         0.00000E+00
         0.00000E+00
         0.00000E+00
         0.00000E+00
         0.00000E+00
         0.00000E+00
         0.00000E+00
         0.00000E+00
         0.00000E+00
         0.00000E+00
         0.00000E+00
         0.00000E+00
         0.00000E+00
         0.00000E+00
         0.00000E+00
         0.00000E+00
         0.00000E+00
         0.00000E+00
         0.00000E+00
         0.00000E+00
         0.00000E+00
         0.00000E+00
         0.00000E+00
         0.00000E+00
         0.00000E+00
         0.00000E+00
         0.00000E+00
         0.00000E+00
         0.00000E+00
         0.00000E+00
         0.00000E+00
         0.00000E+00
         0.00000E+00
         0.00000E+00
         0.00000E+00
         0.00000E+00
         0.00000E+00
         0.00000E+00
         0.00000E+00
         0.00000E+00
         0.00000E+00
         0.00000E+00
         0.00000E+00
         0.00000E+00
         0.00000E+00
         0.00000E+00
         0.00000E+00
         0.00000E+00
         0.00000E+00
         0.00000E+00
         0.00000E+00
         0.00000E+00
         0.00000E+00
         0.00000E+00
         0.00000E+00
         0.00000E+00
         0.00000E+00
         0.00000E+00
         0.00000E+00
         0.00000E+00
         0.00000E+00
         0.00000E+00
         0.00000E+00
         0.00000E+00
         0.00000E+00
         0.00000E+00
         0.00000E+00
         0.00000E+00
         0.00000E+00
         0.00000E+00
         0.00000E+00
         0.00000E+00
         0.00000E+00
         0.00000E+00
         0.00000E+00
         0.00000E+00
         0.00000E+00
         0.00000E+00
         0.00000E+00
         0.00000E+00
         0.00000E+00
         0.00000E+00
         0.00000E+00
         0.00000E+00
         0.00000E+00
         0.00000E+00
         0.00000E+00
         0.00000E+00
         0.00000E+00
         0.00000E+00
         0.00000E+00
         0.00000E+00
         0.00000E+00
         0.00000E+00
         0.00000E+00
         0.00000E+00
         0.00000E+00
         0.00000E+00
         0.00000E+00
         0.00000E+00
         0.00000E+00
         0.00000E+00
         0.00000E+00
         0.00000E+00
         0.00000E+00
         0.00000E+00
         0.00000E+00
         0.00000E+00
         0.00000E+00
         0.00000E+00
         0.00000E+00
         0.00000E+00
         0.00000E+00
         0.00000E+00
         0.00000E+00
         0.00000E+00
         0.00000E+00
         0.00000E+00
         0.00000E+00
         0.00000E+00
         0.00000E+00
         0.00000E+00
         0.00000E+00
         0.00000E+00
         0.00000E+00
         0.00000E+00
         0.00000E+00
         0.00000E+00
         0.00000E+00
         0.00000E+00
         0.00000E+00
         0.00000E+00
         0.00000E+00
         0.00000E+00
         0.00000E+00
         0.00000E+00
         0.00000E+00
         0.00000E+00
         0.00000E+00
         0.00000E+00
         0.00000E+00
         0.00000E+00
         0.00000E+00
         0.00000E+00
         0.00000E+00
         0.00000E+00
         0.00000E+00
         0.00000E+00
         0.00000E+00
         0.00000E+00
         0.00000E+00
         0.00000E+00
         0.00000E+00
         0.00000E+00
         0.00000E+00
         0.00000E+00
         0.00000E+00
         0.00000E+00
         0.00000E+00
         0.00000E+00
         0.00000E+00
         0.00000E+00
         0.00000E+00
         0.00000E+00
         0.00000E+00
         0.00000E+00
         0.00000E+00
         0.00000E+00
         0.00000E+00
         0.00000E+00
         0.00000E+00
         0.00000E+00
         0.00000E+00
         0.00000E+00
         0.00000E+00
         0.00000E+00
         0.00000E+00
         0.00000E+00
         0.00000E+00
         0.00000E+00
         0.00000E+00
         0.00000E+00
         0.00000E+00
         0.00000E+00
         0.00000E+00
         0.00000E+00
         0.00000E+00
         0.00000E+00
         0.00000E+00
         0.00000E+00
         0.00000E+00
         0.00000E+00
         0.00000E+00
         0.00000E+00
         0.00000E+00
         0.00000E+00
         0.00000E+00
         0.00000E+00
         0.00000E+00
         0.00000E+00
         0.00000E+00
         0.00000E+00
         0.00000E+00
         0.00000E+00
         0.00000E+00
         0.00000E+00
         0.00000E+00
         0.00000E+00
         0.00000E+00
         0.00000E+00
         0.00000E+00
         0.00000E+00
         0.00000E+00
         0.00000E+00
         0.00000E+00
         0.00000E+00
         0.00000E+00
         0.00000E+00
         0.00000E+00
         0.00000E+00
         0.00000E+00
         0.00000E+00
         0.00000E+00
         0.00000E+00
         0.00000E+00
         0.00000E+00
         0.00000E+00
         0.00000E+00
         0.00000E+00
         0.00000E+00
         0.00000E+00
         0.00000E+00
         0.00000E+00
         0.00000E+00
         0.00000E+00
         0.00000E+00
         0.00000E+00
         0.00000E+00
         0.00000E+00
         0.00000E+00
         0.00000E+00
         0.00000E+00
         0.00000E+00
         0.00000E+00
         0.00000E+00
         0.00000E+00
         0.00000E+00
         0.00000E+00
         0.00000E+00
         0.00000E+00
         0.00000E+00
         0.00000E+00
         0.00000E+00
         0.00000E+00
         0.00000E+00
         0.00000E+00
         0.00000E+00
         0.00000E+00
         0.00000E+00
         0.00000E+00
         0.00000E+00
         0.00000E+00
         0.00000E+00
         0.00000E+00
         0.00000E+00
         0.00000E+00
         0.00000E+00
         0.00000E+00
         0.00000E+00
         0.00000E+00
         0.00000E+00
         0.00000E+00
         0.00000E+00
         0.00000E+00
         0.00000E+00
         0.00000E+00
         0.00000E+00
         0.00000E+00
         0.00000E+00
         0.00000E+00
         0.00000E+00
         0.00000E+00
         0.00000E+00
         0.00000E+00
         0.00000E+00
         0.00000E+00
         0.00000E+00
         0.00000E+00
         0.00000E+00
         0.00000E+00
         0.00000E+00
         0.00000E+00
         0.00000E+00
         0.00000E+00
         0.00000E+00
         0.00000E+00
         0.00000E+00
         0.00000E+00
         0.00000E+00
         0.00000E+00
         0.00000E+00
         0.00000E+00
         0.00000E+00
         0.00000E+00
         0.00000E+00
         0.00000E+00
         0.00000E+00
         0.00000E+00
         0.00000E+00
         0.00000E+00
         0.00000E+00
         0.00000E+00
         0.00000E+00
         0.00000E+00
         0.00000E+00
         0.00000E+00
         0.00000E+00
         0.00000E+00
         0.00000E+00
         0.00000E+00
         0.00000E+00
         0.00000E+00
         0.00000E+00
         0.00000E+00
         0.00000E+00
         0.00000E+00
         0.00000E+00
         0.00000E+00
         0.00000E+00
         0.00000E+00
         0.00000E+00
         0.00000E+00
         0.00000E+00
         0.00000E+00
         0.00000E+00
         0.00000E+00
         0.00000E+00
         0.00000E+00
         0.00000E+00
         0.00000E+00
         0.00000E+00
         0.00000E+00
         0.00000E+00
         0.00000E+00
         0.00000E+00
         0.00000E+00
         0.00000E+00
         0.00000E+00
         0.00000E+00
         0.00000E+00
         0.00000E+00
         0.00000E+00
         0.00000E+00
         0.00000E+00
         0.00000E+00
         0.00000E+00
         0.00000E+00
         0.00000E+00
         0.00000E+00
         0.00000E+00
         0.00000E+00
         0.00000E+00
         0.00000E+00
         0.00000E+00
         0.00000E+00
         0.00000E+00
         0.00000E+00
         0.00000E+00
         0.00000E+00
         0.00000E+00
         0.00000E+00
         0.00000E+00
         0.00000E+00
         0.00000E+00
         0.00000E+00
         0.00000E+00
         0.00000E+00
         0.00000E+00
         0.00000E+00
         0.00000E+00
         0.00000E+00
         0.00000E+00
         0.00000E+00
         0.00000E+00
         0.00000E+00
         0.00000E+00
         0.00000E+00
         0.00000E+00
         0.00000E+00
         0.00000E+00
         0.00000E+00
         0.00000E+00
         0.00000E+00
         0.00000E+00
         0.00000E+00
         0.00000E+00
         0.00000E+00
         0.00000E+00
         0.00000E+00
         0.00000E+00
         0.00000E+00
         0.00000E+00
         0.00000E+00
         0.00000E+00
         0.00000E+00
         0.00000E+00
         0.00000E+00
         0.00000E+00
         0.00000E+00
         0.00000E+00
         0.00000E+00
         0.00000E+00
         0.00000E+00
         0.00000E+00
         0.00000E+00
         0.00000E+00
         0.00000E+00
         0.00000E+00
         0.00000E+00
         0.00000E+00
         0.00000E+00
         0.00000E+00
         0.00000E+00
         0.00000E+00
         0.00000E+00
         0.00000E+00
         0.00000E+00
         0.00000E+00
         0.00000E+00
         0.00000E+00
         0.00000E+00
         0.00000E+00
         0.00000E+00
         0.00000E+00
         0.00000E+00
         0.00000E+00
         0.00000E+00
         0.00000E+00
         0.00000E+00
         0.00000E+00
         0.00000E+00
         0.00000E+00
         0.00000E+00
         0.00000E+00
         0.00000E+00
         0.00000E+00
         0.00000E+00
         0.00000E+00
         0.00000E+00
         0.00000E+00
         0.00000E+00
         0.00000E+00
         0.00000E+00
         0.00000E+00
         0.00000E+00
         0.00000E+00
         0.00000E+00
         0.00000E+00
         0.00000E+00
         0.00000E+00
         0.00000E+00
         0.00000E+00
         0.00000E+00
         0.00000E+00
         0.00000E+00
         0.00000E+00
         0.00000E+00
         0.00000E+00
         0.00000E+00
         0.00000E+00
         0.00000E+00
         0.00000E+00
         0.00000E+00
         0.00000E+00
         0.00000E+00
         0.00000E+00
         0.00000E+00
         0.00000E+00
         0.00000E+00
         0.00000E+00
         0.00000E+00
         0.00000E+00
         0.00000E+00
         0.00000E+00
         0.00000E+00
         0.00000E+00
         0.00000E+00
         0.00000E+00
         0.00000E+00
         0.00000E+00
         0.00000E+00
         0.00000E+00
         0.00000E+00
         0.00000E+00
         0.00000E+00
         0.00000E+00
         0.00000E+00
         0.00000E+00
         0.00000E+00
         0.00000E+00
         0.00000E+00
         0.00000E+00
         0.00000E+00
         0.00000E+00
         0.00000E+00
         0.00000E+00
         0.00000E+00
         0.00000E+00
         0.00000E+00
         0.00000E+00
         0.00000E+00
         0.00000E+00
         0.00000E+00
         0.00000E+00
         0.00000E+00
         0.00000E+00
         0.00000E+00
         0.00000E+00
         0.00000E+00
         0.00000E+00
         0.00000E+00
         0.00000E+00
         0.00000E+00
         0.00000E+00
         0.00000E+00
         0.00000E+00
         0.00000E+00
         0.00000E+00
         0.00000E+00
         0.00000E+00
         0.00000E+00
         0.00000E+00
         0.00000E+00
         0.00000E+00
         0.00000E+00
         0.00000E+00
         0.00000E+00
         0.00000E+00
         0.00000E+00
         0.00000E+00
         0.00000E+00
         0.00000E+00
         0.00000E+00
         0.00000E+00
         0.00000E+00
         0.00000E+00
         0.00000E+00
         0.00000E+00
         0.00000E+00
         0.00000E+00
         0.00000E+00
         0.00000E+00
         0.00000E+00
         0.00000E+00
         0.00000E+00
         0.00000E+00
         0.00000E+00
         0.00000E+00
         0.00000E+00
         0.00000E+00
         0.00000E+00
         0.00000E+00
         0.00000E+00
         0.00000E+00
         0.00000E+00
         0.00000E+00
         0.00000E+00
         0.00000E+00
         0.00000E+00
         0.00000E+00
         0.00000E+00
         0.00000E+00
         0.00000E+00
         0.00000E+00
         0.00000E+00
         0.00000E+00
         0.00000E+00
         0.00000E+00
         0.00000E+00
         0.00000E+00
         0.00000E+00
         0.00000E+00
         0.00000E+00
         0.00000E+00
         0.00000E+00
         0.00000E+00
         0.00000E+00
         0.00000E+00
         0.00000E+00
         0.00000E+00
         0.00000E+00
         0.00000E+00
         0.00000E+00
         0.00000E+00
         0.00000E+00
         0.00000E+00
         0.00000E+00
         0.00000E+00
         0.00000E+00
         0.00000E+00
         0.00000E+00
         0.00000E+00
         0.00000E+00
         0.00000E+00
         0.00000E+00
         0.00000E+00
         0.00000E+00
         0.00000E+00
         0.00000E+00
         0.00000E+00
         0.00000E+00
         0.00000E+00
         0.00000E+00
         0.00000E+00
         0.00000E+00
         0.00000E+00
         0.00000E+00
         0.00000E+00
         0.00000E+00
         0.00000E+00
         0.00000E+00
         0.00000E+00
         0.00000E+00
         0.00000E+00
         0.00000E+00
         0.00000E+00
         0.00000E+00
         0.00000E+00
         0.00000E+00
         0.00000E+00
         0.00000E+00
         0.00000E+00
         0.00000E+00
         0.00000E+00
         0.00000E+00
         0.00000E+00
         0.00000E+00
         0.00000E+00
         0.00000E+00
         0.00000E+00
         0.00000E+00
         0.00000E+00
         0.00000E+00
         0.00000E+00
         0.00000E+00
         0.00000E+00
         0.00000E+00
         0.00000E+00
         0.00000E+00
         0.00000E+00
         0.00000E+00
         0.00000E+00
         0.00000E+00
         0.00000E+00
         0.00000E+00
         0.00000E+00
         0.00000E+00
         0.00000E+00
         0.00000E+00
         0.00000E+00
         0.00000E+00
         0.00000E+00
         0.00000E+00
         0.00000E+00
         0.00000E+00
         0.00000E+00
         0.00000E+00
         0.00000E+00
         0.00000E+00
         0.00000E+00
         0.00000E+00
         0.00000E+00
         0.00000E+00
         0.00000E+00
         0.00000E+00
         0.00000E+00
         0.00000E+00
         0.00000E+00
         0.00000E+00
         0.00000E+00
         0.00000E+00
         0.00000E+00
         0.00000E+00
         0.00000E+00
         0.00000E+00
         0.00000E+00
         0.00000E+00
         0.00000E+00
         0.00000E+00
         0.00000E+00
         0.00000E+00
         0.00000E+00
         0.00000E+00
         0.00000E+00
         0.00000E+00
         0.00000E+00
         0.00000E+00
         0.00000E+00
         0.00000E+00
         0.00000E+00
         0.00000E+00
         0.00000E+00
         0.00000E+00
         0.00000E+00
         0.00000E+00
         0.00000E+00
         0.00000E+00
         0.00000E+00
         0.00000E+00
         0.00000E+00
         0.00000E+00
         0.00000E+00
         0.00000E+00
         0.00000E+00
         0.00000E+00
         0.00000E+00
         0.00000E+00
         0.00000E+00
         0.00000E+00
         0.00000E+00
         0.00000E+00
         0.00000E+00
         0.00000E+00
         0.00000E+00
         0.00000E+00
         0.00000E+00
         0.00000E+00
         0.00000E+00
         0.00000E+00
         0.00000E+00
         0.00000E+00
         0.00000E+00
         0.00000E+00
         0.00000E+00
         0.00000E+00
         0.00000E+00
         0.00000E+00
         0.00000E+00
         0.00000E+00
         0.00000E+00
         0.00000E+00
         0.00000E+00
         0.00000E+00
         0.00000E+00
         0.00000E+00
         0.00000E+00
         0.00000E+00
         0.00000E+00
         0.00000E+00
         0.00000E+00
         0.00000E+00
         0.00000E+00
         0.00000E+00
         0.00000E+00
         0.00000E+00
         0.00000E+00
         0.00000E+00
         0.00000E+00
         0.00000E+00
         0.00000E+00
         0.00000E+00
         0.00000E+00
         0.00000E+00
         0.00000E+00
         0.00000E+00
         0.00000E+00
         0.00000E+00
         0.00000E+00
         0.00000E+00
         0.00000E+00
         0.00000E+00
         0.00000E+00
         0.00000E+00
         0.00000E+00
         0.00000E+00
         0.00000E+00
         0.00000E+00
         0.00000E+00
         0.00000E+00
         0.00000E+00
         0.00000E+00
         0.00000E+00
         0.00000E+00
         0.00000E+00
         0.00000E+00
         0.00000E+00
         0.00000E+00
         0.00000E+00
         0.00000E+00
         0.00000E+00
         0.00000E+00
         0.00000E+00
         0.00000E+00
         0.00000E+00
         0.00000E+00
         0.00000E+00
         0.00000E+00
         0.00000E+00
         0.00000E+00
         0.00000E+00
         0.00000E+00
         0.00000E+00
         0.00000E+00
         0.00000E+00
         0.00000E+00
         0.00000E+00
         0.00000E+00
         0.00000E+00
         0.00000E+00
         0.00000E+00
         0.00000E+00
         0.00000E+00
         0.00000E+00
         0.00000E+00
         0.00000E+00
         0.00000E+00
         0.00000E+00
         0.00000E+00
         0.00000E+00
         0.00000E+00
         0.00000E+00
         0.00000E+00
         0.00000E+00
         0.00000E+00
         0.00000E+00
         0.00000E+00
         0.00000E+00
         0.00000E+00
         0.00000E+00
         0.00000E+00
         0.00000E+00
         0.00000E+00
         0.00000E+00
         0.00000E+00
         0.00000E+00
         0.00000E+00
         0.00000E+00
         0.00000E+00
         0.00000E+00
         0.00000E+00
         0.00000E+00
         0.00000E+00
         0.00000E+00
         0.00000E+00
         0.00000E+00
         0.00000E+00
         0.00000E+00
         0.00000E+00
         0.00000E+00
         0.00000E+00
         0.00000E+00
         0.00000E+00
         0.00000E+00
         0.00000E+00
         0.00000E+00
         0.00000E+00
         0.00000E+00
         0.00000E+00
         0.00000E+00
         0.00000E+00
         0.00000E+00
         0.00000E+00
         0.00000E+00
         0.00000E+00
         0.00000E+00
         0.00000E+00
         0.00000E+00
         0.00000E+00
         0.00000E+00
         0.00000E+00
         0.00000E+00
         0.00000E+00
         0.00000E+00
         0.00000E+00
         0.00000E+00
         0.00000E+00
         0.00000E+00
         0.00000E+00
         0.00000E+00
         0.00000E+00
         0.00000E+00
         0.00000E+00
         0.00000E+00
         0.00000E+00
         0.00000E+00
         0.00000E+00
         0.00000E+00
         0.00000E+00
         0.00000E+00
         0.00000E+00
         0.00000E+00
         0.00000E+00
         0.00000E+00
         0.00000E+00
         0.00000E+00
         0.00000E+00
         0.00000E+00
         0.00000E+00
         0.00000E+00
         0.00000E+00
         0.00000E+00
         0.00000E+00
         0.00000E+00
         0.00000E+00
         0.00000E+00
         0.00000E+00
         0.00000E+00
         0.00000E+00
         0.00000E+00
         0.00000E+00
         0.00000E+00
         0.00000E+00
         0.00000E+00
         0.00000E+00
         0.00000E+00
         0.00000E+00
         0.00000E+00
         0.00000E+00
         0.00000E+00
         0.00000E+00
         0.00000E+00
         0.00000E+00
         0.00000E+00
         0.00000E+00
         0.00000E+00
         0.00000E+00
         0.00000E+00
         0.00000E+00
         0.00000E+00
         0.00000E+00
         0.00000E+00
         0.00000E+00
         0.00000E+00
         0.00000E+00
         0.00000E+00
         0.00000E+00
         0.00000E+00
         0.00000E+00
         0.00000E+00
         0.00000E+00
         0.00000E+00
         0.00000E+00
         0.00000E+00
         0.00000E+00
         0.00000E+00
         0.00000E+00
         0.00000E+00
         0.00000E+00
         0.00000E+00
         0.00000E+00
         0.00000E+00
         0.00000E+00
         0.00000E+00
         0.00000E+00
         0.00000E+00
         0.00000E+00
         0.00000E+00
         0.00000E+00
         0.00000E+00
         0.00000E+00
         0.00000E+00
         0.00000E+00
         0.00000E+00
         0.00000E+00
         0.00000E+00
         0.00000E+00
         0.00000E+00
         0.00000E+00
         0.00000E+00
         0.00000E+00
         0.00000E+00
         0.00000E+00
         0.00000E+00
         0.00000E+00
         0.00000E+00
         0.00000E+00
         0.00000E+00
         0.00000E+00
         0.00000E+00
         0.00000E+00
         0.00000E+00
         0.00000E+00
         0.00000E+00
         0.00000E+00
         0.00000E+00
         0.00000E+00
         0.00000E+00
         0.00000E+00
         0.00000E+00
         0.00000E+00
         0.00000E+00
         0.00000E+00
         0.00000E+00
         0.00000E+00
         0.00000E+00
         0.00000E+00
         0.00000E+00
         0.00000E+00
         0.00000E+00
         0.00000E+00
         0.00000E+00
         0.00000E+00
         0.00000E+00
         0.00000E+00
         0.00000E+00
         0.00000E+00
         0.00000E+00
         0.00000E+00
         0.00000E+00
         0.00000E+00
         0.00000E+00
         0.00000E+00
         0.00000E+00
         0.00000E+00
         0.00000E+00
         0.00000E+00
         0.00000E+00
         0.00000E+00
         0.00000E+00
         0.00000E+00
         0.00000E+00
         0.00000E+00
         0.00000E+00
         0.00000E+00
         0.00000E+00
         0.00000E+00
         0.00000E+00
         0.00000E+00
         0.00000E+00
         0.00000E+00
         0.00000E+00
         0.00000E+00
         0.00000E+00
         0.00000E+00
         0.00000E+00
         0.00000E+00
         0.00000E+00
         0.00000E+00
         0.00000E+00
         0.00000E+00
         0.00000E+00
         0.00000E+00
         0.00000E+00
         0.00000E+00
         0.00000E+00
         0.00000E+00
         0.00000E+00
         0.00000E+00
         0.00000E+00
         0.00000E+00
         0.00000E+00
         0.00000E+00
         0.00000E+00
         0.00000E+00
         0.00000E+00
         0.00000E+00
         0.00000E+00
         0.00000E+00
         0.00000E+00
         0.00000E+00
         0.00000E+00
         0.00000E+00
         0.00000E+00
         0.00000E+00
         0.00000E+00
         0.00000E+00
         0.00000E+00
         0.00000E+00
         0.00000E+00
         0.00000E+00
         0.00000E+00
         0.00000E+00
         0.00000E+00
         0.00000E+00
         0.00000E+00
         0.00000E+00
         0.00000E+00
         0.00000E+00
         0.00000E+00
         0.00000E+00
         0.00000E+00
         0.00000E+00
         0.00000E+00
         0.00000E+00
         0.00000E+00
         0.00000E+00
         0.00000E+00
         0.00000E+00
         0.00000E+00
         0.00000E+00
         0.00000E+00
         0.00000E+00
         0.00000E+00
         0.00000E+00
         0.00000E+00
         0.00000E+00
         0.00000E+00
         0.00000E+00
         0.00000E+00
         0.00000E+00
         0.00000E+00
         0.00000E+00
         0.00000E+00
         0.00000E+00
         0.00000E+00
         0.00000E+00
         0.00000E+00
         0.00000E+00
         0.00000E+00
         0.00000E+00
         0.00000E+00
         0.00000E+00
         0.00000E+00
         0.00000E+00
         0.00000E+00
         0.00000E+00
         0.00000E+00
         0.00000E+00
         0.00000E+00
         0.00000E+00
         0.00000E+00
         0.00000E+00
         0.00000E+00
         0.00000E+00
         0.00000E+00
         0.00000E+00
         0.00000E+00
         0.00000E+00
         0.00000E+00
         0.00000E+00
         0.00000E+00
         0.00000E+00
         0.00000E+00
         0.00000E+00
         0.00000E+00
         0.00000E+00
         0.00000E+00
         0.00000E+00
         0.00000E+00
         0.00000E+00
         0.00000E+00
         0.00000E+00
         0.00000E+00
         0.00000E+00
         0.00000E+00
         0.00000E+00
         0.00000E+00
         0.00000E+00
         0.00000E+00
         0.00000E+00
         0.00000E+00
         0.00000E+00
         0.00000E+00
         0.00000E+00
         0.00000E+00
         0.00000E+00
         0.00000E+00
         0.00000E+00
         0.00000E+00
         0.00000E+00
         0.00000E+00
         0.00000E+00
         0.00000E+00
         0.00000E+00
         0.00000E+00
         0.00000E+00
         0.00000E+00
         0.00000E+00
         0.00000E+00
         0.00000E+00
         0.00000E+00
         0.00000E+00
         0.00000E+00
         0.00000E+00
         0.00000E+00
         0.00000E+00
         0.00000E+00
         0.00000E+00
         0.00000E+00
         0.00000E+00
         0.00000E+00
         0.00000E+00
         0.00000E+00
         0.00000E+00
         0.00000E+00
         0.00000E+00
         0.00000E+00
         0.00000E+00
         0.00000E+00
         0.00000E+00
         0.00000E+00
         0.00000E+00
         0.00000E+00
         0.00000E+00
         0.00000E+00
         0.00000E+00
         0.00000E+00
         0.00000E+00
         0.00000E+00
         0.00000E+00
         0.00000E+00
         0.00000E+00
         0.00000E+00
         0.00000E+00
         0.00000E+00
         0.00000E+00
         0.00000E+00
         0.00000E+00
         0.00000E+00
         0.00000E+00
         0.00000E+00
         0.00000E+00
         0.00000E+00
         0.00000E+00
         0.00000E+00
         0.00000E+00
         0.00000E+00
         0.00000E+00
         0.00000E+00
         0.00000E+00
         0.00000E+00
         0.00000E+00
         0.00000E+00
         0.00000E+00
         0.00000E+00
         0.00000E+00
         0.00000E+00
         0.00000E+00
         0.00000E+00
         0.00000E+00
         0.00000E+00
         0.00000E+00
         0.00000E+00
         0.00000E+00
         0.00000E+00
         0.00000E+00
         0.00000E+00
         0.00000E+00
         0.00000E+00
         0.00000E+00
         0.00000E+00
         0.00000E+00
         0.00000E+00
         0.00000E+00
         0.00000E+00
         0.00000E+00
         0.00000E+00
         0.00000E+00
         0.00000E+00
         0.00000E+00
         0.00000E+00
         0.00000E+00
         0.00000E+00
         0.00000E+00
         0.00000E+00
         0.00000E+00
         0.00000E+00
         0.00000E+00
         0.00000E+00
         0.00000E+00
         0.00000E+00
         0.00000E+00
         0.00000E+00
         0.00000E+00
         0.00000E+00
         0.00000E+00
         0.00000E+00
         0.00000E+00
         0.00000E+00
         0.00000E+00
         0.00000E+00
         0.00000E+00
         0.00000E+00
         0.00000E+00
         0.00000E+00
         0.00000E+00
         0.00000E+00
         0.00000E+00
         0.00000E+00
         0.00000E+00
         0.00000E+00
         0.00000E+00
         0.00000E+00
         0.00000E+00
         0.00000E+00
         0.00000E+00
         0.00000E+00
         0.00000E+00
         0.00000E+00
         0.00000E+00
         0.00000E+00
         0.00000E+00
         0.00000E+00
         0.00000E+00
         0.00000E+00
         0.00000E+00
         0.00000E+00
         0.00000E+00
         0.00000E+00
         0.00000E+00
         0.00000E+00
         0.00000E+00
         0.00000E+00
         0.00000E+00
         0.00000E+00
         0.00000E+00
         0.00000E+00
         0.00000E+00
         0.00000E+00
         0.00000E+00
         0.00000E+00
         0.00000E+00
         0.00000E+00
         0.00000E+00
         0.00000E+00
         0.00000E+00
         0.00000E+00
         0.00000E+00
         0.00000E+00
         0.00000E+00
         0.00000E+00
         0.00000E+00
         0.00000E+00
         0.00000E+00
         0.00000E+00
         0.00000E+00
         0.00000E+00
         0.00000E+00
         0.00000E+00
         0.00000E+00
         0.00000E+00
         0.00000E+00
         0.00000E+00
         0.00000E+00
         0.00000E+00
         0.00000E+00
         0.00000E+00
         0.00000E+00
         0.00000E+00
         0.00000E+00
         0.00000E+00
         0.00000E+00
         0.00000E+00
         0.00000E+00
         0.00000E+00
         0.00000E+00
         0.00000E+00
         0.00000E+00
         0.00000E+00
         0.00000E+00
         0.00000E+00
         0.00000E+00
         0.00000E+00
         0.00000E+00
         0.00000E+00
         0.00000E+00
         0.00000E+00
         0.00000E+00
         0.00000E+00
         0.00000E+00
         0.00000E+00
         0.00000E+00
         0.00000E+00
         0.00000E+00
         0.00000E+00
         0.00000E+00
         0.00000E+00
         0.00000E+00
         0.00000E+00
         0.00000E+00
         0.00000E+00
         0.00000E+00
         0.00000E+00
         0.00000E+00
         0.00000E+00
         0.00000E+00
         0.00000E+00
         0.00000E+00
         0.00000E+00
         0.00000E+00
         0.00000E+00
         0.00000E+00
         0.00000E+00
         0.00000E+00
         0.00000E+00
         0.00000E+00
         0.00000E+00
         0.00000E+00
         0.00000E+00
         0.00000E+00
         0.00000E+00
         0.00000E+00
         0.00000E+00
         0.00000E+00
         0.00000E+00
         0.00000E+00
         0.00000E+00
         0.00000E+00
         0.00000E+00
         0.00000E+00
         0.00000E+00
         0.00000E+00
         0.00000E+00
         0.00000E+00
         0.00000E+00
         0.00000E+00
         0.00000E+00
         0.00000E+00
         0.00000E+00
         0.00000E+00
         0.00000E+00
         0.00000E+00
         0.00000E+00
         0.00000E+00
         0.00000E+00
         0.00000E+00
         0.00000E+00
         0.00000E+00
         0.00000E+00
         0.00000E+00
         0.00000E+00
         0.00000E+00
         0.00000E+00
         0.00000E+00
         0.00000E+00
         0.00000E+00
         0.00000E+00
         0.00000E+00
         0.00000E+00
         0.00000E+00
         0.00000E+00
         0.00000E+00
         0.00000E+00
         0.00000E+00
         0.00000E+00
         0.00000E+00
         0.00000E+00
         0.00000E+00
         0.00000E+00
         0.00000E+00
         0.00000E+00
         0.00000E+00
         0.00000E+00
         0.00000E+00
         0.00000E+00
         0.00000E+00
         0.00000E+00
         0.00000E+00
         0.00000E+00
         0.00000E+00
         0.00000E+00
         0.00000E+00
         0.00000E+00
         0.00000E+00
         0.00000E+00
         0.00000E+00
         0.00000E+00
         0.00000E+00
         0.00000E+00
         0.00000E+00
         0.00000E+00
         0.00000E+00
         0.00000E+00
         0.00000E+00
         0.00000E+00
         0.00000E+00
         0.00000E+00
         0.00000E+00
         0.00000E+00
         0.00000E+00
         0.00000E+00
         0.00000E+00
         0.00000E+00
         0.00000E+00
         0.00000E+00
         0.00000E+00
         0.00000E+00
         0.00000E+00
         0.00000E+00
         0.00000E+00
         0.00000E+00
         0.00000E+00
         0.00000E+00
         0.00000E+00
         0.00000E+00
         0.00000E+00
         0.00000E+00
         0.00000E+00
         0.00000E+00
         0.00000E+00
         0.00000E+00
         0.00000E+00
         0.00000E+00
         0.00000E+00
         0.00000E+00
         0.00000E+00
         0.00000E+00
         0.00000E+00
         0.00000E+00
         0.00000E+00
         0.00000E+00
         0.00000E+00
         0.00000E+00
         0.00000E+00
         0.00000E+00
         0.00000E+00
         0.00000E+00
         0.00000E+00
         0.00000E+00
         0.00000E+00
         0.00000E+00
         0.00000E+00
         0.00000E+00
         0.00000E+00
         0.00000E+00
         0.00000E+00
         0.00000E+00
         0.00000E+00
         0.00000E+00
         0.00000E+00
         0.00000E+00
         0.00000E+00
         0.00000E+00
         0.00000E+00
         0.00000E+00
         0.00000E+00
         0.00000E+00
         0.00000E+00
         0.00000E+00
         0.00000E+00
         0.00000E+00
         0.00000E+00
         0.00000E+00
         0.00000E+00
         0.00000E+00
         0.00000E+00
         0.00000E+00
         0.00000E+00
         0.00000E+00
         0.00000E+00
         0.00000E+00
         0.00000E+00
         0.00000E+00
         0.00000E+00
         0.00000E+00
         0.00000E+00
         0.00000E+00
         0.00000E+00
         0.00000E+00
         0.00000E+00
         0.00000E+00
         0.00000E+00
         0.00000E+00
         0.00000E+00
         0.00000E+00
         0.00000E+00
         0.00000E+00
         0.00000E+00
         0.00000E+00
         0.00000E+00
         0.00000E+00
         0.00000E+00
         0.00000E+00
         0.00000E+00
         0.00000E+00
         0.00000E+00
         0.00000E+00
         0.00000E+00
         0.00000E+00
         0.00000E+00
         0.00000E+00
         0.00000E+00
         0.00000E+00
         0.00000E+00
         0.00000E+00
         0.00000E+00
         0.00000E+00
         0.00000E+00
         0.00000E+00
         0.00000E+00
         0.00000E+00
         0.00000E+00
         0.00000E+00
         0.00000E+00
         0.00000E+00
         0.00000E+00
         0.00000E+00
         0.00000E+00
         0.00000E+00
         0.00000E+00
         0.00000E+00
         0.00000E+00
         0.00000E+00
         0.00000E+00
         0.00000E+00
         0.00000E+00
         0.00000E+00
         0.00000E+00
         0.00000E+00
         0.00000E+00
         0.00000E+00
         0.00000E+00
         0.00000E+00
         0.00000E+00
         0.00000E+00
         0.00000E+00
         0.00000E+00
         0.00000E+00
         0.00000E+00
         0.00000E+00
         0.00000E+00
         0.00000E+00
         0.00000E+00
         0.00000E+00
         0.00000E+00
         0.00000E+00
         0.00000E+00
         0.00000E+00
         0.00000E+00
         0.00000E+00
         0.00000E+00
         0.00000E+00
         0.00000E+00
         0.00000E+00
         0.00000E+00
         0.00000E+00
         0.00000E+00
         0.00000E+00
         0.00000E+00
         0.00000E+00
         0.00000E+00
         0.00000E+00
         0.00000E+00
         0.00000E+00
         0.00000E+00
         0.00000E+00
         0.00000E+00
         0.00000E+00
         0.00000E+00
         0.00000E+00
         0.00000E+00
         0.00000E+00
         0.00000E+00
         0.00000E+00
         0.00000E+00
         0.00000E+00
         0.00000E+00
         0.00000E+00
  
SCALARS               pre_disp_force_y  double 1
LOOKUP_TABLE default
         0.00000E+00
         0.00000E+00
         0.00000E+00
         0.00000E+00
         0.00000E+00
         0.00000E+00
         0.00000E+00
         0.00000E+00
         0.00000E+00
         0.00000E+00
         0.00000E+00
         0.00000E+00
         0.00000E+00
         0.00000E+00
         0.00000E+00
         0.00000E+00
         0.00000E+00
         0.00000E+00
         0.00000E+00
         0.00000E+00
         0.00000E+00
         0.00000E+00
         0.00000E+00
         0.00000E+00
         0.00000E+00
         0.00000E+00
         0.00000E+00
         0.00000E+00
         0.00000E+00
         0.00000E+00
         0.00000E+00
         0.00000E+00
         0.00000E+00
         0.00000E+00
         0.00000E+00
         0.00000E+00
         0.00000E+00
         0.00000E+00
         0.00000E+00
         0.00000E+00
         0.00000E+00
         0.00000E+00
         0.00000E+00
         0.00000E+00
         0.00000E+00
         0.00000E+00
         0.00000E+00
         0.00000E+00
         0.00000E+00
         0.00000E+00
         0.00000E+00
         0.00000E+00
         0.00000E+00
         0.00000E+00
         0.00000E+00
         0.00000E+00
         0.00000E+00
         0.00000E+00
         0.00000E+00
         0.00000E+00
         0.00000E+00
         0.00000E+00
         0.00000E+00
         0.00000E+00
         0.00000E+00
         0.00000E+00
         0.00000E+00
         0.00000E+00
         0.00000E+00
         0.00000E+00
         0.00000E+00
         0.00000E+00
         0.00000E+00
         0.00000E+00
         0.00000E+00
         0.00000E+00
         0.00000E+00
         0.00000E+00
         0.00000E+00
         0.00000E+00
         0.00000E+00
         0.00000E+00
         0.00000E+00
         0.00000E+00
         0.00000E+00
         0.00000E+00
         0.00000E+00
         0.00000E+00
         0.00000E+00
         0.00000E+00
         0.00000E+00
         0.00000E+00
         0.00000E+00
         0.00000E+00
         0.00000E+00
         0.00000E+00
         0.00000E+00
         0.00000E+00
         0.00000E+00
         0.00000E+00
         0.00000E+00
         0.00000E+00
         0.00000E+00
         0.00000E+00
         0.00000E+00
         0.00000E+00
         0.00000E+00
         0.00000E+00
         0.00000E+00
         0.00000E+00
         0.00000E+00
         0.00000E+00
         0.00000E+00
         0.00000E+00
         0.00000E+00
         0.00000E+00
         0.00000E+00
         0.00000E+00
         0.00000E+00
         0.00000E+00
         0.00000E+00
         0.00000E+00
         0.00000E+00
         0.00000E+00
         0.00000E+00
         0.00000E+00
         0.00000E+00
         0.00000E+00
         0.00000E+00
         0.00000E+00
         0.00000E+00
         0.00000E+00
         0.00000E+00
         0.00000E+00
         0.00000E+00
         0.00000E+00
         0.00000E+00
         0.00000E+00
         0.00000E+00
         0.00000E+00
         0.00000E+00
         0.00000E+00
         0.00000E+00
         0.00000E+00
         0.00000E+00
         0.00000E+00
         0.00000E+00
         0.00000E+00
         0.00000E+00
         0.00000E+00
         0.00000E+00
         0.00000E+00
         0.00000E+00
         0.00000E+00
         0.00000E+00
         0.00000E+00
         0.00000E+00
         0.00000E+00
         0.00000E+00
         0.00000E+00
         0.00000E+00
         0.00000E+00
         0.00000E+00
         0.00000E+00
         0.00000E+00
         0.00000E+00
         0.00000E+00
         0.00000E+00
         0.00000E+00
         0.00000E+00
         0.00000E+00
         0.00000E+00
         0.00000E+00
         0.00000E+00
         0.00000E+00
         0.00000E+00
         0.00000E+00
         0.00000E+00
         0.00000E+00
         0.00000E+00
         0.00000E+00
         0.00000E+00
         0.00000E+00
         0.00000E+00
         0.00000E+00
         0.00000E+00
         0.00000E+00
         0.00000E+00
         0.00000E+00
         0.00000E+00
         0.00000E+00
         0.00000E+00
         0.00000E+00
         0.00000E+00
         0.00000E+00
         0.00000E+00
         0.00000E+00
         0.00000E+00
         0.00000E+00
         0.00000E+00
         0.00000E+00
         0.00000E+00
         0.00000E+00
         0.00000E+00
         0.00000E+00
         0.00000E+00
         0.00000E+00
         0.00000E+00
         0.00000E+00
         0.00000E+00
         0.00000E+00
         0.00000E+00
         0.00000E+00
         0.00000E+00
         0.00000E+00
         0.00000E+00
         0.00000E+00
         0.00000E+00
         0.00000E+00
         0.00000E+00
         0.00000E+00
         0.00000E+00
         0.00000E+00
         0.00000E+00
         0.00000E+00
         0.00000E+00
         0.00000E+00
         0.00000E+00
         0.00000E+00
         0.00000E+00
         0.00000E+00
         0.00000E+00
         0.00000E+00
         0.00000E+00
         0.00000E+00
         0.00000E+00
         0.00000E+00
         0.00000E+00
         0.00000E+00
         0.00000E+00
         0.00000E+00
         0.00000E+00
         0.00000E+00
         0.00000E+00
         0.00000E+00
         0.00000E+00
         0.00000E+00
         0.00000E+00
         0.00000E+00
         0.00000E+00
         0.00000E+00
         0.00000E+00
         0.00000E+00
         0.00000E+00
         0.00000E+00
         0.00000E+00
         0.00000E+00
         0.00000E+00
         0.00000E+00
         0.00000E+00
         0.00000E+00
         0.00000E+00
         0.00000E+00
         0.00000E+00
         0.00000E+00
         0.00000E+00
         0.00000E+00
         0.00000E+00
         0.00000E+00
         0.00000E+00
         0.00000E+00
         0.00000E+00
         0.00000E+00
         0.00000E+00
         0.00000E+00
         0.00000E+00
         0.00000E+00
         0.00000E+00
         0.00000E+00
         0.00000E+00
         0.00000E+00
         0.00000E+00
         0.00000E+00
         0.00000E+00
         0.00000E+00
         0.00000E+00
         0.00000E+00
         0.00000E+00
         0.00000E+00
         0.00000E+00
         0.00000E+00
         0.00000E+00
         0.00000E+00
         0.00000E+00
         0.00000E+00
         0.00000E+00
         0.00000E+00
         0.00000E+00
         0.00000E+00
         0.00000E+00
         0.00000E+00
         0.00000E+00
         0.00000E+00
         0.00000E+00
         0.00000E+00
         0.00000E+00
         0.00000E+00
         0.00000E+00
         0.00000E+00
         0.00000E+00
         0.00000E+00
         0.00000E+00
         0.00000E+00
         0.00000E+00
         0.00000E+00
         0.00000E+00
         0.00000E+00
         0.00000E+00
         0.00000E+00
         0.00000E+00
         0.00000E+00
         0.00000E+00
         0.00000E+00
         0.00000E+00
         0.00000E+00
         0.00000E+00
         0.00000E+00
         0.00000E+00
         0.00000E+00
         0.00000E+00
         0.00000E+00
         0.00000E+00
         0.00000E+00
         0.00000E+00
         0.00000E+00
         0.00000E+00
         0.00000E+00
         0.00000E+00
         0.00000E+00
         0.00000E+00
         0.00000E+00
         0.00000E+00
         0.00000E+00
         0.00000E+00
         0.00000E+00
         0.00000E+00
         0.00000E+00
         0.00000E+00
         0.00000E+00
         0.00000E+00
         0.00000E+00
         0.00000E+00
         0.00000E+00
         0.00000E+00
         0.00000E+00
         0.00000E+00
         0.00000E+00
         0.00000E+00
         0.00000E+00
         0.00000E+00
         0.00000E+00
         0.00000E+00
         0.00000E+00
         0.00000E+00
         0.00000E+00
         0.00000E+00
         0.00000E+00
         0.00000E+00
         0.00000E+00
         0.00000E+00
         0.00000E+00
         0.00000E+00
         0.00000E+00
         0.00000E+00
         0.00000E+00
         0.00000E+00
         0.00000E+00
         0.00000E+00
         0.00000E+00
         0.00000E+00
         0.00000E+00
         0.00000E+00
         0.00000E+00
         0.00000E+00
         0.00000E+00
         0.00000E+00
         0.00000E+00
         0.00000E+00
         0.00000E+00
         0.00000E+00
         0.00000E+00
         0.00000E+00
         0.00000E+00
         0.00000E+00
         0.00000E+00
         0.00000E+00
         0.00000E+00
         0.00000E+00
         0.00000E+00
         0.00000E+00
         0.00000E+00
         0.00000E+00
         0.00000E+00
         0.00000E+00
         0.00000E+00
         0.00000E+00
         0.00000E+00
         0.00000E+00
         0.00000E+00
         0.00000E+00
         0.00000E+00
         0.00000E+00
         0.00000E+00
         0.00000E+00
         0.00000E+00
         0.00000E+00
         0.00000E+00
         0.00000E+00
         0.00000E+00
         0.00000E+00
         0.00000E+00
         0.00000E+00
         0.00000E+00
         0.00000E+00
         0.00000E+00
         0.00000E+00
         0.00000E+00
         0.00000E+00
         0.00000E+00
         0.00000E+00
         0.00000E+00
         0.00000E+00
         0.00000E+00
         0.00000E+00
         0.00000E+00
         0.00000E+00
         0.00000E+00
         0.00000E+00
         0.00000E+00
         0.00000E+00
         0.00000E+00
         0.00000E+00
         0.00000E+00
         0.00000E+00
         0.00000E+00
         0.00000E+00
         0.00000E+00
         0.00000E+00
         0.00000E+00
         0.00000E+00
         0.00000E+00
         0.00000E+00
         0.00000E+00
         0.00000E+00
         0.00000E+00
         0.00000E+00
         0.00000E+00
         0.00000E+00
         0.00000E+00
         0.00000E+00
         0.00000E+00
         0.00000E+00
         0.00000E+00
         0.00000E+00
         0.00000E+00
         0.00000E+00
         0.00000E+00
         0.00000E+00
         0.00000E+00
         0.00000E+00
         0.00000E+00
         0.00000E+00
         0.00000E+00
         0.00000E+00
         0.00000E+00
         0.00000E+00
         0.00000E+00
         0.00000E+00
         0.00000E+00
         0.00000E+00
         0.00000E+00
         0.00000E+00
         0.00000E+00
         0.00000E+00
         0.00000E+00
         0.00000E+00
         0.00000E+00
         0.00000E+00
         0.00000E+00
         0.00000E+00
         0.00000E+00
         0.00000E+00
         0.00000E+00
         0.00000E+00
         0.00000E+00
         0.00000E+00
         0.00000E+00
         0.00000E+00
         0.00000E+00
         0.00000E+00
         0.00000E+00
         0.00000E+00
         0.00000E+00
         0.00000E+00
         0.00000E+00
         0.00000E+00
         0.00000E+00
         0.00000E+00
         0.00000E+00
         0.00000E+00
         0.00000E+00
         0.00000E+00
         0.00000E+00
         0.00000E+00
         0.00000E+00
         0.00000E+00
         0.00000E+00
         0.00000E+00
         0.00000E+00
         0.00000E+00
         0.00000E+00
         0.00000E+00
         0.00000E+00
         0.00000E+00
         0.00000E+00
         0.00000E+00
         0.00000E+00
         0.00000E+00
         0.00000E+00
         0.00000E+00
         0.00000E+00
         0.00000E+00
         0.00000E+00
         0.00000E+00
         0.00000E+00
         0.00000E+00
         0.00000E+00
         0.00000E+00
         0.00000E+00
         0.00000E+00
         0.00000E+00
         0.00000E+00
         0.00000E+00
         0.00000E+00
         0.00000E+00
         0.00000E+00
         0.00000E+00
         0.00000E+00
         0.00000E+00
         0.00000E+00
         0.00000E+00
         0.00000E+00
         0.00000E+00
         0.00000E+00
         0.00000E+00
         0.00000E+00
         0.00000E+00
         0.00000E+00
         0.00000E+00
         0.00000E+00
         0.00000E+00
         0.00000E+00
         0.00000E+00
         0.00000E+00
         0.00000E+00
         0.00000E+00
         0.00000E+00
         0.00000E+00
         0.00000E+00
         0.00000E+00
         0.00000E+00
         0.00000E+00
         0.00000E+00
         0.00000E+00
         0.00000E+00
         0.00000E+00
         0.00000E+00
         0.00000E+00
         0.00000E+00
         0.00000E+00
         0.00000E+00
         0.00000E+00
         0.00000E+00
         0.00000E+00
         0.00000E+00
         0.00000E+00
         0.00000E+00
         0.00000E+00
         0.00000E+00
         0.00000E+00
         0.00000E+00
         0.00000E+00
         0.00000E+00
         0.00000E+00
         0.00000E+00
         0.00000E+00
         0.00000E+00
         0.00000E+00
         0.00000E+00
         0.00000E+00
         0.00000E+00
         0.00000E+00
         0.00000E+00
         0.00000E+00
         0.00000E+00
         0.00000E+00
         0.00000E+00
         0.00000E+00
         0.00000E+00
         0.00000E+00
         0.00000E+00
         0.00000E+00
         0.00000E+00
         0.00000E+00
         0.00000E+00
         0.00000E+00
         0.00000E+00
         0.00000E+00
         0.00000E+00
         0.00000E+00
         0.00000E+00
         0.00000E+00
         0.00000E+00
         0.00000E+00
         0.00000E+00
         0.00000E+00
         0.00000E+00
         0.00000E+00
         0.00000E+00
         0.00000E+00
         0.00000E+00
         0.00000E+00
         0.00000E+00
         0.00000E+00
         0.00000E+00
         0.00000E+00
         0.00000E+00
         0.00000E+00
         0.00000E+00
         0.00000E+00
         0.00000E+00
         0.00000E+00
         0.00000E+00
         0.00000E+00
         0.00000E+00
         0.00000E+00
         0.00000E+00
         0.00000E+00
         0.00000E+00
         0.00000E+00
         0.00000E+00
         0.00000E+00
         0.00000E+00
         0.00000E+00
         0.00000E+00
         0.00000E+00
         0.00000E+00
         0.00000E+00
         0.00000E+00
         0.00000E+00
         0.00000E+00
         0.00000E+00
         0.00000E+00
         0.00000E+00
         0.00000E+00
         0.00000E+00
         0.00000E+00
         0.00000E+00
         0.00000E+00
         0.00000E+00
         0.00000E+00
         0.00000E+00
         0.00000E+00
         0.00000E+00
         0.00000E+00
         0.00000E+00
         0.00000E+00
         0.00000E+00
         0.00000E+00
         0.00000E+00
         0.00000E+00
         0.00000E+00
         0.00000E+00
         0.00000E+00
         0.00000E+00
         0.00000E+00
         0.00000E+00
         0.00000E+00
         0.00000E+00
         0.00000E+00
         0.00000E+00
         0.00000E+00
         0.00000E+00
         0.00000E+00
         0.00000E+00
         0.00000E+00
         0.00000E+00
         0.00000E+00
         0.00000E+00
         0.00000E+00
         0.00000E+00
         0.00000E+00
         0.00000E+00
         0.00000E+00
         0.00000E+00
         0.00000E+00
         0.00000E+00
         0.00000E+00
         0.00000E+00
         0.00000E+00
         0.00000E+00
         0.00000E+00
         0.00000E+00
         0.00000E+00
         0.00000E+00
         0.00000E+00
         0.00000E+00
         0.00000E+00
         0.00000E+00
         0.00000E+00
         0.00000E+00
         0.00000E+00
         0.00000E+00
         0.00000E+00
         0.00000E+00
         0.00000E+00
         0.00000E+00
         0.00000E+00
         0.00000E+00
         0.00000E+00
         0.00000E+00
         0.00000E+00
         0.00000E+00
         0.00000E+00
         0.00000E+00
         0.00000E+00
         0.00000E+00
         0.00000E+00
         0.00000E+00
         0.00000E+00
         0.00000E+00
         0.00000E+00
         0.00000E+00
         0.00000E+00
         0.00000E+00
         0.00000E+00
         0.00000E+00
         0.00000E+00
         0.00000E+00
         0.00000E+00
         0.00000E+00
         0.00000E+00
         0.00000E+00
         0.00000E+00
         0.00000E+00
         0.00000E+00
         0.00000E+00
         0.00000E+00
         0.00000E+00
         0.00000E+00
         0.00000E+00
         0.00000E+00
         0.00000E+00
         0.00000E+00
         0.00000E+00
         0.00000E+00
         0.00000E+00
         0.00000E+00
         0.00000E+00
         0.00000E+00
         0.00000E+00
         0.00000E+00
         0.00000E+00
         0.00000E+00
         0.00000E+00
         0.00000E+00
         0.00000E+00
         0.00000E+00
         0.00000E+00
         0.00000E+00
         0.00000E+00
         0.00000E+00
         0.00000E+00
         0.00000E+00
         0.00000E+00
         0.00000E+00
         0.00000E+00
         0.00000E+00
         0.00000E+00
         0.00000E+00
         0.00000E+00
         0.00000E+00
         0.00000E+00
         0.00000E+00
         0.00000E+00
         0.00000E+00
         0.00000E+00
         0.00000E+00
         0.00000E+00
         0.00000E+00
         0.00000E+00
         0.00000E+00
         0.00000E+00
         0.00000E+00
         0.00000E+00
         0.00000E+00
         0.00000E+00
         0.00000E+00
         0.00000E+00
         0.00000E+00
         0.00000E+00
         0.00000E+00
         0.00000E+00
         0.00000E+00
         0.00000E+00
         0.00000E+00
         0.00000E+00
         0.00000E+00
         0.00000E+00
         0.00000E+00
         0.00000E+00
         0.00000E+00
         0.00000E+00
         0.00000E+00
         0.00000E+00
         0.00000E+00
         0.00000E+00
         0.00000E+00
         0.00000E+00
         0.00000E+00
         0.00000E+00
         0.00000E+00
         0.00000E+00
         0.00000E+00
         0.00000E+00
         0.00000E+00
         0.00000E+00
         0.00000E+00
         0.00000E+00
         0.00000E+00
         0.00000E+00
         0.00000E+00
         0.00000E+00
         0.00000E+00
         0.00000E+00
         0.00000E+00
         0.00000E+00
         0.00000E+00
         0.00000E+00
         0.00000E+00
         0.00000E+00
         0.00000E+00
         0.00000E+00
         0.00000E+00
         0.00000E+00
         0.00000E+00
         0.00000E+00
         0.00000E+00
         0.00000E+00
         0.00000E+00
         0.00000E+00
         0.00000E+00
         0.00000E+00
         0.00000E+00
         0.00000E+00
         0.00000E+00
         0.00000E+00
         0.00000E+00
         0.00000E+00
         0.00000E+00
         0.00000E+00
         0.00000E+00
         0.00000E+00
         0.00000E+00
         0.00000E+00
         0.00000E+00
         0.00000E+00
         0.00000E+00
         0.00000E+00
         0.00000E+00
         0.00000E+00
         0.00000E+00
         0.00000E+00
         0.00000E+00
         0.00000E+00
         0.00000E+00
         0.00000E+00
         0.00000E+00
         0.00000E+00
         0.00000E+00
         0.00000E+00
         0.00000E+00
         0.00000E+00
         0.00000E+00
         0.00000E+00
         0.00000E+00
         0.00000E+00
         0.00000E+00
         0.00000E+00
         0.00000E+00
         0.00000E+00
         0.00000E+00
         0.00000E+00
         0.00000E+00
         0.00000E+00
         0.00000E+00
         0.00000E+00
         0.00000E+00
         0.00000E+00
         0.00000E+00
         0.00000E+00
         0.00000E+00
         0.00000E+00
         0.00000E+00
         0.00000E+00
         0.00000E+00
         0.00000E+00
         0.00000E+00
         0.00000E+00
         0.00000E+00
         0.00000E+00
         0.00000E+00
         0.00000E+00
         0.00000E+00
         0.00000E+00
         0.00000E+00
         0.00000E+00
         0.00000E+00
         0.00000E+00
         0.00000E+00
         0.00000E+00
         0.00000E+00
         0.00000E+00
         0.00000E+00
         0.00000E+00
         0.00000E+00
         0.00000E+00
         0.00000E+00
         0.00000E+00
         0.00000E+00
         0.00000E+00
         0.00000E+00
         0.00000E+00
         0.00000E+00
         0.00000E+00
         0.00000E+00
         0.00000E+00
         0.00000E+00
         0.00000E+00
         0.00000E+00
         0.00000E+00
         0.00000E+00
         0.00000E+00
         0.00000E+00
         0.00000E+00
         0.00000E+00
         0.00000E+00
         0.00000E+00
         0.00000E+00
         0.00000E+00
         0.00000E+00
         0.00000E+00
         0.00000E+00
         0.00000E+00
         0.00000E+00
         0.00000E+00
         0.00000E+00
         0.00000E+00
         0.00000E+00
         0.00000E+00
         0.00000E+00
         0.00000E+00
         0.00000E+00
         0.00000E+00
         0.00000E+00
         0.00000E+00
         0.00000E+00
         0.00000E+00
         0.00000E+00
         0.00000E+00
         0.00000E+00
         0.00000E+00
         0.00000E+00
         0.00000E+00
         0.00000E+00
         0.00000E+00
         0.00000E+00
         0.00000E+00
         0.00000E+00
         0.00000E+00
         0.00000E+00
         0.00000E+00
         0.00000E+00
         0.00000E+00
         0.00000E+00
         0.00000E+00
         0.00000E+00
         0.00000E+00
         0.00000E+00
         0.00000E+00
         0.00000E+00
         0.00000E+00
         0.00000E+00
         0.00000E+00
         0.00000E+00
         0.00000E+00
         0.00000E+00
         0.00000E+00
         0.00000E+00
         0.00000E+00
         0.00000E+00
         0.00000E+00
         0.00000E+00
         0.00000E+00
         0.00000E+00
         0.00000E+00
         0.00000E+00
         0.00000E+00
         0.00000E+00
         0.00000E+00
         0.00000E+00
         0.00000E+00
         0.00000E+00
         0.00000E+00
         0.00000E+00
         0.00000E+00
         0.00000E+00
         0.00000E+00
         0.00000E+00
         0.00000E+00
         0.00000E+00
         0.00000E+00
         0.00000E+00
         0.00000E+00
         0.00000E+00
         0.00000E+00
         0.00000E+00
         0.00000E+00
         0.00000E+00
         0.00000E+00
         0.00000E+00
         0.00000E+00
         0.00000E+00
         0.00000E+00
         0.00000E+00
         0.00000E+00
         0.00000E+00
         0.00000E+00
         0.00000E+00
         0.00000E+00
         0.00000E+00
         0.00000E+00
         0.00000E+00
         0.00000E+00
         0.00000E+00
         0.00000E+00
         0.00000E+00
         0.00000E+00
         0.00000E+00
         0.00000E+00
         0.00000E+00
         0.00000E+00
         0.00000E+00
         0.00000E+00
         0.00000E+00
         0.00000E+00
         0.00000E+00
         0.00000E+00
         0.00000E+00
         0.00000E+00
         0.00000E+00
         0.00000E+00
         0.00000E+00
         0.00000E+00
         0.00000E+00
         0.00000E+00
         0.00000E+00
         0.00000E+00
         0.00000E+00
         0.00000E+00
         0.00000E+00
         0.00000E+00
         0.00000E+00
         0.00000E+00
         0.00000E+00
         0.00000E+00
         0.00000E+00
         0.00000E+00
         0.00000E+00
         0.00000E+00
         0.00000E+00
         0.00000E+00
         0.00000E+00
         0.00000E+00
         0.00000E+00
         0.00000E+00
         0.00000E+00
         0.00000E+00
         0.00000E+00
         0.00000E+00
         0.00000E+00
         0.00000E+00
         0.00000E+00
         0.00000E+00
         0.00000E+00
         0.00000E+00
         0.00000E+00
         0.00000E+00
         0.00000E+00
         0.00000E+00
         0.00000E+00
         0.00000E+00
         0.00000E+00
         0.00000E+00
         0.00000E+00
         0.00000E+00
         0.00000E+00
         0.00000E+00
         0.00000E+00
         0.00000E+00
         0.00000E+00
         0.00000E+00
         0.00000E+00
         0.00000E+00
         0.00000E+00
         0.00000E+00
         0.00000E+00
         0.00000E+00
         0.00000E+00
         0.00000E+00
         0.00000E+00
         0.00000E+00
         0.00000E+00
         0.00000E+00
         0.00000E+00
         0.00000E+00
         0.00000E+00
         0.00000E+00
         0.00000E+00
         0.00000E+00
         0.00000E+00
         0.00000E+00
         0.00000E+00
         0.00000E+00
         0.00000E+00
         0.00000E+00
         0.00000E+00
         0.00000E+00
         0.00000E+00
         0.00000E+00
         0.00000E+00
         0.00000E+00
         0.00000E+00
         0.00000E+00
         0.00000E+00
         0.00000E+00
         0.00000E+00
         0.00000E+00
         0.00000E+00
         0.00000E+00
         0.00000E+00
         0.00000E+00
         0.00000E+00
         0.00000E+00
         0.00000E+00
         0.00000E+00
         0.00000E+00
         0.00000E+00
         0.00000E+00
         0.00000E+00
         0.00000E+00
         0.00000E+00
         0.00000E+00
         0.00000E+00
         0.00000E+00
         0.00000E+00
         0.00000E+00
         0.00000E+00
         0.00000E+00
         0.00000E+00
         0.00000E+00
         0.00000E+00
         0.00000E+00
         0.00000E+00
         0.00000E+00
         0.00000E+00
         0.00000E+00
         0.00000E+00
         0.00000E+00
         0.00000E+00
         0.00000E+00
         0.00000E+00
         0.00000E+00
         0.00000E+00
         0.00000E+00
         0.00000E+00
         0.00000E+00
         0.00000E+00
         0.00000E+00
         0.00000E+00
         0.00000E+00
         0.00000E+00
         0.00000E+00
         0.00000E+00
         0.00000E+00
         0.00000E+00
         0.00000E+00
         0.00000E+00
         0.00000E+00
         0.00000E+00
         0.00000E+00
         0.00000E+00
         0.00000E+00
         0.00000E+00
         0.00000E+00
         0.00000E+00
         0.00000E+00
         0.00000E+00
         0.00000E+00
         0.00000E+00
         0.00000E+00
         0.00000E+00
         0.00000E+00
         0.00000E+00
         0.00000E+00
         0.00000E+00
         0.00000E+00
         0.00000E+00
         0.00000E+00
         0.00000E+00
         0.00000E+00
         0.00000E+00
         0.00000E+00
         0.00000E+00
         0.00000E+00
         0.00000E+00
         0.00000E+00
         0.00000E+00
         0.00000E+00
         0.00000E+00
         0.00000E+00
         0.00000E+00
         0.00000E+00
         0.00000E+00
         0.00000E+00
         0.00000E+00
         0.00000E+00
         0.00000E+00
         0.00000E+00
         0.00000E+00
         0.00000E+00
         0.00000E+00
         0.00000E+00
         0.00000E+00
         0.00000E+00
         0.00000E+00
         0.00000E+00
         0.00000E+00
         0.00000E+00
         0.00000E+00
         0.00000E+00
         0.00000E+00
         0.00000E+00
         0.00000E+00
         0.00000E+00
         0.00000E+00
         0.00000E+00
         0.00000E+00
         0.00000E+00
         0.00000E+00
         0.00000E+00
         0.00000E+00
         0.00000E+00
         0.00000E+00
         0.00000E+00
         0.00000E+00
         0.00000E+00
         0.00000E+00
         0.00000E+00
         0.00000E+00
         0.00000E+00
         0.00000E+00
         0.00000E+00
         0.00000E+00
         0.00000E+00
         0.00000E+00
         0.00000E+00
         0.00000E+00
         0.00000E+00
         0.00000E+00
         0.00000E+00
         0.00000E+00
         0.00000E+00
         0.00000E+00
         0.00000E+00
         0.00000E+00
         0.00000E+00
         0.00000E+00
         0.00000E+00
         0.00000E+00
         0.00000E+00
         0.00000E+00
         0.00000E+00
         0.00000E+00
         0.00000E+00
         0.00000E+00
         0.00000E+00
         0.00000E+00
         0.00000E+00
         0.00000E+00
         0.00000E+00
         0.00000E+00
         0.00000E+00
         0.00000E+00
         0.00000E+00
         0.00000E+00
         0.00000E+00
         0.00000E+00
         0.00000E+00
         0.00000E+00
         0.00000E+00
         0.00000E+00
         0.00000E+00
         0.00000E+00
         0.00000E+00
         0.00000E+00
         0.00000E+00
         0.00000E+00
         0.00000E+00
         0.00000E+00
         0.00000E+00
         0.00000E+00
         0.00000E+00
         0.00000E+00
         0.00000E+00
         0.00000E+00
         0.00000E+00
         0.00000E+00
         0.00000E+00
         0.00000E+00
         0.00000E+00
         0.00000E+00
         0.00000E+00
         0.00000E+00
         0.00000E+00
         0.00000E+00
         0.00000E+00
         0.00000E+00
         0.00000E+00
         0.00000E+00
         0.00000E+00
         0.00000E+00
         0.00000E+00
         0.00000E+00
         0.00000E+00
         0.00000E+00
         0.00000E+00
         0.00000E+00
         0.00000E+00
         0.00000E+00
         0.00000E+00
         0.00000E+00
         0.00000E+00
         0.00000E+00
         0.00000E+00
         0.00000E+00
         0.00000E+00
         0.00000E+00
         0.00000E+00
         0.00000E+00
         0.00000E+00
         0.00000E+00
         0.00000E+00
         0.00000E+00
         0.00000E+00
         0.00000E+00
         0.00000E+00
         0.00000E+00
         0.00000E+00
         0.00000E+00
         0.00000E+00
         0.00000E+00
         0.00000E+00
         0.00000E+00
         0.00000E+00
         0.00000E+00
         0.00000E+00
         0.00000E+00
         0.00000E+00
         0.00000E+00
         0.00000E+00
         0.00000E+00
         0.00000E+00
         0.00000E+00
         0.00000E+00
         0.00000E+00
         0.00000E+00
         0.00000E+00
         0.00000E+00
         0.00000E+00
         0.00000E+00
         0.00000E+00
         0.00000E+00
         0.00000E+00
         0.00000E+00
         0.00000E+00
         0.00000E+00
         0.00000E+00
         0.00000E+00
         0.00000E+00
         0.00000E+00
         0.00000E+00
         0.00000E+00
         0.00000E+00
         0.00000E+00
         0.00000E+00
         0.00000E+00
         0.00000E+00
         0.00000E+00
         0.00000E+00
         0.00000E+00
         0.00000E+00
         0.00000E+00
         0.00000E+00
         0.00000E+00
         0.00000E+00
         0.00000E+00
         0.00000E+00
         0.00000E+00
         0.00000E+00
         0.00000E+00
         0.00000E+00
         0.00000E+00
         0.00000E+00
         0.00000E+00
         0.00000E+00
         0.00000E+00
         0.00000E+00
         0.00000E+00
         0.00000E+00
         0.00000E+00
         0.00000E+00
         0.00000E+00
         0.00000E+00
         0.00000E+00
         0.00000E+00
         0.00000E+00
         0.00000E+00
         0.00000E+00
         0.00000E+00
         0.00000E+00
         0.00000E+00
         0.00000E+00
         0.00000E+00
         0.00000E+00
         0.00000E+00
         0.00000E+00
         0.00000E+00
         0.00000E+00
         0.00000E+00
         0.00000E+00
         0.00000E+00
         0.00000E+00
         0.00000E+00
         0.00000E+00
         0.00000E+00
         0.00000E+00
         0.00000E+00
         0.00000E+00
         0.00000E+00
         0.00000E+00
         0.00000E+00
         0.00000E+00
         0.00000E+00
         0.00000E+00
         0.00000E+00
         0.00000E+00
         0.00000E+00
         0.00000E+00
         0.00000E+00
         0.00000E+00
         0.00000E+00
         0.00000E+00
         0.00000E+00
         0.00000E+00
         0.00000E+00
         0.00000E+00
         0.00000E+00
         0.00000E+00
         0.00000E+00
         0.00000E+00
         0.00000E+00
         0.00000E+00
         0.00000E+00
         0.00000E+00
         0.00000E+00
         0.00000E+00
         0.00000E+00
         0.00000E+00
         0.00000E+00
         0.00000E+00
         0.00000E+00
         0.00000E+00
         0.00000E+00
         0.00000E+00
         0.00000E+00
         0.00000E+00
         0.00000E+00
         0.00000E+00
         0.00000E+00
         0.00000E+00
         0.00000E+00
         0.00000E+00
         0.00000E+00
         0.00000E+00
         0.00000E+00
         0.00000E+00
         0.00000E+00
         0.00000E+00
         0.00000E+00
         0.00000E+00
         0.00000E+00
         0.00000E+00
         0.00000E+00
         0.00000E+00
         0.00000E+00
         0.00000E+00
         0.00000E+00
         0.00000E+00
         0.00000E+00
         0.00000E+00
         0.00000E+00
         0.00000E+00
         0.00000E+00
         0.00000E+00
         0.00000E+00
         0.00000E+00
         0.00000E+00
         0.00000E+00
         0.00000E+00
         0.00000E+00
         0.00000E+00
         0.00000E+00
         0.00000E+00
         0.00000E+00
         0.00000E+00
         0.00000E+00
         0.00000E+00
         0.00000E+00
         0.00000E+00
         0.00000E+00
         0.00000E+00
         0.00000E+00
         0.00000E+00
         0.00000E+00
         0.00000E+00
         0.00000E+00
         0.00000E+00
         0.00000E+00
         0.00000E+00
         0.00000E+00
         0.00000E+00
         0.00000E+00
         0.00000E+00
         0.00000E+00
         0.00000E+00
         0.00000E+00
         0.00000E+00
         0.00000E+00
         0.00000E+00
         0.00000E+00
         0.00000E+00
         0.00000E+00
         0.00000E+00
         0.00000E+00
         0.00000E+00
         0.00000E+00
         0.00000E+00
         0.00000E+00
         0.00000E+00
         0.00000E+00
         0.00000E+00
         0.00000E+00
         0.00000E+00
         0.00000E+00
         0.00000E+00
         0.00000E+00
         0.00000E+00
         0.00000E+00
         0.00000E+00
         0.00000E+00
         0.00000E+00
         0.00000E+00
         0.00000E+00
         0.00000E+00
         0.00000E+00
         0.00000E+00
         0.00000E+00
         0.00000E+00
         0.00000E+00
         0.00000E+00
         0.00000E+00
         0.00000E+00
         0.00000E+00
         0.00000E+00
         0.00000E+00
         0.00000E+00
         0.00000E+00
         0.00000E+00
         0.00000E+00
         0.00000E+00
         0.00000E+00
         0.00000E+00
         0.00000E+00
         0.00000E+00
         0.00000E+00
         0.00000E+00
         0.00000E+00
         0.00000E+00
         0.00000E+00
         0.00000E+00
         0.00000E+00
         0.00000E+00
         0.00000E+00
         0.00000E+00
         0.00000E+00
         0.00000E+00
         0.00000E+00
         0.00000E+00
         0.00000E+00
         0.00000E+00
         0.00000E+00
         0.00000E+00
         0.00000E+00
         0.00000E+00
         0.00000E+00
         0.00000E+00
         0.00000E+00
         0.00000E+00
         0.00000E+00
         0.00000E+00
         0.00000E+00
         0.00000E+00
         0.00000E+00
         0.00000E+00
         0.00000E+00
         0.00000E+00
         0.00000E+00
         0.00000E+00
         0.00000E+00
         0.00000E+00
         0.00000E+00
         0.00000E+00
         0.00000E+00
         0.00000E+00
         0.00000E+00
         0.00000E+00
         0.00000E+00
         0.00000E+00
         0.00000E+00
         0.00000E+00
         0.00000E+00
         0.00000E+00
         0.00000E+00
         0.00000E+00
         0.00000E+00
         0.00000E+00
         0.00000E+00
         0.00000E+00
         0.00000E+00
         0.00000E+00
         0.00000E+00
         0.00000E+00
         0.00000E+00
         0.00000E+00
         0.00000E+00
         0.00000E+00
         0.00000E+00
         0.00000E+00
         0.00000E+00
         0.00000E+00
         0.00000E+00
         0.00000E+00
         0.00000E+00
         0.00000E+00
         0.00000E+00
         0.00000E+00
         0.00000E+00
         0.00000E+00
         0.00000E+00
         0.00000E+00
         0.00000E+00
         0.00000E+00
         0.00000E+00
         0.00000E+00
         0.00000E+00
         0.00000E+00
         0.00000E+00
         0.00000E+00
         0.00000E+00
         0.00000E+00
         0.00000E+00
         0.00000E+00
         0.00000E+00
         0.00000E+00
         0.00000E+00
         0.00000E+00
         0.00000E+00
         0.00000E+00
         0.00000E+00
         0.00000E+00
         0.00000E+00
         0.00000E+00
         0.00000E+00
         0.00000E+00
         0.00000E+00
         0.00000E+00
         0.00000E+00
         0.00000E+00
         0.00000E+00
         0.00000E+00
         0.00000E+00
         0.00000E+00
         0.00000E+00
         0.00000E+00
         0.00000E+00
         0.00000E+00
         0.00000E+00
         0.00000E+00
         0.00000E+00
         0.00000E+00
         0.00000E+00
         0.00000E+00
         0.00000E+00
         0.00000E+00
         0.00000E+00
         0.00000E+00
         0.00000E+00
         0.00000E+00
         0.00000E+00
         0.00000E+00
         0.00000E+00
         0.00000E+00
         0.00000E+00
         0.00000E+00
         0.00000E+00
         0.00000E+00
         0.00000E+00
         0.00000E+00
         0.00000E+00
         0.00000E+00
         0.00000E+00
         0.00000E+00
         0.00000E+00
         0.00000E+00
         0.00000E+00
         0.00000E+00
         0.00000E+00
         0.00000E+00
         0.00000E+00
         0.00000E+00
         0.00000E+00
         0.00000E+00
         0.00000E+00
         0.00000E+00
         0.00000E+00
         0.00000E+00
         0.00000E+00
         0.00000E+00
         0.00000E+00
         0.00000E+00
         0.00000E+00
         0.00000E+00
         0.00000E+00
         0.00000E+00
         0.00000E+00
         0.00000E+00
         0.00000E+00
         0.00000E+00
         0.00000E+00
         0.00000E+00
         0.00000E+00
         0.00000E+00
         0.00000E+00
         0.00000E+00
         0.00000E+00
         0.00000E+00
         0.00000E+00
         0.00000E+00
         0.00000E+00
         0.00000E+00
         0.00000E+00
         0.00000E+00
         0.00000E+00
         0.00000E+00
         0.00000E+00
         0.00000E+00
         0.00000E+00
         0.00000E+00
         0.00000E+00
         0.00000E+00
         0.00000E+00
         0.00000E+00
         0.00000E+00
         0.00000E+00
         0.00000E+00
         0.00000E+00
         0.00000E+00
         0.00000E+00
         0.00000E+00
         0.00000E+00
         0.00000E+00
         0.00000E+00
         0.00000E+00
         0.00000E+00
         0.00000E+00
         0.00000E+00
         0.00000E+00
         0.00000E+00
         0.00000E+00
         0.00000E+00
         0.00000E+00
         0.00000E+00
         0.00000E+00
         0.00000E+00
         0.00000E+00
         0.00000E+00
         0.00000E+00
         0.00000E+00
         0.00000E+00
         0.00000E+00
         0.00000E+00
         0.00000E+00
         0.00000E+00
         0.00000E+00
         0.00000E+00
         0.00000E+00
         0.00000E+00
         0.00000E+00
         0.00000E+00
         0.00000E+00
         0.00000E+00
         0.00000E+00
         0.00000E+00
         0.00000E+00
         0.00000E+00
         0.00000E+00
         0.00000E+00
         0.00000E+00
         0.00000E+00
         0.00000E+00
         0.00000E+00
         0.00000E+00
         0.00000E+00
         0.00000E+00
         0.00000E+00
         0.00000E+00
         0.00000E+00
         0.00000E+00
         0.00000E+00
         0.00000E+00
         0.00000E+00
         0.00000E+00
         0.00000E+00
         0.00000E+00
         0.00000E+00
         0.00000E+00
         0.00000E+00
         0.00000E+00
         0.00000E+00
         0.00000E+00
         0.00000E+00
         0.00000E+00
         0.00000E+00
         0.00000E+00
         0.00000E+00
         0.00000E+00
         0.00000E+00
         0.00000E+00
         0.00000E+00
         0.00000E+00
         0.00000E+00
         0.00000E+00
         0.00000E+00
         0.00000E+00
         0.00000E+00
         0.00000E+00
         0.00000E+00
         0.00000E+00
         0.00000E+00
         0.00000E+00
         0.00000E+00
         0.00000E+00
         0.00000E+00
         0.00000E+00
         0.00000E+00
         0.00000E+00
         0.00000E+00
         0.00000E+00
         0.00000E+00
         0.00000E+00
         0.00000E+00
         0.00000E+00
         0.00000E+00
         0.00000E+00
         0.00000E+00
         0.00000E+00
         0.00000E+00
         0.00000E+00
         0.00000E+00
         0.00000E+00
         0.00000E+00
         0.00000E+00
         0.00000E+00
         0.00000E+00
         0.00000E+00
         0.00000E+00
         0.00000E+00
         0.00000E+00
         0.00000E+00
         0.00000E+00
         0.00000E+00
         0.00000E+00
         0.00000E+00
         0.00000E+00
         0.00000E+00
         0.00000E+00
         0.00000E+00
         0.00000E+00
         0.00000E+00
         0.00000E+00
         0.00000E+00
         0.00000E+00
         0.00000E+00
         0.00000E+00
         0.00000E+00
         0.00000E+00
         0.00000E+00
         0.00000E+00
         0.00000E+00
         0.00000E+00
         0.00000E+00
         0.00000E+00
         0.00000E+00
         0.00000E+00
         0.00000E+00
         0.00000E+00
         0.00000E+00
         0.00000E+00
         0.00000E+00
  
SCALARS               pre_disp_force_z  double 1
LOOKUP_TABLE default
         0.00000E+00
         0.00000E+00
         0.00000E+00
         0.00000E+00
        -0.00000E+00
        -0.00000E+00
        -0.00000E+00
        -0.00000E+00
         0.00000E+00
         0.00000E+00
        -0.00000E+00
        -0.00000E+00
         0.00000E+00
         0.00000E+00
        -0.00000E+00
        -0.00000E+00
         0.00000E+00
         0.00000E+00
        -0.00000E+00
        -0.00000E+00
         0.00000E+00
         0.00000E+00
         0.00000E+00
        -0.00000E+00
        -0.00000E+00
        -0.00000E+00
         0.00000E+00
         0.00000E+00
        -0.00000E+00
        -0.00000E+00
         0.00000E+00
         0.00000E+00
         0.00000E+00
        -0.00000E+00
        -0.00000E+00
        -0.00000E+00
         0.00000E+00
         0.00000E+00
        -0.00000E+00
        -0.00000E+00
         0.00000E+00
         0.00000E+00
        -0.00000E+00
        -0.00000E+00
         0.00000E+00
         0.00000E+00
        -0.00000E+00
        -0.00000E+00
         0.00000E+00
        -0.00000E+00
         0.00000E+00
        -0.00000E+00
         0.00000E+00
        -0.00000E+00
         0.00000E+00
        -0.00000E+00
         0.00000E+00
         0.00000E+00
        -0.00000E+00
        -0.00000E+00
         0.00000E+00
         0.00000E+00
        -0.00000E+00
        -0.00000E+00
         0.00000E+00
        -0.00000E+00
         0.00000E+00
        -0.00000E+00
         0.00000E+00
         0.00000E+00
        -0.00000E+00
        -0.00000E+00
         0.00000E+00
        -0.00000E+00
         0.00000E+00
        -0.00000E+00
         0.00000E+00
        -0.00000E+00
         0.00000E+00
        -0.00000E+00
         0.00000E+00
         0.00000E+00
        -0.00000E+00
        -0.00000E+00
         0.00000E+00
        -0.00000E+00
         0.00000E+00
        -0.00000E+00
         0.00000E+00
        -0.00000E+00
         0.00000E+00
         0.00000E+00
        -0.00000E+00
        -0.00000E+00
         0.00000E+00
        -0.00000E+00
         0.00000E+00
        -0.00000E+00
         0.00000E+00
        -0.00000E+00
         0.00000E+00
         0.00000E+00
        -0.00000E+00
        -0.00000E+00
         0.00000E+00
         0.00000E+00
        -0.00000E+00
        -0.00000E+00
         0.00000E+00
        -0.00000E+00
         0.00000E+00
        -0.00000E+00
         0.00000E+00
        -0.00000E+00
         0.00000E+00
        -0.00000E+00
         0.00000E+00
        -0.00000E+00
         0.00000E+00
        -0.00000E+00
         0.00000E+00
        -0.00000E+00
         0.00000E+00
        -0.00000E+00
         0.00000E+00
        -0.00000E+00
         0.00000E+00
        -0.00000E+00
         0.00000E+00
        -0.00000E+00
         0.00000E+00
        -0.00000E+00
         0.00000E+00
        -0.00000E+00
         0.00000E+00
        -0.00000E+00
         0.00000E+00
        -0.00000E+00
         0.00000E+00
        -0.00000E+00
         0.00000E+00
        -0.00000E+00
         0.00000E+00
        -0.00000E+00
         0.00000E+00
        -0.00000E+00
         0.00000E+00
        -0.00000E+00
         0.00000E+00
        -0.00000E+00
         0.00000E+00
        -0.00000E+00
         0.00000E+00
        -0.00000E+00
         0.00000E+00
        -0.00000E+00
         0.00000E+00
         0.00000E+00
         0.00000E+00
         0.00000E+00
         0.00000E+00
         0.00000E+00
         0.00000E+00
         0.00000E+00
         0.00000E+00
         0.00000E+00
         0.00000E+00
         0.00000E+00
         0.00000E+00
         0.00000E+00
         0.00000E+00
         0.00000E+00
         0.00000E+00
         0.00000E+00
         0.00000E+00
         0.00000E+00
         0.00000E+00
         0.00000E+00
         0.00000E+00
         0.00000E+00
         0.00000E+00
         0.00000E+00
         0.00000E+00
         0.00000E+00
         0.00000E+00
         0.00000E+00
         0.00000E+00
         0.00000E+00
         0.00000E+00
         0.00000E+00
         0.00000E+00
         0.00000E+00
         0.00000E+00
         0.00000E+00
         0.00000E+00
         0.00000E+00
         0.00000E+00
         0.00000E+00
         0.00000E+00
         0.00000E+00
         0.00000E+00
         0.00000E+00
         0.00000E+00
         0.00000E+00
         0.00000E+00
         0.00000E+00
         0.00000E+00
         0.00000E+00
         0.00000E+00
         0.00000E+00
         0.00000E+00
         0.00000E+00
         0.00000E+00
         0.00000E+00
         0.00000E+00
         0.00000E+00
         0.00000E+00
         0.00000E+00
         0.00000E+00
         0.00000E+00
         0.00000E+00
         0.00000E+00
         0.00000E+00
         0.00000E+00
         0.00000E+00
         0.00000E+00
         0.00000E+00
         0.00000E+00
         0.00000E+00
         0.00000E+00
         0.00000E+00
         0.00000E+00
         0.00000E+00
         0.00000E+00
         0.00000E+00
         0.00000E+00
         0.00000E+00
         0.00000E+00
         0.00000E+00
         0.00000E+00
         0.00000E+00
         0.00000E+00
         0.00000E+00
         0.00000E+00
         0.00000E+00
         0.00000E+00
         0.00000E+00
         0.00000E+00
         0.00000E+00
         0.00000E+00
         0.00000E+00
         0.00000E+00
         0.00000E+00
         0.00000E+00
         0.00000E+00
         0.00000E+00
         0.00000E+00
         0.00000E+00
         0.00000E+00
         0.00000E+00
         0.00000E+00
         0.00000E+00
         0.00000E+00
         0.00000E+00
         0.00000E+00
         0.00000E+00
         0.00000E+00
         0.00000E+00
         0.00000E+00
         0.00000E+00
         0.00000E+00
         0.00000E+00
         0.00000E+00
         0.00000E+00
         0.00000E+00
         0.00000E+00
         0.00000E+00
         0.00000E+00
         0.00000E+00
         0.00000E+00
         0.00000E+00
         0.00000E+00
         0.00000E+00
         0.00000E+00
         0.00000E+00
         0.00000E+00
         0.00000E+00
         0.00000E+00
         0.00000E+00
         0.00000E+00
         0.00000E+00
         0.00000E+00
         0.00000E+00
         0.00000E+00
         0.00000E+00
         0.00000E+00
         0.00000E+00
         0.00000E+00
         0.00000E+00
         0.00000E+00
         0.00000E+00
         0.00000E+00
         0.00000E+00
         0.00000E+00
         0.00000E+00
         0.00000E+00
         0.00000E+00
         0.00000E+00
         0.00000E+00
         0.00000E+00
         0.00000E+00
         0.00000E+00
         0.00000E+00
         0.00000E+00
         0.00000E+00
         0.00000E+00
         0.00000E+00
         0.00000E+00
         0.00000E+00
         0.00000E+00
         0.00000E+00
         0.00000E+00
         0.00000E+00
         0.00000E+00
         0.00000E+00
         0.00000E+00
         0.00000E+00
         0.00000E+00
         0.00000E+00
         0.00000E+00
         0.00000E+00
         0.00000E+00
         0.00000E+00
         0.00000E+00
         0.00000E+00
         0.00000E+00
         0.00000E+00
         0.00000E+00
         0.00000E+00
         0.00000E+00
         0.00000E+00
         0.00000E+00
         0.00000E+00
         0.00000E+00
         0.00000E+00
         0.00000E+00
         0.00000E+00
         0.00000E+00
         0.00000E+00
         0.00000E+00
         0.00000E+00
         0.00000E+00
         0.00000E+00
         0.00000E+00
         0.00000E+00
         0.00000E+00
         0.00000E+00
         0.00000E+00
         0.00000E+00
         0.00000E+00
         0.00000E+00
         0.00000E+00
         0.00000E+00
         0.00000E+00
         0.00000E+00
         0.00000E+00
         0.00000E+00
         0.00000E+00
         0.00000E+00
         0.00000E+00
         0.00000E+00
         0.00000E+00
         0.00000E+00
         0.00000E+00
         0.00000E+00
         0.00000E+00
         0.00000E+00
         0.00000E+00
         0.00000E+00
         0.00000E+00
         0.00000E+00
         0.00000E+00
         0.00000E+00
         0.00000E+00
         0.00000E+00
         0.00000E+00
         0.00000E+00
         0.00000E+00
         0.00000E+00
         0.00000E+00
         0.00000E+00
         0.00000E+00
         0.00000E+00
         0.00000E+00
         0.00000E+00
         0.00000E+00
         0.00000E+00
         0.00000E+00
         0.00000E+00
         0.00000E+00
         0.00000E+00
         0.00000E+00
         0.00000E+00
         0.00000E+00
         0.00000E+00
         0.00000E+00
         0.00000E+00
         0.00000E+00
         0.00000E+00
         0.00000E+00
         0.00000E+00
         0.00000E+00
         0.00000E+00
         0.00000E+00
         0.00000E+00
         0.00000E+00
         0.00000E+00
         0.00000E+00
         0.00000E+00
         0.00000E+00
         0.00000E+00
         0.00000E+00
         0.00000E+00
         0.00000E+00
         0.00000E+00
         0.00000E+00
         0.00000E+00
         0.00000E+00
         0.00000E+00
         0.00000E+00
         0.00000E+00
         0.00000E+00
         0.00000E+00
         0.00000E+00
         0.00000E+00
         0.00000E+00
         0.00000E+00
         0.00000E+00
         0.00000E+00
         0.00000E+00
         0.00000E+00
         0.00000E+00
         0.00000E+00
         0.00000E+00
         0.00000E+00
         0.00000E+00
         0.00000E+00
         0.00000E+00
         0.00000E+00
         0.00000E+00
         0.00000E+00
         0.00000E+00
         0.00000E+00
         0.00000E+00
         0.00000E+00
         0.00000E+00
         0.00000E+00
         0.00000E+00
         0.00000E+00
         0.00000E+00
         0.00000E+00
         0.00000E+00
         0.00000E+00
         0.00000E+00
         0.00000E+00
         0.00000E+00
         0.00000E+00
         0.00000E+00
         0.00000E+00
         0.00000E+00
         0.00000E+00
         0.00000E+00
         0.00000E+00
         0.00000E+00
         0.00000E+00
         0.00000E+00
         0.00000E+00
         0.00000E+00
         0.00000E+00
         0.00000E+00
         0.00000E+00
         0.00000E+00
         0.00000E+00
         0.00000E+00
         0.00000E+00
         0.00000E+00
         0.00000E+00
         0.00000E+00
         0.00000E+00
         0.00000E+00
         0.00000E+00
         0.00000E+00
         0.00000E+00
         0.00000E+00
         0.00000E+00
         0.00000E+00
         0.00000E+00
         0.00000E+00
         0.00000E+00
         0.00000E+00
         0.00000E+00
         0.00000E+00
         0.00000E+00
         0.00000E+00
         0.00000E+00
         0.00000E+00
         0.00000E+00
         0.00000E+00
         0.00000E+00
         0.00000E+00
         0.00000E+00
         0.00000E+00
         0.00000E+00
         0.00000E+00
         0.00000E+00
         0.00000E+00
         0.00000E+00
         0.00000E+00
         0.00000E+00
         0.00000E+00
         0.00000E+00
         0.00000E+00
         0.00000E+00
         0.00000E+00
         0.00000E+00
         0.00000E+00
         0.00000E+00
         0.00000E+00
         0.00000E+00
         0.00000E+00
         0.00000E+00
         0.00000E+00
         0.00000E+00
         0.00000E+00
         0.00000E+00
         0.00000E+00
         0.00000E+00
         0.00000E+00
         0.00000E+00
         0.00000E+00
         0.00000E+00
         0.00000E+00
         0.00000E+00
         0.00000E+00
         0.00000E+00
         0.00000E+00
         0.00000E+00
         0.00000E+00
         0.00000E+00
         0.00000E+00
         0.00000E+00
         0.00000E+00
         0.00000E+00
         0.00000E+00
         0.00000E+00
         0.00000E+00
         0.00000E+00
         0.00000E+00
         0.00000E+00
         0.00000E+00
         0.00000E+00
         0.00000E+00
         0.00000E+00
         0.00000E+00
         0.00000E+00
         0.00000E+00
         0.00000E+00
         0.00000E+00
         0.00000E+00
         0.00000E+00
         0.00000E+00
         0.00000E+00
         0.00000E+00
         0.00000E+00
         0.00000E+00
         0.00000E+00
         0.00000E+00
         0.00000E+00
         0.00000E+00
         0.00000E+00
         0.00000E+00
         0.00000E+00
         0.00000E+00
         0.00000E+00
         0.00000E+00
         0.00000E+00
         0.00000E+00
         0.00000E+00
         0.00000E+00
         0.00000E+00
         0.00000E+00
         0.00000E+00
         0.00000E+00
         0.00000E+00
         0.00000E+00
         0.00000E+00
         0.00000E+00
         0.00000E+00
         0.00000E+00
         0.00000E+00
         0.00000E+00
         0.00000E+00
         0.00000E+00
         0.00000E+00
         0.00000E+00
         0.00000E+00
         0.00000E+00
         0.00000E+00
         0.00000E+00
         0.00000E+00
         0.00000E+00
         0.00000E+00
         0.00000E+00
         0.00000E+00
         0.00000E+00
         0.00000E+00
         0.00000E+00
         0.00000E+00
         0.00000E+00
         0.00000E+00
         0.00000E+00
         0.00000E+00
         0.00000E+00
         0.00000E+00
         0.00000E+00
         0.00000E+00
         0.00000E+00
         0.00000E+00
         0.00000E+00
         0.00000E+00
         0.00000E+00
         0.00000E+00
         0.00000E+00
         0.00000E+00
         0.00000E+00
         0.00000E+00
         0.00000E+00
         0.00000E+00
         0.00000E+00
         0.00000E+00
         0.00000E+00
         0.00000E+00
         0.00000E+00
         0.00000E+00
         0.00000E+00
         0.00000E+00
         0.00000E+00
         0.00000E+00
         0.00000E+00
         0.00000E+00
         0.00000E+00
         0.00000E+00
         0.00000E+00
         0.00000E+00
         0.00000E+00
         0.00000E+00
         0.00000E+00
         0.00000E+00
         0.00000E+00
         0.00000E+00
         0.00000E+00
         0.00000E+00
         0.00000E+00
         0.00000E+00
         0.00000E+00
         0.00000E+00
         0.00000E+00
         0.00000E+00
         0.00000E+00
         0.00000E+00
         0.00000E+00
         0.00000E+00
         0.00000E+00
         0.00000E+00
         0.00000E+00
         0.00000E+00
         0.00000E+00
         0.00000E+00
         0.00000E+00
         0.00000E+00
         0.00000E+00
         0.00000E+00
         0.00000E+00
         0.00000E+00
         0.00000E+00
         0.00000E+00
         0.00000E+00
         0.00000E+00
         0.00000E+00
         0.00000E+00
         0.00000E+00
         0.00000E+00
         0.00000E+00
         0.00000E+00
         0.00000E+00
         0.00000E+00
         0.00000E+00
         0.00000E+00
         0.00000E+00
         0.00000E+00
         0.00000E+00
         0.00000E+00
         0.00000E+00
         0.00000E+00
         0.00000E+00
         0.00000E+00
         0.00000E+00
         0.00000E+00
         0.00000E+00
         0.00000E+00
         0.00000E+00
         0.00000E+00
         0.00000E+00
         0.00000E+00
         0.00000E+00
         0.00000E+00
         0.00000E+00
         0.00000E+00
         0.00000E+00
         0.00000E+00
         0.00000E+00
         0.00000E+00
         0.00000E+00
         0.00000E+00
         0.00000E+00
         0.00000E+00
         0.00000E+00
         0.00000E+00
         0.00000E+00
         0.00000E+00
         0.00000E+00
         0.00000E+00
         0.00000E+00
         0.00000E+00
         0.00000E+00
         0.00000E+00
         0.00000E+00
         0.00000E+00
         0.00000E+00
         0.00000E+00
         0.00000E+00
         0.00000E+00
         0.00000E+00
         0.00000E+00
         0.00000E+00
         0.00000E+00
         0.00000E+00
         0.00000E+00
         0.00000E+00
         0.00000E+00
         0.00000E+00
         0.00000E+00
         0.00000E+00
         0.00000E+00
         0.00000E+00
         0.00000E+00
         0.00000E+00
         0.00000E+00
         0.00000E+00
         0.00000E+00
         0.00000E+00
         0.00000E+00
         0.00000E+00
         0.00000E+00
         0.00000E+00
         0.00000E+00
         0.00000E+00
         0.00000E+00
         0.00000E+00
         0.00000E+00
         0.00000E+00
         0.00000E+00
         0.00000E+00
         0.00000E+00
         0.00000E+00
         0.00000E+00
         0.00000E+00
         0.00000E+00
         0.00000E+00
         0.00000E+00
         0.00000E+00
         0.00000E+00
         0.00000E+00
         0.00000E+00
         0.00000E+00
         0.00000E+00
         0.00000E+00
         0.00000E+00
         0.00000E+00
         0.00000E+00
         0.00000E+00
         0.00000E+00
         0.00000E+00
         0.00000E+00
         0.00000E+00
         0.00000E+00
         0.00000E+00
         0.00000E+00
         0.00000E+00
         0.00000E+00
         0.00000E+00
         0.00000E+00
         0.00000E+00
         0.00000E+00
         0.00000E+00
         0.00000E+00
         0.00000E+00
         0.00000E+00
         0.00000E+00
         0.00000E+00
         0.00000E+00
         0.00000E+00
         0.00000E+00
         0.00000E+00
         0.00000E+00
         0.00000E+00
         0.00000E+00
         0.00000E+00
         0.00000E+00
         0.00000E+00
         0.00000E+00
         0.00000E+00
         0.00000E+00
         0.00000E+00
         0.00000E+00
         0.00000E+00
         0.00000E+00
         0.00000E+00
         0.00000E+00
         0.00000E+00
         0.00000E+00
         0.00000E+00
         0.00000E+00
         0.00000E+00
         0.00000E+00
         0.00000E+00
         0.00000E+00
         0.00000E+00
         0.00000E+00
         0.00000E+00
         0.00000E+00
         0.00000E+00
         0.00000E+00
         0.00000E+00
         0.00000E+00
         0.00000E+00
         0.00000E+00
         0.00000E+00
         0.00000E+00
         0.00000E+00
         0.00000E+00
         0.00000E+00
         0.00000E+00
         0.00000E+00
         0.00000E+00
         0.00000E+00
         0.00000E+00
         0.00000E+00
         0.00000E+00
         0.00000E+00
         0.00000E+00
         0.00000E+00
         0.00000E+00
         0.00000E+00
         0.00000E+00
         0.00000E+00
         0.00000E+00
         0.00000E+00
         0.00000E+00
         0.00000E+00
         0.00000E+00
         0.00000E+00
         0.00000E+00
         0.00000E+00
         0.00000E+00
         0.00000E+00
         0.00000E+00
         0.00000E+00
         0.00000E+00
         0.00000E+00
         0.00000E+00
         0.00000E+00
         0.00000E+00
         0.00000E+00
         0.00000E+00
         0.00000E+00
         0.00000E+00
         0.00000E+00
         0.00000E+00
         0.00000E+00
         0.00000E+00
         0.00000E+00
         0.00000E+00
         0.00000E+00
         0.00000E+00
         0.00000E+00
         0.00000E+00
         0.00000E+00
         0.00000E+00
         0.00000E+00
         0.00000E+00
         0.00000E+00
         0.00000E+00
         0.00000E+00
         0.00000E+00
         0.00000E+00
         0.00000E+00
         0.00000E+00
         0.00000E+00
         0.00000E+00
         0.00000E+00
         0.00000E+00
         0.00000E+00
         0.00000E+00
         0.00000E+00
         0.00000E+00
         0.00000E+00
         0.00000E+00
         0.00000E+00
         0.00000E+00
         0.00000E+00
         0.00000E+00
         0.00000E+00
         0.00000E+00
         0.00000E+00
         0.00000E+00
         0.00000E+00
         0.00000E+00
         0.00000E+00
         0.00000E+00
         0.00000E+00
         0.00000E+00
         0.00000E+00
         0.00000E+00
         0.00000E+00
         0.00000E+00
         0.00000E+00
         0.00000E+00
         0.00000E+00
         0.00000E+00
         0.00000E+00
         0.00000E+00
         0.00000E+00
         0.00000E+00
         0.00000E+00
         0.00000E+00
         0.00000E+00
         0.00000E+00
         0.00000E+00
         0.00000E+00
         0.00000E+00
         0.00000E+00
         0.00000E+00
         0.00000E+00
         0.00000E+00
         0.00000E+00
         0.00000E+00
         0.00000E+00
         0.00000E+00
         0.00000E+00
         0.00000E+00
         0.00000E+00
         0.00000E+00
         0.00000E+00
         0.00000E+00
         0.00000E+00
         0.00000E+00
         0.00000E+00
         0.00000E+00
         0.00000E+00
         0.00000E+00
         0.00000E+00
         0.00000E+00
         0.00000E+00
         0.00000E+00
         0.00000E+00
         0.00000E+00
         0.00000E+00
         0.00000E+00
         0.00000E+00
         0.00000E+00
         0.00000E+00
         0.00000E+00
         0.00000E+00
         0.00000E+00
         0.00000E+00
         0.00000E+00
         0.00000E+00
         0.00000E+00
         0.00000E+00
         0.00000E+00
         0.00000E+00
         0.00000E+00
         0.00000E+00
         0.00000E+00
         0.00000E+00
         0.00000E+00
         0.00000E+00
         0.00000E+00
         0.00000E+00
         0.00000E+00
         0.00000E+00
         0.00000E+00
         0.00000E+00
         0.00000E+00
         0.00000E+00
         0.00000E+00
         0.00000E+00
         0.00000E+00
         0.00000E+00
         0.00000E+00
         0.00000E+00
         0.00000E+00
         0.00000E+00
         0.00000E+00
         0.00000E+00
         0.00000E+00
         0.00000E+00
         0.00000E+00
         0.00000E+00
         0.00000E+00
         0.00000E+00
         0.00000E+00
         0.00000E+00
         0.00000E+00
         0.00000E+00
         0.00000E+00
         0.00000E+00
         0.00000E+00
         0.00000E+00
         0.00000E+00
         0.00000E+00
         0.00000E+00
         0.00000E+00
         0.00000E+00
         0.00000E+00
         0.00000E+00
         0.00000E+00
         0.00000E+00
         0.00000E+00
         0.00000E+00
         0.00000E+00
         0.00000E+00
         0.00000E+00
         0.00000E+00
         0.00000E+00
         0.00000E+00
         0.00000E+00
         0.00000E+00
         0.00000E+00
         0.00000E+00
         0.00000E+00
         0.00000E+00
         0.00000E+00
         0.00000E+00
         0.00000E+00
         0.00000E+00
         0.00000E+00
         0.00000E+00
         0.00000E+00
         0.00000E+00
         0.00000E+00
         0.00000E+00
         0.00000E+00
         0.00000E+00
         0.00000E+00
         0.00000E+00
         0.00000E+00
         0.00000E+00
         0.00000E+00
         0.00000E+00
         0.00000E+00
         0.00000E+00
         0.00000E+00
         0.00000E+00
         0.00000E+00
         0.00000E+00
         0.00000E+00
         0.00000E+00
         0.00000E+00
         0.00000E+00
         0.00000E+00
         0.00000E+00
         0.00000E+00
         0.00000E+00
         0.00000E+00
         0.00000E+00
         0.00000E+00
         0.00000E+00
         0.00000E+00
         0.00000E+00
         0.00000E+00
         0.00000E+00
         0.00000E+00
         0.00000E+00
         0.00000E+00
         0.00000E+00
         0.00000E+00
         0.00000E+00
         0.00000E+00
         0.00000E+00
         0.00000E+00
         0.00000E+00
         0.00000E+00
         0.00000E+00
         0.00000E+00
         0.00000E+00
         0.00000E+00
         0.00000E+00
         0.00000E+00
         0.00000E+00
         0.00000E+00
         0.00000E+00
         0.00000E+00
         0.00000E+00
         0.00000E+00
         0.00000E+00
         0.00000E+00
         0.00000E+00
         0.00000E+00
         0.00000E+00
         0.00000E+00
         0.00000E+00
         0.00000E+00
         0.00000E+00
         0.00000E+00
         0.00000E+00
         0.00000E+00
         0.00000E+00
         0.00000E+00
         0.00000E+00
         0.00000E+00
         0.00000E+00
         0.00000E+00
         0.00000E+00
         0.00000E+00
         0.00000E+00
         0.00000E+00
         0.00000E+00
         0.00000E+00
         0.00000E+00
         0.00000E+00
         0.00000E+00
         0.00000E+00
         0.00000E+00
         0.00000E+00
         0.00000E+00
         0.00000E+00
         0.00000E+00
         0.00000E+00
         0.00000E+00
         0.00000E+00
         0.00000E+00
         0.00000E+00
         0.00000E+00
         0.00000E+00
         0.00000E+00
         0.00000E+00
         0.00000E+00
         0.00000E+00
         0.00000E+00
         0.00000E+00
         0.00000E+00
         0.00000E+00
         0.00000E+00
         0.00000E+00
         0.00000E+00
         0.00000E+00
         0.00000E+00
         0.00000E+00
         0.00000E+00
         0.00000E+00
         0.00000E+00
         0.00000E+00
         0.00000E+00
         0.00000E+00
         0.00000E+00
         0.00000E+00
         0.00000E+00
         0.00000E+00
         0.00000E+00
         0.00000E+00
         0.00000E+00
         0.00000E+00
         0.00000E+00
         0.00000E+00
         0.00000E+00
         0.00000E+00
         0.00000E+00
         0.00000E+00
         0.00000E+00
         0.00000E+00
         0.00000E+00
         0.00000E+00
         0.00000E+00
         0.00000E+00
         0.00000E+00
         0.00000E+00
         0.00000E+00
         0.00000E+00
         0.00000E+00
         0.00000E+00
         0.00000E+00
         0.00000E+00
         0.00000E+00
         0.00000E+00
         0.00000E+00
         0.00000E+00
         0.00000E+00
         0.00000E+00
         0.00000E+00
         0.00000E+00
         0.00000E+00
         0.00000E+00
         0.00000E+00
         0.00000E+00
         0.00000E+00
         0.00000E+00
         0.00000E+00
         0.00000E+00
         0.00000E+00
         0.00000E+00
         0.00000E+00
         0.00000E+00
         0.00000E+00
         0.00000E+00
         0.00000E+00
         0.00000E+00
         0.00000E+00
         0.00000E+00
         0.00000E+00
         0.00000E+00
         0.00000E+00
         0.00000E+00
         0.00000E+00
         0.00000E+00
         0.00000E+00
         0.00000E+00
         0.00000E+00
         0.00000E+00
         0.00000E+00
         0.00000E+00
         0.00000E+00
         0.00000E+00
         0.00000E+00
         0.00000E+00
         0.00000E+00
         0.00000E+00
         0.00000E+00
         0.00000E+00
         0.00000E+00
         0.00000E+00
         0.00000E+00
         0.00000E+00
         0.00000E+00
         0.00000E+00
         0.00000E+00
         0.00000E+00
         0.00000E+00
         0.00000E+00
         0.00000E+00
         0.00000E+00
         0.00000E+00
         0.00000E+00
         0.00000E+00
         0.00000E+00
         0.00000E+00
         0.00000E+00
         0.00000E+00
         0.00000E+00
         0.00000E+00
         0.00000E+00
         0.00000E+00
         0.00000E+00
         0.00000E+00
         0.00000E+00
         0.00000E+00
         0.00000E+00
         0.00000E+00
         0.00000E+00
         0.00000E+00
         0.00000E+00
         0.00000E+00
         0.00000E+00
         0.00000E+00
         0.00000E+00
         0.00000E+00
         0.00000E+00
         0.00000E+00
         0.00000E+00
         0.00000E+00
         0.00000E+00
         0.00000E+00
         0.00000E+00
         0.00000E+00
         0.00000E+00
         0.00000E+00
         0.00000E+00
         0.00000E+00
         0.00000E+00
         0.00000E+00
         0.00000E+00
         0.00000E+00
         0.00000E+00
         0.00000E+00
         0.00000E+00
         0.00000E+00
         0.00000E+00
         0.00000E+00
         0.00000E+00
         0.00000E+00
         0.00000E+00
         0.00000E+00
         0.00000E+00
         0.00000E+00
         0.00000E+00
         0.00000E+00
         0.00000E+00
         0.00000E+00
         0.00000E+00
         0.00000E+00
         0.00000E+00
         0.00000E+00
         0.00000E+00
         0.00000E+00
         0.00000E+00
         0.00000E+00
         0.00000E+00
         0.00000E+00
         0.00000E+00
         0.00000E+00
         0.00000E+00
         0.00000E+00
         0.00000E+00
         0.00000E+00
         0.00000E+00
         0.00000E+00
         0.00000E+00
         0.00000E+00
         0.00000E+00
         0.00000E+00
         0.00000E+00
         0.00000E+00
         0.00000E+00
         0.00000E+00
         0.00000E+00
         0.00000E+00
         0.00000E+00
         0.00000E+00
         0.00000E+00
         0.00000E+00
         0.00000E+00
         0.00000E+00
         0.00000E+00
         0.00000E+00
         0.00000E+00
         0.00000E+00
         0.00000E+00
         0.00000E+00
         0.00000E+00
         0.00000E+00
         0.00000E+00
         0.00000E+00
         0.00000E+00
         0.00000E+00
         0.00000E+00
         0.00000E+00
         0.00000E+00
         0.00000E+00
         0.00000E+00
         0.00000E+00
         0.00000E+00
         0.00000E+00
         0.00000E+00
         0.00000E+00
         0.00000E+00
         0.00000E+00
         0.00000E+00
         0.00000E+00
         0.00000E+00
         0.00000E+00
         0.00000E+00
         0.00000E+00
         0.00000E+00
         0.00000E+00
         0.00000E+00
         0.00000E+00
         0.00000E+00
         0.00000E+00
         0.00000E+00
         0.00000E+00
         0.00000E+00
         0.00000E+00
         0.00000E+00
         0.00000E+00
         0.00000E+00
         0.00000E+00
         0.00000E+00
         0.00000E+00
         0.00000E+00
         0.00000E+00
         0.00000E+00
         0.00000E+00
         0.00000E+00
         0.00000E+00
         0.00000E+00
         0.00000E+00
         0.00000E+00
         0.00000E+00
         0.00000E+00
         0.00000E+00
         0.00000E+00
         0.00000E+00
         0.00000E+00
         0.00000E+00
         0.00000E+00
         0.00000E+00
         0.00000E+00
         0.00000E+00
         0.00000E+00
         0.00000E+00
         0.00000E+00
         0.00000E+00
         0.00000E+00
         0.00000E+00
         0.00000E+00
         0.00000E+00
         0.00000E+00
         0.00000E+00
         0.00000E+00
         0.00000E+00
         0.00000E+00
         0.00000E+00
         0.00000E+00
         0.00000E+00
         0.00000E+00
         0.00000E+00
         0.00000E+00
         0.00000E+00
         0.00000E+00
         0.00000E+00
         0.00000E+00
         0.00000E+00
         0.00000E+00
         0.00000E+00
         0.00000E+00
         0.00000E+00
         0.00000E+00
         0.00000E+00
         0.00000E+00
         0.00000E+00
         0.00000E+00
         0.00000E+00
         0.00000E+00
         0.00000E+00
         0.00000E+00
         0.00000E+00
         0.00000E+00
         0.00000E+00
         0.00000E+00
         0.00000E+00
         0.00000E+00
         0.00000E+00
         0.00000E+00
         0.00000E+00
         0.00000E+00
         0.00000E+00
         0.00000E+00
         0.00000E+00
         0.00000E+00
         0.00000E+00
         0.00000E+00
         0.00000E+00
         0.00000E+00
         0.00000E+00
         0.00000E+00
         0.00000E+00
         0.00000E+00
         0.00000E+00
         0.00000E+00
         0.00000E+00
         0.00000E+00
         0.00000E+00
         0.00000E+00
         0.00000E+00
         0.00000E+00
         0.00000E+00
         0.00000E+00
         0.00000E+00
         0.00000E+00
         0.00000E+00
         0.00000E+00
         0.00000E+00
         0.00000E+00
         0.00000E+00
         0.00000E+00
         0.00000E+00
         0.00000E+00
         0.00000E+00
         0.00000E+00
         0.00000E+00
         0.00000E+00
         0.00000E+00
         0.00000E+00
         0.00000E+00
         0.00000E+00
         0.00000E+00
         0.00000E+00
         0.00000E+00
         0.00000E+00
         0.00000E+00
         0.00000E+00
         0.00000E+00
         0.00000E+00
         0.00000E+00
         0.00000E+00
         0.00000E+00
         0.00000E+00
         0.00000E+00
         0.00000E+00
         0.00000E+00
         0.00000E+00
         0.00000E+00
         0.00000E+00
         0.00000E+00
         0.00000E+00
         0.00000E+00
         0.00000E+00
         0.00000E+00
         0.00000E+00
         0.00000E+00
         0.00000E+00
         0.00000E+00
         0.00000E+00
         0.00000E+00
         0.00000E+00
         0.00000E+00
         0.00000E+00
         0.00000E+00
         0.00000E+00
         0.00000E+00
         0.00000E+00
         0.00000E+00
         0.00000E+00
         0.00000E+00
         0.00000E+00
         0.00000E+00
         0.00000E+00
         0.00000E+00
         0.00000E+00
         0.00000E+00
         0.00000E+00
         0.00000E+00
         0.00000E+00
         0.00000E+00
         0.00000E+00
         0.00000E+00
         0.00000E+00
         0.00000E+00
         0.00000E+00
         0.00000E+00
         0.00000E+00
         0.00000E+00
         0.00000E+00
         0.00000E+00
         0.00000E+00
         0.00000E+00
         0.00000E+00
         0.00000E+00
         0.00000E+00
         0.00000E+00
         0.00000E+00
         0.00000E+00
         0.00000E+00
         0.00000E+00
         0.00000E+00
         0.00000E+00
         0.00000E+00
         0.00000E+00
         0.00000E+00
         0.00000E+00
         0.00000E+00
         0.00000E+00
         0.00000E+00
         0.00000E+00
         0.00000E+00
         0.00000E+00
         0.00000E+00
         0.00000E+00
         0.00000E+00
         0.00000E+00
         0.00000E+00
         0.00000E+00
         0.00000E+00
         0.00000E+00
         0.00000E+00
         0.00000E+00
         0.00000E+00
         0.00000E+00
         0.00000E+00
         0.00000E+00
         0.00000E+00
         0.00000E+00
         0.00000E+00
         0.00000E+00
         0.00000E+00
         0.00000E+00
         0.00000E+00
         0.00000E+00
         0.00000E+00
         0.00000E+00
         0.00000E+00
         0.00000E+00
         0.00000E+00
         0.00000E+00
         0.00000E+00
         0.00000E+00
         0.00000E+00
         0.00000E+00
         0.00000E+00
         0.00000E+00
         0.00000E+00
         0.00000E+00
         0.00000E+00
         0.00000E+00
         0.00000E+00
         0.00000E+00
         0.00000E+00
         0.00000E+00
         0.00000E+00
         0.00000E+00
         0.00000E+00
         0.00000E+00
         0.00000E+00
         0.00000E+00
         0.00000E+00
         0.00000E+00
         0.00000E+00
         0.00000E+00
         0.00000E+00
         0.00000E+00
         0.00000E+00
         0.00000E+00
         0.00000E+00
         0.00000E+00
         0.00000E+00
         0.00000E+00
         0.00000E+00
         0.00000E+00
         0.00000E+00
         0.00000E+00
         0.00000E+00
         0.00000E+00
         0.00000E+00
         0.00000E+00
         0.00000E+00
         0.00000E+00
         0.00000E+00
         0.00000E+00
         0.00000E+00
         0.00000E+00
         0.00000E+00
         0.00000E+00
         0.00000E+00
         0.00000E+00
         0.00000E+00
         0.00000E+00
         0.00000E+00
         0.00000E+00
         0.00000E+00
         0.00000E+00
         0.00000E+00
         0.00000E+00
         0.00000E+00
         0.00000E+00
         0.00000E+00
         0.00000E+00
         0.00000E+00
         0.00000E+00
         0.00000E+00
         0.00000E+00
         0.00000E+00
         0.00000E+00
         0.00000E+00
         0.00000E+00
         0.00000E+00
         0.00000E+00
         0.00000E+00
         0.00000E+00
         0.00000E+00
         0.00000E+00
         0.00000E+00
         0.00000E+00
         0.00000E+00
         0.00000E+00
         0.00000E+00
         0.00000E+00
         0.00000E+00
         0.00000E+00
         0.00000E+00
         0.00000E+00
         0.00000E+00
         0.00000E+00
         0.00000E+00
         0.00000E+00
         0.00000E+00
         0.00000E+00
         0.00000E+00
         0.00000E+00
         0.00000E+00
         0.00000E+00
         0.00000E+00
         0.00000E+00
         0.00000E+00
         0.00000E+00
         0.00000E+00
         0.00000E+00
         0.00000E+00
         0.00000E+00
         0.00000E+00
         0.00000E+00
         0.00000E+00
         0.00000E+00
         0.00000E+00
         0.00000E+00
         0.00000E+00
         0.00000E+00
         0.00000E+00
         0.00000E+00
         0.00000E+00
         0.00000E+00
         0.00000E+00
         0.00000E+00
         0.00000E+00
         0.00000E+00
         0.00000E+00
         0.00000E+00
         0.00000E+00
         0.00000E+00
         0.00000E+00
         0.00000E+00
         0.00000E+00
         0.00000E+00
         0.00000E+00
         0.00000E+00
         0.00000E+00
         0.00000E+00
         0.00000E+00
         0.00000E+00
         0.00000E+00
         0.00000E+00
         0.00000E+00
         0.00000E+00
         0.00000E+00
         0.00000E+00
         0.00000E+00
         0.00000E+00
         0.00000E+00
         0.00000E+00
         0.00000E+00
         0.00000E+00
         0.00000E+00
         0.00000E+00
         0.00000E+00
         0.00000E+00
         0.00000E+00
         0.00000E+00
         0.00000E+00
         0.00000E+00
         0.00000E+00
         0.00000E+00
         0.00000E+00
         0.00000E+00
         0.00000E+00
         0.00000E+00
         0.00000E+00
         0.00000E+00
         0.00000E+00
         0.00000E+00
         0.00000E+00
         0.00000E+00
         0.00000E+00
         0.00000E+00
         0.00000E+00
         0.00000E+00
         0.00000E+00
         0.00000E+00
         0.00000E+00
         0.00000E+00
         0.00000E+00
         0.00000E+00
         0.00000E+00
         0.00000E+00
         0.00000E+00
         0.00000E+00
         0.00000E+00
         0.00000E+00
         0.00000E+00
         0.00000E+00
         0.00000E+00
         0.00000E+00
         0.00000E+00
         0.00000E+00
         0.00000E+00
         0.00000E+00
         0.00000E+00
         0.00000E+00
         0.00000E+00
         0.00000E+00
         0.00000E+00
         0.00000E+00
         0.00000E+00
         0.00000E+00
         0.00000E+00
         0.00000E+00
         0.00000E+00
         0.00000E+00
         0.00000E+00
         0.00000E+00
         0.00000E+00
         0.00000E+00
         0.00000E+00
         0.00000E+00
         0.00000E+00
         0.00000E+00
         0.00000E+00
         0.00000E+00
         0.00000E+00
         0.00000E+00
         0.00000E+00
         0.00000E+00
         0.00000E+00
         0.00000E+00
         0.00000E+00
         0.00000E+00
         0.00000E+00
         0.00000E+00
         0.00000E+00
         0.00000E+00
         0.00000E+00
         0.00000E+00
         0.00000E+00
         0.00000E+00
         0.00000E+00
         0.00000E+00
         0.00000E+00
         0.00000E+00
         0.00000E+00
         0.00000E+00
         0.00000E+00
         0.00000E+00
         0.00000E+00
         0.00000E+00
         0.00000E+00
         0.00000E+00
         0.00000E+00
         0.00000E+00
         0.00000E+00
         0.00000E+00
         0.00000E+00
         0.00000E+00
         0.00000E+00
         0.00000E+00
         0.00000E+00
         0.00000E+00
         0.00000E+00
         0.00000E+00
         0.00000E+00
         0.00000E+00
         0.00000E+00
         0.00000E+00
         0.00000E+00
         0.00000E+00
         0.00000E+00
         0.00000E+00
         0.00000E+00
         0.00000E+00
         0.00000E+00
         0.00000E+00
         0.00000E+00
         0.00000E+00
         0.00000E+00
         0.00000E+00
         0.00000E+00
         0.00000E+00
         0.00000E+00
         0.00000E+00
         0.00000E+00
         0.00000E+00
         0.00000E+00
         0.00000E+00
         0.00000E+00
         0.00000E+00
         0.00000E+00
         0.00000E+00
         0.00000E+00
         0.00000E+00
         0.00000E+00
         0.00000E+00
         0.00000E+00
         0.00000E+00
         0.00000E+00
         0.00000E+00
         0.00000E+00
         0.00000E+00
         0.00000E+00
         0.00000E+00
         0.00000E+00
         0.00000E+00
         0.00000E+00
         0.00000E+00
         0.00000E+00
         0.00000E+00
         0.00000E+00
         0.00000E+00
         0.00000E+00
         0.00000E+00
         0.00000E+00
         0.00000E+00
         0.00000E+00
         0.00000E+00
         0.00000E+00
         0.00000E+00
         0.00000E+00
         0.00000E+00
         0.00000E+00
         0.00000E+00
         0.00000E+00
         0.00000E+00
         0.00000E+00
         0.00000E+00
         0.00000E+00
         0.00000E+00
         0.00000E+00
         0.00000E+00
         0.00000E+00
         0.00000E+00
         0.00000E+00
         0.00000E+00
         0.00000E+00
         0.00000E+00
         0.00000E+00
         0.00000E+00
         0.00000E+00
         0.00000E+00
         0.00000E+00
         0.00000E+00
         0.00000E+00
         0.00000E+00
         0.00000E+00
  
SCALARS                      stress_xx  double 1
LOOKUP_TABLE default
         0.11077E+12
         0.10854E+12
         0.10995E+12
         0.11248E+12
        -0.79691E+02
        -0.89361E+02
        -0.85566E+02
        -0.77734E+02
         0.10846E+12
         0.10921E+12
        -0.80358E+02
        -0.77766E+02
         0.10532E+12
         0.10520E+12
        -0.95482E+02
        -0.89777E+02
         0.11211E+12
         0.10537E+12
        -0.70551E+02
        -0.78252E+02
         0.10290E+12
         0.10098E+12
         0.10403E+12
        -0.94634E+02
        -0.82645E+02
        -0.85341E+02
         0.10105E+12
         0.98250E+11
        -0.90788E+02
        -0.76564E+02
         0.11199E+12
         0.10906E+12
         0.11484E+12
        -0.77474E+02
        -0.72024E+02
        -0.70026E+02
         0.11029E+12
         0.10656E+12
        -0.81964E+02
        -0.74793E+02
         0.10881E+12
         0.10593E+12
        -0.70840E+02
        -0.62714E+02
         0.11125E+12
         0.11234E+12
        -0.77632E+02
        -0.86742E+02
         0.10362E+12
        -0.75839E+02
         0.11213E+12
        -0.89115E+02
         0.10024E+12
        -0.80089E+02
         0.99363E+11
        -0.76822E+02
         0.99377E+11
         0.10251E+12
        -0.78272E+02
        -0.76229E+02
         0.11193E+12
         0.11080E+12
        -0.78487E+02
        -0.88729E+02
         0.11264E+12
        -0.75735E+02
         0.11129E+12
        -0.82655E+02
         0.10777E+12
         0.10741E+12
        -0.79564E+02
        -0.83368E+02
         0.10662E+12
        -0.84068E+02
         0.97255E+11
        -0.66419E+02
         0.96764E+11
        -0.64470E+02
         0.97008E+11
        -0.67978E+02
         0.98362E+11
         0.99771E+11
        -0.64767E+02
        -0.67524E+02
         0.10261E+12
        -0.62889E+02
         0.11120E+12
        -0.82470E+02
         0.10986E+12
        -0.84407E+02
         0.10876E+12
         0.10815E+12
        -0.81058E+02
        -0.82004E+02
         0.10890E+12
        -0.74483E+02
         0.10943E+12
        -0.73420E+02
         0.10895E+12
        -0.78598E+02
         0.10878E+12
         0.10926E+12
        -0.77076E+02
        -0.79338E+02
         0.10613E+12
         0.10740E+12
        -0.59842E+02
        -0.56285E+02
         0.10588E+12
        -0.57142E+02
         0.10735E+12
        -0.54789E+02
         0.10590E+12
        -0.54026E+02
         0.10270E+12
        -0.51055E+02
         0.99592E+11
        -0.45357E+02
         0.97733E+11
        -0.40841E+02
         0.97544E+11
        -0.40558E+02
         0.97603E+11
        -0.43983E+02
         0.99619E+11
        -0.46224E+02
         0.10339E+12
        -0.42208E+02
         0.10753E+12
        -0.38046E+02
         0.10996E+12
        -0.38002E+02
         0.11236E+12
        -0.42477E+02
         0.11395E+12
        -0.48434E+02
         0.11389E+12
        -0.52033E+02
         0.11004E+12
        -0.56195E+02
         0.10735E+12
        -0.60204E+02
         0.10643E+12
        -0.55152E+02
         0.10787E+12
        -0.48383E+02
         0.10862E+12
        -0.48233E+02
         0.10736E+12
        -0.52773E+02
         0.10738E+12
        -0.56260E+02
         0.10833E+12
        -0.53390E+02
         0.10957E+12
        -0.51615E+02
        -0.26611E+11
        -0.26917E+11
        -0.26876E+11
        -0.26476E+11
        -0.27202E+11
        -0.26842E+11
        -0.27286E+11
        -0.27057E+11
        -0.26540E+11
        -0.26866E+11
        -0.27524E+11
        -0.27594E+11
        -0.27404E+11
        -0.27390E+11
        -0.27514E+11
        -0.26495E+11
        -0.26571E+11
        -0.26357E+11
        -0.26950E+11
        -0.26845E+11
        -0.26994E+11
        -0.26896E+11
        -0.27077E+11
        -0.27030E+11
        -0.26853E+11
        -0.26866E+11
        -0.27165E+11
        -0.27138E+11
        -0.27354E+11
        -0.27026E+11
        -0.26533E+11
        -0.26921E+11
        -0.26536E+11
        -0.26792E+11
        -0.27643E+11
        -0.27381E+11
        -0.27253E+11
        -0.27403E+11
        -0.27422E+11
        -0.27661E+11
        -0.27830E+11
        -0.27411E+11
        -0.26988E+11
        -0.27047E+11
        -0.27265E+11
        -0.27634E+11
        -0.27321E+11
        -0.26969E+11
        -0.26994E+11
        -0.27267E+11
        -0.27535E+11
        -0.27171E+11
        -0.28222E+11
        -0.27930E+11
        -0.27979E+11
        -0.27910E+11
        -0.27928E+11
        -0.28087E+11
        -0.28247E+11
        -0.28298E+11
        -0.28276E+11
        -0.28292E+11
        -0.28358E+11
        -0.27943E+11
        -0.27780E+11
        -0.27716E+11
        -0.27606E+11
        -0.27522E+11
        -0.27526E+11
        -0.27669E+11
        -0.28126E+11
        -0.28020E+11
        -0.27864E+11
        -0.27866E+11
        -0.27893E+11
        -0.28042E+11
        -0.27821E+11
        -0.27737E+11
         0.50666E+06
         0.21848E+06
         0.27776E+06
         0.38298E+06
         0.46290E+05
         0.20643E+06
        -0.18145E+06
        -0.45895E+06
         0.60635E+06
        -0.49535E+06
        -0.51237E+06
        -0.29765E+05
        -0.17230E+06
        -0.16681E+07
        -0.57701E+06
        -0.22919E+06
         0.20034E+06
         0.40370E+06
        -0.70661E+04
        -0.41900E+04
        -0.89970E+06
        -0.59066E+06
        -0.11382E+07
        -0.23748E+06
        -0.48505E+06
        -0.66790E+05
        -0.20589E+07
        -0.11916E+07
        -0.66811E+06
        -0.49994E+06
        -0.13352E+06
        -0.12994E+06
         0.34131E+06
         0.62211E+06
        -0.78878E+06
        -0.46216E+06
        -0.31358E+06
        -0.74401E+06
        -0.42206E+06
        -0.29306E+06
        -0.65580E+06
        -0.99160E+06
        -0.87429E+06
        -0.88867E+06
        -0.64345E+06
        -0.25778E+06
        -0.16286E+06
        -0.21346E+06
         0.26567E+06
         0.45440E+06
         0.96873E+03
         0.29628E+05
        -0.19388E+07
        -0.76587E+06
        -0.11969E+07
        -0.41171E+05
         0.97338E+06
         0.17094E+07
         0.14297E+07
         0.15341E+07
         0.11981E+07
         0.55137E+06
        -0.18321E+06
        -0.71856E+06
        -0.10702E+07
        -0.60475E+06
        -0.14123E+07
        -0.18970E+07
        -0.15587E+07
        -0.13270E+07
        -0.63846E+06
         0.30003E+06
         0.27229E+06
        -0.62101E+04
        -0.55644E+06
        -0.10341E+07
        -0.93728E+06
        -0.49139E+06
         0.47392E+06
         0.18932E+06
         0.24890E+06
         0.35689E+06
         0.75731E+04
         0.17382E+06
        -0.21381E+06
        -0.49572E+06
         0.57637E+06
        -0.53533E+06
        -0.54781E+06
        -0.83931E+05
        -0.21828E+06
        -0.17039E+07
        -0.63064E+06
        -0.26203E+06
         0.16625E+06
         0.37825E+06
        -0.41137E+05
        -0.39623E+05
        -0.94506E+06
        -0.63472E+06
        -0.11846E+07
        -0.27226E+06
        -0.52396E+06
        -0.99993E+05
        -0.20952E+07
        -0.12271E+07
        -0.70737E+06
        -0.54086E+06
        -0.16354E+06
        -0.16129E+06
         0.31565E+06
         0.59567E+06
        -0.83503E+06
        -0.49797E+06
        -0.35206E+06
        -0.79782E+06
        -0.47090E+06
        -0.34081E+06
        -0.70879E+06
        -0.10431E+07
        -0.92293E+06
        -0.93237E+06
        -0.68401E+06
        -0.30449E+06
        -0.20295E+06
        -0.25013E+06
         0.23437E+06
         0.42113E+06
        -0.41114E+05
        -0.60019E+04
        -0.20293E+07
        -0.85411E+06
        -0.12838E+07
        -0.12449E+06
         0.88523E+06
         0.16110E+07
         0.13315E+07
         0.14349E+07
         0.10981E+07
         0.44895E+06
        -0.28516E+06
        -0.81276E+06
        -0.11486E+07
        -0.67785E+06
        -0.14892E+07
        -0.19791E+07
        -0.16426E+07
        -0.14148E+07
        -0.72655E+06
         0.20675E+06
         0.18451E+06
        -0.85444E+05
        -0.63577E+06
        -0.11155E+07
        -0.10196E+07
        -0.57521E+06
         0.48148E+06
         0.19502E+06
         0.25496E+06
         0.36365E+06
         0.18334E+05
         0.18315E+06
        -0.20782E+06
        -0.48665E+06
         0.58124E+06
        -0.53347E+06
        -0.54027E+06
        -0.73692E+05
        -0.20978E+06
        -0.16923E+07
        -0.61715E+06
        -0.26904E+06
         0.16381E+06
         0.38549E+06
        -0.49513E+05
        -0.46148E+05
        -0.95236E+06
        -0.63748E+06
        -0.12151E+07
        -0.29735E+06
        -0.54082E+06
        -0.12328E+06
        -0.20884E+07
        -0.12314E+07
        -0.72371E+06
        -0.56957E+06
        -0.16405E+06
        -0.16839E+06
         0.32382E+06
         0.60427E+06
        -0.82335E+06
        -0.48857E+06
        -0.34333E+06
        -0.78894E+06
        -0.46352E+06
        -0.33867E+06
        -0.71027E+06
        -0.10620E+07
        -0.94911E+06
        -0.96157E+06
        -0.69077E+06
        -0.29796E+06
        -0.19559E+06
        -0.24216E+06
         0.24292E+06
         0.43125E+06
        -0.28913E+05
         0.46383E+04
        -0.20023E+07
        -0.82983E+06
        -0.12569E+07
        -0.10384E+06
         0.90064E+06
         0.16263E+07
         0.13510E+07
         0.14543E+07
         0.11179E+07
         0.46951E+06
        -0.27310E+06
        -0.81318E+06
        -0.11473E+07
        -0.66435E+06
        -0.14803E+07
        -0.19958E+07
        -0.16605E+07
        -0.14102E+07
        -0.70226E+06
         0.23480E+06
         0.20962E+06
        -0.60121E+05
        -0.60719E+06
        -0.10915E+07
        -0.10001E+07
        -0.55652E+06
         0.47674E+06
         0.19251E+06
         0.25249E+06
         0.35937E+06
         0.15132E+05
         0.18076E+06
        -0.21108E+06
        -0.49091E+06
         0.57253E+06
        -0.55050E+06
        -0.54367E+06
        -0.79387E+05
        -0.21365E+06
        -0.16946E+07
        -0.62358E+06
        -0.29534E+06
         0.14341E+06
         0.38117E+06
        -0.79288E+05
        -0.75927E+05
        -0.98673E+06
        -0.66791E+06
        -0.12860E+07
        -0.35346E+06
        -0.58702E+06
        -0.17625E+06
        -0.20984E+07
        -0.12601E+07
        -0.77179E+06
        -0.63808E+06
        -0.17899E+06
        -0.19668E+06
         0.32072E+06
         0.59993E+06
        -0.82957E+06
        -0.49190E+06
        -0.34626E+06
        -0.79917E+06
        -0.47584E+06
        -0.36062E+06
        -0.74033E+06
        -0.11203E+07
        -0.10203E+07
        -0.10306E+07
        -0.72424E+06
        -0.31671E+06
        -0.20843E+06
        -0.24918E+06
         0.23759E+06
         0.42490E+06
        -0.35079E+05
         0.11406E+04
        -0.20149E+07
        -0.83844E+06
        -0.12705E+07
        -0.11586E+06
         0.89262E+06
         0.16169E+07
         0.13353E+07
         0.14373E+07
         0.11017E+07
         0.44972E+06
        -0.30450E+06
        -0.86384E+06
        -0.11948E+07
        -0.68683E+06
        -0.15057E+07
        -0.20656E+07
        -0.17345E+07
        -0.14449E+07
        -0.71868E+06
         0.21907E+06
         0.19775E+06
        -0.74189E+05
        -0.62176E+06
        -0.11015E+07
        -0.10078E+07
        -0.56415E+06
         0.46819E+06
         0.18747E+06
         0.24823E+06
         0.35496E+06
         0.11357E+05
         0.17727E+06
        -0.21589E+06
        -0.49839E+06
         0.56244E+06
        -0.56824E+06
        -0.54733E+06
        -0.82970E+05
        -0.21796E+06
        -0.16973E+07
        -0.62652E+06
        -0.31335E+06
         0.12708E+06
         0.37718E+06
        -0.98875E+05
        -0.97299E+05
        -0.10088E+07
        -0.68977E+06
        -0.13296E+07
        -0.38823E+06
        -0.62040E+06
        -0.21019E+06
        -0.21071E+07
        -0.12806E+07
        -0.80522E+06
        -0.68372E+06
        -0.19463E+06
        -0.21727E+06
         0.31368E+06
         0.59389E+06
        -0.83599E+06
        -0.49625E+06
        -0.35073E+06
        -0.80688E+06
        -0.48613E+06
        -0.37740E+06
        -0.76155E+06
        -0.11597E+07
        -0.10670E+07
        -0.10743E+07
        -0.74615E+06
        -0.32904E+06
        -0.21982E+06
        -0.26028E+06
         0.22834E+06
         0.41554E+06
        -0.44826E+05
        -0.48104E+04
        -0.20262E+07
        -0.84596E+06
        -0.12821E+07
        -0.12521E+06
         0.88892E+06
         0.16142E+07
         0.13286E+07
         0.14261E+07
         0.10879E+07
         0.43749E+06
        -0.32361E+06
        -0.89887E+06
        -0.12271E+07
        -0.70419E+06
        -0.15236E+07
        -0.21109E+07
        -0.17864E+07
        -0.14697E+07
        -0.72610E+06
         0.20478E+06
         0.18198E+06
        -0.90335E+05
        -0.64057E+06
        -0.11177E+07
        -0.10178E+07
        -0.57176E+06
         0.44763E+06
         0.17783E+06
         0.24403E+06
         0.35838E+06
         0.17152E+05
         0.18390E+06
        -0.21940E+06
        -0.51195E+06
         0.54837E+06
        -0.59231E+06
        -0.54400E+06
        -0.70990E+05
        -0.21359E+06
        -0.16935E+07
        -0.61108E+06
        -0.31078E+06
         0.12269E+06
         0.38459E+06
        -0.94845E+05
        -0.93888E+05
        -0.10021E+07
        -0.68201E+06
        -0.13286E+07
        -0.38892E+06
        -0.63483E+06
        -0.21500E+06
        -0.21093E+07
        -0.12826E+07
        -0.80429E+06
        -0.68564E+06
        -0.21321E+06
        -0.22812E+06
         0.30122E+06
         0.59237E+06
        -0.83102E+06
        -0.49548E+06
        -0.35143E+06
        -0.79785E+06
        -0.47861E+06
        -0.36914E+06
        -0.75137E+06
        -0.11540E+07
        -0.10621E+07
        -0.10769E+07
        -0.74867E+06
        -0.33101E+06
        -0.22965E+06
        -0.28237E+06
         0.20568E+06
         0.40286E+06
        -0.47898E+05
        -0.13470E+04
        -0.20040E+07
        -0.82296E+06
        -0.12633E+07
        -0.11270E+06
         0.90214E+06
         0.16321E+07
         0.13488E+07
         0.14454E+07
         0.11102E+07
         0.46701E+06
        -0.29784E+06
        -0.88331E+06
        -0.12100E+07
        -0.68637E+06
        -0.15065E+07
        -0.20972E+07
        -0.17763E+07
        -0.14597E+07
        -0.71406E+06
         0.21305E+06
         0.18026E+06
        -0.10155E+06
        -0.64784E+06
        -0.11139E+07
        -0.10067E+07
        -0.55589E+06
         0.41637E+06
         0.16079E+06
         0.23407E+06
         0.35565E+06
         0.13424E+05
         0.18398E+06
        -0.23283E+06
        -0.53898E+06
         0.52429E+06
        -0.62799E+06
        -0.55231E+06
        -0.75713E+05
        -0.22120E+06
        -0.17033E+07
        -0.61409E+06
        -0.31661E+06
         0.10917E+06
         0.38359E+06
        -0.98269E+05
        -0.98649E+05
        -0.10050E+07
        -0.68411E+06
        -0.13321E+07
        -0.39315E+06
        -0.65509E+06
        -0.22361E+06
        -0.21240E+07
        -0.12929E+07
        -0.80872E+06
        -0.69141E+06
        -0.23890E+06
        -0.24586E+06
         0.28169E+06
         0.58433E+06
        -0.83850E+06
        -0.50275E+06
        -0.36037E+06
        -0.80590E+06
        -0.48618E+06
        -0.37348E+06
        -0.75328E+06
        -0.11553E+07
        -0.10626E+07
        -0.10834E+07
        -0.76067E+06
        -0.34851E+06
        -0.25238E+06
        -0.31542E+06
         0.17339E+06
         0.38077E+06
        -0.61021E+05
        -0.52470E+04
        -0.20132E+07
        -0.83008E+06
        -0.12687E+07
        -0.11901E+06
         0.89307E+06
         0.16211E+07
         0.13397E+07
         0.14376E+07
         0.11025E+07
         0.46122E+06
        -0.30247E+06
        -0.88892E+06
        -0.12110E+07
        -0.68774E+06
        -0.15103E+07
        -0.20993E+07
        -0.17806E+07
        -0.14754E+07
        -0.73733E+06
         0.18730E+06
         0.15145E+06
        -0.13715E+06
        -0.67901E+06
        -0.11304E+07
        -0.10157E+07
        -0.56296E+06
         0.40718E+06
         0.15443E+06
         0.22995E+06
         0.35202E+06
         0.93627E+04
         0.18061E+06
        -0.23994E+06
        -0.54789E+06
         0.51750E+06
        -0.63861E+06
        -0.55815E+06
        -0.82316E+05
        -0.22869E+06
        -0.17077E+07
        -0.61941E+06
        -0.32192E+06
         0.10327E+06
         0.38056E+06
        -0.10141E+06
        -0.10233E+06
        -0.10097E+07
        -0.68912E+06
        -0.13367E+07
        -0.39638E+06
        -0.66247E+06
        -0.22851E+06
        -0.21304E+07
        -0.12982E+07
        -0.81567E+06
        -0.69693E+06
        -0.24772E+06
        -0.25284E+06
         0.27612E+06
         0.57983E+06
        -0.84488E+06
        -0.50659E+06
        -0.36577E+06
        -0.81597E+06
        -0.49488E+06
        -0.38217E+06
        -0.76226E+06
        -0.11627E+07
        -0.10671E+07
        -0.10892E+07
        -0.76773E+06
        -0.35667E+06
        -0.25979E+06
        -0.32375E+06
         0.16545E+06
         0.37306E+06
        -0.69074E+05
        -0.10237E+05
        -0.20258E+07
        -0.84251E+06
        -0.12771E+07
        -0.12773E+06
         0.88256E+06
         0.16118E+07
         0.13302E+07
         0.14243E+07
         0.10852E+07
         0.44296E+06
        -0.31903E+06
        -0.89639E+06
        -0.12169E+07
        -0.70036E+06
        -0.15237E+07
        -0.21121E+07
        -0.17970E+07
        -0.14912E+07
        -0.75055E+06
         0.17652E+06
         0.14273E+06
        -0.14899E+06
        -0.69459E+06
        -0.11450E+07
        -0.10280E+07
        -0.57525E+06
         0.41285E+06
         0.15865E+06
         0.23303E+06
         0.35299E+06
         0.14743E+05
         0.18222E+06
        -0.23612E+06
        -0.54025E+06
         0.52260E+06
        -0.63166E+06
        -0.55361E+06
        -0.75868E+05
        -0.22420E+06
        -0.16985E+07
        -0.60876E+06
        -0.31639E+06
         0.10747E+06
         0.38412E+06
        -0.95490E+05
        -0.96954E+05
        -0.10029E+07
        -0.68290E+06
        -0.13301E+07
        -0.39066E+06
        -0.65766E+06
        -0.22317E+06
        -0.21218E+07
        -0.12911E+07
        -0.81176E+06
        -0.69233E+06
        -0.24360E+06
        -0.24875E+06
         0.28047E+06
         0.58136E+06
        -0.83834E+06
        -0.50164E+06
        -0.36132E+06
        -0.80932E+06
        -0.48990E+06
        -0.37788E+06
        -0.75630E+06
        -0.11566E+07
        -0.10605E+07
        -0.10831E+07
        -0.76267E+06
        -0.35134E+06
        -0.25473E+06
        -0.31823E+06
         0.17078E+06
         0.37727E+06
        -0.65432E+05
        -0.84756E+04
        -0.20069E+07
        -0.82380E+06
        -0.12658E+07
        -0.12316E+06
         0.89193E+06
         0.16263E+07
         0.13463E+07
         0.14357E+07
         0.10897E+07
         0.44980E+06
        -0.30678E+06
        -0.87900E+06
        -0.12018E+07
        -0.69055E+06
        -0.15145E+07
        -0.21014E+07
        -0.17860E+07
        -0.14777E+07
        -0.73770E+06
         0.19151E+06
         0.15825E+06
        -0.13519E+06
        -0.68291E+06
        -0.11347E+07
        -0.10178E+07
        -0.56422E+06
         0.41126E+06
         0.15823E+06
         0.23217E+06
         0.35053E+06
         0.14276E+05
         0.18062E+06
        -0.23755E+06
        -0.54215E+06
         0.51943E+06
        -0.63568E+06
        -0.55597E+06
        -0.79908E+05
        -0.22552E+06
        -0.16995E+07
        -0.61436E+06
        -0.31990E+06
         0.10340E+06
         0.38085E+06
        -0.98077E+05
        -0.99766E+05
        -0.10052E+07
        -0.68607E+06
        -0.13324E+07
        -0.39280E+06
        -0.66002E+06
        -0.22522E+06
        -0.21239E+07
        -0.12913E+07
        -0.81433E+06
        -0.69510E+06
        -0.24680E+06
        -0.25085E+06
         0.27791E+06
         0.57804E+06
        -0.84087E+06
        -0.50323E+06
        -0.36247E+06
        -0.81808E+06
        -0.49497E+06
        -0.38252E+06
        -0.76073E+06
        -0.11597E+07
        -0.10644E+07
        -0.10847E+07
        -0.76409E+06
        -0.35388E+06
        -0.25811E+06
        -0.32212E+06
         0.16769E+06
         0.37420E+06
        -0.68498E+05
        -0.11157E+05
        -0.20123E+07
        -0.82806E+06
        -0.12746E+07
        -0.13072E+06
         0.89095E+06
         0.16209E+07
         0.13339E+07
         0.14218E+07
         0.10817E+07
         0.43766E+06
        -0.32006E+06
        -0.88559E+06
        -0.12096E+07
        -0.69480E+06
        -0.15186E+07
        -0.21052E+07
        -0.17865E+07
        -0.14804E+07
        -0.74143E+06
         0.18136E+06
         0.14579E+06
        -0.14480E+06
        -0.68765E+06
        -0.11371E+07
        -0.10233E+07
        -0.57209E+06
         0.40699E+06
         0.15496E+06
         0.22979E+06
         0.34907E+06
         0.11561E+05
         0.17975E+06
        -0.24084E+06
        -0.54530E+06
         0.51659E+06
        -0.63971E+06
        -0.55866E+06
        -0.85241E+05
        -0.22903E+06
        -0.16998E+07
        -0.62009E+06
        -0.32455E+06
         0.10002E+06
         0.37910E+06
        -0.10126E+06
        -0.10182E+06
        -0.10083E+07
        -0.68929E+06
        -0.13360E+07
        -0.39612E+06
        -0.66314E+06
        -0.22906E+06
        -0.21256E+07
        -0.12923E+07
        -0.81713E+06
        -0.69721E+06
        -0.25111E+06
        -0.25432E+06
         0.27691E+06
         0.57745E+06
        -0.84654E+06
        -0.50617E+06
        -0.36530E+06
        -0.82656E+06
        -0.50058E+06
        -0.38663E+06
        -0.76331E+06
        -0.11624E+07
        -0.10680E+07
        -0.10877E+07
        -0.76685E+06
        -0.35735E+06
        -0.26124E+06
        -0.32552E+06
         0.16474E+06
         0.37151E+06
        -0.71406E+05
        -0.12105E+05
        -0.20232E+07
        -0.83713E+06
        -0.12812E+07
        -0.13301E+06
         0.88804E+06
         0.16101E+07
         0.13182E+07
         0.14092E+07
         0.10734E+07
         0.42894E+06
        -0.32548E+06
        -0.89209E+06
        -0.12189E+07
        -0.70113E+06
        -0.15253E+07
        -0.21130E+07
        -0.17916E+07
        -0.14865E+07
        -0.74886E+06
         0.17299E+06
         0.13635E+06
        -0.15464E+06
        -0.69458E+06
        -0.11437E+07
        -0.10318E+07
        -0.58105E+06
         0.40962E+06
         0.15624E+06
         0.23089E+06
         0.35093E+06
         0.15349E+05
         0.18305E+06
        -0.23861E+06
        -0.53978E+06
         0.51917E+06
        -0.63670E+06
        -0.55438E+06
        -0.80861E+05
        -0.22780E+06
        -0.16912E+07
        -0.61020E+06
        -0.32170E+06
         0.10125E+06
         0.38265E+06
        -0.97697E+05
        -0.97472E+05
        -0.10028E+07
        -0.68373E+06
        -0.13315E+07
        -0.39262E+06
        -0.66181E+06
        -0.22569E+06
        -0.21201E+07
        -0.12877E+07
        -0.81262E+06
        -0.69215E+06
        -0.24799E+06
        -0.25152E+06
         0.28194E+06
         0.58122E+06
        -0.84263E+06
        -0.50291E+06
        -0.36336E+06
        -0.82128E+06
        -0.49563E+06
        -0.38012E+06
        -0.75664E+06
        -0.11579E+07
        -0.10627E+07
        -0.10839E+07
        -0.76366E+06
        -0.35435E+06
        -0.25811E+06
        -0.32224E+06
         0.16828E+06
         0.37508E+06
        -0.67588E+05
        -0.79919E+04
        -0.20093E+07
        -0.82204E+06
        -0.12670E+07
        -0.12609E+06
         0.88585E+06
         0.16108E+07
         0.13294E+07
         0.14215E+07
         0.10818E+07
         0.44164E+06
        -0.31344E+06
        -0.88636E+06
        -0.12088E+07
        -0.69085E+06
        -0.15161E+07
        -0.21059E+07
        -0.17866E+07
        -0.14803E+07
        -0.74300E+06
         0.18201E+06
         0.14707E+06
        -0.14437E+06
        -0.68554E+06
        -0.11362E+07
        -0.10206E+07
        -0.56809E+06
         0.40758E+06
         0.15361E+06
         0.22859E+06
         0.34817E+06
         0.12581E+05
         0.18059E+06
        -0.24261E+06
        -0.54257E+06
         0.51697E+06
        -0.64167E+06
        -0.55836E+06
        -0.87469E+05
        -0.23471E+06
        -0.16932E+07
        -0.61420E+06
        -0.32558E+06
         0.97113E+05
         0.37914E+06
        -0.10160E+06
        -0.10083E+06
        -0.10085E+07
        -0.68959E+06
        -0.13377E+07
        -0.39646E+06
        -0.66708E+06
        -0.22906E+06
        -0.21256E+07
        -0.12927E+07
        -0.81811E+06
        -0.69564E+06
        -0.25206E+06
        -0.25480E+06
         0.27861E+06
         0.57822E+06
        -0.84804E+06
        -0.50641E+06
        -0.36813E+06
        -0.83048E+06
        -0.50439E+06
        -0.38770E+06
        -0.76505E+06
        -0.11659E+07
        -0.10687E+07
        -0.10903E+07
        -0.76899E+06
        -0.35942E+06
        -0.26265E+06
        -0.32747E+06
         0.16446E+06
         0.37206E+06
        -0.71510E+05
        -0.11100E+05
        -0.20201E+07
        -0.83133E+06
        -0.12776E+07
        -0.13843E+06
         0.87152E+06
         0.15970E+07
         0.13209E+07
         0.14106E+07
         0.10677E+07
         0.42760E+06
        -0.33057E+06
        -0.90326E+06
        -0.12200E+07
        -0.70242E+06
        -0.15261E+07
        -0.21174E+07
        -0.18042E+07
        -0.14962E+07
        -0.75088E+06
         0.17095E+06
         0.13580E+06
        -0.15015E+06
        -0.68935E+06
        -0.11444E+07
        -0.10320E+07
        -0.57949E+06
         0.40714E+06
         0.15270E+06
         0.22786E+06
         0.34724E+06
         0.12663E+05
         0.18021E+06
        -0.24382E+06
        -0.54217E+06
         0.51756E+06
        -0.64169E+06
        -0.55880E+06
        -0.88455E+05
        -0.23598E+06
        -0.16904E+07
        -0.61362E+06
        -0.32679E+06
         0.96521E+05
         0.37864E+06
        -0.10197E+06
        -0.10088E+06
        -0.10095E+07
        -0.69045E+06
        -0.13390E+07
        -0.39719E+06
        -0.66854E+06
        -0.23005E+06
        -0.21247E+07
        -0.12931E+07
        -0.82031E+06
        -0.69666E+06
        -0.25452E+06
        -0.25606E+06
         0.27789E+06
         0.57760E+06
        -0.84957E+06
        -0.50734E+06
        -0.36946E+06
        -0.83507E+06
        -0.50959E+06
        -0.39105E+06
        -0.76607E+06
        -0.11670E+07
        -0.10696E+07
        -0.10912E+07
        -0.76972E+06
        -0.36057E+06
        -0.26401E+06
        -0.32961E+06
         0.16300E+06
         0.37137E+06
        -0.72118E+05
        -0.11511E+05
        -0.20203E+07
        -0.83105E+06
        -0.12803E+07
        -0.14319E+06
         0.87131E+06
         0.15968E+07
         0.13175E+07
         0.14015E+07
         0.10575E+07
         0.42200E+06
        -0.33112E+06
        -0.90489E+06
        -0.12228E+07
        -0.70690E+06
        -0.15314E+07
        -0.21211E+07
        -0.18066E+07
        -0.14983E+07
        -0.75306E+06
         0.16696E+06
         0.13087E+06
        -0.15331E+06
        -0.68952E+06
        -0.11454E+07
        -0.10371E+07
        -0.58415E+06
         0.41565E+06
         0.16077E+06
         0.23462E+06
         0.35229E+06
         0.22855E+05
         0.18725E+06
        -0.23497E+06
        -0.53130E+06
         0.52359E+06
        -0.63369E+06
        -0.54888E+06
        -0.74393E+05
        -0.22415E+06
        -0.16774E+07
        -0.59900E+06
        -0.31995E+06
         0.10252E+06
         0.38499E+06
        -0.94177E+05
        -0.92177E+05
        -0.99759E+06
        -0.67949E+06
        -0.13281E+07
        -0.38957E+06
        -0.66113E+06
        -0.22251E+06
        -0.21136E+07
        -0.12813E+07
        -0.81053E+06
        -0.68700E+06
        -0.24755E+06
        -0.24827E+06
         0.28508E+06
         0.58263E+06
        -0.83851E+06
        -0.49839E+06
        -0.35985E+06
        -0.82654E+06
        -0.49933E+06
        -0.38011E+06
        -0.75485E+06
        -0.11562E+07
        -0.10597E+07
        -0.10799E+07
        -0.75856E+06
        -0.34893E+06
        -0.25429E+06
        -0.32104E+06
         0.17007E+06
         0.37786E+06
        -0.64329E+05
        -0.46849E+04
        -0.19951E+07
        -0.80589E+06
        -0.12591E+07
        -0.12788E+06
         0.89008E+06
         0.16205E+07
         0.13374E+07
         0.14164E+07
         0.10746E+07
         0.44057E+06
        -0.31439E+06
        -0.88528E+06
        -0.12074E+07
        -0.68971E+06
        -0.15119E+07
        -0.21007E+07
        -0.17834E+07
        -0.14734E+07
        -0.73163E+06
         0.18926E+06
         0.14993E+06
        -0.13917E+06
        -0.67377E+06
        -0.11268E+07
        -0.10170E+07
        -0.56389E+06
         0.41196E+06
         0.15839E+06
         0.23247E+06
         0.34893E+06
         0.19256E+05
         0.18469E+06
        -0.23860E+06
        -0.53511E+06
         0.52025E+06
        -0.63994E+06
        -0.55280E+06
        -0.79491E+05
        -0.22731E+06
        -0.16796E+07
        -0.60488E+06
        -0.32477E+06
         0.97489E+05
         0.38218E+06
        -0.99335E+05
        -0.96361E+05
        -0.10013E+07
        -0.68484E+06
        -0.13318E+07
        -0.39421E+06
        -0.66714E+06
        -0.22727E+06
        -0.21186E+07
        -0.12847E+07
        -0.81247E+06
        -0.68955E+06
        -0.25069E+06
        -0.25201E+06
         0.28310E+06
         0.57897E+06
        -0.84540E+06
        -0.50152E+06
        -0.36209E+06
        -0.83691E+06
        -0.50656E+06
        -0.38371E+06
        -0.76018E+06
        -0.11625E+07
        -0.10666E+07
        -0.10846E+07
        -0.76315E+06
        -0.35369E+06
        -0.25804E+06
        -0.32404E+06
         0.16687E+06
         0.37336E+06
        -0.69064E+05
        -0.78851E+04
        -0.20111E+07
        -0.81932E+06
        -0.12713E+07
        -0.13440E+06
         0.88793E+06
         0.16144E+07
         0.13238E+07
         0.14001E+07
         0.10589E+07
         0.42659E+06
        -0.33090E+06
        -0.90417E+06
        -0.12207E+07
        -0.69630E+06
        -0.15150E+07
        -0.21027E+07
        -0.17898E+07
        -0.14846E+07
        -0.73990E+06
         0.17931E+06
         0.14092E+06
        -0.14935E+06
        -0.68456E+06
        -0.11337E+07
        -0.10235E+07
        -0.57468E+06
         0.40586E+06
         0.15241E+06
         0.22666E+06
         0.34446E+06
         0.13201E+05
         0.17946E+06
        -0.24424E+06
        -0.53977E+06
         0.51528E+06
        -0.65114E+06
        -0.55763E+06
        -0.87691E+05
        -0.23407E+06
        -0.16819E+07
        -0.61240E+06
        -0.33054E+06
         0.90221E+05
         0.37887E+06
        -0.10356E+06
        -0.98227E+05
        -0.10060E+07
        -0.69110E+06
        -0.13364E+07
        -0.39819E+06
        -0.67706E+06
        -0.23194E+06
        -0.21298E+07
        -0.12904E+07
        -0.80082E+06
        -0.68275E+06
        -0.25586E+06
        -0.25728E+06
         0.28114E+06
         0.57645E+06
        -0.85311E+06
        -0.50688E+06
        -0.36771E+06
        -0.85208E+06
        -0.51370E+06
        -0.37365E+06
        -0.76073E+06
        -0.11694E+07
        -0.10758E+07
        -0.10897E+07
        -0.76907E+06
        -0.36138E+06
        -0.26468E+06
        -0.32928E+06
         0.16317E+06
         0.36973E+06
        -0.73231E+05
        -0.11919E+05
        -0.20217E+07
        -0.82908E+06
        -0.12796E+07
        -0.14174E+06
         0.87775E+06
         0.15976E+07
         0.13047E+07
         0.13819E+07
         0.10432E+07
         0.42296E+06
        -0.35973E+06
        -0.94948E+06
        -0.12394E+07
        -0.70666E+06
        -0.15244E+07
        -0.21111E+07
        -0.18000E+07
        -0.14964E+07
        -0.75354E+06
         0.16377E+06
         0.13056E+06
        -0.15907E+06
        -0.69556E+06
        -0.11419E+07
        -0.10362E+07
        -0.58902E+06
         0.41395E+06
         0.15982E+06
         0.23400E+06
         0.35063E+06
         0.23996E+05
         0.18703E+06
        -0.23655E+06
        -0.52906E+06
         0.51958E+06
        -0.65286E+06
        -0.54870E+06
        -0.77209E+05
        -0.22534E+06
        -0.16695E+07
        -0.59930E+06
        -0.32362E+06
         0.94097E+05
         0.38485E+06
        -0.94575E+05
        -0.84116E+05
        -0.99604E+06
        -0.68151E+06
        -0.13276E+07
        -0.38997E+06
        -0.67596E+06
        -0.22373E+06
        -0.21317E+07
        -0.12829E+07
        -0.76247E+06
        -0.65218E+06
        -0.25001E+06
        -0.24936E+06
         0.28818E+06
         0.58312E+06
        -0.84124E+06
        -0.49693E+06
        -0.35863E+06
        -0.85160E+06
        -0.50187E+06
        -0.33440E+06
        -0.73904E+06
        -0.11583E+07
        -0.10700E+07
        -0.10800E+07
        -0.75815E+06
        -0.34844E+06
        -0.25455E+06
        -0.32146E+06
         0.17090E+06
         0.37857E+06
        -0.62921E+05
        -0.39123E+04
        -0.19958E+07
        -0.80352E+06
        -0.12534E+07
        -0.12350E+06
         0.88949E+06
         0.16111E+07
         0.13233E+07
         0.14006E+07
         0.10639E+07
         0.46336E+06
        -0.36906E+06
        -0.98594E+06
        -0.12380E+07
        -0.69241E+06
        -0.15125E+07
        -0.21011E+07
        -0.17874E+07
        -0.14755E+07
        -0.72795E+06
         0.18763E+06
         0.15123E+06
        -0.13784E+06
        -0.67147E+06
        -0.11197E+07
        -0.10183E+07
        -0.57025E+06
         0.38331E+06
         0.13237E+06
         0.20736E+06
         0.32503E+06
        -0.12243E+05
         0.15611E+06
        -0.26727E+06
        -0.56407E+06
         0.49085E+06
        -0.69667E+06
        -0.58228E+06
        -0.12757E+06
        -0.27127E+06
        -0.17041E+07
        -0.65044E+06
        -0.35247E+06
         0.62525E+05
         0.35949E+06
        -0.12472E+06
        -0.11238E+06
        -0.10387E+07
        -0.72321E+06
        -0.13687E+07
        -0.41905E+06
        -0.71366E+06
        -0.25131E+06
        -0.21754E+07
        -0.13171E+07
        -0.77908E+06
        -0.67341E+06
        -0.27720E+06
        -0.27791E+06
         0.26233E+06
         0.55479E+06
        -0.88635E+06
        -0.53225E+06
        -0.39804E+06
        -0.91020E+06
        -0.54695E+06
        -0.36084E+06
        -0.78174E+06
        -0.12043E+07
        -0.11158E+07
        -0.11190E+07
        -0.79805E+06
        -0.39662E+06
        -0.29330E+06
        -0.35542E+06
         0.14008E+06
         0.34316E+06
        -0.10818E+06
        -0.40257E+05
        -0.20860E+07
        -0.89111E+06
        -0.13446E+07
        -0.21641E+06
         0.79686E+06
         0.15217E+07
         0.12324E+07
         0.13032E+07
         0.97277E+06
         0.38022E+06
        -0.48487E+06
        -0.11119E+07
        -0.13270E+07
        -0.76607E+06
        -0.15900E+07
        -0.21818E+07
        -0.18706E+07
        -0.15688E+07
        -0.82369E+06
         0.95726E+05
         0.66248E+05
        -0.21915E+06
        -0.75469E+06
        -0.12053E+07
        -0.11006E+07
        -0.65204E+06
         0.40070E+06
         0.13422E+06
         0.21229E+06
         0.33458E+06
         0.52853E+03
         0.16677E+06
        -0.26359E+06
        -0.54172E+06
         0.51027E+06
        -0.66484E+06
        -0.57285E+06
        -0.12671E+06
        -0.28314E+06
        -0.16778E+07
        -0.62694E+06
        -0.33104E+06
         0.81849E+05
         0.37369E+06
        -0.10843E+06
        -0.95204E+05
        -0.10190E+07
        -0.70882E+06
        -0.13392E+07
        -0.39730E+06
        -0.68253E+06
        -0.23108E+06
        -0.21381E+07
        -0.12770E+07
        -0.74724E+06
        -0.64247E+06
        -0.26148E+06
        -0.26525E+06
         0.27091E+06
         0.55065E+06
        -0.87988E+06
        -0.53470E+06
        -0.40911E+06
        -0.88352E+06
        -0.51555E+06
        -0.33376E+06
        -0.76254E+06
        -0.11787E+07
        -0.10885E+07
        -0.10921E+07
        -0.78315E+06
        -0.38915E+06
        -0.28731E+06
        -0.34114E+06
         0.15049E+06
         0.34371E+06
        -0.10511E+06
        -0.39094E+05
        -0.20513E+07
        -0.84584E+06
        -0.13330E+07
        -0.23646E+06
         0.75530E+06
         0.14963E+07
         0.12740E+07
         0.13458E+07
         0.10068E+07
         0.40042E+06
        -0.47920E+06
        -0.10947E+07
        -0.12933E+07
        -0.74943E+06
        -0.15549E+07
        -0.21315E+07
        -0.18276E+07
        -0.15359E+07
        -0.80938E+06
         0.94064E+05
         0.85232E+05
        -0.19210E+06
        -0.71160E+06
        -0.11531E+07
        -0.10595E+07
        -0.60958E+06
         0.12081E+09
         0.11059E+09
         0.10812E+09
         0.96894E+08
         0.14512E+09
         0.12473E+09
         0.11516E+09
         0.13705E+09
         0.10607E+09
         0.13670E+09
         0.12797E+09
         0.19258E+09
         0.16727E+09
         0.14395E+09
         0.19899E+09
         0.10718E+09
         0.10577E+09
         0.92723E+08
         0.11007E+09
         0.11515E+09
         0.15356E+09
         0.15373E+09
         0.14516E+09
         0.10502E+09
         0.12437E+09
         0.10076E+09
         0.14172E+09
         0.12615E+09
         0.12678E+09
         0.13021E+09
         0.10365E+09
         0.10419E+09
         0.97473E+08
         0.10202E+09
         0.16819E+09
         0.13682E+09
         0.14466E+09
         0.18483E+09
         0.17267E+09
         0.16792E+09
         0.18042E+09
         0.16795E+09
         0.15916E+09
         0.13776E+09
         0.14128E+09
         0.17146E+09
         0.14477E+09
         0.12985E+09
         0.12028E+09
         0.13079E+09
         0.15964E+09
         0.13499E+09
         0.32839E+09
         0.32190E+09
         0.32831E+09
         0.31809E+09
         0.32881E+09
         0.34556E+09
         0.34681E+09
         0.34230E+09
         0.34476E+09
         0.35456E+09
         0.34316E+09
         0.32309E+09
         0.28538E+09
         0.26907E+09
         0.27359E+09
         0.28043E+09
         0.28453E+09
         0.31073E+09
         0.33302E+09
         0.33487E+09
         0.30650E+09
         0.29530E+09
         0.30604E+09
         0.30220E+09
         0.29999E+09
         0.30056E+09
         0.14890E+10
         0.15580E+10
         0.15349E+10
         0.13972E+10
         0.17297E+10
         0.16215E+10
         0.16865E+10
         0.17032E+10
         0.14528E+10
         0.17021E+10
         0.18548E+10
         0.20879E+10
         0.18897E+10
         0.19101E+10
         0.21617E+10
         0.14237E+10
         0.15302E+10
         0.13308E+10
         0.15818E+10
         0.16649E+10
         0.17300E+10
         0.17675E+10
         0.16593E+10
         0.15197E+10
         0.17204E+10
         0.14648E+10
         0.19032E+10
         0.18691E+10
         0.18779E+10
         0.17821E+10
         0.14386E+10
         0.15128E+10
         0.14085E+10
         0.14743E+10
         0.18970E+10
         0.17364E+10
         0.17436E+10
         0.20913E+10
         0.20356E+10
         0.20104E+10
         0.20487E+10
         0.19442E+10
         0.18382E+10
         0.16182E+10
         0.16848E+10
         0.18970E+10
         0.17505E+10
         0.16440E+10
         0.16101E+10
         0.16709E+10
         0.18185E+10
         0.16763E+10
         0.30232E+10
         0.29468E+10
         0.30086E+10
         0.29154E+10
         0.30024E+10
         0.31558E+10
         0.32056E+10
         0.31972E+10
         0.32191E+10
         0.32926E+10
         0.31979E+10
         0.30082E+10
         0.26970E+10
         0.25495E+10
         0.25576E+10
         0.25911E+10
         0.26167E+10
         0.28367E+10
         0.30371E+10
         0.30498E+10
         0.28235E+10
         0.27363E+10
         0.28267E+10
         0.28061E+10
         0.27747E+10
         0.27668E+10
  
SCALARS                      stress_yy  double 1
LOOKUP_TABLE default
         0.11077E+12
         0.10854E+12
         0.10995E+12
         0.11248E+12
        -0.79691E+02
        -0.89361E+02
        -0.85566E+02
        -0.77734E+02
         0.10846E+12
         0.10921E+12
        -0.80358E+02
        -0.77766E+02
         0.10532E+12
         0.10520E+12
        -0.95482E+02
        -0.89777E+02
         0.11211E+12
         0.10537E+12
        -0.70551E+02
        -0.78252E+02
         0.10290E+12
         0.10098E+12
         0.10403E+12
        -0.94634E+02
        -0.82645E+02
        -0.85341E+02
         0.10105E+12
         0.98250E+11
        -0.90788E+02
        -0.76564E+02
         0.11199E+12
         0.10906E+12
         0.11484E+12
        -0.77474E+02
        -0.72024E+02
        -0.70026E+02
         0.11029E+12
         0.10656E+12
        -0.81964E+02
        -0.74793E+02
         0.10881E+12
         0.10593E+12
        -0.70840E+02
        -0.62714E+02
         0.11125E+12
         0.11234E+12
        -0.77632E+02
        -0.86742E+02
         0.10362E+12
        -0.75839E+02
         0.11213E+12
        -0.89115E+02
         0.10024E+12
        -0.80089E+02
         0.99363E+11
        -0.76822E+02
         0.99377E+11
         0.10251E+12
        -0.78272E+02
        -0.76229E+02
         0.11193E+12
         0.11080E+12
        -0.78487E+02
        -0.88729E+02
         0.11264E+12
        -0.75735E+02
         0.11129E+12
        -0.82655E+02
         0.10777E+12
         0.10741E+12
        -0.79564E+02
        -0.83368E+02
         0.10662E+12
        -0.84068E+02
         0.97255E+11
        -0.66419E+02
         0.96764E+11
        -0.64470E+02
         0.97008E+11
        -0.67978E+02
         0.98362E+11
         0.99771E+11
        -0.64767E+02
        -0.67524E+02
         0.10261E+12
        -0.62889E+02
         0.11120E+12
        -0.82470E+02
         0.10986E+12
        -0.84407E+02
         0.10876E+12
         0.10815E+12
        -0.81058E+02
        -0.82004E+02
         0.10890E+12
        -0.74483E+02
         0.10943E+12
        -0.73420E+02
         0.10895E+12
        -0.78598E+02
         0.10878E+12
         0.10926E+12
        -0.77076E+02
        -0.79338E+02
         0.10613E+12
         0.10740E+12
        -0.59842E+02
        -0.56285E+02
         0.10588E+12
        -0.57142E+02
         0.10735E+12
        -0.54789E+02
         0.10590E+12
        -0.54026E+02
         0.10270E+12
        -0.51055E+02
         0.99591E+11
        -0.45357E+02
         0.97733E+11
        -0.40841E+02
         0.97544E+11
        -0.40558E+02
         0.97603E+11
        -0.43983E+02
         0.99619E+11
        -0.46224E+02
         0.10339E+12
        -0.42208E+02
         0.10753E+12
        -0.38046E+02
         0.10996E+12
        -0.38002E+02
         0.11236E+12
        -0.42477E+02
         0.11395E+12
        -0.48434E+02
         0.11389E+12
        -0.52033E+02
         0.11004E+12
        -0.56195E+02
         0.10735E+12
        -0.60204E+02
         0.10643E+12
        -0.55152E+02
         0.10787E+12
        -0.48383E+02
         0.10862E+12
        -0.48233E+02
         0.10736E+12
        -0.52773E+02
         0.10738E+12
        -0.56260E+02
         0.10833E+12
        -0.53390E+02
         0.10957E+12
        -0.51615E+02
        -0.26611E+11
        -0.26917E+11
        -0.26876E+11
        -0.26476E+11
        -0.27202E+11
        -0.26842E+11
        -0.27286E+11
        -0.27057E+11
        -0.26540E+11
        -0.26866E+11
        -0.27524E+11
        -0.27594E+11
        -0.27404E+11
        -0.27390E+11
        -0.27514E+11
        -0.26495E+11
        -0.26571E+11
        -0.26357E+11
        -0.26950E+11
        -0.26845E+11
        -0.26994E+11
        -0.26896E+11
        -0.27077E+11
        -0.27030E+11
        -0.26853E+11
        -0.26866E+11
        -0.27165E+11
        -0.27138E+11
        -0.27354E+11
        -0.27026E+11
        -0.26533E+11
        -0.26921E+11
        -0.26536E+11
        -0.26792E+11
        -0.27643E+11
        -0.27381E+11
        -0.27253E+11
        -0.27403E+11
        -0.27422E+11
        -0.27661E+11
        -0.27830E+11
        -0.27411E+11
        -0.26988E+11
        -0.27047E+11
        -0.27265E+11
        -0.27634E+11
        -0.27321E+11
        -0.26969E+11
        -0.26994E+11
        -0.27267E+11
        -0.27535E+11
        -0.27171E+11
        -0.28222E+11
        -0.27930E+11
        -0.27979E+11
        -0.27910E+11
        -0.27928E+11
        -0.28087E+11
        -0.28247E+11
        -0.28298E+11
        -0.28276E+11
        -0.28292E+11
        -0.28358E+11
        -0.27943E+11
        -0.27780E+11
        -0.27716E+11
        -0.27606E+11
        -0.27522E+11
        -0.27526E+11
        -0.27669E+11
        -0.28126E+11
        -0.28020E+11
        -0.27864E+11
        -0.27866E+11
        -0.27893E+11
        -0.28042E+11
        -0.27821E+11
        -0.27737E+11
        -0.44891E+05
        -0.20704E+06
        -0.72057E+05
         0.52390E+06
         0.78024E+05
         0.52538E+06
        -0.21843E+06
        -0.90994E+06
         0.23278E+06
        -0.92377E+06
        -0.74415E+06
        -0.95189E+06
        -0.33764E+06
        -0.11723E+07
        -0.12929E+07
         0.47674E+05
         0.33540E+06
         0.44424E+06
        -0.24766E+06
         0.60751E+05
        -0.14302E+06
         0.19520E+06
        -0.31883E+06
        -0.12490E+06
        -0.82910E+06
        -0.70591E+05
        -0.15402E+07
        -0.11864E+07
        -0.61561E+06
        -0.75234E+06
        -0.30114E+05
        -0.23377E+05
         0.38540E+06
         0.65427E+06
         0.27612E+05
        -0.54203E+05
        -0.79512E+05
        -0.12024E+07
        -0.12091E+07
        -0.89122E+06
        -0.17425E+06
        -0.14330E+06
        -0.12253E+06
        -0.41043E+06
        -0.49715E+06
        -0.92880E+06
        -0.43433E+06
        -0.12295E+06
        -0.22176E+06
        -0.11112E+06
         0.17066E+06
         0.66312E+06
        -0.78966E+06
         0.31352E+06
        -0.72062E+06
        -0.97305E+05
         0.30486E+06
         0.54603E+06
         0.17382E+06
         0.39280E+06
         0.14015E+06
        -0.18328E+06
         0.24775E+06
         0.42899E+06
         0.10434E+06
         0.56251E+06
        -0.21082E+06
        -0.86420E+06
        -0.10324E+07
        -0.12374E+07
        -0.15053E+07
        -0.92173E+06
        -0.80751E+06
        -0.10562E+07
        -0.13308E+07
        -0.84732E+06
         0.24086E+05
         0.49175E+06
        -0.77584E+05
        -0.23632E+06
        -0.10121E+06
         0.49772E+06
         0.38531E+05
         0.49201E+06
        -0.25045E+06
        -0.94866E+06
         0.20139E+06
        -0.96639E+06
        -0.78017E+06
        -0.10058E+07
        -0.38336E+06
        -0.12094E+07
        -0.13475E+07
         0.15420E+05
         0.30170E+06
         0.41854E+06
        -0.28211E+06
         0.25165E+05
        -0.18895E+06
         0.15098E+06
        -0.36531E+06
        -0.15964E+06
        -0.87135E+06
        -0.10364E+06
        -0.15763E+07
        -0.12224E+07
        -0.65377E+06
        -0.79423E+06
        -0.59459E+05
        -0.54703E+05
         0.35841E+06
         0.62772E+06
        -0.18258E+05
        -0.90451E+05
        -0.11820E+06
        -0.12564E+07
        -0.12586E+07
        -0.93881E+06
        -0.22721E+06
        -0.19439E+06
        -0.17137E+06
        -0.45445E+06
        -0.53800E+06
        -0.97567E+06
        -0.47459E+06
        -0.15908E+06
        -0.25256E+06
        -0.14381E+06
         0.12836E+06
         0.62692E+06
        -0.88012E+06
         0.22514E+06
        -0.80781E+06
        -0.18063E+06
         0.21656E+06
         0.44774E+06
         0.75754E+05
         0.29385E+06
         0.39961E+05
        -0.28575E+06
         0.14586E+06
         0.33472E+06
         0.25960E+05
         0.48933E+06
        -0.28758E+06
        -0.94638E+06
        -0.11165E+07
        -0.13253E+07
        -0.15936E+07
        -0.10150E+07
        -0.89544E+06
        -0.11355E+07
        -0.14105E+07
        -0.92855E+06
        -0.58023E+05
         0.40821E+06
        -0.69982E+05
        -0.23076E+06
        -0.95457E+05
         0.50438E+06
         0.48497E+05
         0.50058E+06
        -0.24412E+06
        -0.94153E+06
         0.20485E+06
        -0.96715E+06
        -0.77321E+06
        -0.99539E+06
        -0.37459E+06
        -0.11991E+07
        -0.13351E+07
         0.90219E+04
         0.29967E+06
         0.42552E+06
        -0.29088E+06
         0.18498E+05
        -0.19679E+06
         0.14806E+06
        -0.39579E+06
        -0.18469E+06
        -0.89148E+06
        -0.12676E+06
        -0.15694E+07
        -0.12271E+07
        -0.66898E+06
        -0.82386E+06
        -0.59274E+05
        -0.61754E+05
         0.36525E+06
         0.63622E+06
        -0.62051E+04
        -0.81486E+05
        -0.10968E+06
        -0.12478E+07
        -0.12518E+07
        -0.93651E+06
        -0.22867E+06
        -0.21291E+06
        -0.19772E+06
        -0.48401E+06
        -0.54511E+06
        -0.96931E+06
        -0.46739E+06
        -0.15056E+06
        -0.24352E+06
        -0.13311E+06
         0.14035E+06
         0.63699E+06
        -0.85309E+06
         0.24929E+06
        -0.78113E+06
        -0.15998E+06
         0.23183E+06
         0.46309E+06
         0.95334E+05
         0.31350E+06
         0.59644E+05
        -0.26525E+06
         0.15797E+06
         0.33422E+06
         0.27231E+05
         0.50276E+06
        -0.27861E+06
        -0.96309E+06
        -0.11348E+07
        -0.13207E+07
        -0.15694E+07
        -0.98688E+06
        -0.87048E+06
        -0.11103E+07
        -0.13822E+07
        -0.90452E+06
        -0.38414E+05
         0.42718E+06
        -0.74678E+05
        -0.23338E+06
        -0.98232E+05
         0.50000E+06
         0.44501E+05
         0.49742E+06
        -0.24705E+06
        -0.94773E+06
         0.19470E+06
        -0.98681E+06
        -0.77718E+06
        -0.10009E+07
        -0.37821E+06
        -0.12027E+07
        -0.13426E+07
        -0.16626E+05
         0.27970E+06
         0.42094E+06
        -0.32107E+06
        -0.11428E+05
        -0.23172E+06
         0.11749E+06
        -0.46674E+06
        -0.24074E+06
        -0.94083E+06
        -0.17951E+06
        -0.15794E+07
        -0.12562E+07
        -0.71589E+06
        -0.89321E+06
        -0.73429E+05
        -0.89937E+05
         0.36081E+06
         0.63177E+06
        -0.12059E+05
        -0.85254E+05
        -0.11280E+06
        -0.12583E+07
        -0.12648E+07
        -0.95837E+06
        -0.25878E+06
        -0.27074E+06
        -0.26896E+06
        -0.55351E+06
        -0.57905E+06
        -0.98825E+06
        -0.48042E+06
        -0.15703E+06
        -0.24836E+06
        -0.13889E+06
         0.13398E+06
         0.63291E+06
        -0.86567E+06
         0.24053E+06
        -0.79505E+06
        -0.17200E+06
         0.22366E+06
         0.45383E+06
         0.79789E+05
         0.29671E+06
         0.43232E+05
        -0.28510E+06
         0.12659E+06
         0.28348E+06
        -0.20280E+05
         0.48020E+06
        -0.30393E+06
        -0.10330E+07
        -0.12090E+07
        -0.13555E+07
        -0.15860E+07
        -0.10026E+07
        -0.88251E+06
        -0.11245E+07
        -0.13971E+07
        -0.91440E+06
        -0.45848E+05
         0.41983E+06
        -0.83177E+05
        -0.23854E+06
        -0.10279E+06
         0.49549E+06
         0.39948E+05
         0.49317E+06
        -0.25150E+06
        -0.95714E+06
         0.18355E+06
        -0.10072E+07
        -0.78140E+06
        -0.10042E+07
        -0.38224E+06
        -0.12067E+07
        -0.13466E+07
        -0.33944E+05
         0.26382E+06
         0.41669E+06
        -0.34109E+06
        -0.32944E+05
        -0.25433E+06
         0.95524E+05
        -0.51037E+06
        -0.27542E+06
        -0.97721E+06
        -0.21319E+06
        -0.15881E+07
        -0.12772E+07
        -0.74810E+06
        -0.93959E+06
        -0.88197E+05
        -0.11035E+06
         0.35244E+06
         0.62562E+06
        -0.18110E+05
        -0.90038E+05
        -0.11748E+06
        -0.12663E+07
        -0.12758E+07
        -0.97509E+06
        -0.28012E+06
        -0.30958E+06
        -0.31570E+06
        -0.59789E+06
        -0.60159E+06
        -0.10008E+07
        -0.49202E+06
        -0.16760E+06
        -0.25713E+06
        -0.14766E+06
         0.12403E+06
         0.62638E+06
        -0.87698E+06
         0.23288E+06
        -0.80692E+06
        -0.18136E+06
         0.21980E+06
         0.45115E+06
         0.73208E+05
         0.28567E+06
         0.29289E+05
        -0.29738E+06
         0.10748E+06
         0.24834E+06
        -0.52671E+05
         0.46277E+06
        -0.32181E+06
        -0.10783E+07
        -0.12613E+07
        -0.13804E+07
        -0.15936E+07
        -0.10168E+07
        -0.89843E+06
        -0.11407E+07
        -0.14162E+07
        -0.93053E+06
        -0.55741E+05
         0.41250E+06
        -0.10369E+06
        -0.24824E+06
        -0.10729E+06
         0.49880E+06
         0.44957E+05
         0.49904E+06
        -0.25464E+06
        -0.97258E+06
         0.16864E+06
        -0.10339E+07
        -0.77868E+06
        -0.99204E+06
        -0.37763E+06
        -0.12042E+07
        -0.13322E+07
        -0.30673E+05
         0.25987E+06
         0.42384E+06
        -0.33749E+06
        -0.29663E+05
        -0.24819E+06
         0.10318E+06
        -0.50945E+06
        -0.27602E+06
        -0.99456E+06
        -0.21772E+06
        -0.15902E+07
        -0.12796E+07
        -0.74593E+06
        -0.94218E+06
        -0.10588E+06
        -0.12102E+06
         0.33864E+06
         0.62398E+06
        -0.12765E+05
        -0.89690E+05
        -0.11839E+06
        -0.12575E+07
        -0.12690E+07
        -0.96679E+06
        -0.27006E+06
        -0.30333E+06
        -0.31079E+06
        -0.60111E+06
        -0.60480E+06
        -0.10030E+07
        -0.50211E+06
        -0.18923E+06
        -0.27934E+06
        -0.15977E+06
         0.12076E+06
         0.62927E+06
        -0.85474E+06
         0.25574E+06
        -0.78840E+06
        -0.16885E+06
         0.23288E+06
         0.46912E+06
         0.93551E+05
         0.30522E+06
         0.51472E+05
        -0.26792E+06
         0.13323E+06
         0.26380E+06
        -0.35572E+05
         0.48052E+06
        -0.30456E+06
        -0.10646E+07
        -0.12516E+07
        -0.13706E+07
        -0.15817E+07
        -0.10085E+07
        -0.90032E+06
        -0.11520E+07
        -0.14238E+07
        -0.92659E+06
        -0.44453E+05
         0.42866E+06
        -0.13490E+06
        -0.26520E+06
        -0.11756E+06
         0.49594E+06
         0.40452E+05
         0.49836E+06
        -0.26763E+06
        -0.10014E+07
         0.14371E+06
        -0.10720E+07
        -0.78764E+06
        -0.99656E+06
        -0.38502E+06
        -0.12154E+07
        -0.13363E+07
        -0.35818E+05
         0.24676E+06
         0.42258E+06
        -0.34135E+06
        -0.34548E+05
        -0.25164E+06
         0.10098E+06
        -0.51294E+06
        -0.28015E+06
        -0.10177E+07
        -0.22606E+06
        -0.16049E+07
        -0.12904E+07
        -0.74909E+06
        -0.94855E+06
        -0.13072E+06
        -0.13861E+06
         0.31774E+06
         0.61579E+06
        -0.19868E+05
        -0.97383E+05
        -0.12755E+06
        -0.12659E+07
        -0.12772E+07
        -0.97107E+06
        -0.27212E+06
        -0.30406E+06
        -0.31131E+06
        -0.60825E+06
        -0.61748E+06
        -0.10208E+07
        -0.52523E+06
        -0.22197E+06
        -0.31128E+06
        -0.18129E+06
         0.10750E+06
         0.62481E+06
        -0.86394E+06
         0.24848E+06
        -0.79411E+06
        -0.17517E+06
         0.22366E+06
         0.45823E+06
         0.84584E+05
         0.29761E+06
         0.43616E+05
        -0.27376E+06
         0.12858E+06
         0.25807E+06
        -0.36568E+05
         0.47908E+06
        -0.30833E+06
        -0.10669E+07
        -0.12562E+07
        -0.13865E+07
        -0.16051E+07
        -0.10342E+07
        -0.92930E+06
        -0.11877E+07
        -0.14552E+07
        -0.94301E+06
        -0.53207E+05
         0.42186E+06
        -0.14405E+06
        -0.27144E+06
        -0.12200E+06
         0.49216E+06
         0.35634E+05
         0.49422E+06
        -0.27427E+06
        -0.10121E+07
         0.13606E+06
        -0.10850E+07
        -0.79418E+06
        -0.10030E+07
        -0.39230E+06
        -0.12211E+07
        -0.13426E+07
        -0.40449E+05
         0.24126E+06
         0.41929E+06
        -0.34493E+06
        -0.38342E+05
        -0.25688E+06
         0.95872E+05
        -0.51752E+06
        -0.28328E+06
        -0.10280E+07
        -0.23071E+06
        -0.16113E+07
        -0.12961E+07
        -0.75475E+06
        -0.95466E+06
        -0.13871E+06
        -0.14547E+06
         0.31078E+06
         0.61111E+06
        -0.25859E+05
        -0.10163E+06
        -0.13317E+06
        -0.12762E+07
        -0.12866E+07
        -0.97972E+06
        -0.28123E+06
        -0.31091E+06
        -0.31583E+06
        -0.61469E+06
        -0.62521E+06
        -0.10292E+07
        -0.53310E+06
        -0.23006E+06
        -0.31894E+06
        -0.18843E+06
         0.99312E+05
         0.61926E+06
        -0.87660E+06
         0.23591E+06
        -0.80278E+06
        -0.18389E+06
         0.21300E+06
         0.44901E+06
         0.75143E+05
         0.28457E+06
         0.26138E+05
        -0.29207E+06
         0.11200E+06
         0.25050E+06
        -0.42506E+05
         0.46638E+06
        -0.32163E+06
        -0.10797E+07
        -0.12730E+07
        -0.14024E+07
        -0.16185E+07
        -0.10450E+07
        -0.93820E+06
        -0.11996E+07
        -0.14711E+07
        -0.95750E+06
        -0.65378E+05
         0.40985E+06
        -0.13833E+06
        -0.26712E+06
        -0.11923E+06
         0.49299E+06
         0.40245E+05
         0.49507E+06
        -0.26999E+06
        -0.10062E+07
         0.14031E+06
        -0.10804E+07
        -0.79031E+06
        -0.99630E+06
        -0.38760E+06
        -0.12134E+07
        -0.13331E+07
        -0.34253E+05
         0.24584E+06
         0.42260E+06
        -0.33945E+06
        -0.33081E+05
        -0.25060E+06
         0.10199E+06
        -0.51093E+06
        -0.27746E+06
        -0.10261E+07
        -0.22511E+06
        -0.16026E+07
        -0.12895E+07
        -0.74956E+06
        -0.95065E+06
        -0.13374E+06
        -0.14125E+06
         0.31375E+06
         0.61248E+06
        -0.18933E+05
        -0.97079E+05
        -0.12893E+06
        -0.12699E+07
        -0.12823E+07
        -0.97537E+06
        -0.27541E+06
        -0.30425E+06
        -0.30920E+06
        -0.60927E+06
        -0.62082E+06
        -0.10241E+07
        -0.52848E+06
        -0.22432E+06
        -0.31332E+06
        -0.18366E+06
         0.10283E+06
         0.62045E+06
        -0.85761E+06
         0.25449E+06
        -0.79182E+06
        -0.17933E+06
         0.22222E+06
         0.46358E+06
         0.91383E+05
         0.29621E+06
         0.30488E+05
        -0.28528E+06
         0.12424E+06
         0.26778E+06
        -0.27392E+05
         0.47613E+06
        -0.31236E+06
        -0.10691E+07
        -0.12624E+07
        -0.13891E+07
        -0.16058E+07
        -0.10300E+07
        -0.92286E+06
        -0.11859E+07
        -0.14597E+07
        -0.94711E+06
        -0.54949E+05
         0.42117E+06
        -0.13986E+06
        -0.26741E+06
        -0.12040E+06
         0.49038E+06
         0.39014E+05
         0.49270E+06
        -0.27094E+06
        -0.10099E+07
         0.13629E+06
        -0.10868E+07
        -0.79335E+06
        -0.10001E+07
        -0.38872E+06
        -0.12158E+07
        -0.13397E+07
        -0.37088E+05
         0.24215E+06
         0.41907E+06
        -0.34247E+06
        -0.36005E+05
        -0.25347E+06
         0.98717E+05
        -0.51331E+06
        -0.27949E+06
        -0.10313E+07
        -0.22690E+06
        -0.16048E+07
        -0.12901E+07
        -0.75084E+06
        -0.95400E+06
        -0.13610E+06
        -0.14323E+06
         0.30981E+06
         0.60899E+06
        -0.21089E+05
        -0.99074E+05
        -0.13029E+06
        -0.12790E+07
        -0.12881E+07
        -0.97995E+06
        -0.27997E+06
        -0.30682E+06
        -0.31307E+06
        -0.61141E+06
        -0.62291E+06
        -0.10269E+07
        -0.53231E+06
        -0.22799E+06
        -0.31611E+06
        -0.18614E+06
         0.99631E+05
         0.61720E+06
        -0.86303E+06
         0.25009E+06
        -0.80087E+06
        -0.18690E+06
         0.22109E+06
         0.45831E+06
         0.79073E+05
         0.28253E+06
         0.22326E+05
        -0.29746E+06
         0.11095E+06
         0.26109E+06
        -0.35196E+05
         0.47181E+06
        -0.31637E+06
        -0.10729E+07
        -0.12633E+07
        -0.13919E+07
        -0.16097E+07
        -0.10401E+07
        -0.93550E+06
        -0.11957E+07
        -0.14647E+07
        -0.94933E+06
        -0.60317E+05
         0.41358E+06
        -0.14409E+06
        -0.27055E+06
        -0.12309E+06
         0.48877E+06
         0.35549E+05
         0.49108E+06
        -0.27376E+06
        -0.10148E+07
         0.13259E+06
        -0.10932E+07
        -0.79672E+06
        -0.10053E+07
        -0.39202E+06
        -0.12174E+07
        -0.13465E+07
        -0.41073E+05
         0.23916E+06
         0.41707E+06
        -0.34608E+06
        -0.38179E+05
        -0.25707E+06
         0.95395E+05
        -0.51693E+06
        -0.28271E+06
        -0.10361E+07
        -0.23049E+06
        -0.16064E+07
        -0.12916E+07
        -0.75236E+06
        -0.95671E+06
        -0.13958E+06
        -0.14658E+06
         0.30744E+06
         0.60823E+06
        -0.26369E+05
        -0.10243E+06
        -0.13335E+06
        -0.12878E+07
        -0.12944E+07
        -0.98400E+06
        -0.28268E+06
        -0.30900E+06
        -0.31661E+06
        -0.61506E+06
        -0.62635E+06
        -0.10307E+07
        -0.53590E+06
        -0.23115E+06
        -0.31877E+06
        -0.18827E+06
         0.96597E+05
         0.61569E+06
        -0.87394E+06
         0.24089E+06
        -0.80779E+06
        -0.18920E+06
         0.21803E+06
         0.44758E+06
         0.63590E+05
         0.27018E+06
         0.13878E+05
        -0.30623E+06
         0.10552E+06
         0.25448E+06
        -0.44568E+05
         0.46540E+06
        -0.32305E+06
        -0.10808E+07
        -0.12687E+07
        -0.13981E+07
        -0.16173E+07
        -0.10484E+07
        -0.94511E+06
        -0.12056E+07
        -0.14719E+07
        -0.95589E+06
        -0.68585E+05
         0.40490E+06
        -0.14140E+06
        -0.26915E+06
        -0.12230E+06
         0.49048E+06
         0.38570E+05
         0.49362E+06
        -0.27105E+06
        -0.10110E+07
         0.13431E+06
        -0.10925E+07
        -0.79310E+06
        -0.10007E+07
        -0.39057E+06
        -0.12102E+07
        -0.13377E+07
        -0.37567E+05
         0.24076E+06
         0.42036E+06
        -0.34295E+06
        -0.33942E+05
        -0.25213E+06
         0.10086E+06
        -0.51249E+06
        -0.27909E+06
        -0.10363E+07
        -0.22686E+06
        -0.16009E+07
        -0.12873E+07
        -0.74657E+06
        -0.95222E+06
        -0.13561E+06
        -0.14366E+06
         0.31110E+06
         0.61182E+06
        -0.22073E+05
        -0.99579E+05
        -0.13161E+06
        -0.12828E+07
        -0.12901E+07
        -0.97742E+06
        -0.27616E+06
        -0.30391E+06
        -0.31129E+06
        -0.61190E+06
        -0.62384E+06
        -0.10279E+07
        -0.53321E+06
        -0.22765E+06
        -0.31495E+06
        -0.18413E+06
         0.10028E+06
         0.61922E+06
        -0.86003E+06
         0.25585E+06
        -0.79382E+06
        -0.18228E+06
         0.21569E+06
         0.44839E+06
         0.74873E+05
         0.28267E+06
         0.22145E+05
        -0.29358E+06
         0.11755E+06
         0.26011E+06
        -0.34463E+05
         0.47561E+06
        -0.31368E+06
        -0.10737E+07
        -0.12641E+07
        -0.13921E+07
        -0.16116E+07
        -0.10394E+07
        -0.93457E+06
        -0.11954E+07
        -0.14631E+07
        -0.94820E+06
        -0.57283E+05
         0.41814E+06
        -0.14339E+06
        -0.27165E+06
        -0.12492E+06
         0.48756E+06
         0.35037E+05
         0.49038E+06
        -0.27457E+06
        -0.10155E+07
         0.13125E+06
        -0.10998E+07
        -0.79775E+06
        -0.10071E+07
        -0.39728E+06
        -0.12136E+07
        -0.13427E+07
        -0.40771E+05
         0.23700E+06
         0.41660E+06
        -0.34729E+06
        -0.37415E+05
        -0.25838E+06
         0.94899E+05
        -0.51863E+06
        -0.28283E+06
        -0.10432E+07
        -0.22998E+06
        -0.16064E+07
        -0.12928E+07
        -0.75077E+06
        -0.95629E+06
        -0.13884E+06
        -0.14682E+06
         0.30641E+06
         0.60865E+06
        -0.27115E+05
        -0.10348E+06
        -0.13660E+06
        -0.12924E+07
        -0.12995E+07
        -0.98493E+06
        -0.28469E+06
        -0.31141E+06
        -0.31728E+06
        -0.61892E+06
        -0.62983E+06
        -0.10332E+07
        -0.53821E+06
        -0.23265E+06
        -0.31848E+06
        -0.18659E+06
         0.96224E+05
         0.61553E+06
        -0.87081E+06
         0.24642E+06
        -0.80470E+06
        -0.19463E+06
         0.20121E+06
         0.43468E+06
         0.66535E+05
         0.27199E+06
         0.78839E+04
        -0.30765E+06
         0.10040E+06
         0.24310E+06
        -0.45667E+05
         0.46397E+06
        -0.32366E+06
        -0.10852E+07
        -0.12822E+07
        -0.14082E+07
        -0.16196E+07
        -0.10504E+07
        -0.94602E+06
        -0.12013E+07
        -0.14672E+07
        -0.95635E+06
        -0.68498E+05
         0.40703E+06
        -0.14377E+06
        -0.27244E+06
        -0.12597E+06
         0.48646E+06
         0.34369E+05
         0.48923E+06
        -0.27531E+06
        -0.10168E+07
         0.13098E+06
        -0.11021E+07
        -0.79885E+06
        -0.10079E+07
        -0.39834E+06
        -0.12122E+07
        -0.13432E+07
        -0.41320E+05
         0.23678E+06
         0.41585E+06
        -0.34808E+06
        -0.37581E+05
        -0.25997E+06
         0.93939E+05
        -0.52003E+06
        -0.28345E+06
        -0.10462E+07
        -0.23072E+06
        -0.16054E+07
        -0.12936E+07
        -0.75167E+06
        -0.95790E+06
        -0.14046E+06
        -0.14796E+06
         0.30432E+06
         0.60787E+06
        -0.28259E+05
        -0.10482E+06
        -0.13814E+06
        -0.12973E+07
        -0.13054E+07
        -0.98820E+06
        -0.28586E+06
        -0.31198E+06
        -0.31815E+06
        -0.62045E+06
        -0.63125E+06
        -0.10346E+07
        -0.54004E+06
        -0.23456E+06
        -0.31963E+06
        -0.18670E+06
         0.95484E+05
         0.61455E+06
        -0.87103E+06
         0.24657E+06
        -0.80775E+06
        -0.19940E+06
         0.20086E+06
         0.43450E+06
         0.63222E+05
         0.26309E+06
        -0.24280E+04
        -0.31330E+06
         0.99849E+05
         0.24136E+06
        -0.48483E+05
         0.45942E+06
        -0.32887E+06
        -0.10890E+07
        -0.12849E+07
        -0.14104E+07
        -0.16219E+07
        -0.10544E+07
        -0.95112E+06
        -0.12046E+07
        -0.14677E+07
        -0.95725E+06
        -0.73403E+05
         0.40265E+06
        -0.13521E+06
        -0.26426E+06
        -0.11952E+06
         0.49135E+06
         0.43799E+05
         0.49550E+06
        -0.26597E+06
        -0.10077E+07
         0.13615E+06
        -0.10964E+07
        -0.78958E+06
        -0.99358E+06
        -0.38629E+06
        -0.12006E+07
        -0.13296E+07
        -0.33823E+05
         0.24315E+06
         0.42195E+06
        -0.34073E+06
        -0.29002E+05
        -0.24862E+06
         0.10481E+06
        -0.50908E+06
        -0.27573E+06
        -0.10404E+07
        -0.22293E+06
        -0.15944E+07
        -0.12822E+07
        -0.74061E+06
        -0.94882E+06
        -0.13265E+06
        -0.14006E+06
         0.31015E+06
         0.61271E+06
        -0.16835E+05
        -0.96262E+05
        -0.12873E+06
        -0.12891E+07
        -0.12958E+07
        -0.97718E+06
        -0.27478E+06
        -0.30059E+06
        -0.30819E+06
        -0.60980E+06
        -0.62077E+06
        -0.10232E+07
        -0.53075E+06
        -0.22579E+06
        -0.31227E+06
        -0.17964E+06
         0.10313E+06
         0.62078E+06
        -0.84581E+06
         0.27160E+06
        -0.78677E+06
        -0.18410E+06
         0.21948E+06
         0.45831E+06
         0.83189E+05
         0.27828E+06
         0.14427E+05
        -0.29477E+06
         0.11656E+06
         0.26086E+06
        -0.33041E+05
         0.47654E+06
        -0.30926E+06
        -0.10687E+07
        -0.12621E+07
        -0.13857E+07
        -0.16007E+07
        -0.10320E+07
        -0.93224E+06
        -0.11905E+07
        -0.14522E+07
        -0.93853E+06
        -0.53112E+05
         0.42319E+06
        -0.13883E+06
        -0.26649E+06
        -0.12198E+06
         0.48782E+06
         0.39436E+05
         0.49219E+06
        -0.26912E+06
        -0.10132E+07
         0.13195E+06
        -0.11049E+07
        -0.79416E+06
        -0.99847E+06
        -0.38925E+06
        -0.12042E+07
        -0.13366E+07
        -0.37973E+05
         0.23849E+06
         0.41889E+06
        -0.34632E+06
        -0.33300E+05
        -0.25290E+06
         0.99364E+05
        -0.51289E+06
        -0.28027E+06
        -0.10480E+07
        -0.22743E+06
        -0.15993E+07
        -0.12859E+07
        -0.74125E+06
        -0.95197E+06
        -0.13496E+06
        -0.14367E+06
         0.30682E+06
         0.60888E+06
        -0.23345E+05
        -0.99804E+05
        -0.13119E+06
        -0.12998E+07
        -0.13037E+07
        -0.98070E+06
        -0.28025E+06
        -0.30639E+06
        -0.31508E+06
        -0.61513E+06
        -0.62604E+06
        -0.10283E+07
        -0.53496E+06
        -0.22855E+06
        -0.31517E+06
        -0.18357E+06
         0.98273E+05
         0.61699E+06
        -0.86175E+06
         0.25803E+06
        -0.79930E+06
        -0.19063E+06
         0.21718E+06
         0.45224E+06
         0.69756E+05
         0.26216E+06
        -0.13678E+04
        -0.30878E+06
         0.10004E+06
         0.24187E+06
        -0.46377E+05
         0.46987E+06
        -0.31235E+06
        -0.10708E+07
        -0.12688E+07
        -0.13970E+07
        -0.16091E+07
        -0.10419E+07
        -0.94143E+06
        -0.12008E+07
        -0.14632E+07
        -0.94530E+06
        -0.59420E+05
         0.41269E+06
        -0.14488E+06
        -0.27234E+06
        -0.12811E+06
         0.48318E+06
         0.32633E+05
         0.48620E+06
        -0.27427E+06
        -0.10196E+07
         0.12611E+06
        -0.11184E+07
        -0.79963E+06
        -0.10065E+07
        -0.39580E+06
        -0.12079E+07
        -0.13452E+07
        -0.43086E+05
         0.23158E+06
         0.41534E+06
        -0.35098E+06
        -0.35289E+05
        -0.25813E+06
         0.93008E+05
        -0.51747E+06
        -0.28414E+06
        -0.10595E+07
        -0.23185E+06
        -0.16105E+07
        -0.12920E+07
        -0.72831E+06
        -0.94573E+06
        -0.13929E+06
        -0.14883E+06
         0.30351E+06
         0.60619E+06
        -0.30680E+05
        -0.10557E+06
        -0.13702E+06
        -0.13154E+07
        -0.13115E+07
        -0.97054E+06
        -0.28095E+06
        -0.31269E+06
        -0.32428E+06
        -0.62087E+06
        -0.63264E+06
        -0.10362E+07
        -0.54207E+06
        -0.23357E+06
        -0.31858E+06
        -0.18662E+06
         0.93964E+05
         0.61238E+06
        -0.87236E+06
         0.24814E+06
        -0.80787E+06
        -0.19798E+06
         0.20684E+06
         0.43559E+06
         0.50784E+05
         0.24415E+06
        -0.17280E+05
        -0.31246E+06
         0.71198E+05
         0.19646E+06
        -0.65121E+05
         0.45943E+06
        -0.32164E+06
        -0.10792E+07
        -0.12794E+07
        -0.14090E+07
        -0.16229E+07
        -0.10575E+07
        -0.95197E+06
        -0.12106E+07
        -0.14745E+07
        -0.95338E+06
        -0.71992E+05
         0.39863E+06
        -0.13672E+06
        -0.26481E+06
        -0.12108E+06
         0.48918E+06
         0.42667E+05
         0.49300E+06
        -0.26609E+06
        -0.10106E+07
         0.12952E+06
        -0.11225E+07
        -0.79133E+06
        -0.99577E+06
        -0.38686E+06
        -0.11969E+07
        -0.13331E+07
        -0.35502E+05
         0.23581E+06
         0.42107E+06
        -0.34242E+06
        -0.21295E+05
        -0.24874E+06
         0.10250E+06
        -0.50868E+06
        -0.27582E+06
        -0.10600E+07
        -0.22338E+06
        -0.16124E+07
        -0.12849E+07
        -0.68866E+06
        -0.91566E+06
        -0.13259E+06
        -0.14080E+06
         0.30920E+06
         0.61268E+06
        -0.18442E+05
        -0.96022E+05
        -0.12815E+06
        -0.13153E+07
        -0.13003E+07
        -0.93116E+06
        -0.25944E+06
        -0.30115E+06
        -0.31851E+06
        -0.61179E+06
        -0.62241E+06
        -0.10235E+07
        -0.53237E+06
        -0.22552E+06
        -0.31054E+06
        -0.17721E+06
         0.10414E+06
         0.61978E+06
        -0.84640E+06
         0.27357E+06
        -0.78196E+06
        -0.17975E+06
         0.21844E+06
         0.44914E+06
         0.69502E+05
         0.26312E+06
         0.33451E+04
        -0.27208E+06
         0.61827E+05
         0.15990E+06
        -0.63762E+05
         0.47362E+06
        -0.30967E+06
        -0.10693E+07
        -0.12672E+07
        -0.13883E+07
        -0.15975E+07
        -0.10336E+07
        -0.93147E+06
        -0.11895E+07
        -0.14507E+07
        -0.93106E+06
        -0.53869E+05
         0.41768E+06
        -0.16731E+06
        -0.29214E+06
        -0.14803E+06
         0.46339E+06
         0.56664E+04
         0.46132E+06
        -0.29631E+06
        -0.10473E+07
         0.99893E+05
        -0.11686E+07
        -0.82554E+06
        -0.10459E+07
        -0.43259E+06
        -0.12329E+07
        -0.13853E+07
        -0.63690E+05
         0.20457E+06
         0.39546E+06
        -0.37300E+06
        -0.49689E+05
        -0.29194E+06
         0.60703E+05
        -0.54985E+06
        -0.30479E+06
        -0.10994E+07
        -0.25072E+06
        -0.16562E+07
        -0.13195E+07
        -0.70398E+06
        -0.93737E+06
        -0.15894E+06
        -0.16923E+06
         0.28201E+06
         0.58418E+06
        -0.63171E+05
        -0.13174E+06
        -0.16776E+06
        -0.13743E+07
        -0.13459E+07
        -0.95744E+06
        -0.30235E+06
        -0.34661E+06
        -0.36434E+06
        -0.65140E+06
        -0.66299E+06
        -0.10720E+07
        -0.57158E+06
        -0.25925E+06
        -0.34106E+06
        -0.21204E+06
         0.58748E+05
         0.58283E+06
        -0.93665E+06
         0.18585E+06
        -0.87339E+06
        -0.27267E+06
         0.12566E+06
         0.35982E+06
        -0.21235E+05
         0.16596E+06
        -0.87948E+05
        -0.35525E+06
        -0.54053E+05
         0.33804E+05
        -0.15268E+06
         0.39988E+06
        -0.38707E+06
        -0.11500E+07
        -0.13508E+07
        -0.14817E+07
        -0.16934E+07
        -0.11254E+07
        -0.10166E+07
        -0.12709E+07
        -0.15342E+07
        -0.10165E+07
        -0.13601E+06
         0.33618E+06
        -0.14985E+06
        -0.29017E+06
        -0.14344E+06
         0.47276E+06
         0.17676E+05
         0.47123E+06
        -0.29215E+06
        -0.10266E+07
         0.11841E+06
        -0.11391E+07
        -0.81673E+06
        -0.10449E+07
        -0.44426E+06
        -0.12080E+07
        -0.13629E+07
        -0.41607E+05
         0.22423E+06
         0.40943E+06
        -0.35715E+06
        -0.32641E+05
        -0.27286E+06
         0.75000E+05
        -0.52036E+06
        -0.28294E+06
        -0.10699E+07
        -0.23024E+06
        -0.16190E+07
        -0.12798E+07
        -0.67085E+06
        -0.90689E+06
        -0.14238E+06
        -0.15646E+06
         0.28926E+06
         0.57987E+06
        -0.56330E+05
        -0.13458E+06
        -0.17902E+06
        -0.13481E+07
        -0.13151E+07
        -0.93020E+06
        -0.28336E+06
        -0.32063E+06
        -0.33705E+06
        -0.62517E+06
        -0.64875E+06
        -0.10647E+07
        -0.56604E+06
        -0.24473E+06
        -0.33035E+06
        -0.21092E+06
         0.61690E+05
         0.58340E+06
        -0.90185E+06
         0.23098E+06
        -0.86210E+06
        -0.29272E+06
         0.83946E+05
         0.33447E+06
         0.20416E+05
         0.20873E+06
        -0.54090E+05
        -0.33508E+06
        -0.48456E+05
         0.51000E+05
        -0.11905E+06
         0.41645E+06
        -0.35191E+06
        -0.10997E+07
        -0.13082E+07
        -0.14489E+07
        -0.16792E+07
        -0.11271E+07
        -0.99782E+06
        -0.12439E+07
        -0.14914E+07
        -0.96426E+06
        -0.94777E+05
         0.37891E+06
         0.12029E+09
         0.11020E+09
         0.10778E+09
         0.97033E+08
         0.14514E+09
         0.12500E+09
         0.11513E+09
         0.13659E+09
         0.10571E+09
         0.13625E+09
         0.12772E+09
         0.19170E+09
         0.16712E+09
         0.14436E+09
         0.19828E+09
         0.10745E+09
         0.10591E+09
         0.92759E+08
         0.10981E+09
         0.11522E+09
         0.15428E+09
         0.15448E+09
         0.14594E+09
         0.10514E+09
         0.12402E+09
         0.10076E+09
         0.14217E+09
         0.12614E+09
         0.12686E+09
         0.12997E+09
         0.10376E+09
         0.10430E+09
         0.97491E+08
         0.10205E+09
         0.16897E+09
         0.13718E+09
         0.14487E+09
         0.18438E+09
         0.17191E+09
         0.16736E+09
         0.18088E+09
         0.16877E+09
         0.15988E+09
         0.13821E+09
         0.14140E+09
         0.17082E+09
         0.14451E+09
         0.12993E+09
         0.11985E+09
         0.13029E+09
         0.15980E+09
         0.13556E+09
         0.32952E+09
         0.32297E+09
         0.32877E+09
         0.31804E+09
         0.32815E+09
         0.34441E+09
         0.34557E+09
         0.34117E+09
         0.34371E+09
         0.35383E+09
         0.34358E+09
         0.32422E+09
         0.28654E+09
         0.27023E+09
         0.27478E+09
         0.28145E+09
         0.28504E+09
         0.31082E+09
         0.33216E+09
         0.33366E+09
         0.30543E+09
         0.29426E+09
         0.30527E+09
         0.30238E+09
         0.30094E+09
         0.30154E+09
         0.14889E+10
         0.15579E+10
         0.15349E+10
         0.13972E+10
         0.17297E+10
         0.16216E+10
         0.16865E+10
         0.17031E+10
         0.14527E+10
         0.17020E+10
         0.18548E+10
         0.20876E+10
         0.18897E+10
         0.19102E+10
         0.21614E+10
         0.14238E+10
         0.15303E+10
         0.13308E+10
         0.15817E+10
         0.16649E+10
         0.17303E+10
         0.17678E+10
         0.16596E+10
         0.15197E+10
         0.17203E+10
         0.14648E+10
         0.19032E+10
         0.18691E+10
         0.18779E+10
         0.17820E+10
         0.14386E+10
         0.15128E+10
         0.14085E+10
         0.14743E+10
         0.18972E+10
         0.17365E+10
         0.17437E+10
         0.20912E+10
         0.20354E+10
         0.20103E+10
         0.20488E+10
         0.19445E+10
         0.18385E+10
         0.16183E+10
         0.16848E+10
         0.18968E+10
         0.17504E+10
         0.16440E+10
         0.16100E+10
         0.16708E+10
         0.18186E+10
         0.16764E+10
         0.30240E+10
         0.29475E+10
         0.30089E+10
         0.29154E+10
         0.30019E+10
         0.31550E+10
         0.32047E+10
         0.31964E+10
         0.32184E+10
         0.32921E+10
         0.31982E+10
         0.30090E+10
         0.26977E+10
         0.25502E+10
         0.25585E+10
         0.25918E+10
         0.26170E+10
         0.28368E+10
         0.30365E+10
         0.30490E+10
         0.28228E+10
         0.27357E+10
         0.28262E+10
         0.28062E+10
         0.27753E+10
         0.27675E+10
  
SCALARS                      stress_zz  double 1
LOOKUP_TABLE default
         0.11126E+12
         0.10904E+12
         0.11045E+12
         0.11298E+12
        -0.18595E+03
        -0.20851E+03
        -0.19965E+03
        -0.18138E+03
         0.10896E+12
         0.10971E+12
        -0.18750E+03
        -0.18146E+03
         0.10581E+12
         0.10569E+12
        -0.22279E+03
        -0.20948E+03
         0.11261E+12
         0.10587E+12
        -0.16462E+03
        -0.18259E+03
         0.10339E+12
         0.10147E+12
         0.10453E+12
        -0.22081E+03
        -0.19284E+03
        -0.19913E+03
         0.10155E+12
         0.98744E+11
        -0.21184E+03
        -0.17865E+03
         0.11249E+12
         0.10955E+12
         0.11534E+12
        -0.18077E+03
        -0.16806E+03
        -0.16339E+03
         0.11079E+12
         0.10705E+12
        -0.19125E+03
        -0.17452E+03
         0.10931E+12
         0.10643E+12
        -0.16529E+03
        -0.14633E+03
         0.11175E+12
         0.11284E+12
        -0.18114E+03
        -0.20240E+03
         0.10412E+12
        -0.17696E+03
         0.11262E+12
        -0.20793E+03
         0.10074E+12
        -0.18687E+03
         0.99858E+11
        -0.17925E+03
         0.99871E+11
         0.10300E+12
        -0.18263E+03
        -0.17787E+03
         0.11243E+12
         0.11130E+12
        -0.18314E+03
        -0.20703E+03
         0.11313E+12
        -0.17671E+03
         0.11179E+12
        -0.19286E+03
         0.10826E+12
         0.10791E+12
        -0.18565E+03
        -0.19453E+03
         0.10712E+12
        -0.19616E+03
         0.97749E+11
        -0.15498E+03
         0.97258E+11
        -0.15043E+03
         0.97502E+11
        -0.15861E+03
         0.98856E+11
         0.10027E+12
        -0.15112E+03
        -0.15756E+03
         0.10310E+12
        -0.14674E+03
         0.11169E+12
        -0.19243E+03
         0.11035E+12
        -0.19695E+03
         0.10925E+12
         0.10865E+12
        -0.18914E+03
        -0.19134E+03
         0.10939E+12
        -0.17379E+03
         0.10992E+12
        -0.17131E+03
         0.10945E+12
        -0.18339E+03
         0.10928E+12
         0.10976E+12
        -0.17985E+03
        -0.18512E+03
         0.10662E+12
         0.10789E+12
        -0.13963E+03
        -0.13133E+03
         0.10638E+12
        -0.13333E+03
         0.10785E+12
        -0.12784E+03
         0.10640E+12
        -0.12606E+03
         0.10319E+12
        -0.11913E+03
         0.10009E+12
        -0.10583E+03
         0.98227E+11
        -0.95296E+02
         0.98037E+11
        -0.94634E+02
         0.98096E+11
        -0.10263E+03
         0.10011E+12
        -0.10786E+03
         0.10388E+12
        -0.98484E+02
         0.10803E+12
        -0.88774E+02
         0.11046E+12
        -0.88672E+02
         0.11286E+12
        -0.99113E+02
         0.11445E+12
        -0.11301E+03
         0.11439E+12
        -0.12141E+03
         0.11053E+12
        -0.13112E+03
         0.10785E+12
        -0.14048E+03
         0.10693E+12
        -0.12869E+03
         0.10837E+12
        -0.11289E+03
         0.10912E+12
        -0.11254E+03
         0.10786E+12
        -0.12314E+03
         0.10788E+12
        -0.13127E+03
         0.10883E+12
        -0.12458E+03
         0.11006E+12
        -0.12044E+03
        -0.27024E+11
        -0.27331E+11
        -0.27290E+11
        -0.26889E+11
        -0.27616E+11
        -0.27256E+11
        -0.27700E+11
        -0.27471E+11
        -0.26954E+11
        -0.27280E+11
        -0.27938E+11
        -0.28009E+11
        -0.27818E+11
        -0.27805E+11
        -0.27929E+11
        -0.26908E+11
        -0.26984E+11
        -0.26770E+11
        -0.27363E+11
        -0.27258E+11
        -0.27408E+11
        -0.27309E+11
        -0.27491E+11
        -0.27444E+11
        -0.27267E+11
        -0.27280E+11
        -0.27579E+11
        -0.27553E+11
        -0.27768E+11
        -0.27440E+11
        -0.26946E+11
        -0.27335E+11
        -0.26949E+11
        -0.27206E+11
        -0.28058E+11
        -0.27795E+11
        -0.27667E+11
        -0.27817E+11
        -0.27837E+11
        -0.28076E+11
        -0.28245E+11
        -0.27826E+11
        -0.27402E+11
        -0.27461E+11
        -0.27680E+11
        -0.28048E+11
        -0.27735E+11
        -0.27383E+11
        -0.27408E+11
        -0.27681E+11
        -0.27949E+11
        -0.27585E+11
        -0.28637E+11
        -0.28344E+11
        -0.28393E+11
        -0.28323E+11
        -0.28341E+11
        -0.28501E+11
        -0.28661E+11
        -0.28712E+11
        -0.28690E+11
        -0.28706E+11
        -0.28772E+11
        -0.28357E+11
        -0.28194E+11
        -0.28130E+11
        -0.28020E+11
        -0.27935E+11
        -0.27939E+11
        -0.28083E+11
        -0.28541E+11
        -0.28434E+11
        -0.28278E+11
        -0.28280E+11
        -0.28307E+11
        -0.28457E+11
        -0.28235E+11
        -0.28151E+11
         0.16937E+07
         0.95812E+06
         0.10806E+07
         0.14533E+07
         0.14222E+07
         0.18619E+07
        -0.20366E+06
         0.94678E+05
         0.19723E+07
        -0.22451E+05
        -0.93163E+06
         0.95153E+06
         0.11258E+07
        -0.18008E+07
         0.38453E+06
         0.91478E+06
         0.97964E+06
         0.11336E+07
         0.32926E+06
         0.24959E+06
         0.76002E+06
         0.11934E+07
         0.38404E+06
        -0.75934E+05
        -0.59714E+06
        -0.65639E+05
        -0.27649E+07
        -0.27408E+07
        -0.13268E+07
        -0.37691E+06
         0.81528E+06
         0.10641E+06
         0.12708E+07
         0.18057E+07
         0.87563E+06
         0.66220E+06
         0.98483E+06
         0.17806E+06
         0.16754E+06
         0.44870E+06
         0.97578E+06
         0.69408E+06
         0.79867E+06
         0.36045E+06
         0.37811E+06
         0.61962E+06
         0.74265E+06
         0.84759E+06
         0.11022E+07
         0.14934E+07
         0.15680E+07
         0.18620E+07
         0.38622E+06
         0.16691E+07
         0.86750E+06
         0.18556E+07
         0.26594E+07
         0.32142E+07
         0.28461E+07
         0.30017E+07
         0.26676E+07
         0.21428E+07
         0.19682E+07
         0.17667E+07
         0.13251E+07
         0.18373E+07
         0.96723E+06
         0.35315E+06
         0.46493E+06
         0.51781E+06
         0.73556E+06
         0.15927E+07
         0.16075E+07
         0.12935E+07
         0.85271E+06
         0.84708E+06
         0.14013E+07
         0.19112E+07
         0.16376E+07
         0.89037E+06
         0.10138E+07
         0.13934E+07
         0.13557E+07
         0.17928E+07
        -0.27718E+06
         0.30161E+05
         0.19041E+07
        -0.92722E+05
        -0.10150E+07
         0.87862E+06
         0.10588E+07
        -0.18817E+07
         0.31310E+06
         0.84782E+06
         0.90253E+06
         0.10732E+07
         0.25004E+06
         0.16593E+06
         0.69392E+06
         0.11279E+07
         0.31450E+06
        -0.15705E+06
        -0.68375E+06
        -0.14298E+06
        -0.28411E+07
        -0.28248E+07
        -0.14155E+07
        -0.46707E+06
         0.74691E+06
         0.33098E+05
         0.12080E+07
         0.17444E+07
         0.80601E+06
         0.59177E+06
         0.91933E+06
         0.10329E+06
         0.93790E+05
         0.37408E+06
         0.90180E+06
         0.62017E+06
         0.72829E+06
         0.29065E+06
         0.30980E+06
         0.55063E+06
         0.67177E+06
         0.77721E+06
         0.10330E+07
         0.14281E+07
         0.15027E+07
         0.17957E+07
         0.28466E+06
         0.15703E+07
         0.77060E+06
         0.17628E+07
         0.25616E+07
         0.31059E+07
         0.27376E+07
         0.28910E+07
         0.25554E+07
         0.20288E+07
         0.18546E+07
         0.16616E+07
         0.12358E+07
         0.17535E+07
         0.88026E+06
         0.26087E+06
         0.37092E+06
         0.42028E+06
         0.63724E+06
         0.14890E+07
         0.15087E+07
         0.12038E+07
         0.76338E+06
         0.75539E+06
         0.13089E+07
         0.18171E+07
         0.16509E+07
         0.90395E+06
         0.10286E+07
         0.14102E+07
         0.13730E+07
         0.18115E+07
        -0.26119E+06
         0.45418E+05
         0.19173E+07
        -0.87936E+05
        -0.99812E+06
         0.89255E+06
         0.10717E+07
        -0.18654E+07
         0.33107E+06
         0.83457E+06
         0.89935E+06
         0.10891E+07
         0.23078E+06
         0.14975E+06
         0.68302E+06
         0.11237E+07
         0.26888E+06
        -0.21559E+06
        -0.71887E+06
        -0.19717E+06
        -0.28254E+07
        -0.28361E+07
        -0.14507E+07
        -0.52961E+06
         0.74733E+06
         0.16405E+05
         0.12241E+07
         0.17650E+07
         0.82435E+06
         0.60940E+06
         0.93375E+06
         0.11699E+06
         0.10702E+06
         0.37895E+06
         0.90016E+06
         0.59345E+06
         0.69042E+06
         0.24394E+06
         0.29804E+06
         0.56010E+06
         0.68463E+06
         0.79307E+06
         0.10515E+07
         0.14479E+07
         0.15211E+07
         0.18143E+07
         0.31479E+06
         0.15973E+07
         0.80046E+06
         0.17858E+07
         0.25786E+07
         0.31227E+07
         0.27591E+07
         0.29128E+07
         0.25775E+07
         0.20515E+07
         0.18680E+07
         0.16611E+07
         0.12373E+07
         0.17689E+07
         0.89042E+06
         0.24223E+06
         0.35074E+06
         0.42553E+06
         0.66422E+06
         0.15202E+07
         0.15368E+07
         0.12324E+07
         0.79515E+06
         0.78210E+06
         0.13306E+07
         0.18381E+07
         0.16431E+07
         0.89840E+06
         0.10234E+07
         0.14013E+07
         0.13666E+07
         0.18056E+07
        -0.26680E+06
         0.37469E+05
         0.18987E+07
        -0.11702E+06
        -0.10067E+07
         0.88500E+06
         0.10665E+07
        -0.18775E+07
         0.32251E+06
         0.78143E+06
         0.85436E+06
         0.10779E+07
         0.16163E+06
         0.79264E+05
         0.63289E+06
         0.10785E+07
         0.16278E+06
        -0.34651E+06
        -0.82242E+06
        -0.32059E+06
        -0.28458E+07
        -0.29041E+07
        -0.15600E+07
        -0.68150E+06
         0.71434E+06
        -0.49629E+05
         0.12138E+07
         0.17553E+07
         0.81550E+06
         0.60222E+06
         0.92846E+06
         0.10373E+06
         0.89830E+05
         0.34550E+06
         0.85838E+06
         0.50978E+06
         0.58765E+06
         0.13386E+06
         0.24152E+06
         0.53232E+06
         0.66186E+06
         0.78000E+06
         0.10394E+07
         0.14354E+07
         0.15112E+07
         0.18069E+07
         0.30052E+06
         0.15875E+07
         0.78512E+06
         0.17724E+07
         0.25696E+07
         0.31124E+07
         0.27417E+07
         0.28939E+07
         0.25592E+07
         0.20294E+07
         0.18330E+07
         0.16045E+07
         0.11831E+07
         0.17431E+07
         0.86174E+06
         0.16378E+06
         0.26785E+06
         0.38703E+06
         0.64580E+06
         0.15027E+07
         0.15233E+07
         0.12164E+07
         0.77848E+06
         0.77067E+06
         0.13220E+07
         0.18295E+07
         0.16287E+07
         0.88692E+06
         0.10141E+07
         0.13920E+07
         0.13593E+07
         0.17974E+07
        -0.27597E+06
         0.23939E+05
         0.18751E+07
        -0.14739E+06
        -0.10159E+07
         0.88030E+06
         0.10606E+07
        -0.18906E+07
         0.31861E+06
         0.74563E+06
         0.81898E+06
         0.10676E+07
         0.11624E+06
         0.28384E+05
         0.60064E+06
         0.10460E+07
         0.97615E+05
        -0.42763E+06
        -0.89606E+06
        -0.39962E+06
        -0.28636E+07
        -0.29531E+07
        -0.16351E+07
        -0.78197E+06
         0.67992E+06
        -0.97579E+05
         0.11944E+07
         0.17416E+07
         0.80637E+06
         0.59306E+06
         0.92053E+06
         0.94041E+05
         0.75823E+05
         0.32037E+06
         0.82901E+06
         0.45361E+06
         0.52029E+06
         0.63981E+05
         0.20429E+06
         0.51401E+06
         0.64169E+06
         0.75904E+06
         0.10187E+07
         0.14169E+07
         0.14957E+07
         0.17950E+07
         0.28767E+06
         0.15790E+07
         0.77206E+06
         0.17620E+07
         0.25654E+07
         0.31093E+07
         0.27343E+07
         0.28814E+07
         0.25436E+07
         0.20157E+07
         0.18116E+07
         0.15654E+07
         0.11462E+07
         0.17232E+07
         0.84149E+06
         0.11298E+06
         0.20970E+06
         0.35953E+06
         0.63741E+06
         0.14868E+07
         0.15055E+07
         0.11981E+07
         0.75706E+06
         0.75221E+06
         0.13106E+07
         0.18210E+07
         0.15936E+07
         0.86467E+06
         0.10049E+07
         0.14010E+07
         0.13683E+07
         0.18104E+07
        -0.28215E+06
        -0.16746E+03
         0.18413E+07
        -0.18900E+06
        -0.10087E+07
         0.89658E+06
         0.10674E+07
        -0.18903E+07
         0.33917E+06
         0.75252E+06
         0.81148E+06
         0.10839E+07
         0.12597E+06
         0.35371E+05
         0.61006E+06
         0.10574E+07
         0.99108E+05
        -0.42925E+06
        -0.92553E+06
        -0.41066E+06
        -0.28674E+07
        -0.29586E+07
        -0.16300E+07
        -0.78437E+06
         0.63873E+06
        -0.12286E+06
         0.11624E+07
         0.17385E+07
         0.81453E+06
         0.59393E+06
         0.91903E+06
         0.10792E+06
         0.89301E+05
         0.33506E+06
         0.84370E+06
         0.46274E+06
         0.52758E+06
         0.59648E+05
         0.19953E+06
         0.51100E+06
         0.62425E+06
         0.71682E+06
         0.96829E+06
         0.13919E+07
         0.14906E+07
         0.18004E+07
         0.31243E+06
         0.16045E+07
         0.79284E+06
         0.17759E+07
         0.25799E+07
         0.31290E+07
         0.27566E+07
         0.29030E+07
         0.25684E+07
         0.20484E+07
         0.18403E+07
         0.15827E+07
         0.11657E+07
         0.17436E+07
         0.86104E+06
         0.12856E+06
         0.22094E+06
         0.37064E+06
         0.65072E+06
         0.14960E+07
         0.15034E+07
         0.11853E+07
         0.74859E+06
         0.75631E+06
         0.13229E+07
         0.18388E+07
         0.15401E+07
         0.82506E+06
         0.98215E+06
         0.13956E+07
         0.13610E+07
         0.18097E+07
        -0.31143E+06
        -0.47732E+05
         0.17842E+07
        -0.25119E+06
        -0.10286E+07
         0.89036E+06
         0.10567E+07
        -0.19182E+07
         0.33516E+06
         0.74201E+06
         0.78259E+06
         0.10805E+07
         0.11832E+06
         0.23310E+05
         0.60558E+06
         0.10542E+07
         0.94014E+05
        -0.43909E+06
        -0.96878E+06
        -0.43060E+06
        -0.28979E+07
        -0.29837E+07
        -0.16374E+07
        -0.79532E+06
         0.58100E+06
        -0.16436E+06
         0.11138E+07
         0.17201E+07
         0.80381E+06
         0.57916E+06
         0.90356E+06
         0.97731E+05
         0.79529E+05
         0.32976E+06
         0.84141E+06
         0.46175E+06
         0.52701E+06
         0.49081E+05
         0.17896E+06
         0.48513E+06
         0.58400E+06
         0.65336E+06
         0.89655E+06
         0.13482E+07
         0.14700E+07
         0.17923E+07
         0.30194E+06
         0.15964E+07
         0.78664E+06
         0.17689E+07
         0.25697E+07
         0.31169E+07
         0.27465E+07
         0.28943E+07
         0.25597E+07
         0.20418E+07
         0.18351E+07
         0.15764E+07
         0.11646E+07
         0.17419E+07
         0.85679E+06
         0.12623E+06
         0.21608E+06
         0.35323E+06
         0.62467E+06
         0.14674E+07
         0.14709E+07
         0.11450E+07
         0.71331E+06
         0.73751E+06
         0.13128E+07
         0.18309E+07
         0.15246E+07
         0.81037E+06
         0.97304E+06
         0.13882E+07
         0.13533E+07
         0.18018E+07
        -0.32601E+06
        -0.63879E+05
         0.17675E+07
        -0.26872E+06
        -0.10427E+07
         0.88159E+06
         0.10461E+07
        -0.19349E+07
         0.32810E+06
         0.73260E+06
         0.77146E+06
         0.10724E+07
         0.11133E+06
         0.13814E+05
         0.59852E+06
         0.10467E+07
         0.87290E+05
        -0.44661E+06
        -0.98204E+06
        -0.44192E+06
        -0.29107E+07
        -0.29969E+07
        -0.16506E+07
        -0.80567E+06
         0.56240E+06
        -0.18084E+06
         0.10977E+07
         0.17100E+07
         0.79479E+06
         0.57115E+06
         0.89412E+06
         0.84723E+05
         0.68053E+05
         0.31754E+06
         0.82923E+06
         0.45193E+06
         0.52066E+06
         0.39655E+05
         0.16668E+06
         0.47306E+06
         0.57076E+06
         0.63765E+06
         0.87851E+06
         0.13330E+07
         0.14573E+07
         0.17821E+07
         0.28757E+06
         0.15824E+07
         0.77715E+06
         0.17592E+07
         0.25580E+07
         0.31066E+07
         0.27359E+07
         0.28796E+07
         0.25401E+07
         0.20214E+07
         0.18165E+07
         0.15680E+07
         0.11578E+07
         0.17274E+07
         0.84174E+06
         0.11204E+06
         0.19765E+06
         0.33568E+06
         0.60981E+06
         0.14554E+07
         0.14610E+07
         0.11316E+07
         0.69552E+06
         0.72088E+06
         0.12989E+07
         0.18171E+07
         0.15347E+07
         0.82033E+06
         0.98073E+06
         0.13914E+07
         0.13615E+07
         0.18043E+07
        -0.31506E+06
        -0.51293E+05
         0.17783E+07
        -0.25503E+06
        -0.10325E+07
         0.89043E+06
         0.10531E+07
        -0.19235E+07
         0.34226E+06
         0.74557E+06
         0.78388E+06
         0.10796E+07
         0.12546E+06
         0.25438E+05
         0.60814E+06
         0.10559E+07
         0.97272E+05
        -0.43320E+06
        -0.96686E+06
        -0.42934E+06
        -0.28911E+07
        -0.29813E+07
        -0.16384E+07
        -0.79341E+06
         0.57382E+06
        -0.17149E+06
         0.11048E+07
         0.17139E+07
         0.80537E+06
         0.58023E+06
         0.90138E+06
         0.95221E+05
         0.77621E+05
         0.32592E+06
         0.83799E+06
         0.46164E+06
         0.53042E+06
         0.49098E+05
         0.17472E+06
         0.48086E+06
         0.57951E+06
         0.64867E+06
         0.88985E+06
         0.13412E+07
         0.14625E+07
         0.17844E+07
         0.30870E+06
         0.16031E+07
         0.78950E+06
         0.17643E+07
         0.25682E+07
         0.31225E+07
         0.27537E+07
         0.28924E+07
         0.25450E+07
         0.20289E+07
         0.18301E+07
         0.15874E+07
         0.11750E+07
         0.17386E+07
         0.85225E+06
         0.12416E+06
         0.20988E+06
         0.35066E+06
         0.62402E+06
         0.14720E+07
         0.14783E+07
         0.11471E+07
         0.70834E+06
         0.73224E+06
         0.13103E+07
         0.18295E+07
         0.15323E+07
         0.81947E+06
         0.97920E+06
         0.13867E+07
         0.13598E+07
         0.18000E+07
        -0.31633E+06
        -0.55258E+05
         0.17700E+07
        -0.26083E+06
        -0.10384E+07
         0.88512E+06
         0.10517E+07
        -0.19333E+07
         0.33483E+06
         0.73987E+06
         0.77702E+06
         0.10710E+07
         0.11974E+06
         0.17971E+05
         0.60451E+06
         0.10511E+07
         0.93814E+05
        -0.43813E+06
        -0.96842E+06
        -0.43400E+06
        -0.28948E+07
        -0.29827E+07
        -0.16413E+07
        -0.79760E+06
         0.56826E+06
        -0.17658E+06
         0.10958E+07
         0.17065E+07
         0.80217E+06
         0.57660E+06
         0.89915E+06
         0.84069E+05
         0.71742E+05
         0.32015E+06
         0.83220E+06
         0.45801E+06
         0.52501E+06
         0.46513E+05
         0.17188E+06
         0.47705E+06
         0.57340E+06
         0.64152E+06
         0.88255E+06
         0.13351E+07
         0.14575E+07
         0.17785E+07
         0.30245E+06
         0.15982E+07
         0.77958E+06
         0.17558E+07
         0.25670E+07
         0.31166E+07
         0.27400E+07
         0.28770E+07
         0.25359E+07
         0.20153E+07
         0.18153E+07
         0.15800E+07
         0.11661E+07
         0.17337E+07
         0.84773E+06
         0.11998E+06
         0.20926E+06
         0.34775E+06
         0.61974E+06
         0.14607E+07
         0.14642E+07
         0.11362E+07
         0.70272E+06
         0.72942E+06
         0.13040E+07
         0.18206E+07
         0.15253E+07
         0.81196E+06
         0.97415E+06
         0.13843E+07
         0.13544E+07
         0.17973E+07
        -0.32193E+06
        -0.61371E+05
         0.17625E+07
        -0.26659E+06
        -0.10451E+07
         0.87807E+06
         0.10469E+07
        -0.19415E+07
         0.32721E+06
         0.73181E+06
         0.77179E+06
         0.10659E+07
         0.11265E+06
         0.12245E+05
         0.59982E+06
         0.10463E+07
         0.88539E+05
        -0.44583E+06
        -0.96961E+06
        -0.44284E+06
        -0.28973E+07
        -0.29860E+07
        -0.16448E+07
        -0.80036E+06
         0.56013E+06
        -0.18489E+06
         0.10905E+07
         0.17055E+07
         0.79424E+06
         0.57029E+06
         0.89405E+06
         0.73304E+05
         0.65027E+05
         0.31520E+06
         0.82899E+06
         0.45495E+06
         0.52008E+06
         0.41507E+05
         0.16680E+06
         0.47190E+06
         0.56770E+06
         0.63534E+06
         0.87555E+06
         0.13297E+07
         0.14527E+07
         0.17758E+07
         0.29004E+06
         0.15879E+07
         0.77203E+06
         0.17533E+07
         0.25636E+07
         0.31047E+07
         0.27227E+07
         0.28630E+07
         0.25265E+07
         0.20055E+07
         0.18092E+07
         0.15727E+07
         0.11555E+07
         0.17264E+07
         0.84017E+06
         0.11132E+06
         0.20353E+06
         0.34101E+06
         0.61134E+06
         0.14514E+07
         0.14534E+07
         0.11250E+07
         0.69464E+06
         0.72170E+06
         0.12944E+07
         0.18106E+07
         0.15301E+07
         0.81508E+06
         0.97722E+06
         0.13896E+07
         0.13599E+07
         0.18034E+07
        -0.31466E+06
        -0.52477E+05
         0.17675E+07
        -0.25992E+06
        -0.10354E+07
         0.88412E+06
         0.10492E+07
        -0.19313E+07
         0.34036E+06
         0.73922E+06
         0.77731E+06
         0.10731E+07
         0.12129E+06
         0.21493E+05
         0.60751E+06
         0.10544E+07
         0.95305E+05
        -0.43757E+06
        -0.96049E+06
        -0.43484E+06
        -0.28846E+07
        -0.29760E+07
        -0.16312E+07
        -0.78710E+06
         0.56921E+06
        -0.17853E+06
         0.10992E+07
         0.17147E+07
         0.80083E+06
         0.57610E+06
         0.89707E+06
         0.81861E+05
         0.74525E+05
         0.32710E+06
         0.83872E+06
         0.46239E+06
         0.52795E+06
         0.47330E+05
         0.17168E+06
         0.47626E+06
         0.57305E+06
         0.64205E+06
         0.88292E+06
         0.13367E+07
         0.14582E+07
         0.17825E+07
         0.30546E+06
         0.16047E+07
         0.78773E+06
         0.17610E+07
         0.25611E+07
         0.31054E+07
         0.27350E+07
         0.28768E+07
         0.25358E+07
         0.20195E+07
         0.18225E+07
         0.15791E+07
         0.11670E+07
         0.17382E+07
         0.85080E+06
         0.11952E+06
         0.20905E+06
         0.34788E+06
         0.61777E+06
         0.14615E+07
         0.14654E+07
         0.11365E+07
         0.70449E+06
         0.73004E+06
         0.13068E+07
         0.18251E+07
         0.15270E+07
         0.80907E+06
         0.97233E+06
         0.13842E+07
         0.13543E+07
         0.17973E+07
        -0.32190E+06
        -0.57956E+05
         0.17615E+07
        -0.26737E+06
        -0.10450E+07
         0.87536E+06
         0.10395E+07
        -0.19431E+07
         0.33505E+06
         0.73277E+06
         0.77032E+06
         0.10639E+07
         0.11251E+06
         0.12752E+05
         0.59898E+06
         0.10457E+07
         0.86236E+05
        -0.44647E+06
        -0.96671E+06
        -0.44258E+06
        -0.28953E+07
        -0.29886E+07
        -0.16409E+07
        -0.79294E+06
         0.56166E+06
        -0.18639E+06
         0.10885E+07
         0.17080E+07
         0.79326E+06
         0.56876E+06
         0.88870E+06
         0.70078E+05
         0.63000E+05
         0.31667E+06
         0.82737E+06
         0.45162E+06
         0.51948E+06
         0.37004E+05
         0.16235E+06
         0.46872E+06
         0.56489E+06
         0.63232E+06
         0.87398E+06
         0.13306E+07
         0.14518E+07
         0.17757E+07
         0.29320E+06
         0.15941E+07
         0.77578E+06
         0.17472E+07
         0.25451E+07
         0.30902E+07
         0.27256E+07
         0.28647E+07
         0.25198E+07
         0.20038E+07
         0.18034E+07
         0.15602E+07
         0.11542E+07
         0.17249E+07
         0.83950E+06
         0.10670E+06
         0.18924E+06
         0.33024E+06
         0.60887E+06
         0.14492E+07
         0.14526E+07
         0.11299E+07
         0.69991E+06
         0.72053E+06
         0.12939E+07
         0.18123E+07
         0.15265E+07
         0.80710E+06
         0.97113E+06
         0.13830E+07
         0.13536E+07
         0.17956E+07
        -0.32264E+06
        -0.57913E+05
         0.17619E+07
        -0.26607E+06
        -0.10464E+07
         0.87417E+06
         0.10381E+07
        -0.19451E+07
         0.33583E+06
         0.73181E+06
         0.77161E+06
         0.10617E+07
         0.11200E+06
         0.11737E+05
         0.59721E+06
         0.10443E+07
         0.84277E+05
        -0.44811E+06
        -0.96414E+06
        -0.44477E+06
        -0.28924E+07
        -0.29902E+07
        -0.16428E+07
        -0.79328E+06
         0.55783E+06
        -0.18952E+06
         0.10838E+07
         0.17070E+07
         0.79160E+06
         0.56639E+06
         0.88616E+06
         0.64766E+05
         0.56956E+05
         0.31295E+06
         0.82634E+06
         0.45090E+06
         0.51840E+06
         0.35377E+05
         0.16066E+06
         0.46698E+06
         0.56231E+06
         0.62856E+06
         0.87028E+06
         0.13292E+07
         0.14505E+07
         0.17740E+07
         0.29279E+06
         0.15943E+07
         0.77253E+06
         0.17419E+07
         0.25448E+07
         0.30899E+07
         0.27218E+07
         0.28545E+07
         0.25083E+07
         0.19974E+07
         0.18027E+07
         0.15583E+07
         0.11510E+07
         0.17197E+07
         0.83362E+06
         0.10262E+06
         0.18660E+06
         0.32795E+06
         0.60632E+06
         0.14447E+07
         0.14469E+07
         0.11263E+07
         0.69943E+06
         0.71919E+06
         0.12881E+07
         0.18071E+07
         0.15415E+07
         0.82604E+06
         0.98738E+06
         0.13958E+07
         0.13701E+07
         0.18096E+07
        -0.29987E+06
        -0.39750E+05
         0.17749E+07
        -0.25065E+06
        -0.10235E+07
         0.89328E+06
         0.10558E+07
        -0.19256E+07
         0.35523E+06
         0.74741E+06
         0.78827E+06
         0.10756E+07
         0.13051E+06
         0.31118E+05
         0.61418E+06
         0.10605E+07
         0.10076E+06
        -0.43027E+06
        -0.94119E+06
        -0.42705E+06
        -0.28679E+07
        -0.29636E+07
        -0.16169E+07
        -0.76989E+06
         0.57574E+06
        -0.17156E+06
         0.10976E+07
         0.17190E+07
         0.80899E+06
         0.58334E+06
         0.90218E+06
         0.77857E+05
         0.74529E+05
         0.33179E+06
         0.84243E+06
         0.46744E+06
         0.53297E+06
         0.53107E+05
         0.17887E+06
         0.48408E+06
         0.57928E+06
         0.64546E+06
         0.88552E+06
         0.13420E+07
         0.14622E+07
         0.17857E+07
         0.32090E+06
         0.16223E+07
         0.79604E+06
         0.17590E+07
         0.25654E+07
         0.31160E+07
         0.27437E+07
         0.28713E+07
         0.25272E+07
         0.20180E+07
         0.18213E+07
         0.15802E+07
         0.11686E+07
         0.17393E+07
         0.85585E+06
         0.12569E+06
         0.21249E+06
         0.35563E+06
         0.63010E+06
         0.14695E+07
         0.14682E+07
         0.11422E+07
         0.71682E+06
         0.73994E+06
         0.13106E+07
         0.18299E+07
         0.15355E+07
         0.82062E+06
         0.98287E+06
         0.13889E+07
         0.13631E+07
         0.18033E+07
        -0.30625E+06
        -0.46994E+05
         0.17663E+07
        -0.26032E+06
        -0.10329E+07
         0.88655E+06
         0.10516E+07
        -0.19380E+07
         0.34743E+06
         0.73903E+06
         0.77922E+06
         0.10680E+07
         0.11880E+06
         0.20463E+05
         0.60850E+06
         0.10525E+07
         0.95194E+05
        -0.44101E+06
        -0.94918E+06
        -0.43802E+06
        -0.28775E+07
        -0.29721E+07
        -0.16182E+07
        -0.77367E+06
         0.57033E+06
        -0.18046E+06
         0.10900E+07
         0.17109E+07
         0.79921E+06
         0.57667E+06
         0.89809E+06
         0.64445E+05
         0.65369E+05
         0.32765E+06
         0.83538E+06
         0.45915E+06
         0.52320E+06
         0.45437E+05
         0.17075E+06
         0.47700E+06
         0.57251E+06
         0.64004E+06
         0.87797E+06
         0.13330E+07
         0.14546E+07
         0.17788E+07
         0.30284E+06
         0.16071E+07
         0.78223E+06
         0.17517E+07
         0.25629E+07
         0.31092E+07
         0.27286E+07
         0.28531E+07
         0.25096E+07
         0.20023E+07
         0.18029E+07
         0.15591E+07
         0.11534E+07
         0.17317E+07
         0.85237E+06
         0.12353E+06
         0.20531E+06
         0.34318E+06
         0.62076E+06
         0.14585E+07
         0.14579E+07
         0.11306E+07
         0.70440E+06
         0.73200E+06
         0.13032E+07
         0.18178E+07
         0.15253E+07
         0.80680E+06
         0.96980E+06
         0.13795E+07
         0.13519E+07
         0.17914E+07
        -0.31726E+06
        -0.55695E+05
         0.17539E+07
        -0.27868E+06
        -0.10444E+07
         0.87564E+06
         0.10422E+07
        -0.19507E+07
         0.33745E+06
         0.72869E+06
         0.76496E+06
         0.10593E+07
         0.10928E+06
         0.15199E+05
         0.60147E+06
         0.10431E+07
         0.88460E+05
        -0.45022E+06
        -0.96611E+06
        -0.44879E+06
        -0.29004E+07
        -0.29862E+07
        -0.15878E+07
        -0.75674E+06
         0.56027E+06
        -0.19295E+06
         0.10825E+07
         0.17054E+07
         0.78819E+06
         0.56567E+06
         0.88827E+06
         0.44303E+05
         0.56380E+05
         0.34507E+06
         0.83499E+06
         0.45014E+06
         0.51010E+06
         0.37140E+05
         0.16039E+06
         0.46564E+06
         0.56064E+06
         0.63031E+06
         0.86927E+06
         0.13257E+07
         0.14478E+07
         0.17703E+07
         0.29078E+06
         0.15960E+07
         0.77284E+06
         0.17435E+07
         0.25515E+07
         0.30908E+07
         0.27075E+07
         0.28328E+07
         0.24918E+07
         0.19981E+07
         0.17707E+07
         0.15085E+07
         0.11320E+07
         0.17198E+07
         0.84185E+06
         0.11422E+06
         0.19382E+06
         0.33012E+06
         0.60544E+06
         0.14412E+07
         0.14462E+07
         0.11196E+07
         0.69175E+06
         0.72256E+06
         0.12888E+07
         0.18016E+07
         0.15396E+07
         0.82421E+06
         0.98741E+06
         0.13949E+07
         0.13694E+07
         0.18065E+07
        -0.29721E+06
        -0.37819E+05
         0.17629E+07
        -0.28043E+06
        -0.10238E+07
         0.88992E+06
         0.10554E+07
        -0.19324E+07
         0.35482E+06
         0.74444E+06
         0.77669E+06
         0.10722E+07
         0.13060E+06
         0.47258E+05
         0.61560E+06
         0.10573E+07
         0.10173E+06
        -0.43098E+06
        -0.95787E+06
        -0.42949E+06
        -0.29039E+07
        -0.29695E+07
        -0.14951E+07
        -0.68727E+06
         0.57560E+06
        -0.17469E+06
         0.10961E+07
         0.17213E+07
         0.80680E+06
         0.58457E+06
         0.90340E+06
         0.46075E+05
         0.76310E+05
         0.40843E+06
         0.86566E+06
         0.46686E+06
         0.51862E+06
         0.52373E+05
         0.17821E+06
         0.48463E+06
         0.57833E+06
         0.64579E+06
         0.88605E+06
         0.13433E+07
         0.14634E+07
         0.17842E+07
         0.31972E+06
         0.16245E+07
         0.80184E+06
         0.17639E+07
         0.25644E+07
         0.31056E+07
         0.27280E+07
         0.28539E+07
         0.25149E+07
         0.20430E+07
         0.17602E+07
         0.14678E+07
         0.11336E+07
         0.17361E+07
         0.85543E+06
         0.12557E+06
         0.20784E+06
         0.35329E+06
         0.63386E+06
         0.14677E+07
         0.14693E+07
         0.11435E+07
         0.71851E+06
         0.74737E+06
         0.13089E+07
         0.18227E+07
         0.14873E+07
         0.76029E+06
         0.92574E+06
         0.13362E+07
         0.13069E+07
         0.17404E+07
        -0.36672E+06
        -0.98971E+05
         0.16962E+07
        -0.35598E+06
        -0.11024E+07
         0.82216E+06
         0.98860E+06
        -0.20134E+07
         0.28700E+06
         0.68673E+06
         0.70571E+06
         0.10121E+07
         0.60603E+05
        -0.19575E+05
         0.55358E+06
         0.99539E+06
         0.40312E+05
        -0.49873E+06
        -0.10381E+07
        -0.49373E+06
        -0.29966E+07
        -0.30500E+07
        -0.15306E+07
        -0.73257E+06
         0.51490E+06
        -0.24148E+06
         0.10328E+07
         0.16556E+07
         0.73917E+06
         0.51512E+06
         0.83631E+06
        -0.34845E+05
         0.95468E+04
         0.36825E+06
         0.80622E+06
         0.40127E+06
         0.45263E+06
        -0.97379E+04
         0.11105E+06
         0.41365E+06
         0.50990E+06
         0.58061E+06
         0.81686E+06
         0.12727E+07
         0.13931E+07
         0.17155E+07
         0.21833E+06
         0.15264E+07
         0.70019E+06
         0.16603E+07
         0.24617E+07
         0.30071E+07
         0.26276E+07
         0.27451E+07
         0.24127E+07
         0.19504E+07
         0.16310E+07
         0.13272E+07
         0.10323E+07
         0.16516E+07
         0.76777E+06
         0.35087E+05
         0.11462E+06
         0.24973E+06
         0.52700E+06
         0.13655E+07
         0.13736E+07
         0.10515E+07
         0.62476E+06
         0.65076E+06
         0.12164E+07
         0.17308E+07
         0.15175E+07
         0.76474E+06
         0.93774E+06
         0.13595E+07
         0.13277E+07
         0.17620E+07
        -0.35600E+06
        -0.60963E+05
         0.17397E+07
        -0.29898E+06
        -0.10806E+07
         0.82346E+06
         0.97167E+06
        -0.19661E+07
         0.31816E+06
         0.73224E+06
         0.75349E+06
         0.10442E+07
         0.98948E+05
         0.19642E+05
         0.58174E+06
         0.10166E+07
         0.84510E+05
        -0.44790E+06
        -0.96161E+06
        -0.44639E+06
        -0.29170E+07
        -0.29573E+07
        -0.14530E+07
        -0.66256E+06
         0.55290E+06
        -0.21214E+06
         0.10500E+07
         0.16463E+07
         0.74963E+06
         0.50982E+06
         0.81725E+06
         0.35653E+04
         0.59235E+05
         0.41231E+06
         0.83334E+06
         0.43881E+06
         0.49221E+06
         0.32723E+05
         0.13552E+06
         0.42460E+06
         0.52030E+06
         0.60858E+06
         0.83961E+06
         0.12736E+07
         0.13975E+07
         0.17167E+07
         0.25718E+06
         0.15768E+07
         0.71291E+06
         0.16380E+07
         0.24155E+07
         0.29791E+07
         0.26734E+07
         0.27927E+07
         0.24506E+07
         0.19727E+07
         0.16373E+07
         0.13465E+07
         0.10706E+07
         0.16707E+07
         0.80761E+06
         0.91718E+05
         0.16273E+06
         0.28631E+06
         0.54283E+06
         0.13636E+07
         0.13948E+07
         0.10820E+07
         0.67285E+06
         0.70932E+06
         0.12624E+07
         0.17785E+07
         0.20365E+09
         0.24190E+09
         0.24364E+09
         0.22667E+09
         0.24146E+09
         0.24772E+09
         0.26897E+09
         0.23119E+09
         0.22601E+09
         0.23290E+09
         0.29885E+09
         0.25880E+09
         0.24306E+09
         0.28196E+09
         0.26313E+09
         0.21137E+09
         0.24736E+09
         0.21653E+09
         0.25717E+09
         0.26894E+09
         0.22222E+09
         0.22717E+09
         0.21659E+09
         0.24553E+09
         0.25853E+09
         0.23520E+09
         0.27897E+09
         0.29437E+09
         0.29612E+09
         0.26478E+09
         0.22293E+09
         0.24351E+09
         0.22786E+09
         0.23841E+09
         0.25251E+09
         0.25465E+09
         0.24026E+09
         0.25711E+09
         0.25883E+09
         0.25965E+09
         0.25169E+09
         0.24185E+09
         0.22947E+09
         0.21698E+09
         0.23211E+09
         0.25013E+09
         0.24756E+09
         0.24050E+09
         0.24888E+09
         0.24778E+09
         0.24409E+09
         0.24341E+09
         0.37044E+09
         0.36222E+09
         0.36732E+09
         0.35592E+09
         0.36547E+09
         0.38149E+09
         0.38422E+09
         0.38327E+09
         0.38702E+09
         0.39562E+09
         0.38422E+09
         0.36261E+09
         0.32710E+09
         0.31038E+09
         0.31212E+09
         0.31735E+09
         0.32047E+09
         0.34667E+09
         0.37237E+09
         0.37330E+09
         0.34541E+09
         0.33463E+09
         0.34480E+09
         0.34203E+09
         0.33893E+09
         0.33986E+09
         0.17786E+10
         0.18674E+10
         0.18449E+10
         0.17090E+10
         0.20300E+10
         0.19299E+10
         0.20055E+10
         0.20024E+10
         0.17580E+10
         0.20023E+10
         0.21748E+10
         0.23676E+10
         0.21778E+10
         0.22256E+10
         0.24391E+10
         0.17236E+10
         0.18453E+10
         0.16453E+10
         0.18953E+10
         0.19849E+10
         0.20089E+10
         0.20519E+10
         0.19407E+10
         0.18351E+10
         0.20326E+10
         0.17823E+10
         0.22185E+10
         0.21934E+10
         0.22008E+10
         0.20953E+10
         0.17436E+10
         0.18288E+10
         0.17209E+10
         0.17890E+10
         0.21919E+10
         0.20450E+10
         0.20438E+10
         0.23781E+10
         0.23337E+10
         0.23117E+10
         0.23336E+10
         0.22309E+10
         0.21202E+10
         0.19065E+10
         0.19818E+10
         0.21879E+10
         0.20541E+10
         0.19492E+10
         0.19197E+10
         0.19784E+10
         0.21128E+10
         0.19810E+10
         0.32531E+10
         0.31701E+10
         0.32286E+10
         0.31314E+10
         0.32148E+10
         0.33663E+10
         0.34223E+10
         0.34265E+10
         0.34527E+10
         0.35221E+10
         0.34257E+10
         0.32291E+10
         0.29248E+10
         0.27753E+10
         0.27738E+10
         0.28015E+10
         0.28241E+10
         0.30452E+10
         0.32603E+10
         0.32701E+10
         0.30448E+10
         0.29590E+10
         0.30472E+10
         0.30290E+10
         0.29930E+10
         0.29862E+10
  
SCALARS                      stress_yz  double 1
LOOKUP_TABLE default
         0.31325E+06
        -0.10419E+06
        -0.27072E+06
        -0.13924E+06
        -0.41098E+01
        -0.11327E+01
        -0.50932E+01
        -0.38848E+01
        -0.10147E+07
         0.66737E+06
        -0.75797E+01
        -0.66730E+01
        -0.89007E+06
        -0.45259E+05
         0.54245E+01
        -0.34778E+00
         0.30604E+06
         0.11406E+07
         0.79808E-01
         0.81659E+00
        -0.59183E+06
        -0.22277E+07
        -0.23159E+07
         0.12435E+02
         0.21475E+02
         0.17950E+02
        -0.21958E+06
        -0.22584E+07
         0.89446E+01
         0.17352E+02
         0.34975E+06
         0.30486E+06
        -0.25895E+06
         0.46370E+01
         0.47336E+01
        -0.98275E-01
         0.10394E+07
         0.10016E+07
         0.85330E+01
         0.66390E+01
         0.10217E+07
         0.65035E+06
         0.64487E+01
         0.58933E+01
         0.92665E+06
         0.31948E+06
        -0.21392E+00
         0.33089E+01
         0.86034E+06
         0.15579E+01
         0.84799E+05
        -0.12618E+00
         0.50684E+05
         0.60262E+01
        -0.33590E+06
         0.35055E+01
        -0.10955E+07
         0.19454E+06
         0.95102E-01
        -0.19302E+00
         0.42414E+06
         0.15476E+07
        -0.12958E+01
        -0.48467E+01
         0.25612E+06
        -0.26155E+01
         0.10996E+07
        -0.31863E+01
        -0.89298E+06
        -0.47300E+06
        -0.39377E+00
         0.51991E+01
        -0.16538E+07
         0.11417E+02
        -0.28667E+07
         0.11054E+02
        -0.28930E+07
         0.83912E+01
        -0.23831E+07
         0.70333E+01
        -0.34952E+07
        -0.26827E+07
         0.45118E+01
        -0.10003E+01
        -0.37520E+06
        -0.11193E+00
         0.14481E+07
        -0.70119E+01
         0.34226E+07
        -0.12275E+02
         0.47826E+07
         0.29646E+07
        -0.18206E+02
        -0.14736E+02
         0.20850E+07
        -0.11439E+02
         0.18709E+07
        -0.11703E+02
         0.18206E+07
        -0.12583E+02
         0.30295E+07
         0.25176E+07
        -0.11702E+02
        -0.56070E+01
        -0.20322E+07
         0.76925E+06
         0.41146E+01
        -0.51131E+01
        -0.49960E+07
         0.13688E+02
        -0.71521E+07
         0.20023E+02
        -0.87564E+07
         0.24728E+02
        -0.10269E+08
         0.24528E+02
        -0.12089E+08
         0.19411E+02
        -0.12357E+08
         0.15022E+02
        -0.11635E+08
         0.13971E+02
        -0.10353E+08
         0.13293E+02
        -0.75509E+07
         0.84951E+01
        -0.50997E+07
         0.28047E+01
        -0.25585E+07
         0.18123E+01
         0.18405E+06
         0.27240E+01
         0.24414E+07
         0.14069E+01
         0.43799E+07
        -0.42548E+01
         0.67783E+07
        -0.12010E+02
         0.76265E+07
        -0.18754E+02
         0.83419E+07
        -0.24586E+02
         0.10657E+08
        -0.24564E+02
         0.11039E+08
        -0.21444E+02
         0.10201E+08
        -0.20899E+02
         0.82964E+07
        -0.21029E+02
         0.56405E+07
        -0.16629E+02
         0.39952E+07
        -0.98335E+01
         0.28731E+07
        -0.76034E+01
        -0.28269E+07
        -0.14622E+07
        -0.12765E+07
        -0.39642E+06
        -0.13073E+07
        -0.13907E+07
        -0.14654E+06
        -0.22530E+07
        -0.19341E+07
        -0.28367E+07
         0.14800E+07
         0.63130E+07
         0.43149E+07
         0.50048E+06
         0.63785E+07
         0.74887E+06
        -0.66344E+06
         0.42721E+06
         0.55736E+06
        -0.42136E+06
         0.38681E+06
         0.31899E+06
        -0.10715E+07
         0.90323E+05
        -0.19368E+07
         0.28633E+06
         0.14819E+05
         0.25911E+06
         0.31428E+06
        -0.15179E+07
         0.73095E+06
        -0.79255E+06
         0.53157E+06
        -0.12943E+06
         0.21326E+06
         0.11568E+07
         0.25949E+07
         0.56070E+07
         0.51231E+07
         0.43260E+07
         0.40712E+07
         0.10125E+07
        -0.82931E+06
        -0.22744E+07
        -0.37557E+07
        -0.61273E+07
        -0.40247E+07
        -0.28892E+07
        -0.30824E+07
        -0.32721E+07
        -0.38347E+07
        -0.17545E+07
         0.32927E+07
        -0.39618E+07
         0.10728E+08
         0.14825E+08
         0.18896E+08
         0.22425E+08
         0.22536E+08
         0.20401E+08
         0.19414E+08
         0.18347E+08
         0.11851E+08
         0.52097E+07
         0.22937E+07
         0.10114E+07
        -0.15494E+07
        -0.61264E+07
        -0.11259E+08
        -0.14686E+08
        -0.17752E+08
        -0.20360E+08
        -0.19188E+08
        -0.18140E+08
        -0.16875E+08
        -0.11731E+08
        -0.68567E+07
        -0.60216E+07
        -0.16196E+09
        -0.16136E+09
        -0.14932E+09
        -0.35418E+08
        -0.11845E+09
        -0.75729E+08
        -0.69167E+08
        -0.15551E+09
        -0.15857E+09
        -0.15476E+09
         0.12024E+09
         0.17598E+09
         0.13490E+09
         0.37394E+08
         0.16607E+09
         0.83281E+08
        -0.29403E+08
         0.28071E+08
         0.12653E+09
         0.24462E+08
         0.46179E+08
         0.34812E+08
        -0.20691E+08
         0.37888E+08
        -0.15315E+09
         0.37880E+08
         0.84828E+07
         0.17671E+08
        -0.28226E+08
        -0.14620E+09
         0.10440E+09
         0.27544E+08
         0.67586E+08
         0.58683E+08
        -0.13408E+08
         0.66514E+08
         0.99341E+08
         0.15270E+09
         0.17230E+09
         0.16249E+09
         0.85824E+08
        -0.23251E+08
        -0.47594E+08
        -0.75653E+08
        -0.10842E+09
        -0.16479E+09
        -0.14291E+09
        -0.11029E+09
        -0.16671E+09
        -0.16785E+09
        -0.10907E+09
        -0.11686E+08
         0.34528E+08
        -0.48335E+08
         0.10802E+09
         0.14053E+09
         0.17110E+09
         0.19244E+09
         0.19572E+09
         0.19025E+09
         0.18667E+09
         0.17360E+09
         0.11104E+09
         0.37057E+08
         0.17573E+08
         0.15772E+08
        -0.67025E+07
        -0.53395E+08
        -0.10341E+09
        -0.13280E+09
        -0.17907E+09
        -0.19378E+09
        -0.18727E+09
        -0.18564E+09
        -0.17451E+09
        -0.12545E+09
        -0.63485E+08
        -0.60578E+08
        -0.16194E+09
        -0.16139E+09
        -0.14939E+09
        -0.35677E+08
        -0.11851E+09
        -0.75830E+08
        -0.69254E+08
        -0.15563E+09
        -0.15885E+09
        -0.15491E+09
         0.12031E+09
         0.17597E+09
         0.13489E+09
         0.37479E+08
         0.16612E+09
         0.83222E+08
        -0.29670E+08
         0.28029E+08
         0.12661E+09
         0.24325E+08
         0.46289E+08
         0.34847E+08
        -0.20697E+08
         0.37870E+08
        -0.15384E+09
         0.37811E+08
         0.85801E+07
         0.17769E+08
        -0.28040E+08
        -0.14626E+09
         0.10432E+09
         0.27484E+08
         0.67735E+08
         0.58779E+08
        -0.13277E+08
         0.66575E+08
         0.99358E+08
         0.15271E+09
         0.17231E+09
         0.16247E+09
         0.85837E+08
        -0.23177E+08
        -0.47637E+08
        -0.75693E+08
        -0.10845E+09
        -0.16480E+09
        -0.14293E+09
        -0.11023E+09
        -0.16672E+09
        -0.16784E+09
        -0.10908E+09
        -0.11526E+08
         0.34508E+08
        -0.48349E+08
         0.10804E+09
         0.14053E+09
         0.17111E+09
         0.19243E+09
         0.19571E+09
         0.19024E+09
         0.18668E+09
         0.17360E+09
         0.11103E+09
         0.37073E+08
         0.17573E+08
         0.15805E+08
        -0.66472E+07
        -0.53412E+08
        -0.10343E+09
        -0.13281E+09
        -0.17908E+09
        -0.19378E+09
        -0.18728E+09
        -0.18565E+09
        -0.17452E+09
        -0.12543E+09
        -0.63448E+08
        -0.60528E+08
        -0.16193E+09
        -0.16142E+09
        -0.14947E+09
        -0.35940E+08
        -0.11858E+09
        -0.75932E+08
        -0.69341E+08
        -0.15575E+09
        -0.15914E+09
        -0.15505E+09
         0.12038E+09
         0.17596E+09
         0.13487E+09
         0.37559E+08
         0.16617E+09
         0.83163E+08
        -0.29941E+08
         0.27987E+08
         0.12670E+09
         0.24187E+08
         0.46400E+08
         0.34882E+08
        -0.20706E+08
         0.37847E+08
        -0.15453E+09
         0.37733E+08
         0.86842E+07
         0.17875E+08
        -0.27837E+08
        -0.14632E+09
         0.10424E+09
         0.27411E+08
         0.67886E+08
         0.58874E+08
        -0.13145E+08
         0.66637E+08
         0.99374E+08
         0.15272E+09
         0.17232E+09
         0.16244E+09
         0.85852E+08
        -0.23096E+08
        -0.47677E+08
        -0.75740E+08
        -0.10848E+09
        -0.16481E+09
        -0.14294E+09
        -0.11017E+09
        -0.16672E+09
        -0.16784E+09
        -0.10909E+09
        -0.11366E+08
         0.34487E+08
        -0.48362E+08
         0.10806E+09
         0.14053E+09
         0.17111E+09
         0.19243E+09
         0.19570E+09
         0.19023E+09
         0.18668E+09
         0.17360E+09
         0.11102E+09
         0.37090E+08
         0.17573E+08
         0.15838E+08
        -0.65915E+07
        -0.53429E+08
        -0.10345E+09
        -0.13281E+09
        -0.17908E+09
        -0.19378E+09
        -0.18728E+09
        -0.18565E+09
        -0.17453E+09
        -0.12542E+09
        -0.63410E+08
        -0.60478E+08
        -0.16191E+09
        -0.16145E+09
        -0.14955E+09
        -0.36204E+08
        -0.11865E+09
        -0.76035E+08
        -0.69433E+08
        -0.15587E+09
        -0.15943E+09
        -0.15519E+09
         0.12045E+09
         0.17595E+09
         0.13485E+09
         0.37645E+08
         0.16622E+09
         0.83098E+08
        -0.30216E+08
         0.27943E+08
         0.12679E+09
         0.24040E+08
         0.46513E+08
         0.34913E+08
        -0.20724E+08
         0.37810E+08
        -0.15519E+09
         0.37630E+08
         0.87922E+07
         0.18014E+08
        -0.27584E+08
        -0.14637E+09
         0.10414E+09
         0.27313E+08
         0.68035E+08
         0.58969E+08
        -0.13014E+08
         0.66698E+08
         0.99389E+08
         0.15273E+09
         0.17233E+09
         0.16242E+09
         0.85874E+08
        -0.22996E+08
        -0.47706E+08
        -0.75807E+08
        -0.10852E+09
        -0.16482E+09
        -0.14295E+09
        -0.11011E+09
        -0.16673E+09
        -0.16783E+09
        -0.10910E+09
        -0.11207E+08
         0.34466E+08
        -0.48375E+08
         0.10809E+09
         0.14053E+09
         0.17112E+09
         0.19242E+09
         0.19569E+09
         0.19022E+09
         0.18669E+09
         0.17360E+09
         0.11102E+09
         0.37110E+08
         0.17575E+08
         0.15871E+08
        -0.65354E+07
        -0.53446E+08
        -0.10348E+09
        -0.13282E+09
        -0.17909E+09
        -0.19378E+09
        -0.18729E+09
        -0.18565E+09
        -0.17454E+09
        -0.12541E+09
        -0.63374E+08
        -0.60427E+08
        -0.16190E+09
        -0.16148E+09
        -0.14962E+09
        -0.36466E+08
        -0.11871E+09
        -0.76138E+08
        -0.69518E+08
        -0.15598E+09
        -0.15955E+09
        -0.15534E+09
         0.12053E+09
         0.17594E+09
         0.13484E+09
         0.37732E+08
         0.16628E+09
         0.83029E+08
        -0.30495E+08
         0.27899E+08
         0.12689E+09
         0.23884E+08
         0.46625E+08
         0.34940E+08
        -0.20750E+08
         0.37757E+08
        -0.15583E+09
         0.37500E+08
         0.89129E+07
         0.18184E+08
        -0.27282E+08
        -0.14642E+09
         0.10404E+09
         0.27184E+08
         0.68183E+08
         0.59065E+08
        -0.12881E+08
         0.66760E+08
         0.99406E+08
         0.15275E+09
         0.17233E+09
         0.16240E+09
         0.85904E+08
        -0.22876E+08
        -0.47725E+08
        -0.75893E+08
        -0.10858E+09
        -0.16483E+09
        -0.14297E+09
        -0.11005E+09
        -0.16673E+09
        -0.16783E+09
        -0.10911E+09
        -0.11045E+08
         0.34445E+08
        -0.48389E+08
         0.10811E+09
         0.14053E+09
         0.17112E+09
         0.19241E+09
         0.19569E+09
         0.19020E+09
         0.18669E+09
         0.17360E+09
         0.11102E+09
         0.37134E+08
         0.17577E+08
         0.15902E+08
        -0.64791E+07
        -0.53465E+08
        -0.10351E+09
        -0.13283E+09
        -0.17910E+09
        -0.19377E+09
        -0.18729E+09
        -0.18566E+09
        -0.17455E+09
        -0.12539E+09
        -0.63337E+08
        -0.60377E+08
        -0.16188E+09
        -0.16150E+09
        -0.14969E+09
        -0.36732E+08
        -0.11877E+09
        -0.76240E+08
        -0.69594E+08
        -0.15610E+09
        -0.15958E+09
        -0.15548E+09
         0.12061E+09
         0.17593E+09
         0.13482E+09
         0.37824E+08
         0.16633E+09
         0.82961E+08
        -0.30780E+08
         0.27856E+08
         0.12699E+09
         0.23726E+08
         0.46737E+08
         0.34965E+08
        -0.20779E+08
         0.37698E+08
        -0.15645E+09
         0.37361E+08
         0.90428E+07
         0.18372E+08
        -0.26958E+08
        -0.14646E+09
         0.10393E+09
         0.27040E+08
         0.68336E+08
         0.59165E+08
        -0.12748E+08
         0.66823E+08
         0.99424E+08
         0.15276E+09
         0.17234E+09
         0.16238E+09
         0.85935E+08
        -0.22750E+08
        -0.47739E+08
        -0.75985E+08
        -0.10864E+09
        -0.16485E+09
        -0.14299E+09
        -0.11000E+09
        -0.16674E+09
        -0.16782E+09
        -0.10912E+09
        -0.10883E+08
         0.34424E+08
        -0.48402E+08
         0.10813E+09
         0.14053E+09
         0.17113E+09
         0.19241E+09
         0.19568E+09
         0.19019E+09
         0.18669E+09
         0.17360E+09
         0.11102E+09
         0.37159E+08
         0.17580E+08
         0.15934E+08
        -0.64229E+07
        -0.53483E+08
        -0.10355E+09
        -0.13284E+09
        -0.17910E+09
        -0.19377E+09
        -0.18730E+09
        -0.18566E+09
        -0.17456E+09
        -0.12538E+09
        -0.63300E+08
        -0.60326E+08
        -0.16187E+09
        -0.16150E+09
        -0.14977E+09
        -0.37004E+08
        -0.11884E+09
        -0.76343E+08
        -0.69654E+08
        -0.15621E+09
        -0.15960E+09
        -0.15562E+09
         0.12071E+09
         0.17593E+09
         0.13481E+09
         0.37938E+08
         0.16638E+09
         0.82896E+08
        -0.31072E+08
         0.27813E+08
         0.12709E+09
         0.23568E+08
         0.46850E+08
         0.34990E+08
        -0.20809E+08
         0.37642E+08
        -0.15706E+09
         0.37222E+08
         0.91960E+07
         0.18572E+08
        -0.26628E+08
        -0.14649E+09
         0.10382E+09
         0.26887E+08
         0.68493E+08
         0.59270E+08
        -0.12615E+08
         0.66886E+08
         0.99443E+08
         0.15278E+09
         0.17235E+09
         0.16236E+09
         0.85968E+08
        -0.22621E+08
        -0.47751E+08
        -0.76077E+08
        -0.10871E+09
        -0.16486E+09
        -0.14301E+09
        -0.10997E+09
        -0.16675E+09
        -0.16781E+09
        -0.10912E+09
        -0.10718E+08
         0.34403E+08
        -0.48415E+08
         0.10815E+09
         0.14053E+09
         0.17113E+09
         0.19240E+09
         0.19567E+09
         0.19018E+09
         0.18670E+09
         0.17359E+09
         0.11101E+09
         0.37184E+08
         0.17583E+08
         0.15966E+08
        -0.63666E+07
        -0.53502E+08
        -0.10358E+09
        -0.13285E+09
        -0.17911E+09
        -0.19377E+09
        -0.18730E+09
        -0.18566E+09
        -0.17457E+09
        -0.12536E+09
        -0.63262E+08
        -0.60276E+08
        -0.16186E+09
        -0.16149E+09
        -0.14984E+09
        -0.37280E+08
        -0.11890E+09
        -0.76446E+08
        -0.69701E+08
        -0.15632E+09
        -0.15963E+09
        -0.15575E+09
         0.12082E+09
         0.17592E+09
         0.13480E+09
         0.38057E+08
         0.16643E+09
         0.82833E+08
        -0.31368E+08
         0.27769E+08
         0.12718E+09
         0.23409E+08
         0.46963E+08
         0.35017E+08
        -0.20838E+08
         0.37586E+08
        -0.15766E+09
         0.37083E+08
         0.93551E+07
         0.18777E+08
        -0.26297E+08
        -0.14652E+09
         0.10372E+09
         0.26726E+08
         0.68652E+08
         0.59379E+08
        -0.12480E+08
         0.66951E+08
         0.99463E+08
         0.15280E+09
         0.17236E+09
         0.16234E+09
         0.86001E+08
        -0.22491E+08
        -0.47762E+08
        -0.76168E+08
        -0.10877E+09
        -0.16487E+09
        -0.14305E+09
        -0.10995E+09
        -0.16676E+09
        -0.16781E+09
        -0.10913E+09
        -0.10553E+08
         0.34382E+08
        -0.48428E+08
         0.10817E+09
         0.14053E+09
         0.17114E+09
         0.19240E+09
         0.19566E+09
         0.19017E+09
         0.18670E+09
         0.17359E+09
         0.11101E+09
         0.37209E+08
         0.17586E+08
         0.15998E+08
        -0.63102E+07
        -0.53520E+08
        -0.10361E+09
        -0.13287E+09
        -0.17911E+09
        -0.19377E+09
        -0.18731E+09
        -0.18567E+09
        -0.17458E+09
        -0.12535E+09
        -0.63225E+08
        -0.60225E+08
        -0.16185E+09
        -0.16148E+09
        -0.14991E+09
        -0.37556E+08
        -0.11896E+09
        -0.76549E+08
        -0.69749E+08
        -0.15643E+09
        -0.15965E+09
        -0.15588E+09
         0.12092E+09
         0.17591E+09
         0.13479E+09
         0.38181E+08
         0.16648E+09
         0.82771E+08
        -0.31665E+08
         0.27725E+08
         0.12728E+09
         0.23250E+08
         0.47075E+08
         0.35043E+08
        -0.20867E+08
         0.37532E+08
        -0.15826E+09
         0.36945E+08
         0.95181E+07
         0.18980E+08
        -0.25967E+08
        -0.14655E+09
         0.10362E+09
         0.26568E+08
         0.68811E+08
         0.59486E+08
        -0.12345E+08
         0.67013E+08
         0.99482E+08
         0.15281E+09
         0.17237E+09
         0.16232E+09
         0.86033E+08
        -0.22363E+08
        -0.47774E+08
        -0.76259E+08
        -0.10884E+09
        -0.16488E+09
        -0.14308E+09
        -0.10992E+09
        -0.16677E+09
        -0.16780E+09
        -0.10913E+09
        -0.10386E+08
         0.34361E+08
        -0.48441E+08
         0.10819E+09
         0.14053E+09
         0.17114E+09
         0.19239E+09
         0.19565E+09
         0.19016E+09
         0.18671E+09
         0.17359E+09
         0.11101E+09
         0.37234E+08
         0.17590E+08
         0.16031E+08
        -0.62540E+07
        -0.53539E+08
        -0.10365E+09
        -0.13288E+09
        -0.17912E+09
        -0.19377E+09
        -0.18732E+09
        -0.18567E+09
        -0.17459E+09
        -0.12533E+09
        -0.63188E+08
        -0.60174E+08
        -0.16183E+09
        -0.16146E+09
        -0.14998E+09
        -0.37831E+08
        -0.11903E+09
        -0.76651E+08
        -0.69796E+08
        -0.15654E+09
        -0.15968E+09
        -0.15601E+09
         0.12103E+09
         0.17590E+09
         0.13477E+09
         0.38300E+08
         0.16654E+09
         0.82708E+08
        -0.31964E+08
         0.27680E+08
         0.12738E+09
         0.23089E+08
         0.47187E+08
         0.35068E+08
        -0.20894E+08
         0.37477E+08
        -0.15886E+09
         0.36808E+08
         0.96764E+07
         0.19181E+08
        -0.25637E+08
        -0.14659E+09
         0.10352E+09
         0.26409E+08
         0.68968E+08
         0.59594E+08
        -0.12210E+08
         0.67078E+08
         0.99502E+08
         0.15283E+09
         0.17237E+09
         0.16230E+09
         0.86066E+08
        -0.22235E+08
        -0.47786E+08
        -0.76349E+08
        -0.10890E+09
        -0.16490E+09
        -0.14311E+09
        -0.10990E+09
        -0.16678E+09
        -0.16779E+09
        -0.10914E+09
        -0.10219E+08
         0.34340E+08
        -0.48454E+08
         0.10821E+09
         0.14054E+09
         0.17115E+09
         0.19238E+09
         0.19565E+09
         0.19015E+09
         0.18671E+09
         0.17359E+09
         0.11101E+09
         0.37259E+08
         0.17593E+08
         0.16063E+08
        -0.61979E+07
        -0.53558E+08
        -0.10368E+09
        -0.13289E+09
        -0.17913E+09
        -0.19377E+09
        -0.18732E+09
        -0.18567E+09
        -0.17460E+09
        -0.12532E+09
        -0.63151E+08
        -0.60124E+08
        -0.16182E+09
        -0.16145E+09
        -0.15005E+09
        -0.38105E+08
        -0.11909E+09
        -0.76752E+08
        -0.69848E+08
        -0.15665E+09
        -0.15971E+09
        -0.15613E+09
         0.12114E+09
         0.17589E+09
         0.13476E+09
         0.38423E+08
         0.16659E+09
         0.82647E+08
        -0.32263E+08
         0.27636E+08
         0.12747E+09
         0.22928E+08
         0.47300E+08
         0.35093E+08
        -0.20923E+08
         0.37423E+08
        -0.15891E+09
         0.36670E+08
         0.98374E+07
         0.19379E+08
        -0.25309E+08
        -0.14662E+09
         0.10341E+09
         0.26250E+08
         0.69127E+08
         0.59702E+08
        -0.12075E+08
         0.67141E+08
         0.99522E+08
         0.15285E+09
         0.17238E+09
         0.16228E+09
         0.86098E+08
        -0.22107E+08
        -0.47798E+08
        -0.76439E+08
        -0.10896E+09
        -0.16491E+09
        -0.14314E+09
        -0.10988E+09
        -0.16679E+09
        -0.16779E+09
        -0.10914E+09
        -0.10052E+08
         0.34318E+08
        -0.48467E+08
         0.10823E+09
         0.14054E+09
         0.17115E+09
         0.19238E+09
         0.19564E+09
         0.19014E+09
         0.18672E+09
         0.17359E+09
         0.11101E+09
         0.37284E+08
         0.17597E+08
         0.16095E+08
        -0.61417E+07
        -0.53576E+08
        -0.10371E+09
        -0.13290E+09
        -0.17913E+09
        -0.19376E+09
        -0.18733E+09
        -0.18568E+09
        -0.17461E+09
        -0.12530E+09
        -0.63115E+08
        -0.60073E+08
        -0.16181E+09
        -0.16144E+09
        -0.15012E+09
        -0.38382E+08
        -0.11915E+09
        -0.76855E+08
        -0.69894E+08
        -0.15676E+09
        -0.15973E+09
        -0.15626E+09
         0.12124E+09
         0.17588E+09
         0.13475E+09
         0.38546E+08
         0.16664E+09
         0.82585E+08
        -0.32563E+08
         0.27591E+08
         0.12757E+09
         0.22767E+08
         0.47412E+08
         0.35118E+08
        -0.20952E+08
         0.37369E+08
        -0.15895E+09
         0.36534E+08
         0.99948E+07
         0.19576E+08
        -0.24980E+08
        -0.14665E+09
         0.10331E+09
         0.26092E+08
         0.69284E+08
         0.59812E+08
        -0.11938E+08
         0.67205E+08
         0.99541E+08
         0.15287E+09
         0.17239E+09
         0.16226E+09
         0.86130E+08
        -0.21981E+08
        -0.47809E+08
        -0.76528E+08
        -0.10903E+09
        -0.16492E+09
        -0.14317E+09
        -0.10986E+09
        -0.16680E+09
        -0.16778E+09
        -0.10915E+09
        -0.98841E+07
         0.34297E+08
        -0.48479E+08
         0.10825E+09
         0.14054E+09
         0.17116E+09
         0.19237E+09
         0.19563E+09
         0.19013E+09
         0.18672E+09
         0.17359E+09
         0.11101E+09
         0.37308E+08
         0.17600E+08
         0.16127E+08
        -0.60852E+07
        -0.53595E+08
        -0.10375E+09
        -0.13291E+09
        -0.17914E+09
        -0.19376E+09
        -0.18734E+09
        -0.18568E+09
        -0.17462E+09
        -0.12529E+09
        -0.63078E+08
        -0.60022E+08
        -0.16179E+09
        -0.16142E+09
        -0.15020E+09
        -0.38660E+08
        -0.11922E+09
        -0.76958E+08
        -0.69941E+08
        -0.15687E+09
        -0.15976E+09
        -0.15638E+09
         0.12135E+09
         0.17587E+09
         0.13474E+09
         0.38665E+08
         0.16669E+09
         0.82523E+08
        -0.32862E+08
         0.27545E+08
         0.12767E+09
         0.22608E+08
         0.47525E+08
         0.35143E+08
        -0.20981E+08
         0.37316E+08
        -0.15899E+09
         0.36396E+08
         0.10157E+08
         0.19771E+08
        -0.24652E+08
        -0.14668E+09
         0.10321E+09
         0.25931E+08
         0.69441E+08
         0.59919E+08
        -0.11803E+08
         0.67269E+08
         0.99560E+08
         0.15288E+09
         0.17240E+09
         0.16224E+09
         0.86162E+08
        -0.21853E+08
        -0.47820E+08
        -0.76618E+08
        -0.10909E+09
        -0.16493E+09
        -0.14321E+09
        -0.10983E+09
        -0.16681E+09
        -0.16777E+09
        -0.10915E+09
        -0.97163E+07
         0.34276E+08
        -0.48492E+08
         0.10827E+09
         0.14054E+09
         0.17116E+09
         0.19236E+09
         0.19562E+09
         0.19011E+09
         0.18672E+09
         0.17359E+09
         0.11100E+09
         0.37333E+08
         0.17603E+08
         0.16160E+08
        -0.60289E+07
        -0.53613E+08
        -0.10378E+09
        -0.13292E+09
        -0.17914E+09
        -0.19376E+09
        -0.18734E+09
        -0.18568E+09
        -0.17463E+09
        -0.12527E+09
        -0.63042E+08
        -0.59971E+08
        -0.16178E+09
        -0.16141E+09
        -0.15027E+09
        -0.38937E+08
        -0.11928E+09
        -0.77061E+08
        -0.69995E+08
        -0.15698E+09
        -0.15978E+09
        -0.15651E+09
         0.12146E+09
         0.17586E+09
         0.13472E+09
         0.38789E+08
         0.16674E+09
         0.82461E+08
        -0.33163E+08
         0.27501E+08
         0.12777E+09
         0.22448E+08
         0.47637E+08
         0.35168E+08
        -0.21009E+08
         0.37263E+08
        -0.15903E+09
         0.36258E+08
         0.10314E+08
         0.19964E+08
        -0.24325E+08
        -0.14671E+09
         0.10311E+09
         0.25772E+08
         0.69599E+08
         0.60029E+08
        -0.11666E+08
         0.67333E+08
         0.99578E+08
         0.15290E+09
         0.17241E+09
         0.16222E+09
         0.86195E+08
        -0.21726E+08
        -0.47832E+08
        -0.76708E+08
        -0.10916E+09
        -0.16495E+09
        -0.14324E+09
        -0.10981E+09
        -0.16682E+09
        -0.16776E+09
        -0.10916E+09
        -0.95491E+07
         0.34254E+08
        -0.48505E+08
         0.10828E+09
         0.14054E+09
         0.17117E+09
         0.19236E+09
         0.19561E+09
         0.19010E+09
         0.18673E+09
         0.17359E+09
         0.11100E+09
         0.37358E+08
         0.17606E+08
         0.16192E+08
        -0.59729E+07
        -0.53631E+08
        -0.10381E+09
        -0.13294E+09
        -0.17915E+09
        -0.19376E+09
        -0.18735E+09
        -0.18569E+09
        -0.17464E+09
        -0.12525E+09
        -0.63006E+08
        -0.59920E+08
        -0.16177E+09
        -0.16140E+09
        -0.15034E+09
        -0.39213E+08
        -0.11934E+09
        -0.77164E+08
        -0.70042E+08
        -0.15708E+09
        -0.15981E+09
        -0.15663E+09
         0.12157E+09
         0.17585E+09
         0.13471E+09
         0.38908E+08
         0.16680E+09
         0.82400E+08
        -0.33466E+08
         0.27456E+08
         0.12786E+09
         0.22288E+08
         0.47749E+08
         0.35192E+08
        -0.21037E+08
         0.37211E+08
        -0.15907E+09
         0.36120E+08
         0.10475E+08
         0.20152E+08
        -0.23999E+08
        -0.14675E+09
         0.10300E+09
         0.25612E+08
         0.69756E+08
         0.60138E+08
        -0.11530E+08
         0.67397E+08
         0.99598E+08
         0.15292E+09
         0.17241E+09
         0.16219E+09
         0.86227E+08
        -0.21599E+08
        -0.47844E+08
        -0.76797E+08
        -0.10922E+09
        -0.16496E+09
        -0.14327E+09
        -0.10979E+09
        -0.16684E+09
        -0.16776E+09
        -0.10916E+09
        -0.93803E+07
         0.34233E+08
        -0.48517E+08
         0.10830E+09
         0.14054E+09
         0.17117E+09
         0.19235E+09
         0.19560E+09
         0.19009E+09
         0.18673E+09
         0.17359E+09
         0.11100E+09
         0.37383E+08
         0.17610E+08
         0.16225E+08
        -0.59167E+07
        -0.53649E+08
        -0.10385E+09
        -0.13295E+09
        -0.17916E+09
        -0.19376E+09
        -0.18736E+09
        -0.18569E+09
        -0.17465E+09
        -0.12524E+09
        -0.62969E+08
        -0.59869E+08
        -0.16175E+09
        -0.16139E+09
        -0.15041E+09
        -0.39489E+08
        -0.11940E+09
        -0.77265E+08
        -0.70091E+08
        -0.15719E+09
        -0.15984E+09
        -0.15675E+09
         0.12168E+09
         0.17584E+09
         0.13470E+09
         0.39031E+08
         0.16685E+09
         0.82338E+08
        -0.33770E+08
         0.27411E+08
         0.12796E+09
         0.22127E+08
         0.47861E+08
         0.35216E+08
        -0.21066E+08
         0.37160E+08
        -0.15911E+09
         0.35982E+08
         0.10631E+08
         0.20339E+08
        -0.23675E+08
        -0.14678E+09
         0.10290E+09
         0.25453E+08
         0.69913E+08
         0.60248E+08
        -0.11393E+08
         0.67460E+08
         0.99617E+08
         0.15294E+09
         0.17242E+09
         0.16217E+09
         0.86260E+08
        -0.21473E+08
        -0.47856E+08
        -0.76886E+08
        -0.10929E+09
        -0.16497E+09
        -0.14331E+09
        -0.10977E+09
        -0.16685E+09
        -0.16775E+09
        -0.10916E+09
        -0.92110E+07
         0.34211E+08
        -0.48529E+08
         0.10832E+09
         0.14054E+09
         0.17118E+09
         0.19235E+09
         0.19560E+09
         0.19008E+09
         0.18674E+09
         0.17359E+09
         0.11100E+09
         0.37407E+08
         0.17613E+08
         0.16256E+08
        -0.58605E+07
        -0.53667E+08
        -0.10388E+09
        -0.13296E+09
        -0.17916E+09
        -0.19376E+09
        -0.18736E+09
        -0.18570E+09
        -0.17466E+09
        -0.12522E+09
        -0.62934E+08
        -0.59818E+08
        -0.16174E+09
        -0.16137E+09
        -0.15048E+09
        -0.39766E+08
        -0.11947E+09
        -0.77368E+08
        -0.70143E+08
        -0.15729E+09
        -0.15986E+09
        -0.15687E+09
         0.12179E+09
         0.17583E+09
         0.13469E+09
         0.39150E+08
         0.16690E+09
         0.82277E+08
        -0.34076E+08
         0.27365E+08
         0.12806E+09
         0.21969E+08
         0.47973E+08
         0.35239E+08
        -0.21094E+08
         0.37108E+08
        -0.15915E+09
         0.35843E+08
         0.10791E+08
         0.20523E+08
        -0.23350E+08
        -0.14681E+09
         0.10280E+09
         0.25294E+08
         0.70069E+08
         0.60357E+08
        -0.11256E+08
         0.67524E+08
         0.99635E+08
         0.15296E+09
         0.17243E+09
         0.16215E+09
         0.86293E+08
        -0.21348E+08
        -0.47868E+08
        -0.76975E+08
        -0.10935E+09
        -0.16498E+09
        -0.14334E+09
        -0.10975E+09
        -0.16686E+09
        -0.16774E+09
        -0.10917E+09
        -0.90425E+07
         0.34190E+08
        -0.48542E+08
         0.10834E+09
         0.14054E+09
         0.17118E+09
         0.19234E+09
         0.19559E+09
         0.19007E+09
         0.18674E+09
         0.17358E+09
         0.11100E+09
         0.37432E+08
         0.17615E+08
         0.16288E+08
        -0.58046E+07
        -0.53685E+08
        -0.10391E+09
        -0.13297E+09
        -0.17917E+09
        -0.19375E+09
        -0.18737E+09
        -0.18570E+09
        -0.17466E+09
        -0.12521E+09
        -0.62898E+08
        -0.59767E+08
        -0.16173E+09
        -0.16136E+09
        -0.15055E+09
        -0.40045E+08
        -0.11953E+09
        -0.77470E+08
        -0.70192E+08
        -0.15740E+09
        -0.15989E+09
        -0.15700E+09
         0.12189E+09
         0.17582E+09
         0.13468E+09
         0.39274E+08
         0.16695E+09
         0.82215E+08
        -0.34384E+08
         0.27319E+08
         0.12815E+09
         0.21818E+08
         0.48085E+08
         0.35261E+08
        -0.21122E+08
         0.37056E+08
        -0.15920E+09
         0.35706E+08
         0.10950E+08
         0.20707E+08
        -0.23026E+08
        -0.14683E+09
         0.10270E+09
         0.25132E+08
         0.70225E+08
         0.60468E+08
        -0.11119E+08
         0.67588E+08
         0.99655E+08
         0.15298E+09
         0.17244E+09
         0.16213E+09
         0.86328E+08
        -0.21223E+08
        -0.47883E+08
        -0.77064E+08
        -0.10942E+09
        -0.16500E+09
        -0.14337E+09
        -0.10972E+09
        -0.16687E+09
        -0.16774E+09
        -0.10918E+09
        -0.88735E+07
         0.34168E+08
        -0.48554E+08
         0.10836E+09
         0.14054E+09
         0.17119E+09
         0.19233E+09
         0.19558E+09
         0.19006E+09
         0.18674E+09
         0.17358E+09
         0.11100E+09
         0.37456E+08
         0.17616E+08
         0.16320E+08
        -0.57488E+07
        -0.53703E+08
        -0.10395E+09
        -0.13298E+09
        -0.17918E+09
        -0.19375E+09
        -0.18738E+09
        -0.18570E+09
        -0.17467E+09
        -0.12519E+09
        -0.62863E+08
        -0.59715E+08
        -0.16171E+09
        -0.16135E+09
        -0.15062E+09
        -0.40323E+08
        -0.11959E+09
        -0.77572E+08
        -0.70240E+08
        -0.15750E+09
        -0.15992E+09
        -0.15712E+09
         0.12200E+09
         0.17581E+09
         0.13466E+09
         0.39400E+08
         0.16700E+09
         0.82154E+08
        -0.34698E+08
         0.27272E+08
         0.12825E+09
         0.21673E+08
         0.48197E+08
         0.35284E+08
        -0.21151E+08
         0.37005E+08
        -0.15924E+09
         0.35567E+08
         0.11117E+08
         0.20888E+08
        -0.22703E+08
        -0.14686E+09
         0.10259E+09
         0.24972E+08
         0.70380E+08
         0.60577E+08
        -0.10981E+08
         0.67651E+08
         0.99673E+08
         0.15301E+09
         0.17244E+09
         0.16211E+09
         0.86364E+08
        -0.21099E+08
        -0.47900E+08
        -0.77153E+08
        -0.10948E+09
        -0.16501E+09
        -0.14340E+09
        -0.10970E+09
        -0.16688E+09
        -0.16773E+09
        -0.10918E+09
        -0.87027E+07
         0.34146E+08
        -0.48566E+08
         0.10838E+09
         0.14054E+09
         0.17119E+09
         0.19233E+09
         0.19557E+09
         0.19005E+09
         0.18675E+09
         0.17358E+09
         0.11100E+09
         0.37480E+08
         0.17616E+08
         0.16351E+08
        -0.56926E+07
        -0.53721E+08
        -0.10398E+09
        -0.13299E+09
        -0.17918E+09
        -0.19375E+09
        -0.18738E+09
        -0.18571E+09
        -0.17468E+09
        -0.12518E+09
        -0.62828E+08
        -0.59664E+08
        -0.16170E+09
        -0.16134E+09
        -0.15070E+09
        -0.40599E+08
        -0.11965E+09
        -0.77674E+08
        -0.70294E+08
        -0.15760E+09
        -0.15995E+09
        -0.15725E+09
         0.12211E+09
         0.17580E+09
         0.13465E+09
         0.39521E+08
         0.16705E+09
         0.82094E+08
        -0.35014E+08
         0.27226E+08
         0.12835E+09
         0.21532E+08
         0.48309E+08
         0.35306E+08
        -0.21177E+08
         0.36958E+08
        -0.15929E+09
         0.35434E+08
         0.11280E+08
         0.21062E+08
        -0.22384E+08
        -0.14688E+09
         0.10249E+09
         0.24816E+08
         0.70536E+08
         0.60689E+08
        -0.10844E+08
         0.67712E+08
         0.99690E+08
         0.15303E+09
         0.17245E+09
         0.16208E+09
         0.86401E+08
        -0.20978E+08
        -0.47919E+08
        -0.77240E+08
        -0.10955E+09
        -0.16502E+09
        -0.14343E+09
        -0.10968E+09
        -0.16689E+09
        -0.16772E+09
        -0.10918E+09
        -0.85324E+07
         0.34124E+08
        -0.48579E+08
         0.10840E+09
         0.14054E+09
         0.17120E+09
         0.19232E+09
         0.19556E+09
         0.19004E+09
         0.18675E+09
         0.17358E+09
         0.11100E+09
         0.37502E+08
         0.17614E+08
         0.16383E+08
        -0.56365E+07
        -0.53739E+08
        -0.10401E+09
        -0.13301E+09
        -0.17919E+09
        -0.19375E+09
        -0.18739E+09
        -0.18571E+09
        -0.17469E+09
        -0.12516E+09
        -0.62793E+08
        -0.59613E+08
        -0.15559E+09
        -0.14879E+09
        -0.14452E+09
        -0.40988E+08
        -0.11363E+09
        -0.70906E+08
        -0.70554E+08
        -0.14996E+09
        -0.14633E+09
        -0.14927E+09
         0.12253E+09
         0.17196E+09
         0.13066E+09
         0.35174E+08
         0.16373E+09
         0.76940E+08
        -0.35412E+08
         0.27263E+08
         0.12880E+09
         0.21467E+08
         0.47265E+08
         0.34354E+08
        -0.20635E+08
         0.37041E+08
        -0.14217E+09
         0.35448E+08
         0.10157E+08
         0.21251E+08
        -0.22186E+08
        -0.13106E+09
         0.93802E+08
         0.24777E+08
         0.70895E+08
         0.60976E+08
        -0.10326E+08
         0.62362E+08
         0.94712E+08
         0.14901E+09
         0.16566E+09
         0.15473E+09
         0.84240E+08
        -0.20307E+08
        -0.46753E+08
        -0.74733E+08
        -0.10467E+09
        -0.15970E+09
        -0.13500E+09
        -0.10197E+09
        -0.15046E+09
        -0.15441E+09
        -0.10508E+09
        -0.78106E+07
         0.33867E+08
        -0.48299E+08
         0.10779E+09
         0.13977E+09
         0.17032E+09
         0.19137E+09
         0.19450E+09
         0.18876E+09
         0.18542E+09
         0.17244E+09
         0.11029E+09
         0.37298E+08
         0.17487E+08
         0.16301E+08
        -0.55516E+07
        -0.53474E+08
        -0.10353E+09
        -0.13237E+09
        -0.17810E+09
        -0.19262E+09
        -0.18625E+09
        -0.18454E+09
        -0.17365E+09
        -0.12437E+09
        -0.62398E+08
        -0.59215E+08
        -0.76214E+08
        -0.48738E+08
        -0.45995E+08
        -0.13801E+08
        -0.49652E+08
        -0.24900E+08
        -0.20264E+08
        -0.66359E+08
        -0.52070E+08
        -0.64866E+08
         0.31716E+08
         0.10181E+09
         0.69777E+08
         0.11134E+08
         0.99470E+08
         0.30958E+08
        -0.11029E+08
         0.96168E+07
         0.38095E+08
         0.61669E+07
         0.27196E+08
         0.18816E+08
        -0.11460E+08
         0.11521E+08
        -0.45892E+08
         0.11572E+08
         0.32538E+07
         0.56381E+07
        -0.58083E+07
        -0.42307E+08
         0.33418E+08
         0.77733E+07
         0.23673E+08
         0.19621E+08
        -0.50226E+07
         0.22787E+08
         0.41615E+08
         0.82857E+08
         0.79951E+08
         0.70914E+08
         0.47583E+08
        -0.11109E+08
        -0.26522E+08
        -0.38173E+08
        -0.47834E+08
        -0.82531E+08
        -0.55590E+08
        -0.39209E+08
        -0.50339E+08
        -0.56509E+08
        -0.51478E+08
        -0.30328E+07
         0.26927E+08
        -0.39155E+08
         0.88279E+08
         0.11553E+09
         0.14228E+09
         0.16105E+09
         0.16135E+09
         0.15100E+09
         0.14637E+09
         0.13812E+09
         0.88749E+08
         0.30533E+08
         0.13916E+08
         0.13028E+08
        -0.45321E+07
        -0.44622E+08
        -0.87074E+08
        -0.11139E+09
        -0.14434E+09
        -0.15747E+09
        -0.15123E+09
        -0.14899E+09
        -0.14137E+09
        -0.10059E+09
        -0.51138E+08
        -0.48354E+08
  
SCALARS                      stress_xz  double 1
LOOKUP_TABLE default
         0.51691E+05
        -0.36454E+06
        -0.12035E+07
         0.82677E+05
        -0.42538E+01
         0.15083E+01
         0.50434E+01
         0.10072E+01
        -0.33862E+07
        -0.22624E+07
         0.15085E+02
         0.13588E+02
         0.14437E+06
        -0.58910E+06
        -0.18605E+01
        -0.87156E+01
        -0.12088E+06
        -0.56534E+06
        -0.62956E+01
        -0.93762E+01
        -0.82848E+06
        -0.13959E+07
        -0.13220E+07
        -0.62609E+01
        -0.28871E+01
         0.50439E+01
        -0.14745E+07
        -0.11972E+07
        -0.11720E+02
        -0.92967E+01
         0.28284E+06
        -0.62826E+06
         0.60130E+05
         0.11932E+01
        -0.46111E+01
        -0.28408E+01
         0.83913E+06
         0.40443E+06
        -0.68460E+01
        -0.72892E+01
         0.16725E+07
         0.23697E+07
        -0.15442E+02
        -0.11388E+02
         0.17895E+07
         0.95304E+06
        -0.16959E+02
        -0.81626E+01
        -0.51361E+06
        -0.51236E+01
         0.12234E+07
        -0.14262E+01
        -0.53574E+06
        -0.10012E+02
         0.40020E+06
        -0.26483E+01
         0.17510E+07
         0.48038E+06
        -0.22687E+01
        -0.54837E+01
        -0.30201E+05
         0.83315E+06
         0.45376E+01
         0.31116E+01
        -0.21639E+06
        -0.45642E+00
        -0.72433E+06
         0.30021E+01
        -0.47652E+07
        -0.32654E+07
         0.18764E+02
         0.13609E+02
        -0.21001E+07
         0.99092E+01
         0.49489E+06
        -0.68547E+01
         0.15486E+07
        -0.13453E+01
         0.32831E+07
        -0.20872E+01
         0.43441E+07
         0.30849E+07
        -0.76492E+01
        -0.87481E+01
         0.27250E+07
        -0.94082E+01
         0.21701E+07
        -0.13545E+02
         0.13514E+07
        -0.86396E+01
         0.21273E+07
         0.15646E+07
        -0.36873E+01
         0.50566E+01
        -0.35766E+06
         0.59313E+01
        -0.98177E+06
         0.24904E+01
        -0.23573E+07
         0.61500E+01
        -0.34847E+07
        -0.23915E+07
         0.14180E+02
         0.14797E+02
        -0.85341E+07
        -0.94497E+07
         0.26202E+02
         0.25821E+02
        -0.84522E+07
         0.22384E+02
        -0.77035E+07
         0.16728E+02
        -0.55266E+07
         0.91928E+01
        -0.40153E+07
         0.98302E+00
        -0.14898E+07
        -0.35012E+01
         0.19193E+07
        -0.28012E+01
         0.45803E+07
        -0.27532E+01
         0.68056E+07
        -0.62087E+01
         0.91549E+07
        -0.11812E+02
         0.11125E+08
        -0.14096E+02
         0.11827E+08
        -0.13300E+02
         0.11266E+08
        -0.14462E+02
         0.10325E+08
        -0.18770E+02
         0.92862E+07
        -0.22134E+02
         0.81902E+07
        -0.20575E+02
         0.65127E+07
        -0.16722E+02
         0.38211E+07
        -0.78941E+01
         0.32757E+06
         0.15074E+01
        -0.21369E+07
         0.36597E+01
        -0.33446E+07
         0.59845E+01
        -0.50302E+07
         0.11712E+02
        -0.66321E+07
         0.19218E+02
        -0.87171E+07
         0.23090E+02
        -0.10015E+08
         0.23617E+02
        -0.87544E+06
         0.45581E+06
         0.53474E+06
        -0.10767E+07
         0.41682E+07
         0.32243E+07
         0.48679E+06
        -0.71509E+06
        -0.36890E+06
        -0.65643E+06
         0.36027E+06
         0.15598E+07
         0.32584E+07
        -0.10423E+07
        -0.12539E+07
         0.14329E+07
         0.12024E+07
        -0.55753E+06
        -0.86741E+06
        -0.93309E+06
        -0.51007E+07
        -0.54308E+07
        -0.49050E+07
        -0.15244E+07
         0.61122E+06
        -0.45547E+06
        -0.14632E+07
        -0.16407E+06
        -0.16788E+07
        -0.11544E+07
         0.12793E+07
         0.25106E+06
        -0.60282E+06
        -0.19493E+06
         0.61639E+07
         0.39277E+07
         0.35546E+07
        -0.24881E+07
        -0.14173E+07
        -0.30315E+07
        -0.62373E+07
        -0.58147E+07
        -0.57417E+07
        -0.42207E+07
        -0.30275E+07
        -0.23681E+07
         0.44482E+06
         0.18581E+07
         0.53732E+06
         0.17032E+07
         0.45493E+07
         0.38324E+07
         0.17989E+08
         0.18890E+08
         0.16883E+08
         0.14364E+08
         0.10695E+08
         0.54464E+07
        -0.32310E+06
        -0.38790E+07
        -0.59106E+07
        -0.10147E+08
        -0.16539E+08
        -0.20135E+08
        -0.18449E+08
        -0.17695E+08
        -0.18694E+08
        -0.18690E+08
        -0.16978E+08
        -0.14864E+08
        -0.75269E+07
         0.11899E+07
         0.45742E+07
         0.50992E+07
         0.86346E+07
         0.13787E+08
         0.17889E+08
         0.18803E+08
        -0.54994E+08
         0.17833E+08
        -0.33950E+08
        -0.98853E+08
         0.12385E+09
         0.15044E+09
         0.50486E+08
        -0.70879E+08
        -0.50640E+08
        -0.71301E+08
        -0.21167E+08
         0.26117E+08
         0.11117E+09
        -0.16444E+09
        -0.65367E+08
         0.14650E+09
         0.95014E+08
        -0.56909E+08
        -0.38298E+08
        -0.67258E+08
        -0.16899E+09
        -0.17100E+09
        -0.17300E+09
        -0.90776E+08
         0.51559E+08
         0.34716E+08
        -0.16801E+09
         0.24998E+08
        -0.63008E+08
        -0.82225E+08
         0.13091E+09
         0.84850E+08
        -0.85046E+08
        -0.73399E+08
         0.17329E+09
         0.15564E+09
         0.13966E+09
        -0.87700E+08
        -0.18789E+08
        -0.58292E+08
        -0.15397E+09
        -0.17364E+09
        -0.16868E+09
        -0.15520E+09
        -0.13302E+09
        -0.57911E+08
         0.93282E+08
         0.12852E+09
        -0.20431E+08
         0.20980E+08
         0.13486E+09
         0.16965E+09
         0.19027E+09
         0.18765E+09
         0.16177E+09
         0.13431E+09
         0.94543E+08
         0.40811E+08
        -0.10521E+08
        -0.37944E+08
        -0.51178E+08
        -0.88177E+08
        -0.15953E+09
        -0.19056E+09
        -0.19018E+09
        -0.18952E+09
        -0.19158E+09
        -0.18528E+09
        -0.16348E+09
        -0.14269E+09
        -0.75327E+08
         0.19107E+08
         0.46506E+08
         0.49403E+08
         0.82817E+08
         0.14639E+09
         0.18254E+09
         0.18338E+09
        -0.55059E+08
         0.17899E+08
        -0.34014E+08
        -0.98920E+08
         0.12378E+09
         0.15039E+09
         0.50807E+08
        -0.70635E+08
        -0.50695E+08
        -0.71046E+08
        -0.20739E+08
         0.26182E+08
         0.11120E+09
        -0.16441E+09
        -0.65270E+08
         0.14654E+09
         0.95223E+08
        -0.56751E+08
        -0.38279E+08
        -0.67139E+08
        -0.16896E+09
        -0.17099E+09
        -0.17299E+09
        -0.90781E+08
         0.51676E+08
         0.34774E+08
        -0.16801E+09
         0.24528E+08
        -0.63451E+08
        -0.82138E+08
         0.13098E+09
         0.84839E+08
        -0.84692E+08
        -0.73432E+08
         0.17330E+09
         0.15561E+09
         0.13964E+09
        -0.87713E+08
        -0.18929E+08
        -0.58400E+08
        -0.15397E+09
        -0.17366E+09
        -0.16867E+09
        -0.15519E+09
        -0.13300E+09
        -0.57884E+08
         0.93263E+08
         0.12857E+09
        -0.20310E+08
         0.20936E+08
         0.13485E+09
         0.16965E+09
         0.19027E+09
         0.18764E+09
         0.16175E+09
         0.13431E+09
         0.94528E+08
         0.40811E+08
        -0.10537E+08
        -0.37977E+08
        -0.51147E+08
        -0.88167E+08
        -0.15953E+09
        -0.19056E+09
        -0.19018E+09
        -0.18952E+09
        -0.19158E+09
        -0.18528E+09
        -0.16347E+09
        -0.14269E+09
        -0.75310E+08
         0.19117E+08
         0.46477E+08
         0.49386E+08
         0.82782E+08
         0.14639E+09
         0.18255E+09
         0.18339E+09
        -0.55123E+08
         0.17964E+08
        -0.34078E+08
        -0.98985E+08
         0.12371E+09
         0.15033E+09
         0.51130E+08
        -0.70391E+08
        -0.50748E+08
        -0.70790E+08
        -0.20311E+08
         0.26246E+08
         0.11122E+09
        -0.16437E+09
        -0.65173E+08
         0.14658E+09
         0.95435E+08
        -0.56592E+08
        -0.38260E+08
        -0.67025E+08
        -0.16893E+09
        -0.17098E+09
        -0.17299E+09
        -0.90786E+08
         0.51800E+08
         0.34837E+08
        -0.16801E+09
         0.24064E+08
        -0.63897E+08
        -0.82056E+08
         0.13106E+09
         0.84832E+08
        -0.84335E+08
        -0.73465E+08
         0.17332E+09
         0.15558E+09
         0.13963E+09
        -0.87725E+08
        -0.19068E+08
        -0.58508E+08
        -0.15397E+09
        -0.17368E+09
        -0.16866E+09
        -0.15516E+09
        -0.13298E+09
        -0.57857E+08
         0.93245E+08
         0.12862E+09
        -0.20184E+08
         0.20889E+08
         0.13483E+09
         0.16965E+09
         0.19026E+09
         0.18763E+09
         0.16174E+09
         0.13431E+09
         0.94514E+08
         0.40812E+08
        -0.10553E+08
        -0.38010E+08
        -0.51116E+08
        -0.88156E+08
        -0.15953E+09
        -0.19056E+09
        -0.19018E+09
        -0.18952E+09
        -0.19159E+09
        -0.18528E+09
        -0.16346E+09
        -0.14269E+09
        -0.75293E+08
         0.19126E+08
         0.46447E+08
         0.49370E+08
         0.82747E+08
         0.14639E+09
         0.18255E+09
         0.18339E+09
        -0.55188E+08
         0.18032E+08
        -0.34141E+08
        -0.99050E+08
         0.12364E+09
         0.15028E+09
         0.51449E+08
        -0.70148E+08
        -0.50794E+08
        -0.70529E+08
        -0.19885E+08
         0.26311E+08
         0.11125E+09
        -0.16434E+09
        -0.65075E+08
         0.14662E+09
         0.95658E+08
        -0.56432E+08
        -0.38244E+08
        -0.66906E+08
        -0.16890E+09
        -0.17097E+09
        -0.17299E+09
        -0.90790E+08
         0.51947E+08
         0.34914E+08
        -0.16800E+09
         0.23614E+08
        -0.64341E+08
        -0.81983E+08
         0.13114E+09
         0.84840E+08
        -0.83977E+08
        -0.73498E+08
         0.17333E+09
         0.15556E+09
         0.13961E+09
        -0.87737E+08
        -0.19205E+08
        -0.58609E+08
        -0.15397E+09
        -0.17370E+09
        -0.16865E+09
        -0.15513E+09
        -0.13294E+09
        -0.57827E+08
         0.93224E+08
         0.12867E+09
        -0.20058E+08
         0.20843E+08
         0.13482E+09
         0.16965E+09
         0.19026E+09
         0.18762E+09
         0.16173E+09
         0.13431E+09
         0.94499E+08
         0.40812E+08
        -0.10569E+08
        -0.38042E+08
        -0.51085E+08
        -0.88145E+08
        -0.15953E+09
        -0.19056E+09
        -0.19018E+09
        -0.18951E+09
        -0.19159E+09
        -0.18528E+09
        -0.16345E+09
        -0.14269E+09
        -0.75276E+08
         0.19136E+08
         0.46418E+08
         0.49353E+08
         0.82712E+08
         0.14639E+09
         0.18255E+09
         0.18340E+09
        -0.55252E+08
         0.18099E+08
        -0.34204E+08
        -0.99115E+08
         0.12358E+09
         0.15022E+09
         0.51771E+08
        -0.69904E+08
        -0.50781E+08
        -0.70263E+08
        -0.19457E+08
         0.26376E+08
         0.11128E+09
        -0.16430E+09
        -0.64977E+08
         0.14667E+09
         0.95889E+08
        -0.56272E+08
        -0.38223E+08
        -0.66785E+08
        -0.16887E+09
        -0.17097E+09
        -0.17299E+09
        -0.90796E+08
         0.52118E+08
         0.35002E+08
        -0.16800E+09
         0.23179E+08
        -0.64783E+08
        -0.81919E+08
         0.13123E+09
         0.84861E+08
        -0.83618E+08
        -0.73531E+08
         0.17335E+09
         0.15553E+09
         0.13960E+09
        -0.87748E+08
        -0.19341E+08
        -0.58710E+08
        -0.15396E+09
        -0.17372E+09
        -0.16865E+09
        -0.15509E+09
        -0.13289E+09
        -0.57791E+08
         0.93203E+08
         0.12872E+09
        -0.19932E+08
         0.20797E+08
         0.13480E+09
         0.16965E+09
         0.19026E+09
         0.18762E+09
         0.16171E+09
         0.13431E+09
         0.94484E+08
         0.40812E+08
        -0.10585E+08
        -0.38075E+08
        -0.51053E+08
        -0.88134E+08
        -0.15953E+09
        -0.19055E+09
        -0.19018E+09
        -0.18951E+09
        -0.19159E+09
        -0.18528E+09
        -0.16344E+09
        -0.14269E+09
        -0.75258E+08
         0.19146E+08
         0.46388E+08
         0.49337E+08
         0.82677E+08
         0.14638E+09
         0.18255E+09
         0.18341E+09
        -0.55313E+08
         0.18172E+08
        -0.34260E+08
        -0.99178E+08
         0.12351E+09
         0.15016E+09
         0.52094E+08
        -0.69662E+08
        -0.50735E+08
        -0.70002E+08
        -0.19030E+08
         0.26440E+08
         0.11130E+09
        -0.16426E+09
        -0.64880E+08
         0.14672E+09
         0.96120E+08
        -0.56112E+08
        -0.38201E+08
        -0.66670E+08
        -0.16884E+09
        -0.17096E+09
        -0.17299E+09
        -0.90804E+08
         0.52288E+08
         0.35093E+08
        -0.16799E+09
         0.22746E+08
        -0.65229E+08
        -0.81867E+08
         0.13133E+09
         0.84880E+08
        -0.83255E+08
        -0.73560E+08
         0.17336E+09
         0.15550E+09
         0.13959E+09
        -0.87757E+08
        -0.19475E+08
        -0.58807E+08
        -0.15396E+09
        -0.17374E+09
        -0.16865E+09
        -0.15505E+09
        -0.13284E+09
        -0.57757E+08
         0.93177E+08
         0.12876E+09
        -0.19800E+08
         0.20756E+08
         0.13479E+09
         0.16965E+09
         0.19026E+09
         0.18761E+09
         0.16170E+09
         0.13431E+09
         0.94469E+08
         0.40812E+08
        -0.10601E+08
        -0.38108E+08
        -0.51022E+08
        -0.88123E+08
        -0.15952E+09
        -0.19055E+09
        -0.19017E+09
        -0.18951E+09
        -0.19160E+09
        -0.18528E+09
        -0.16342E+09
        -0.14268E+09
        -0.75241E+08
         0.19155E+08
         0.46358E+08
         0.49320E+08
         0.82642E+08
         0.14638E+09
         0.18256E+09
         0.18341E+09
        -0.55370E+08
         0.18260E+08
        -0.34304E+08
        -0.99240E+08
         0.12344E+09
         0.15011E+09
         0.52422E+08
        -0.69424E+08
        -0.50690E+08
        -0.69754E+08
        -0.18600E+08
         0.26504E+08
         0.11132E+09
        -0.16422E+09
        -0.64781E+08
         0.14676E+09
         0.96343E+08
        -0.55950E+08
        -0.38184E+08
        -0.66557E+08
        -0.16881E+09
        -0.17096E+09
        -0.17298E+09
        -0.90814E+08
         0.52439E+08
         0.35173E+08
        -0.16799E+09
         0.22303E+08
        -0.65678E+08
        -0.81823E+08
         0.13142E+09
         0.84883E+08
        -0.82884E+08
        -0.73581E+08
         0.17338E+09
         0.15547E+09
         0.13957E+09
        -0.87765E+08
        -0.19610E+08
        -0.58908E+08
        -0.15395E+09
        -0.17376E+09
        -0.16865E+09
        -0.15501E+09
        -0.13279E+09
        -0.57724E+08
         0.93137E+08
         0.12879E+09
        -0.19651E+08
         0.20730E+08
         0.13478E+09
         0.16964E+09
         0.19025E+09
         0.18760E+09
         0.16169E+09
         0.13431E+09
         0.94454E+08
         0.40813E+08
        -0.10617E+08
        -0.38141E+08
        -0.50991E+08
        -0.88113E+08
        -0.15952E+09
        -0.19055E+09
        -0.19017E+09
        -0.18950E+09
        -0.19160E+09
        -0.18528E+09
        -0.16341E+09
        -0.14268E+09
        -0.75224E+08
         0.19162E+08
         0.46326E+08
         0.49303E+08
         0.82609E+08
         0.14638E+09
         0.18256E+09
         0.18342E+09
        -0.55424E+08
         0.18352E+08
        -0.34341E+08
        -0.99300E+08
         0.12338E+09
         0.15005E+09
         0.52755E+08
        -0.69190E+08
        -0.50645E+08
        -0.69514E+08
        -0.18169E+08
         0.26568E+08
         0.11135E+09
        -0.16417E+09
        -0.64682E+08
         0.14681E+09
         0.96561E+08
        -0.55787E+08
        -0.38164E+08
        -0.66452E+08
        -0.16878E+09
        -0.17095E+09
        -0.17298E+09
        -0.90823E+08
         0.52579E+08
         0.35249E+08
        -0.16798E+09
         0.21858E+08
        -0.66134E+08
        -0.81785E+08
         0.13150E+09
         0.84878E+08
        -0.82509E+08
        -0.73598E+08
         0.17339E+09
         0.15544E+09
         0.13955E+09
        -0.87771E+08
        -0.19744E+08
        -0.59007E+08
        -0.15394E+09
        -0.17379E+09
        -0.16865E+09
        -0.15496E+09
        -0.13274E+09
        -0.57694E+08
         0.93091E+08
         0.12881E+09
        -0.19494E+08
         0.20710E+08
         0.13477E+09
         0.16964E+09
         0.19025E+09
         0.18759E+09
         0.16167E+09
         0.13431E+09
         0.94439E+08
         0.40813E+08
        -0.10632E+08
        -0.38173E+08
        -0.50959E+08
        -0.88103E+08
        -0.15952E+09
        -0.19054E+09
        -0.19017E+09
        -0.18950E+09
        -0.19161E+09
        -0.18528E+09
        -0.16339E+09
        -0.14267E+09
        -0.75206E+08
         0.19169E+08
         0.46294E+08
         0.49286E+08
         0.82577E+08
         0.14638E+09
         0.18256E+09
         0.18343E+09
        -0.55478E+08
         0.18446E+08
        -0.34377E+08
        -0.99359E+08
         0.12331E+09
         0.14999E+09
         0.53085E+08
        -0.68955E+08
        -0.50601E+08
        -0.69276E+08
        -0.17740E+08
         0.26631E+08
         0.11137E+09
        -0.16413E+09
        -0.64583E+08
         0.14685E+09
         0.96779E+08
        -0.55626E+08
        -0.38143E+08
        -0.66342E+08
        -0.16875E+09
        -0.17095E+09
        -0.17298E+09
        -0.90836E+08
         0.52719E+08
         0.35323E+08
        -0.16797E+09
         0.21413E+08
        -0.66589E+08
        -0.81745E+08
         0.13159E+09
         0.84873E+08
        -0.82135E+08
        -0.73616E+08
         0.17341E+09
         0.15541E+09
         0.13954E+09
        -0.87777E+08
        -0.19878E+08
        -0.59106E+08
        -0.15393E+09
        -0.17381E+09
        -0.16865E+09
        -0.15492E+09
        -0.13268E+09
        -0.57664E+08
         0.93047E+08
         0.12884E+09
        -0.19336E+08
         0.20691E+08
         0.13476E+09
         0.16964E+09
         0.19025E+09
         0.18759E+09
         0.16166E+09
         0.13431E+09
         0.94424E+08
         0.40813E+08
        -0.10648E+08
        -0.38206E+08
        -0.50928E+08
        -0.88093E+08
        -0.15952E+09
        -0.19054E+09
        -0.19017E+09
        -0.18950E+09
        -0.19161E+09
        -0.18528E+09
        -0.16338E+09
        -0.14267E+09
        -0.75189E+08
         0.19177E+08
         0.46261E+08
         0.49269E+08
         0.82544E+08
         0.14638E+09
         0.18257E+09
         0.18344E+09
        -0.55532E+08
         0.18540E+08
        -0.34414E+08
        -0.99420E+08
         0.12324E+09
         0.14994E+09
         0.53418E+08
        -0.68721E+08
        -0.50558E+08
        -0.69039E+08
        -0.17310E+08
         0.26695E+08
         0.11139E+09
        -0.16408E+09
        -0.64484E+08
         0.14689E+09
         0.96997E+08
        -0.55465E+08
        -0.38122E+08
        -0.66235E+08
        -0.16872E+09
        -0.17094E+09
        -0.17298E+09
        -0.90848E+08
         0.52859E+08
         0.35398E+08
        -0.16797E+09
         0.20971E+08
        -0.67043E+08
        -0.81706E+08
         0.13168E+09
         0.84866E+08
        -0.81761E+08
        -0.73635E+08
         0.17342E+09
         0.15538E+09
         0.13952E+09
        -0.87783E+08
        -0.20011E+08
        -0.59207E+08
        -0.15392E+09
        -0.17383E+09
        -0.16865E+09
        -0.15488E+09
        -0.13263E+09
        -0.57632E+08
         0.93000E+08
         0.12886E+09
        -0.19180E+08
         0.20670E+08
         0.13475E+09
         0.16964E+09
         0.19025E+09
         0.18758E+09
         0.16164E+09
         0.13431E+09
         0.94408E+08
         0.40813E+08
        -0.10664E+08
        -0.38238E+08
        -0.50896E+08
        -0.88083E+08
        -0.15952E+09
        -0.19053E+09
        -0.19017E+09
        -0.18950E+09
        -0.19162E+09
        -0.18529E+09
        -0.16337E+09
        -0.14266E+09
        -0.75172E+08
         0.19184E+08
         0.46229E+08
         0.49252E+08
         0.82511E+08
         0.14638E+09
         0.18257E+09
         0.18344E+09
        -0.55586E+08
         0.18633E+08
        -0.34452E+08
        -0.99479E+08
         0.12318E+09
         0.14988E+09
         0.53747E+08
        -0.68488E+08
        -0.50514E+08
        -0.68804E+08
        -0.16880E+08
         0.26760E+08
         0.11141E+09
        -0.16403E+09
        -0.64385E+08
         0.14693E+09
         0.97214E+08
        -0.55305E+08
        -0.38106E+08
        -0.66124E+08
        -0.16869E+09
        -0.17094E+09
        -0.17297E+09
        -0.90861E+08
         0.52814E+08
         0.35471E+08
        -0.16796E+09
         0.20529E+08
        -0.67496E+08
        -0.81665E+08
         0.13177E+09
         0.84860E+08
        -0.81387E+08
        -0.73652E+08
         0.17343E+09
         0.15535E+09
         0.13951E+09
        -0.87788E+08
        -0.20145E+08
        -0.59305E+08
        -0.15392E+09
        -0.17386E+09
        -0.16865E+09
        -0.15484E+09
        -0.13258E+09
        -0.57602E+08
         0.92954E+08
         0.12888E+09
        -0.19022E+08
         0.20649E+08
         0.13474E+09
         0.16964E+09
         0.19024E+09
         0.18757E+09
         0.16163E+09
         0.13431E+09
         0.94393E+08
         0.40813E+08
        -0.10679E+08
        -0.38271E+08
        -0.50865E+08
        -0.88073E+08
        -0.15951E+09
        -0.19053E+09
        -0.19017E+09
        -0.18949E+09
        -0.19162E+09
        -0.18529E+09
        -0.16335E+09
        -0.14265E+09
        -0.75154E+08
         0.19191E+08
         0.46196E+08
         0.49235E+08
         0.82478E+08
         0.14638E+09
         0.18257E+09
         0.18345E+09
        -0.55640E+08
         0.18727E+08
        -0.34487E+08
        -0.99538E+08
         0.12311E+09
         0.14982E+09
         0.54078E+08
        -0.68255E+08
        -0.50469E+08
        -0.68570E+08
        -0.16451E+08
         0.26824E+08
         0.11143E+09
        -0.16399E+09
        -0.64287E+08
         0.14698E+09
         0.97432E+08
        -0.55143E+08
        -0.38086E+08
        -0.66017E+08
        -0.16866E+09
        -0.17093E+09
        -0.17297E+09
        -0.90875E+08
         0.52767E+08
         0.35547E+08
        -0.16795E+09
         0.20088E+08
        -0.67945E+08
        -0.81628E+08
         0.13186E+09
         0.84854E+08
        -0.81011E+08
        -0.73670E+08
         0.17345E+09
         0.15532E+09
         0.13949E+09
        -0.87794E+08
        -0.20278E+08
        -0.59406E+08
        -0.15391E+09
        -0.17388E+09
        -0.16865E+09
        -0.15480E+09
        -0.13253E+09
        -0.57572E+08
         0.92909E+08
         0.12890E+09
        -0.18863E+08
         0.20630E+08
         0.13473E+09
         0.16963E+09
         0.19024E+09
         0.18756E+09
         0.16162E+09
         0.13431E+09
         0.94378E+08
         0.40814E+08
        -0.10695E+08
        -0.38303E+08
        -0.50834E+08
        -0.88063E+08
        -0.15951E+09
        -0.19053E+09
        -0.19017E+09
        -0.18949E+09
        -0.19162E+09
        -0.18529E+09
        -0.16334E+09
        -0.14265E+09
        -0.75137E+08
         0.19198E+08
         0.46163E+08
         0.49218E+08
         0.82446E+08
         0.14638E+09
         0.18257E+09
         0.18346E+09
        -0.55695E+08
         0.18821E+08
        -0.34523E+08
        -0.99597E+08
         0.12305E+09
         0.14976E+09
         0.54409E+08
        -0.68021E+08
        -0.50424E+08
        -0.68337E+08
        -0.16024E+08
         0.26888E+08
         0.11146E+09
        -0.16394E+09
        -0.64187E+08
         0.14702E+09
         0.97648E+08
        -0.54982E+08
        -0.38068E+08
        -0.65908E+08
        -0.16863E+09
        -0.17093E+09
        -0.17297E+09
        -0.90888E+08
         0.52719E+08
         0.35621E+08
        -0.16794E+09
         0.19647E+08
        -0.68397E+08
        -0.81589E+08
         0.13195E+09
         0.84848E+08
        -0.80635E+08
        -0.73688E+08
         0.17346E+09
         0.15530E+09
         0.13948E+09
        -0.87798E+08
        -0.20411E+08
        -0.59505E+08
        -0.15390E+09
        -0.17390E+09
        -0.16865E+09
        -0.15476E+09
        -0.13248E+09
        -0.57540E+08
         0.92862E+08
         0.12892E+09
        -0.18702E+08
         0.20609E+08
         0.13472E+09
         0.16963E+09
         0.19024E+09
         0.18756E+09
         0.16160E+09
         0.13431E+09
         0.94363E+08
         0.40814E+08
        -0.10711E+08
        -0.38335E+08
        -0.50802E+08
        -0.88053E+08
        -0.15951E+09
        -0.19052E+09
        -0.19017E+09
        -0.18949E+09
        -0.19163E+09
        -0.18529E+09
        -0.16332E+09
        -0.14264E+09
        -0.75119E+08
         0.19204E+08
         0.46131E+08
         0.49201E+08
         0.82413E+08
         0.14637E+09
         0.18258E+09
         0.18347E+09
        -0.55749E+08
         0.18914E+08
        -0.34559E+08
        -0.99655E+08
         0.12298E+09
         0.14971E+09
         0.54735E+08
        -0.67789E+08
        -0.50379E+08
        -0.68104E+08
        -0.15597E+08
         0.26951E+08
         0.11148E+09
        -0.16390E+09
        -0.64089E+08
         0.14706E+09
         0.97865E+08
        -0.54821E+08
        -0.38052E+08
        -0.65801E+08
        -0.16860E+09
        -0.17092E+09
        -0.17297E+09
        -0.90901E+08
         0.52671E+08
         0.35695E+08
        -0.16794E+09
         0.19208E+08
        -0.68849E+08
        -0.81550E+08
         0.13203E+09
         0.84842E+08
        -0.80259E+08
        -0.73705E+08
         0.17348E+09
         0.15527E+09
         0.13946E+09
        -0.87801E+08
        -0.20543E+08
        -0.59606E+08
        -0.15389E+09
        -0.17392E+09
        -0.16865E+09
        -0.15472E+09
        -0.13243E+09
        -0.57510E+08
         0.92815E+08
         0.12894E+09
        -0.18543E+08
         0.20588E+08
         0.13471E+09
         0.16963E+09
         0.19024E+09
         0.18755E+09
         0.16159E+09
         0.13431E+09
         0.94348E+08
         0.40814E+08
        -0.10727E+08
        -0.38367E+08
        -0.50770E+08
        -0.88043E+08
        -0.15951E+09
        -0.19052E+09
        -0.19017E+09
        -0.18948E+09
        -0.19163E+09
        -0.18529E+09
        -0.16331E+09
        -0.14264E+09
        -0.75102E+08
         0.19211E+08
         0.46098E+08
         0.49185E+08
         0.82380E+08
         0.14637E+09
         0.18258E+09
         0.18347E+09
        -0.55804E+08
         0.19006E+08
        -0.34594E+08
        -0.99714E+08
         0.12291E+09
         0.14965E+09
         0.55065E+08
        -0.67557E+08
        -0.50334E+08
        -0.67874E+08
        -0.15170E+08
         0.27016E+08
         0.11150E+09
        -0.16385E+09
        -0.63989E+08
         0.14711E+09
         0.98082E+08
        -0.54661E+08
        -0.38033E+08
        -0.65691E+08
        -0.16857E+09
        -0.17092E+09
        -0.17296E+09
        -0.90914E+08
         0.52623E+08
         0.35769E+08
        -0.16793E+09
         0.18769E+08
        -0.69301E+08
        -0.81510E+08
         0.13212E+09
         0.84834E+08
        -0.79882E+08
        -0.73723E+08
         0.17349E+09
         0.15524E+09
         0.13945E+09
        -0.87803E+08
        -0.20675E+08
        -0.59705E+08
        -0.15389E+09
        -0.17395E+09
        -0.16865E+09
        -0.15468E+09
        -0.13237E+09
        -0.57480E+08
         0.92770E+08
         0.12896E+09
        -0.18380E+08
         0.20569E+08
         0.13470E+09
         0.16963E+09
         0.19024E+09
         0.18754E+09
         0.16158E+09
         0.13431E+09
         0.94333E+08
         0.40814E+08
        -0.10742E+08
        -0.38399E+08
        -0.50739E+08
        -0.88034E+08
        -0.15950E+09
        -0.19052E+09
        -0.19017E+09
        -0.18948E+09
        -0.19164E+09
        -0.18529E+09
        -0.16330E+09
        -0.14263E+09
        -0.75085E+08
         0.19218E+08
         0.46065E+08
         0.49168E+08
         0.82348E+08
         0.14637E+09
         0.18258E+09
         0.18348E+09
        -0.55859E+08
         0.19100E+08
        -0.34630E+08
        -0.99772E+08
         0.12285E+09
         0.14959E+09
         0.55393E+08
        -0.67324E+08
        -0.50289E+08
        -0.67644E+08
        -0.14743E+08
         0.27080E+08
         0.11152E+09
        -0.16380E+09
        -0.63891E+08
         0.14715E+09
         0.98299E+08
        -0.54502E+08
        -0.38014E+08
        -0.65584E+08
        -0.16854E+09
        -0.17091E+09
        -0.17296E+09
        -0.90928E+08
         0.52574E+08
         0.35844E+08
        -0.16792E+09
         0.18331E+08
        -0.69751E+08
        -0.81469E+08
         0.13221E+09
         0.84828E+08
        -0.79506E+08
        -0.73741E+08
         0.17351E+09
         0.15521E+09
         0.13943E+09
        -0.87806E+08
        -0.20807E+08
        -0.59805E+08
        -0.15388E+09
        -0.17397E+09
        -0.16865E+09
        -0.15463E+09
        -0.13232E+09
        -0.57448E+08
         0.92724E+08
         0.12898E+09
        -0.18218E+08
         0.20547E+08
         0.13469E+09
         0.16962E+09
         0.19023E+09
         0.18753E+09
         0.16156E+09
         0.13431E+09
         0.94318E+08
         0.40814E+08
        -0.10757E+08
        -0.38431E+08
        -0.50708E+08
        -0.88024E+08
        -0.15950E+09
        -0.19051E+09
        -0.19017E+09
        -0.18948E+09
        -0.19164E+09
        -0.18529E+09
        -0.16328E+09
        -0.14263E+09
        -0.75067E+08
         0.19224E+08
         0.46032E+08
         0.49152E+08
         0.82315E+08
         0.14637E+09
         0.18258E+09
         0.18349E+09
        -0.55913E+08
         0.19193E+08
        -0.34666E+08
        -0.99830E+08
         0.12278E+09
         0.14954E+09
         0.55721E+08
        -0.67093E+08
        -0.50242E+08
        -0.67412E+08
        -0.14316E+08
         0.27145E+08
         0.11155E+09
        -0.16376E+09
        -0.63791E+08
         0.14719E+09
         0.98516E+08
        -0.54342E+08
        -0.37996E+08
        -0.65474E+08
        -0.16851E+09
        -0.17091E+09
        -0.17296E+09
        -0.90943E+08
         0.52522E+08
         0.35917E+08
        -0.16791E+09
         0.17889E+08
        -0.70198E+08
        -0.81432E+08
         0.13230E+09
         0.84823E+08
        -0.79131E+08
        -0.73760E+08
         0.17352E+09
         0.15518E+09
         0.13942E+09
        -0.87807E+08
        -0.20940E+08
        -0.59906E+08
        -0.15387E+09
        -0.17399E+09
        -0.16864E+09
        -0.15459E+09
        -0.13227E+09
        -0.57418E+08
         0.92678E+08
         0.12900E+09
        -0.18057E+08
         0.20526E+08
         0.13468E+09
         0.16962E+09
         0.19023E+09
         0.18753E+09
         0.16155E+09
         0.13431E+09
         0.94303E+08
         0.40814E+08
        -0.10773E+08
        -0.38462E+08
        -0.50676E+08
        -0.88015E+08
        -0.15950E+09
        -0.19051E+09
        -0.19016E+09
        -0.18947E+09
        -0.19164E+09
        -0.18529E+09
        -0.16327E+09
        -0.14262E+09
        -0.75050E+08
         0.19231E+08
         0.46000E+08
         0.49135E+08
         0.82283E+08
         0.14637E+09
         0.18259E+09
         0.18350E+09
        -0.55968E+08
         0.19286E+08
        -0.34701E+08
        -0.99887E+08
         0.12272E+09
         0.14948E+09
         0.56048E+08
        -0.66862E+08
        -0.50192E+08
        -0.67175E+08
        -0.13890E+08
         0.27209E+08
         0.11157E+09
        -0.16371E+09
        -0.63692E+08
         0.14723E+09
         0.98730E+08
        -0.54182E+08
        -0.37984E+08
        -0.65369E+08
        -0.16848E+09
        -0.17090E+09
        -0.17296E+09
        -0.90955E+08
         0.52464E+08
         0.35994E+08
        -0.16790E+09
         0.17436E+08
        -0.70648E+08
        -0.81402E+08
         0.13238E+09
         0.84815E+08
        -0.78754E+08
        -0.73778E+08
         0.17353E+09
         0.15515E+09
         0.13940E+09
        -0.87804E+08
        -0.21078E+08
        -0.60008E+08
        -0.15386E+09
        -0.17401E+09
        -0.16864E+09
        -0.15455E+09
        -0.13222E+09
        -0.57386E+08
         0.92633E+08
         0.12902E+09
        -0.17896E+08
         0.20505E+08
         0.13467E+09
         0.16962E+09
         0.19023E+09
         0.18752E+09
         0.16154E+09
         0.13431E+09
         0.94288E+08
         0.40815E+08
        -0.10788E+08
        -0.38494E+08
        -0.50646E+08
        -0.88005E+08
        -0.15950E+09
        -0.19051E+09
        -0.19016E+09
        -0.18947E+09
        -0.19165E+09
        -0.18529E+09
        -0.16325E+09
        -0.14262E+09
        -0.75032E+08
         0.19238E+08
         0.45967E+08
         0.49118E+08
         0.82250E+08
         0.14637E+09
         0.18259E+09
         0.18350E+09
        -0.56022E+08
         0.19378E+08
        -0.34735E+08
        -0.99945E+08
         0.12265E+09
         0.14942E+09
         0.56376E+08
        -0.66631E+08
        -0.50138E+08
        -0.66932E+08
        -0.13465E+08
         0.27273E+08
         0.11159E+09
        -0.16366E+09
        -0.63591E+08
         0.14728E+09
         0.98943E+08
        -0.54022E+08
        -0.37966E+08
        -0.65260E+08
        -0.16845E+09
        -0.17090E+09
        -0.17296E+09
        -0.90970E+08
         0.52397E+08
         0.36067E+08
        -0.16789E+09
         0.16968E+08
        -0.71097E+08
        -0.81375E+08
         0.13247E+09
         0.84808E+08
        -0.78376E+08
        -0.73796E+08
         0.17355E+09
         0.15512E+09
         0.13939E+09
        -0.87799E+08
        -0.21221E+08
        -0.60111E+08
        -0.15385E+09
        -0.17403E+09
        -0.16864E+09
        -0.15451E+09
        -0.13217E+09
        -0.57356E+08
         0.92586E+08
         0.12904E+09
        -0.17732E+08
         0.20485E+08
         0.13466E+09
         0.16961E+09
         0.19023E+09
         0.18751E+09
         0.16152E+09
         0.13431E+09
         0.94273E+08
         0.40815E+08
        -0.10803E+08
        -0.38526E+08
        -0.50615E+08
        -0.87996E+08
        -0.15949E+09
        -0.19050E+09
        -0.19016E+09
        -0.18947E+09
        -0.19165E+09
        -0.18529E+09
        -0.16324E+09
        -0.14261E+09
        -0.75015E+08
         0.19244E+08
         0.45935E+08
         0.49101E+08
         0.82218E+08
         0.14637E+09
         0.18259E+09
         0.18351E+09
        -0.56077E+08
         0.19471E+08
        -0.34771E+08
        -0.10000E+09
         0.12258E+09
         0.14936E+09
         0.56700E+08
        -0.66401E+08
        -0.50082E+08
        -0.66689E+08
        -0.13043E+08
         0.27336E+08
         0.11161E+09
        -0.16362E+09
        -0.63490E+08
         0.14732E+09
         0.99157E+08
        -0.53864E+08
        -0.37948E+08
        -0.65155E+08
        -0.16842E+09
        -0.17089E+09
        -0.17295E+09
        -0.90984E+08
         0.52328E+08
         0.36140E+08
        -0.16788E+09
         0.16500E+08
        -0.71542E+08
        -0.81349E+08
         0.13256E+09
         0.84801E+08
        -0.78002E+08
        -0.73816E+08
         0.17356E+09
         0.15510E+09
         0.13937E+09
        -0.87792E+08
        -0.21365E+08
        -0.60212E+08
        -0.15383E+09
        -0.17405E+09
        -0.16864E+09
        -0.15447E+09
        -0.13211E+09
        -0.57326E+08
         0.92542E+08
         0.12907E+09
        -0.17570E+08
         0.20462E+08
         0.13465E+09
         0.16961E+09
         0.19022E+09
         0.18751E+09
         0.16151E+09
         0.13431E+09
         0.94258E+08
         0.40815E+08
        -0.10818E+08
        -0.38556E+08
        -0.50586E+08
        -0.87987E+08
        -0.15949E+09
        -0.19050E+09
        -0.19016E+09
        -0.18947E+09
        -0.19166E+09
        -0.18529E+09
        -0.16322E+09
        -0.14260E+09
        -0.74997E+08
         0.19252E+08
         0.45903E+08
         0.49084E+08
         0.82186E+08
         0.14637E+09
         0.18259E+09
         0.18352E+09
        -0.54010E+08
         0.18023E+08
        -0.33361E+08
        -0.10035E+09
         0.11626E+09
         0.13612E+09
         0.57144E+08
        -0.62949E+08
        -0.45756E+08
        -0.63056E+08
        -0.12710E+08
         0.26787E+08
         0.10832E+09
        -0.14518E+09
        -0.62123E+08
         0.13817E+09
         0.99640E+08
        -0.53876E+08
        -0.38026E+08
        -0.65213E+08
        -0.16438E+09
        -0.16617E+09
        -0.16843E+09
        -0.91247E+08
         0.46626E+08
         0.36308E+08
        -0.14920E+09
         0.16105E+08
        -0.72141E+08
        -0.72535E+08
         0.12147E+09
         0.85027E+08
        -0.77886E+08
        -0.74051E+08
         0.16716E+09
         0.14274E+09
         0.13240E+09
        -0.85473E+08
        -0.20647E+08
        -0.57573E+08
        -0.14993E+09
        -0.16926E+09
        -0.16442E+09
        -0.14930E+09
        -0.12615E+09
        -0.55448E+08
         0.87064E+08
         0.12009E+09
        -0.15713E+08
         0.18817E+08
         0.12957E+09
         0.15839E+09
         0.18894E+09
         0.18635E+09
         0.16057E+09
         0.13357E+09
         0.93759E+08
         0.40608E+08
        -0.10777E+08
        -0.38322E+08
        -0.50194E+08
        -0.87395E+08
        -0.15846E+09
        -0.18939E+09
        -0.18887E+09
        -0.18818E+09
        -0.19057E+09
        -0.18434E+09
        -0.16241E+09
        -0.14191E+09
        -0.74523E+08
         0.19151E+08
         0.45600E+08
         0.48760E+08
         0.81668E+08
         0.14546E+09
         0.18154E+09
         0.18244E+09
        -0.26470E+08
         0.59221E+07
        -0.10618E+08
        -0.33617E+08
         0.50746E+08
         0.47723E+08
         0.16450E+08
        -0.27805E+08
        -0.16263E+08
        -0.27358E+08
        -0.32418E+07
         0.15865E+08
         0.57847E+08
        -0.45873E+08
        -0.37708E+08
         0.55609E+08
         0.30861E+08
        -0.19000E+08
        -0.11241E+08
        -0.18772E+08
        -0.94412E+08
        -0.90962E+08
        -0.93577E+08
        -0.28382E+08
         0.15028E+08
         0.11864E+08
        -0.47346E+08
         0.41890E+07
        -0.19056E+08
        -0.23394E+08
         0.43303E+08
         0.26701E+08
        -0.25882E+08
        -0.23805E+08
         0.82383E+08
         0.52133E+08
         0.58175E+08
        -0.47550E+08
        -0.99994E+07
        -0.26410E+08
        -0.84672E+08
        -0.92763E+08
        -0.93185E+08
        -0.76238E+08
        -0.57636E+08
        -0.28649E+08
         0.35844E+08
         0.46232E+08
        -0.52273E+07
         0.68830E+07
         0.63459E+08
         0.62406E+08
         0.15034E+09
         0.15100E+09
         0.13150E+09
         0.11041E+09
         0.78313E+08
         0.34165E+08
        -0.89541E+07
        -0.30664E+08
        -0.39604E+08
        -0.69990E+08
        -0.12751E+09
        -0.15503E+09
        -0.15037E+09
        -0.15023E+09
        -0.15658E+09
        -0.15381E+09
        -0.13658E+09
        -0.11941E+09
        -0.60384E+08
         0.15667E+08
         0.37020E+08
         0.39359E+08
         0.66475E+08
         0.11766E+09
         0.14883E+09
         0.14906E+09
  
SCALARS                      stress_xy  double 1
LOOKUP_TABLE default
        -0.53359E+00
        -0.12519E+01
        -0.10737E+02
         0.37930E+00
        -0.28923E-09
         0.28266E-10
         0.42498E-09
         0.64738E-10
        -0.11325E+03
         0.49761E+02
         0.18917E-08
         0.15001E-08
         0.42365E+01
        -0.87903E+00
         0.16697E-09
        -0.50149E-10
         0.12189E+01
         0.21259E+02
         0.83125E-11
         0.12667E-09
        -0.16169E+02
        -0.10256E+03
        -0.10095E+03
         0.12880E-08
         0.10257E-08
        -0.14979E-08
        -0.10678E+02
        -0.89198E+02
         0.17343E-08
         0.26690E-08
        -0.32595E+01
         0.63125E+01
         0.51293E+00
        -0.91540E-10
         0.36112E-09
        -0.46188E-11
        -0.28743E+02
        -0.13353E+02
         0.96647E-09
         0.80063E-09
        -0.56322E+02
        -0.50807E+02
         0.16476E-08
         0.11104E-08
        -0.54642E+02
        -0.10032E+02
        -0.60019E-10
         0.44685E-09
         0.14571E+02
         0.13206E-09
        -0.34181E+01
        -0.29774E-11
         0.89563E+00
         0.99816E-09
         0.44343E+01
         0.15360E-09
         0.63274E+02
        -0.30817E+01
         0.35696E-11
        -0.17512E-10
         0.42207E+00
        -0.42488E+02
         0.97274E-10
         0.24951E-09
         0.18260E+01
        -0.19750E-10
         0.26244E+02
         0.15826E-09
        -0.14026E+03
        -0.50912E+02
         0.12224E-09
        -0.11706E-08
        -0.11449E+03
        -0.18717E-08
         0.46806E+02
         0.12536E-08
         0.14782E+03
         0.18677E-09
         0.25814E+03
         0.24287E-09
         0.50090E+03
         0.27297E+03
         0.57098E-09
        -0.14478E-09
         0.33716E+02
        -0.17423E-10
        -0.10356E+03
        -0.15714E-08
        -0.15243E+03
        -0.17546E-08
        -0.33534E+03
        -0.15288E+03
        -0.11107E-08
         0.12328E-08
         0.24578E+02
         0.11225E-08
         0.60534E+02
         0.48221E-09
         0.14145E+03
         0.12803E-08
         0.34794E+03
         0.19844E+03
         0.27453E-08
         0.13727E-08
        -0.57174E+03
         0.23961E+03
        -0.17837E-08
         0.21843E-08
        -0.13921E+04
        -0.50693E-08
        -0.18161E+04
        -0.55414E-08
        -0.15954E+04
        -0.37609E-08
        -0.13597E+04
        -0.39892E-09
        -0.59405E+03
         0.11244E-08
         0.78243E+03
         0.69617E-09
         0.17582E+04
         0.63641E-09
         0.23246E+04
         0.13654E-08
         0.22802E+04
         0.16602E-08
         0.18709E+04
         0.65408E-09
         0.99748E+03
         0.39877E-09
        -0.68332E+02
         0.65179E-09
        -0.83057E+03
         0.43691E-09
        -0.13399E+04
        -0.15581E-08
        -0.18289E+04
        -0.40882E-08
        -0.16369E+04
        -0.51882E-08
        -0.10507E+04
        -0.32110E-08
        -0.11508E+03
         0.61261E-09
         0.77752E+03
         0.12984E-08
         0.11245E+04
         0.20692E-08
         0.13756E+04
         0.40748E-08
         0.12331E+04
         0.52874E-08
         0.11479E+04
         0.37565E-08
         0.94829E+03
         0.29708E-08
        -0.81609E+02
         0.21979E+02
         0.22509E+02
        -0.14075E+02
         0.17970E+03
         0.14786E+03
         0.23524E+01
        -0.53129E+02
        -0.23528E+02
        -0.61405E+02
        -0.17584E+02
        -0.32473E+03
        -0.46364E+03
         0.17203E+02
         0.26375E+03
        -0.35385E+02
         0.26306E+02
         0.78542E+01
         0.15943E+02
        -0.12965E+02
         0.65063E+02
         0.57128E+02
        -0.17332E+03
         0.45405E+01
         0.39037E+02
         0.43006E+01
         0.71504E+00
         0.14019E+01
         0.17399E+02
        -0.57780E+02
        -0.30835E+02
         0.65616E+01
         0.10567E+02
        -0.83197E+00
        -0.43348E+02
        -0.14983E+03
        -0.30417E+03
         0.46005E+03
         0.23944E+03
         0.43247E+03
         0.83740E+03
         0.19415E+03
        -0.15702E+03
        -0.31655E+03
        -0.37495E+03
        -0.47850E+03
         0.59037E+02
         0.17703E+03
         0.54616E+02
         0.18378E+03
         0.57529E+03
         0.22173E+03
        -0.19534E+04
         0.24680E+04
        -0.59730E+04
        -0.70223E+04
        -0.66644E+04
        -0.40278E+04
         0.24013E+03
         0.26097E+04
         0.37842E+04
         0.61395E+04
         0.64637E+04
         0.34594E+04
         0.13955E+04
         0.59022E+03
        -0.95517E+03
        -0.37759E+04
        -0.63038E+04
        -0.71991E+04
        -0.44065E+04
         0.79897E+03
         0.28946E+04
         0.30505E+04
         0.48052E+04
         0.53340E+04
         0.40450E+04
         0.37338E+04
        -0.21169E+06
         0.47609E+05
        -0.83873E+05
        -0.57925E+05
         0.35611E+06
         0.21503E+06
         0.57774E+05
        -0.25946E+06
        -0.13285E+06
        -0.25057E+06
         0.42107E+05
        -0.13993E+06
        -0.42465E+06
         0.11888E+06
         0.33343E+06
        -0.23254E+06
         0.46221E+05
         0.26430E+05
         0.80170E+05
         0.27220E+05
         0.22346E+06
         0.16691E+06
        -0.99424E+05
         0.56902E+05
         0.13064E+06
        -0.21757E+05
         0.26258E+05
        -0.73081E+04
        -0.29423E+05
        -0.20764E+06
        -0.22648E+06
        -0.38666E+05
         0.95096E+05
         0.71263E+05
         0.63549E+05
        -0.21329E+06
        -0.33703E+06
         0.39286E+06
         0.86853E+05
         0.24628E+06
         0.38941E+06
        -0.11566E+06
        -0.23046E+06
        -0.30576E+06
        -0.35524E+06
        -0.26904E+06
         0.30871E+06
         0.29475E+06
        -0.60649E+05
         0.71809E+05
         0.39665E+06
         0.43845E+05
        -0.21564E+06
         0.29780E+06
        -0.57405E+06
        -0.62002E+06
        -0.53174E+06
        -0.25833E+06
         0.67705E+05
         0.23706E+06
         0.31363E+06
         0.50291E+06
         0.58183E+06
         0.23192E+06
         0.10946E+06
         0.97818E+05
        -0.42087E+05
        -0.32459E+06
        -0.55492E+06
        -0.62267E+06
        -0.44304E+06
         0.12165E+06
         0.28578E+06
         0.30072E+06
         0.47432E+06
         0.60252E+06
         0.38035E+06
         0.36456E+06
        -0.21201E+06
         0.47794E+05
        -0.84073E+05
        -0.58389E+05
         0.35603E+06
         0.21514E+06
         0.58214E+05
        -0.25891E+06
        -0.13324E+06
        -0.25036E+06
         0.41280E+05
        -0.14027E+06
        -0.42475E+06
         0.11890E+06
         0.33310E+06
        -0.23259E+06
         0.46743E+05
         0.26317E+05
         0.80185E+05
         0.27021E+05
         0.22397E+06
         0.16706E+06
        -0.99450E+05
         0.56878E+05
         0.13153E+06
        -0.21754E+05
         0.26566E+05
        -0.72109E+04
        -0.29435E+05
        -0.20784E+06
        -0.22664E+06
        -0.38577E+05
         0.94910E+05
         0.71412E+05
         0.62942E+05
        -0.21341E+06
        -0.33701E+06
         0.39312E+06
         0.87585E+05
         0.24685E+06
         0.38954E+06
        -0.11532E+06
        -0.23066E+06
        -0.30588E+06
        -0.35522E+06
        -0.26892E+06
         0.30868E+06
         0.29469E+06
        -0.60214E+05
         0.71582E+05
         0.39656E+06
         0.43200E+05
        -0.21551E+06
         0.29787E+06
        -0.57411E+06
        -0.62002E+06
        -0.53167E+06
        -0.25833E+06
         0.67805E+05
         0.23725E+06
         0.31344E+06
         0.50285E+06
         0.58180E+06
         0.23202E+06
         0.10946E+06
         0.98021E+05
        -0.41740E+05
        -0.32469E+06
        -0.55502E+06
        -0.62270E+06
        -0.44296E+06
         0.12171E+06
         0.28560E+06
         0.30062E+06
         0.47414E+06
         0.60244E+06
         0.38013E+06
         0.36427E+06
        -0.21233E+06
         0.47978E+05
        -0.84273E+05
        -0.58858E+05
         0.35594E+06
         0.21525E+06
         0.58657E+05
        -0.25836E+06
        -0.13361E+06
        -0.25014E+06
         0.40453E+05
        -0.14060E+06
        -0.42485E+06
         0.11890E+06
         0.33277E+06
        -0.23264E+06
         0.47275E+05
         0.26204E+05
         0.80201E+05
         0.26821E+05
         0.22447E+06
         0.16722E+06
        -0.99490E+05
         0.56846E+05
         0.13243E+06
        -0.21747E+05
         0.26895E+05
        -0.71162E+04
        -0.29427E+05
        -0.20804E+06
        -0.22680E+06
        -0.38472E+05
         0.94721E+05
         0.71558E+05
         0.62332E+05
        -0.21353E+06
        -0.33698E+06
         0.39337E+06
         0.88314E+05
         0.24743E+06
         0.38968E+06
        -0.11495E+06
        -0.23085E+06
        -0.30603E+06
        -0.35522E+06
        -0.26881E+06
         0.30865E+06
         0.29463E+06
        -0.59768E+05
         0.71348E+05
         0.39646E+06
         0.42558E+05
        -0.21537E+06
         0.29794E+06
        -0.57417E+06
        -0.62002E+06
        -0.53160E+06
        -0.25832E+06
         0.67905E+05
         0.23744E+06
         0.31326E+06
         0.50279E+06
         0.58177E+06
         0.23212E+06
         0.10946E+06
         0.98224E+05
        -0.41392E+05
        -0.32480E+06
        -0.55511E+06
        -0.62273E+06
        -0.44287E+06
         0.12177E+06
         0.28543E+06
         0.30053E+06
         0.47396E+06
         0.60236E+06
         0.37991E+06
         0.36398E+06
        -0.21265E+06
         0.48166E+05
        -0.84471E+05
        -0.59329E+05
         0.35585E+06
         0.21536E+06
         0.59100E+05
        -0.25781E+06
        -0.13398E+06
        -0.24990E+06
         0.39627E+05
        -0.14094E+06
        -0.42496E+06
         0.11892E+06
         0.33243E+06
        -0.23270E+06
         0.47820E+05
         0.26089E+05
         0.80225E+05
         0.26610E+05
         0.22499E+06
         0.16736E+06
        -0.99574E+05
         0.56793E+05
         0.13338E+06
        -0.21736E+05
         0.27236E+05
        -0.70376E+04
        -0.29363E+05
        -0.20823E+06
        -0.22696E+06
        -0.38337E+05
         0.94526E+05
         0.71707E+05
         0.61725E+05
        -0.21364E+06
        -0.33696E+06
         0.39362E+06
         0.89037E+05
         0.24799E+06
         0.38984E+06
        -0.11448E+06
        -0.23100E+06
        -0.30626E+06
        -0.35524E+06
        -0.26869E+06
         0.30862E+06
         0.29458E+06
        -0.59321E+05
         0.71113E+05
         0.39636E+06
         0.41916E+05
        -0.21524E+06
         0.29800E+06
        -0.57423E+06
        -0.62002E+06
        -0.53153E+06
        -0.25831E+06
         0.68006E+05
         0.23763E+06
         0.31307E+06
         0.50272E+06
         0.58174E+06
         0.23224E+06
         0.10947E+06
         0.98423E+05
        -0.41041E+05
        -0.32491E+06
        -0.55522E+06
        -0.62276E+06
        -0.44278E+06
         0.12183E+06
         0.28526E+06
         0.30043E+06
         0.47379E+06
         0.60227E+06
         0.37969E+06
         0.36369E+06
        -0.21297E+06
         0.48355E+05
        -0.84670E+05
        -0.59798E+05
         0.35576E+06
         0.21546E+06
         0.59544E+05
        -0.25725E+06
        -0.13418E+06
        -0.24962E+06
         0.38799E+05
        -0.14128E+06
        -0.42506E+06
         0.11894E+06
         0.33210E+06
        -0.23277E+06
         0.48379E+05
         0.25974E+05
         0.80242E+05
         0.26391E+05
         0.22550E+06
         0.16748E+06
        -0.99700E+05
         0.56717E+05
         0.13437E+06
        -0.21716E+05
         0.27614E+05
        -0.69730E+04
        -0.29240E+05
        -0.20839E+06
        -0.22712E+06
        -0.38166E+05
         0.94327E+05
         0.71855E+05
         0.61113E+05
        -0.21375E+06
        -0.33694E+06
         0.39387E+06
         0.89754E+05
         0.24856E+06
         0.39004E+06
        -0.11392E+06
        -0.23110E+06
        -0.30655E+06
        -0.35530E+06
        -0.26855E+06
         0.30861E+06
         0.29453E+06
        -0.58876E+05
         0.70881E+05
         0.39626E+06
         0.41269E+05
        -0.21510E+06
         0.29807E+06
        -0.57429E+06
        -0.62002E+06
        -0.53146E+06
        -0.25830E+06
         0.68105E+05
         0.23782E+06
         0.31289E+06
         0.50266E+06
         0.58172E+06
         0.23239E+06
         0.10949E+06
         0.98618E+05
        -0.40688E+05
        -0.32502E+06
        -0.55535E+06
        -0.62279E+06
        -0.44270E+06
         0.12189E+06
         0.28508E+06
         0.30034E+06
         0.47362E+06
         0.60219E+06
         0.37948E+06
         0.36340E+06
        -0.21328E+06
         0.48556E+05
        -0.84850E+05
        -0.60272E+05
         0.35567E+06
         0.21557E+06
         0.59981E+05
        -0.25668E+06
        -0.13431E+06
        -0.24933E+06
         0.37972E+05
        -0.14162E+06
        -0.42517E+06
         0.11898E+06
         0.33177E+06
        -0.23284E+06
         0.48949E+05
         0.25860E+05
         0.80259E+05
         0.26171E+05
         0.22602E+06
         0.16759E+06
        -0.99844E+05
         0.56634E+05
         0.13534E+06
        -0.21692E+05
         0.28022E+05
        -0.69137E+04
        -0.29092E+05
        -0.20857E+06
        -0.22727E+06
        -0.37972E+05
         0.94127E+05
         0.72005E+05
         0.60498E+05
        -0.21388E+06
        -0.33693E+06
         0.39412E+06
         0.90468E+05
         0.24912E+06
         0.39024E+06
        -0.11333E+06
        -0.23118E+06
        -0.30688E+06
        -0.35537E+06
        -0.26842E+06
         0.30859E+06
         0.29450E+06
        -0.58418E+05
         0.70668E+05
         0.39617E+06
         0.40622E+05
        -0.21497E+06
         0.29814E+06
        -0.57435E+06
        -0.62002E+06
        -0.53139E+06
        -0.25830E+06
         0.68204E+05
         0.23801E+06
         0.31270E+06
         0.50259E+06
         0.58171E+06
         0.23254E+06
         0.10950E+06
         0.98812E+05
        -0.40336E+05
        -0.32513E+06
        -0.55549E+06
        -0.62282E+06
        -0.44261E+06
         0.12195E+06
         0.28491E+06
         0.30024E+06
         0.47344E+06
         0.60211E+06
         0.37926E+06
         0.36310E+06
        -0.21356E+06
         0.48789E+05
        -0.84999E+05
        -0.60757E+05
         0.35558E+06
         0.21568E+06
         0.60412E+05
        -0.25610E+06
        -0.13443E+06
        -0.24905E+06
         0.37145E+05
        -0.14195E+06
        -0.42528E+06
         0.11908E+06
         0.33143E+06
        -0.23291E+06
         0.49528E+05
         0.25746E+05
         0.80285E+05
         0.25952E+05
         0.22654E+06
         0.16771E+06
        -0.99988E+05
         0.56556E+05
         0.13626E+06
        -0.21660E+05
         0.28502E+05
        -0.68529E+04
        -0.28934E+05
        -0.20876E+06
        -0.22741E+06
        -0.37758E+05
         0.93923E+05
         0.72153E+05
         0.59880E+05
        -0.21401E+06
        -0.33693E+06
         0.39436E+06
         0.91186E+05
         0.24969E+06
         0.39045E+06
        -0.11272E+06
        -0.23126E+06
        -0.30720E+06
        -0.35546E+06
        -0.26830E+06
         0.30856E+06
         0.29451E+06
        -0.57921E+05
         0.70506E+05
         0.39608E+06
         0.39966E+05
        -0.21483E+06
         0.29821E+06
        -0.57441E+06
        -0.62002E+06
        -0.53132E+06
        -0.25829E+06
         0.68302E+05
         0.23820E+06
         0.31252E+06
         0.50253E+06
         0.58169E+06
         0.23269E+06
         0.10952E+06
         0.99008E+05
        -0.39984E+05
        -0.32525E+06
        -0.55562E+06
        -0.62286E+06
        -0.44252E+06
         0.12199E+06
         0.28472E+06
         0.30014E+06
         0.47328E+06
         0.60203E+06
         0.37904E+06
         0.36281E+06
        -0.21382E+06
         0.49033E+05
        -0.85133E+05
        -0.61247E+05
         0.35550E+06
         0.21579E+06
         0.60835E+05
        -0.25551E+06
        -0.13456E+06
        -0.24879E+06
         0.36317E+05
        -0.14229E+06
        -0.42539E+06
         0.11919E+06
         0.33109E+06
        -0.23300E+06
         0.50112E+05
         0.25630E+05
         0.80304E+05
         0.25737E+05
         0.22705E+06
         0.16783E+06
        -0.10013E+06
         0.56478E+05
         0.13715E+06
        -0.21626E+05
         0.29000E+05
        -0.67903E+04
        -0.28773E+05
        -0.20896E+06
        -0.22753E+06
        -0.37531E+05
         0.93716E+05
         0.72303E+05
         0.59257E+05
        -0.21415E+06
        -0.33693E+06
         0.39460E+06
         0.91901E+05
         0.25026E+06
         0.39066E+06
        -0.11211E+06
        -0.23133E+06
        -0.30752E+06
        -0.35555E+06
        -0.26819E+06
         0.30852E+06
         0.29452E+06
        -0.57408E+05
         0.70367E+05
         0.39599E+06
         0.39310E+05
        -0.21470E+06
         0.29828E+06
        -0.57447E+06
        -0.62002E+06
        -0.53125E+06
        -0.25828E+06
         0.68401E+05
         0.23838E+06
         0.31233E+06
         0.50247E+06
         0.58167E+06
         0.23285E+06
         0.10954E+06
         0.99206E+05
        -0.39630E+05
        -0.32536E+06
        -0.55575E+06
        -0.62289E+06
        -0.44243E+06
         0.12204E+06
         0.28453E+06
         0.30005E+06
         0.47311E+06
         0.60194E+06
         0.37882E+06
         0.36252E+06
        -0.21409E+06
         0.49279E+05
        -0.85264E+05
        -0.61737E+05
         0.35542E+06
         0.21589E+06
         0.61258E+05
        -0.25493E+06
        -0.13470E+06
        -0.24852E+06
         0.35489E+05
        -0.14262E+06
        -0.42550E+06
         0.11932E+06
         0.33074E+06
        -0.23308E+06
         0.50702E+05
         0.25515E+05
         0.80322E+05
         0.25519E+05
         0.22757E+06
         0.16795E+06
        -0.10027E+06
         0.56404E+05
         0.13804E+06
        -0.21591E+05
         0.29511E+05
        -0.67241E+04
        -0.28607E+05
        -0.20916E+06
        -0.22766E+06
        -0.37306E+05
         0.93507E+05
         0.72451E+05
         0.58631E+05
        -0.21429E+06
        -0.33693E+06
         0.39484E+06
         0.92617E+05
         0.25083E+06
         0.39087E+06
        -0.11151E+06
        -0.23141E+06
        -0.30785E+06
        -0.35564E+06
        -0.26808E+06
         0.30848E+06
         0.29454E+06
        -0.56894E+05
         0.70234E+05
         0.39590E+06
         0.38649E+05
        -0.21457E+06
         0.29835E+06
        -0.57453E+06
        -0.62002E+06
        -0.53118E+06
        -0.25827E+06
         0.68499E+05
         0.23857E+06
         0.31214E+06
         0.50241E+06
         0.58166E+06
         0.23300E+06
         0.10956E+06
         0.99407E+05
        -0.39278E+05
        -0.32548E+06
        -0.55588E+06
        -0.62292E+06
        -0.44235E+06
         0.12208E+06
         0.28434E+06
         0.29995E+06
         0.47295E+06
         0.60186E+06
         0.37860E+06
         0.36223E+06
        -0.21436E+06
         0.49527E+05
        -0.85395E+05
        -0.62227E+05
         0.35533E+06
         0.21599E+06
         0.61683E+05
        -0.25434E+06
        -0.13483E+06
        -0.24825E+06
         0.34661E+05
        -0.14295E+06
        -0.42561E+06
         0.11943E+06
         0.33040E+06
        -0.23315E+06
         0.51295E+05
         0.25401E+05
         0.80339E+05
         0.25302E+05
         0.22808E+06
         0.16807E+06
        -0.10041E+06
         0.56329E+05
         0.13893E+06
        -0.21556E+05
         0.30008E+05
        -0.66550E+04
        -0.28437E+05
        -0.20935E+06
        -0.22779E+06
        -0.37080E+05
         0.93294E+05
         0.72601E+05
         0.58006E+05
        -0.21443E+06
        -0.33694E+06
         0.39507E+06
         0.93332E+05
         0.25140E+06
         0.39108E+06
        -0.11091E+06
        -0.23148E+06
        -0.30817E+06
        -0.35573E+06
        -0.26797E+06
         0.30845E+06
         0.29457E+06
        -0.56384E+05
         0.70090E+05
         0.39581E+06
         0.37991E+05
        -0.21443E+06
         0.29841E+06
        -0.57458E+06
        -0.62002E+06
        -0.53111E+06
        -0.25826E+06
         0.68598E+05
         0.23876E+06
         0.31196E+06
         0.50235E+06
         0.58164E+06
         0.23315E+06
         0.10958E+06
         0.99607E+05
        -0.38927E+05
        -0.32559E+06
        -0.55601E+06
        -0.62295E+06
        -0.44226E+06
         0.12213E+06
         0.28415E+06
         0.29985E+06
         0.47278E+06
         0.60178E+06
         0.37838E+06
         0.36193E+06
        -0.21462E+06
         0.49772E+05
        -0.85530E+05
        -0.62715E+05
         0.35525E+06
         0.21610E+06
         0.62109E+05
        -0.25375E+06
        -0.13496E+06
        -0.24798E+06
         0.33830E+05
        -0.14329E+06
        -0.42572E+06
         0.11955E+06
         0.33006E+06
        -0.23324E+06
         0.51891E+05
         0.25287E+05
         0.80366E+05
         0.25082E+05
         0.22860E+06
         0.16818E+06
        -0.10055E+06
         0.56256E+05
         0.13933E+06
        -0.21520E+05
         0.30514E+05
        -0.65818E+04
        -0.28262E+05
        -0.20955E+06
        -0.22791E+06
        -0.36855E+05
         0.93081E+05
         0.72750E+05
         0.57379E+05
        -0.21457E+06
        -0.33695E+06
         0.39531E+06
         0.94047E+05
         0.25196E+06
         0.39129E+06
        -0.11030E+06
        -0.23156E+06
        -0.30849E+06
        -0.35582E+06
        -0.26787E+06
         0.30841E+06
         0.29459E+06
        -0.55869E+05
         0.69950E+05
         0.39572E+06
         0.37331E+05
        -0.21429E+06
         0.29848E+06
        -0.57464E+06
        -0.62002E+06
        -0.53104E+06
        -0.25826E+06
         0.68694E+05
         0.23895E+06
         0.31177E+06
         0.50228E+06
         0.58162E+06
         0.23330E+06
         0.10960E+06
         0.99804E+05
        -0.38575E+05
        -0.32571E+06
        -0.55615E+06
        -0.62299E+06
        -0.44217E+06
         0.12217E+06
         0.28396E+06
         0.29975E+06
         0.47262E+06
         0.60169E+06
         0.37817E+06
         0.36164E+06
        -0.21489E+06
         0.50018E+05
        -0.85659E+05
        -0.63209E+05
         0.35516E+06
         0.21620E+06
         0.62534E+05
        -0.25316E+06
        -0.13509E+06
        -0.24771E+06
         0.33000E+05
        -0.14363E+06
        -0.42583E+06
         0.11967E+06
         0.32972E+06
        -0.23332E+06
         0.52490E+05
         0.25172E+05
         0.80386E+05
         0.24867E+05
         0.22911E+06
         0.16830E+06
        -0.10069E+06
         0.56184E+05
         0.13973E+06
        -0.21486E+05
         0.31009E+05
        -0.65060E+04
        -0.28080E+05
        -0.20975E+06
        -0.22803E+06
        -0.36629E+05
         0.92862E+05
         0.72902E+05
         0.56747E+05
        -0.21471E+06
        -0.33695E+06
         0.39554E+06
         0.94761E+05
         0.25254E+06
         0.39149E+06
        -0.10971E+06
        -0.23163E+06
        -0.30881E+06
        -0.35591E+06
        -0.26776E+06
         0.30837E+06
         0.29462E+06
        -0.55353E+05
         0.69817E+05
         0.39563E+06
         0.36670E+05
        -0.21416E+06
         0.29854E+06
        -0.57470E+06
        -0.62002E+06
        -0.53097E+06
        -0.25825E+06
         0.68791E+05
         0.23914E+06
         0.31158E+06
         0.50222E+06
         0.58160E+06
         0.23345E+06
         0.10962E+06
         0.10000E+06
        -0.38221E+05
        -0.32582E+06
        -0.55628E+06
        -0.62302E+06
        -0.44208E+06
         0.12221E+06
         0.28377E+06
         0.29966E+06
         0.47245E+06
         0.60161E+06
         0.37795E+06
         0.36134E+06
        -0.21516E+06
         0.50265E+05
        -0.85788E+05
        -0.63703E+05
         0.35507E+06
         0.21631E+06
         0.62959E+05
        -0.25257E+06
        -0.13521E+06
        -0.24743E+06
         0.32171E+05
        -0.14396E+06
        -0.42594E+06
         0.11977E+06
         0.32937E+06
        -0.23339E+06
         0.53091E+05
         0.25057E+05
         0.80407E+05
         0.24652E+05
         0.22963E+06
         0.16841E+06
        -0.10083E+06
         0.56112E+05
         0.14012E+06
        -0.21449E+05
         0.31517E+05
        -0.64264E+04
        -0.27895E+05
        -0.20994E+06
        -0.22816E+06
        -0.36401E+05
         0.92640E+05
         0.73051E+05
         0.56117E+05
        -0.21485E+06
        -0.33695E+06
         0.39577E+06
         0.95476E+05
         0.25310E+06
         0.39170E+06
        -0.10911E+06
        -0.23170E+06
        -0.30913E+06
        -0.35600E+06
        -0.26765E+06
         0.30834E+06
         0.29464E+06
        -0.54834E+05
         0.69675E+05
         0.39554E+06
         0.36011E+05
        -0.21402E+06
         0.29861E+06
        -0.57475E+06
        -0.62002E+06
        -0.53090E+06
        -0.25824E+06
         0.68890E+05
         0.23932E+06
         0.31140E+06
         0.50216E+06
         0.58158E+06
         0.23360E+06
         0.10964E+06
         0.10020E+06
        -0.37868E+05
        -0.32594E+06
        -0.55641E+06
        -0.62305E+06
        -0.44200E+06
         0.12225E+06
         0.28358E+06
         0.29956E+06
         0.47229E+06
         0.60153E+06
         0.37774E+06
         0.36105E+06
        -0.21543E+06
         0.50509E+05
        -0.85917E+05
        -0.64197E+05
         0.35499E+06
         0.21641E+06
         0.63385E+05
        -0.25198E+06
        -0.13534E+06
        -0.24715E+06
         0.31342E+05
        -0.14429E+06
        -0.42605E+06
         0.11989E+06
         0.32903E+06
        -0.23347E+06
         0.53696E+05
         0.24943E+05
         0.80436E+05
         0.24438E+05
         0.23014E+06
         0.16853E+06
        -0.10097E+06
         0.56041E+05
         0.14051E+06
        -0.21412E+05
         0.32012E+05
        -0.63440E+04
        -0.27707E+05
        -0.21013E+06
        -0.22828E+06
        -0.36176E+05
         0.92417E+05
         0.73201E+05
         0.55484E+05
        -0.21499E+06
        -0.33695E+06
         0.39600E+06
         0.96188E+05
         0.25367E+06
         0.39191E+06
        -0.10851E+06
        -0.23178E+06
        -0.30945E+06
        -0.35609E+06
        -0.26754E+06
         0.30830E+06
         0.29466E+06
        -0.54316E+05
         0.69535E+05
         0.39545E+06
         0.35355E+05
        -0.21388E+06
         0.29867E+06
        -0.57481E+06
        -0.62003E+06
        -0.53083E+06
        -0.25823E+06
         0.68988E+05
         0.23951E+06
         0.31121E+06
         0.50210E+06
         0.58157E+06
         0.23375E+06
         0.10966E+06
         0.10040E+06
        -0.37517E+05
        -0.32605E+06
        -0.55654E+06
        -0.62308E+06
        -0.44191E+06
         0.12229E+06
         0.28338E+06
         0.29946E+06
         0.47212E+06
         0.60144E+06
         0.37752E+06
         0.36075E+06
        -0.21569E+06
         0.50752E+05
        -0.86046E+05
        -0.64692E+05
         0.35490E+06
         0.21651E+06
         0.63810E+05
        -0.25138E+06
        -0.13547E+06
        -0.24687E+06
         0.30511E+05
        -0.14463E+06
        -0.42616E+06
         0.11999E+06
         0.32868E+06
        -0.23355E+06
         0.54306E+05
         0.24830E+05
         0.80456E+05
         0.24223E+05
         0.23066E+06
         0.16864E+06
        -0.10111E+06
         0.55971E+05
         0.14090E+06
        -0.21375E+05
         0.32516E+05
        -0.62578E+04
        -0.27516E+05
        -0.21032E+06
        -0.22840E+06
        -0.35948E+05
         0.92191E+05
         0.73351E+05
         0.54852E+05
        -0.21513E+06
        -0.33696E+06
         0.39623E+06
         0.96899E+05
         0.25424E+06
         0.39211E+06
        -0.10791E+06
        -0.23185E+06
        -0.30976E+06
        -0.35618E+06
        -0.26744E+06
         0.30826E+06
         0.29468E+06
        -0.53790E+05
         0.69398E+05
         0.39536E+06
         0.34694E+05
        -0.21374E+06
         0.29874E+06
        -0.57486E+06
        -0.62003E+06
        -0.53076E+06
        -0.25822E+06
         0.69084E+05
         0.23969E+06
         0.31102E+06
         0.50204E+06
         0.58155E+06
         0.23390E+06
         0.10968E+06
         0.10060E+06
        -0.37165E+05
        -0.32616E+06
        -0.55667E+06
        -0.62312E+06
        -0.44182E+06
         0.12234E+06
         0.28319E+06
         0.29937E+06
         0.47196E+06
         0.60136E+06
         0.37731E+06
         0.36046E+06
        -0.21596E+06
         0.50999E+05
        -0.86176E+05
        -0.65185E+05
         0.35481E+06
         0.21662E+06
         0.64235E+05
        -0.25079E+06
        -0.13559E+06
        -0.24658E+06
         0.29679E+05
        -0.14497E+06
        -0.42627E+06
         0.12010E+06
         0.32833E+06
        -0.23363E+06
         0.54921E+05
         0.24717E+05
         0.80477E+05
         0.24009E+05
         0.23117E+06
         0.16875E+06
        -0.10124E+06
         0.55902E+05
         0.14127E+06
        -0.21338E+05
         0.33006E+05
        -0.61683E+04
        -0.27321E+05
        -0.21051E+06
        -0.22852E+06
        -0.35722E+05
         0.91964E+05
         0.73504E+05
         0.54214E+05
        -0.21527E+06
        -0.33696E+06
         0.39645E+06
         0.97613E+05
         0.25480E+06
         0.39232E+06
        -0.10731E+06
        -0.23193E+06
        -0.31008E+06
        -0.35628E+06
        -0.26732E+06
         0.30822E+06
         0.29470E+06
        -0.53270E+05
         0.69256E+05
         0.39527E+06
         0.34033E+05
        -0.21361E+06
         0.29880E+06
        -0.57492E+06
        -0.62003E+06
        -0.53069E+06
        -0.25822E+06
         0.69179E+05
         0.23987E+06
         0.31084E+06
         0.50198E+06
         0.58153E+06
         0.23405E+06
         0.10970E+06
         0.10079E+06
        -0.36813E+05
        -0.32627E+06
        -0.55680E+06
        -0.62315E+06
        -0.44173E+06
         0.12238E+06
         0.28300E+06
         0.29927E+06
         0.47179E+06
         0.60127E+06
         0.37710E+06
         0.36016E+06
        -0.21623E+06
         0.51243E+05
        -0.86307E+05
        -0.65680E+05
         0.35473E+06
         0.21672E+06
         0.64663E+05
        -0.25019E+06
        -0.13571E+06
        -0.24629E+06
         0.28846E+05
        -0.14531E+06
        -0.42638E+06
         0.12020E+06
         0.32798E+06
        -0.23370E+06
         0.55540E+05
         0.24603E+05
         0.80500E+05
         0.23797E+05
         0.23168E+06
         0.16885E+06
        -0.10138E+06
         0.55834E+05
         0.14164E+06
        -0.21299E+05
         0.33509E+05
        -0.60741E+04
        -0.27118E+05
        -0.21069E+06
        -0.22864E+06
        -0.35496E+05
         0.91735E+05
         0.73657E+05
         0.53575E+05
        -0.21541E+06
        -0.33696E+06
         0.39667E+06
         0.98332E+05
         0.25537E+06
         0.39253E+06
        -0.10672E+06
        -0.23201E+06
        -0.31040E+06
        -0.35637E+06
        -0.26722E+06
         0.30818E+06
         0.29473E+06
        -0.52751E+05
         0.69113E+05
         0.39519E+06
         0.33376E+05
        -0.21347E+06
         0.29886E+06
        -0.57497E+06
        -0.62003E+06
        -0.53062E+06
        -0.25821E+06
         0.69274E+05
         0.24006E+06
         0.31065E+06
         0.50192E+06
         0.58151E+06
         0.23420E+06
         0.10972E+06
         0.10099E+06
        -0.36463E+05
        -0.32639E+06
        -0.55693E+06
        -0.62318E+06
        -0.44164E+06
         0.12242E+06
         0.28281E+06
         0.29917E+06
         0.47163E+06
         0.60119E+06
         0.37689E+06
         0.35987E+06
        -0.21650E+06
         0.51487E+05
        -0.86434E+05
        -0.66178E+05
         0.35464E+06
         0.21682E+06
         0.65088E+05
        -0.24959E+06
        -0.13583E+06
        -0.24596E+06
         0.28012E+05
        -0.14564E+06
        -0.42649E+06
         0.12031E+06
         0.32763E+06
        -0.23378E+06
         0.56165E+05
         0.24489E+05
         0.80534E+05
         0.23596E+05
         0.23219E+06
         0.16895E+06
        -0.10152E+06
         0.55762E+05
         0.14199E+06
        -0.21263E+05
         0.34008E+05
        -0.59730E+04
        -0.26913E+05
        -0.21088E+06
        -0.22876E+06
        -0.35265E+05
         0.91500E+05
         0.73809E+05
         0.52937E+05
        -0.21555E+06
        -0.33697E+06
         0.39688E+06
         0.99074E+05
         0.25593E+06
         0.39273E+06
        -0.10612E+06
        -0.23209E+06
        -0.31071E+06
        -0.35646E+06
        -0.26711E+06
         0.30815E+06
         0.29475E+06
        -0.52234E+05
         0.68972E+05
         0.39510E+06
         0.32718E+05
        -0.21333E+06
         0.29893E+06
        -0.57503E+06
        -0.62003E+06
        -0.53055E+06
        -0.25820E+06
         0.69369E+05
         0.24024E+06
         0.31047E+06
         0.50186E+06
         0.58150E+06
         0.23435E+06
         0.10972E+06
         0.10118E+06
        -0.36113E+05
        -0.32650E+06
        -0.55707E+06
        -0.62321E+06
        -0.44156E+06
         0.12246E+06
         0.28262E+06
         0.29908E+06
         0.47146E+06
         0.60111E+06
         0.37668E+06
         0.35957E+06
        -0.21676E+06
         0.51729E+05
        -0.86561E+05
        -0.66676E+05
         0.35455E+06
         0.21691E+06
         0.65514E+05
        -0.24899E+06
        -0.13593E+06
        -0.24562E+06
         0.27179E+05
        -0.14598E+06
        -0.42660E+06
         0.12041E+06
         0.32727E+06
        -0.23386E+06
         0.56800E+05
         0.24375E+05
         0.80558E+05
         0.23400E+05
         0.23270E+06
         0.16906E+06
        -0.10166E+06
         0.55695E+05
         0.14232E+06
        -0.21223E+05
         0.34528E+05
        -0.58639E+04
        -0.26705E+05
        -0.21107E+06
        -0.22887E+06
        -0.35039E+05
         0.91263E+05
         0.73961E+05
         0.52294E+05
        -0.21569E+06
        -0.33697E+06
         0.39708E+06
         0.99836E+05
         0.25650E+06
         0.39294E+06
        -0.10553E+06
        -0.23218E+06
        -0.31102E+06
        -0.35655E+06
        -0.26700E+06
         0.30811E+06
         0.29477E+06
        -0.51710E+05
         0.68833E+05
         0.39501E+06
         0.32054E+05
        -0.21319E+06
         0.29899E+06
        -0.57508E+06
        -0.62003E+06
        -0.53048E+06
        -0.25820E+06
         0.69463E+05
         0.24042E+06
         0.31029E+06
         0.50180E+06
         0.58149E+06
         0.23449E+06
         0.10972E+06
         0.10138E+06
        -0.35761E+05
        -0.32661E+06
        -0.55720E+06
        -0.62324E+06
        -0.44147E+06
         0.12250E+06
         0.28243E+06
         0.29898E+06
         0.47130E+06
         0.60102E+06
         0.37647E+06
         0.35927E+06
        -0.21703E+06
         0.51974E+05
        -0.86694E+05
        -0.67172E+05
         0.35447E+06
         0.21701E+06
         0.65941E+05
        -0.24838E+06
        -0.13603E+06
        -0.24526E+06
         0.26351E+05
        -0.14631E+06
        -0.42671E+06
         0.12050E+06
         0.32692E+06
        -0.23394E+06
         0.57440E+05
         0.24263E+05
         0.80581E+05
         0.23211E+05
         0.23322E+06
         0.16916E+06
        -0.10179E+06
         0.55632E+05
         0.14263E+06
        -0.21186E+05
         0.35035E+05
        -0.57493E+04
        -0.26495E+05
        -0.21124E+06
        -0.22899E+06
        -0.34816E+05
         0.91028E+05
         0.74117E+05
         0.51657E+05
        -0.21582E+06
        -0.33697E+06
         0.39727E+06
         0.10061E+06
         0.25705E+06
         0.39314E+06
        -0.10495E+06
        -0.23229E+06
        -0.31133E+06
        -0.35664E+06
        -0.26690E+06
         0.30807E+06
         0.29480E+06
        -0.51192E+05
         0.68686E+05
         0.39492E+06
         0.31395E+05
        -0.21305E+06
         0.29906E+06
        -0.57514E+06
        -0.62003E+06
        -0.53041E+06
        -0.25818E+06
         0.69557E+05
         0.24060E+06
         0.31011E+06
         0.50174E+06
         0.58149E+06
         0.23463E+06
         0.10971E+06
         0.10157E+06
        -0.35410E+05
        -0.32672E+06
        -0.55733E+06
        -0.62328E+06
        -0.44138E+06
         0.12255E+06
         0.28224E+06
         0.29888E+06
         0.47114E+06
         0.60094E+06
         0.37626E+06
         0.35897E+06
        -0.20635E+06
         0.48163E+05
        -0.83523E+05
        -0.68145E+05
         0.32974E+06
         0.19563E+06
         0.66816E+05
        -0.23156E+06
        -0.12422E+06
        -0.22825E+06
         0.25815E+05
        -0.14113E+06
        -0.40691E+06
         0.10524E+06
         0.31525E+06
        -0.21758E+06
         0.58468E+05
         0.24334E+05
         0.81164E+05
         0.23200E+05
         0.22492E+06
         0.16203E+06
        -0.97775E+05
         0.56005E+05
         0.12671E+06
        -0.21325E+05
         0.31052E+05
        -0.56726E+04
        -0.26529E+05
        -0.18673E+06
        -0.20958E+06
        -0.34909E+05
         0.91487E+05
         0.74816E+05
         0.48205E+05
        -0.19514E+06
        -0.31386E+06
         0.38021E+06
         0.95228E+05
         0.24037E+06
         0.37695E+06
        -0.99915E+05
        -0.22325E+06
        -0.29658E+06
        -0.33451E+06
        -0.25329E+06
         0.28399E+06
         0.26978E+06
        -0.45433E+05
         0.62123E+05
         0.37262E+06
         0.28193E+05
        -0.21018E+06
         0.29572E+06
        -0.56899E+06
        -0.61368E+06
        -0.52526E+06
        -0.25577E+06
         0.68963E+05
         0.23771E+06
         0.30577E+06
         0.49547E+06
         0.57448E+06
         0.23216E+06
         0.10827E+06
         0.10047E+06
        -0.34704E+05
        -0.32366E+06
        -0.55234E+06
        -0.61766E+06
        -0.43626E+06
         0.12128E+06
         0.27889E+06
         0.29528E+06
         0.46573E+06
         0.59387E+06
         0.37201E+06
         0.35475E+06
        -0.65742E+05
         0.93993E+04
        -0.15891E+05
        -0.15007E+05
         0.82487E+05
         0.38774E+05
         0.10881E+05
        -0.60380E+05
        -0.27493E+05
        -0.58065E+05
         0.33677E+04
        -0.53183E+05
        -0.13259E+06
         0.16750E+05
         0.12357E+06
        -0.55881E+05
         0.11065E+05
         0.58858E+04
         0.13947E+05
         0.37763E+04
         0.84215E+05
         0.56142E+05
        -0.35124E+05
         0.10625E+05
         0.22547E+05
        -0.44498E+04
         0.50518E+04
        -0.77349E+03
        -0.36260E+04
        -0.32394E+05
        -0.46958E+05
        -0.67419E+04
         0.19828E+05
         0.15152E+05
         0.13587E+05
        -0.38864E+05
        -0.79278E+05
         0.12968E+06
         0.26287E+05
         0.61553E+05
         0.13258E+06
        -0.33873E+05
        -0.81163E+05
        -0.95173E+05
        -0.90205E+05
        -0.77658E+05
         0.65238E+05
         0.59204E+05
        -0.85822E+04
         0.12708E+05
         0.10716E+06
         0.61867E+04
        -0.13397E+06
         0.19565E+06
        -0.38422E+06
        -0.42213E+06
        -0.36885E+06
        -0.18221E+06
         0.47843E+05
         0.15330E+06
         0.19192E+06
         0.32012E+06
         0.37467E+06
         0.15668E+06
         0.69192E+05
         0.64693E+05
        -0.23462E+05
        -0.22696E+06
        -0.39332E+06
        -0.44017E+06
        -0.28849E+06
         0.81663E+05
         0.18521E+06
         0.19395E+06
         0.31090E+06
         0.39150E+06
         0.25178E+06
         0.23843E+06
  
SCALARS                      strain_xx  double 1
LOOKUP_TABLE default
        -0.44919E-07
        -0.21673E-05
        -0.24082E-04
        -0.11757E-06
        -0.99534E-20
        -0.12514E-20
        -0.13991E-19
        -0.55807E-21
        -0.18682E-03
        -0.84258E-04
        -0.12517E-18
        -0.10156E-18
        -0.32482E-06
        -0.53990E-05
        -0.19041E-20
        -0.41784E-19
        -0.25009E-06
        -0.49848E-05
        -0.21802E-19
        -0.48359E-19
        -0.10325E-04
        -0.28477E-04
        -0.26734E-04
        -0.21563E-19
        -0.45850E-20
        -0.13995E-19
        -0.31808E-04
        -0.20078E-04
        -0.75553E-19
        -0.47542E-19
        -0.13670E-05
        -0.64834E-05
        -0.64110E-07
        -0.78317E-21
        -0.11696E-19
        -0.44391E-20
        -0.11762E-04
        -0.25946E-05
        -0.25780E-19
        -0.29226E-19
        -0.45794E-04
        -0.88288E-04
        -0.13118E-18
        -0.71338E-19
        -0.54189E-04
        -0.15592E-04
        -0.15820E-18
        -0.36650E-19
        -0.40108E-05
        -0.14440E-19
        -0.25620E-04
        -0.11189E-20
        -0.41474E-05
        -0.55135E-19
        -0.22830E-05
        -0.38580E-20
        -0.43712E-04
        -0.34510E-05
        -0.28312E-20
        -0.16541E-19
        -0.15573E-07
        -0.11675E-04
        -0.11326E-19
        -0.53259E-20
        -0.80693E-06
        -0.11459E-21
        -0.88829E-05
        -0.49576E-20
        -0.36644E-03
        -0.17121E-03
        -0.19368E-18
        -0.10188E-18
        -0.70027E-04
        -0.54013E-19
        -0.33769E-05
        -0.25846E-19
        -0.32808E-04
        -0.99559E-21
        -0.14804E-03
        -0.23964E-20
        -0.26486E-03
        -0.13653E-03
        -0.32185E-19
        -0.42097E-19
        -0.11122E-03
        -0.48689E-19
        -0.79631E-04
        -0.10093E-18
        -0.30331E-04
        -0.41059E-19
        -0.74043E-04
        -0.39712E-04
        -0.74788E-20
        -0.14065E-19
        -0.20966E-05
        -0.19352E-19
        -0.15913E-04
        -0.34117E-20
        -0.91144E-04
        -0.20805E-19
        -0.19872E-03
        -0.94218E-04
        -0.11061E-18
        -0.12044E-18
        -0.11488E-02
        -0.14343E-02
        -0.37765E-18
        -0.36676E-18
        -0.11232E-02
        -0.27562E-18
        -0.95269E-03
        -0.15393E-18
        -0.48038E-03
        -0.46485E-19
        -0.24201E-03
        -0.53155E-21
        -0.31784E-04
        -0.67430E-20
        -0.51240E-04
        -0.43162E-20
        -0.29093E-03
        -0.41697E-20
        -0.64288E-03
        -0.21204E-19
        -0.12007E-02
        -0.76750E-19
        -0.18774E-02
        -0.10929E-18
        -0.22520E-02
        -0.97296E-19
        -0.21124E-02
        -0.11505E-18
        -0.18320E-02
        -0.19380E-18
        -0.15127E-02
        -0.26948E-18
        -0.11759E-02
        -0.23287E-18
        -0.70655E-03
        -0.15381E-18
        -0.23436E-03
        -0.34279E-19
        -0.17004E-05
        -0.12499E-20
        -0.73849E-04
        -0.73674E-20
        -0.18279E-03
        -0.19700E-19
        -0.40621E-03
        -0.75453E-19
        -0.70625E-03
        -0.20317E-18
        -0.12365E-02
        -0.29326E-18
        -0.16603E-02
        -0.30680E-18
        -0.15846E-05
        -0.43873E-06
        -0.60213E-06
        -0.23740E-05
        -0.37422E-04
        -0.21843E-04
        -0.51319E-06
        -0.10903E-05
        -0.27996E-06
        -0.90679E-06
        -0.28566E-06
        -0.53837E-05
        -0.23188E-04
        -0.23697E-05
        -0.34602E-05
        -0.42105E-05
        -0.29807E-05
        -0.63126E-06
        -0.15924E-05
        -0.18293E-05
        -0.55251E-04
        -0.62215E-04
        -0.51384E-04
        -0.49456E-05
        -0.78546E-06
        -0.43653E-06
        -0.45988E-05
        -0.57717E-07
        -0.61318E-05
        -0.28351E-05
        -0.33649E-05
        -0.13314E-06
        -0.74731E-06
        -0.79546E-07
        -0.84340E-04
        -0.33633E-04
        -0.27310E-04
        -0.13521E-04
        -0.43925E-05
        -0.20422E-04
        -0.87472E-04
        -0.73887E-04
        -0.69991E-04
        -0.37967E-04
        -0.19828E-04
        -0.12442E-04
        -0.42961E-06
        -0.73179E-05
        -0.61300E-06
        -0.62756E-05
        -0.45606E-04
        -0.31567E-04
        -0.74996E-03
        -0.81157E-03
        -0.65068E-03
        -0.46900E-03
        -0.26049E-03
        -0.68338E-04
        -0.24295E-06
        -0.35095E-04
        -0.81340E-04
        -0.24008E-03
        -0.64033E-03
        -0.92372E-03
        -0.76613E-03
        -0.70145E-03
        -0.77752E-03
        -0.77318E-03
        -0.63849E-03
        -0.49431E-03
        -0.13054E-03
        -0.32418E-05
        -0.47391E-04
        -0.58870E-04
        -0.16912E-03
        -0.43526E-03
        -0.72247E-03
        -0.79401E-03
        -0.41515E-05
        -0.17494E-06
        -0.63404E-06
        -0.53753E-05
        -0.22618E-04
        -0.16517E-04
        -0.14021E-05
        -0.66817E-05
        -0.14106E-05
        -0.60390E-05
        -0.24645E-06
        -0.32809E-05
        -0.35506E-04
        -0.20880E-04
        -0.22403E-04
        -0.16024E-04
        -0.49659E-05
        -0.17815E-05
        -0.80682E-06
        -0.24883E-05
        -0.87608E-04
        -0.79572E-04
        -0.77484E-04
        -0.45327E-05
        -0.14623E-05
        -0.66295E-06
        -0.19497E-04
        -0.34374E-06
        -0.21838E-05
        -0.40610E-05
        -0.94581E-05
        -0.39602E-05
        -0.39786E-05
        -0.29635E-05
        -0.71938E-04
        -0.21913E-04
        -0.28833E-04
        -0.27551E-04
        -0.77227E-06
        -0.64916E-05
        -0.87620E-04
        -0.92713E-04
        -0.88583E-04
        -0.46311E-04
        -0.27463E-04
        -0.94023E-05
        -0.10982E-04
        -0.15306E-04
        -0.26745E-06
        -0.38772E-06
        -0.40737E-04
        -0.31611E-04
        -0.12579E-02
        -0.12774E-02
        -0.10294E-02
        -0.70029E-03
        -0.38991E-03
        -0.82717E-04
        -0.50988E-05
        -0.53522E-04
        -0.92880E-04
        -0.31211E-03
        -0.98467E-03
        -0.13703E-02
        -0.96349E-03
        -0.87205E-03
        -0.10585E-02
        -0.11227E-02
        -0.93533E-03
        -0.83695E-03
        -0.21726E-03
        -0.14678E-04
        -0.71790E-04
        -0.73684E-04
        -0.23293E-03
        -0.69826E-03
        -0.11440E-02
        -0.11368E-02
        -0.41672E-05
        -0.17624E-06
        -0.63643E-06
        -0.53826E-05
        -0.22574E-04
        -0.16487E-04
        -0.14199E-05
        -0.66479E-05
        -0.14137E-05
        -0.60295E-05
        -0.23658E-06
        -0.32969E-05
        -0.35549E-04
        -0.20777E-04
        -0.22380E-04
        -0.16057E-04
        -0.49878E-05
        -0.17716E-05
        -0.80603E-06
        -0.24796E-05
        -0.87592E-04
        -0.79554E-04
        -0.77474E-04
        -0.45332E-05
        -0.14689E-05
        -0.66516E-06
        -0.19509E-04
        -0.33094E-06
        -0.22146E-05
        -0.40662E-05
        -0.94857E-05
        -0.39592E-05
        -0.39455E-05
        -0.29662E-05
        -0.72011E-04
        -0.21893E-04
        -0.28815E-04
        -0.27639E-04
        -0.78713E-06
        -0.65326E-05
        -0.87731E-04
        -0.92820E-04
        -0.88592E-04
        -0.46297E-04
        -0.27444E-04
        -0.93926E-05
        -0.10978E-04
        -0.15316E-04
        -0.26356E-06
        -0.38507E-06
        -0.40685E-04
        -0.31517E-04
        -0.12570E-02
        -0.12768E-02
        -0.10292E-02
        -0.70030E-03
        -0.38967E-03
        -0.82668E-04
        -0.51103E-05
        -0.53589E-04
        -0.92723E-04
        -0.31186E-03
        -0.98438E-03
        -0.13704E-02
        -0.96331E-03
        -0.87195E-03
        -0.10588E-02
        -0.11232E-02
        -0.93566E-03
        -0.83728E-03
        -0.21714E-03
        -0.14691E-04
        -0.71685E-04
        -0.73625E-04
        -0.23258E-03
        -0.69740E-03
        -0.11429E-02
        -0.11358E-02
        -0.41830E-05
        -0.17752E-06
        -0.63882E-06
        -0.53897E-05
        -0.22530E-04
        -0.16457E-04
        -0.14380E-05
        -0.66142E-05
        -0.14166E-05
        -0.60193E-05
        -0.22693E-06
        -0.33128E-05
        -0.35592E-04
        -0.20675E-04
        -0.22356E-04
        -0.16091E-04
        -0.50101E-05
        -0.17617E-05
        -0.80523E-06
        -0.24711E-05
        -0.87577E-04
        -0.79536E-04
        -0.77464E-04
        -0.45337E-05
        -0.14760E-05
        -0.66756E-06
        -0.19521E-04
        -0.31853E-06
        -0.22458E-05
        -0.40713E-05
        -0.95141E-05
        -0.39586E-05
        -0.39124E-05
        -0.29689E-05
        -0.72084E-04
        -0.21874E-04
        -0.28796E-04
        -0.27728E-04
        -0.80214E-06
        -0.65741E-05
        -0.87842E-04
        -0.92930E-04
        -0.88605E-04
        -0.46286E-04
        -0.27425E-04
        -0.93835E-05
        -0.10974E-04
        -0.15326E-04
        -0.25960E-06
        -0.38235E-06
        -0.40634E-04
        -0.31425E-04
        -0.12561E-02
        -0.12761E-02
        -0.10291E-02
        -0.70031E-03
        -0.38944E-03
        -0.82618E-04
        -0.51220E-05
        -0.53655E-04
        -0.92567E-04
        -0.31162E-03
        -0.98408E-03
        -0.13704E-02
        -0.96314E-03
        -0.87185E-03
        -0.10591E-02
        -0.11237E-02
        -0.93600E-03
        -0.83761E-03
        -0.21702E-03
        -0.14704E-04
        -0.71580E-04
        -0.73568E-04
        -0.23224E-03
        -0.69655E-03
        -0.11417E-02
        -0.11348E-02
        -0.41988E-05
        -0.17886E-06
        -0.64117E-06
        -0.53968E-05
        -0.22485E-04
        -0.16427E-04
        -0.14560E-05
        -0.65804E-05
        -0.14192E-05
        -0.60074E-05
        -0.21750E-06
        -0.33292E-05
        -0.35636E-04
        -0.20573E-04
        -0.22332E-04
        -0.16128E-04
        -0.50334E-05
        -0.17518E-05
        -0.80454E-06
        -0.24623E-05
        -0.87567E-04
        -0.79524E-04
        -0.77464E-04
        -0.45342E-05
        -0.14844E-05
        -0.67052E-06
        -0.19530E-04
        -0.30673E-06
        -0.22771E-05
        -0.40761E-05
        -0.95448E-05
        -0.39594E-05
        -0.38793E-05
        -0.29715E-05
        -0.72154E-04
        -0.21855E-04
        -0.28777E-04
        -0.27816E-04
        -0.81725E-06
        -0.66153E-05
        -0.87957E-04
        -0.93047E-04
        -0.88628E-04
        -0.46277E-04
        -0.27403E-04
        -0.93734E-05
        -0.10971E-04
        -0.15337E-04
        -0.25566E-06
        -0.37965E-06
        -0.40581E-04
        -0.31331E-04
        -0.12553E-02
        -0.12755E-02
        -0.10289E-02
        -0.70032E-03
        -0.38920E-03
        -0.82567E-04
        -0.51338E-05
        -0.53721E-04
        -0.92411E-04
        -0.31137E-03
        -0.98377E-03
        -0.13705E-02
        -0.96300E-03
        -0.87177E-03
        -0.10594E-02
        -0.11243E-02
        -0.93637E-03
        -0.83793E-03
        -0.21690E-03
        -0.14718E-04
        -0.71475E-04
        -0.73510E-04
        -0.23190E-03
        -0.69569E-03
        -0.11406E-02
        -0.11338E-02
        -0.42145E-05
        -0.18020E-06
        -0.64356E-06
        -0.54039E-05
        -0.22442E-04
        -0.16396E-04
        -0.14744E-05
        -0.65464E-05
        -0.14214E-05
        -0.59937E-05
        -0.20825E-06
        -0.33454E-05
        -0.35679E-04
        -0.20471E-04
        -0.22308E-04
        -0.16168E-04
        -0.50578E-05
        -0.17419E-05
        -0.80366E-06
        -0.24535E-05
        -0.87562E-04
        -0.79515E-04
        -0.77471E-04
        -0.45348E-05
        -0.14942E-05
        -0.67392E-06
        -0.19538E-04
        -0.29553E-06
        -0.23085E-05
        -0.40806E-05
        -0.95775E-05
        -0.39613E-05
        -0.38462E-05
        -0.29742E-05
        -0.72227E-04
        -0.21835E-04
        -0.28759E-04
        -0.27904E-04
        -0.83243E-06
        -0.66572E-05
        -0.88076E-04
        -0.93172E-04
        -0.88663E-04
        -0.46272E-04
        -0.27381E-04
        -0.93626E-05
        -0.10968E-04
        -0.15348E-04
        -0.25178E-06
        -0.37698E-06
        -0.40530E-04
        -0.31238E-04
        -0.12544E-02
        -0.12748E-02
        -0.10287E-02
        -0.70032E-03
        -0.38896E-03
        -0.82517E-04
        -0.51454E-05
        -0.53788E-04
        -0.92254E-04
        -0.31112E-03
        -0.98346E-03
        -0.13706E-02
        -0.96292E-03
        -0.87171E-03
        -0.10597E-02
        -0.11250E-02
        -0.93678E-03
        -0.83825E-03
        -0.21678E-03
        -0.14731E-04
        -0.71370E-04
        -0.73452E-04
        -0.23156E-03
        -0.69484E-03
        -0.11395E-02
        -0.11327E-02
        -0.42296E-05
        -0.18165E-06
        -0.64566E-06
        -0.54108E-05
        -0.22398E-04
        -0.16366E-04
        -0.14928E-05
        -0.65120E-05
        -0.14235E-05
        -0.59796E-05
        -0.19919E-06
        -0.33616E-05
        -0.35722E-04
        -0.20369E-04
        -0.22283E-04
        -0.16209E-04
        -0.50822E-05
        -0.17319E-05
        -0.80275E-06
        -0.24450E-05
        -0.87561E-04
        -0.79510E-04
        -0.77484E-04
        -0.45355E-05
        -0.15039E-05
        -0.67743E-06
        -0.19545E-04
        -0.28459E-06
        -0.23404E-05
        -0.40858E-05
        -0.96101E-05
        -0.39631E-05
        -0.38128E-05
        -0.29765E-05
        -0.72302E-04
        -0.21817E-04
        -0.28742E-04
        -0.27992E-04
        -0.84776E-06
        -0.66992E-05
        -0.88196E-04
        -0.93300E-04
        -0.88704E-04
        -0.46267E-04
        -0.27361E-04
        -0.93532E-05
        -0.10965E-04
        -0.15359E-04
        -0.24782E-06
        -0.37454E-06
        -0.40480E-04
        -0.31148E-04
        -0.12535E-02
        -0.12741E-02
        -0.10285E-02
        -0.70033E-03
        -0.38871E-03
        -0.82468E-04
        -0.51567E-05
        -0.53854E-04
        -0.92098E-04
        -0.31087E-03
        -0.98315E-03
        -0.13708E-02
        -0.96285E-03
        -0.87165E-03
        -0.10600E-02
        -0.11257E-02
        -0.93721E-03
        -0.83856E-03
        -0.21666E-03
        -0.14743E-04
        -0.71264E-04
        -0.73394E-04
        -0.23122E-03
        -0.69399E-03
        -0.11383E-02
        -0.11317E-02
        -0.42435E-05
        -0.18341E-06
        -0.64730E-06
        -0.54175E-05
        -0.22355E-04
        -0.16337E-04
        -0.15117E-05
        -0.64768E-05
        -0.14257E-05
        -0.59663E-05
        -0.19030E-06
        -0.33779E-05
        -0.35766E-04
        -0.20267E-04
        -0.22259E-04
        -0.16250E-04
        -0.51058E-05
        -0.17220E-05
        -0.80202E-06
        -0.24368E-05
        -0.87558E-04
        -0.79506E-04
        -0.77498E-04
        -0.45366E-05
        -0.15126E-05
        -0.68053E-06
        -0.19554E-04
        -0.27362E-06
        -0.23728E-05
        -0.40919E-05
        -0.96410E-05
        -0.39634E-05
        -0.37789E-05
        -0.29782E-05
        -0.72377E-04
        -0.21801E-04
        -0.28726E-04
        -0.28080E-04
        -0.86336E-06
        -0.67422E-05
        -0.88318E-04
        -0.93430E-04
        -0.88746E-04
        -0.46265E-04
        -0.27344E-04
        -0.93448E-05
        -0.10960E-04
        -0.15370E-04
        -0.24355E-06
        -0.37266E-06
        -0.40437E-04
        -0.31057E-04
        -0.12527E-02
        -0.12735E-02
        -0.10283E-02
        -0.70033E-03
        -0.38847E-03
        -0.82417E-04
        -0.51682E-05
        -0.53920E-04
        -0.91943E-04
        -0.31063E-03
        -0.98282E-03
        -0.13709E-02
        -0.96278E-03
        -0.87159E-03
        -0.10604E-02
        -0.11263E-02
        -0.93764E-03
        -0.83886E-03
        -0.21653E-03
        -0.14753E-04
        -0.71154E-04
        -0.73338E-04
        -0.23089E-03
        -0.69315E-03
        -0.11372E-02
        -0.11307E-02
        -0.42569E-05
        -0.18527E-06
        -0.64871E-06
        -0.54240E-05
        -0.22314E-04
        -0.16306E-04
        -0.15309E-05
        -0.64415E-05
        -0.14281E-05
        -0.59536E-05
        -0.18159E-06
        -0.33942E-05
        -0.35811E-04
        -0.20166E-04
        -0.22234E-04
        -0.16291E-04
        -0.51289E-05
        -0.17120E-05
        -0.80117E-06
        -0.24290E-05
        -0.87556E-04
        -0.79500E-04
        -0.77511E-04
        -0.45375E-05
        -0.15207E-05
        -0.68344E-06
        -0.19562E-04
        -0.26280E-06
        -0.24059E-05
        -0.40984E-05
        -0.96711E-05
        -0.39629E-05
        -0.37448E-05
        -0.29796E-05
        -0.72457E-04
        -0.21787E-04
        -0.28713E-04
        -0.28168E-04
        -0.87909E-06
        -0.67852E-05
        -0.88440E-04
        -0.93564E-04
        -0.88789E-04
        -0.46265E-04
        -0.27327E-04
        -0.93378E-05
        -0.10954E-04
        -0.15379E-04
        -0.23919E-06
        -0.37103E-06
        -0.40394E-04
        -0.30969E-04
        -0.12518E-02
        -0.12728E-02
        -0.10281E-02
        -0.70034E-03
        -0.38823E-03
        -0.82367E-04
        -0.51796E-05
        -0.53986E-04
        -0.91788E-04
        -0.31038E-03
        -0.98250E-03
        -0.13710E-02
        -0.96270E-03
        -0.87154E-03
        -0.10607E-02
        -0.11270E-02
        -0.93806E-03
        -0.83915E-03
        -0.21641E-03
        -0.14763E-04
        -0.71043E-04
        -0.73282E-04
        -0.23056E-03
        -0.69231E-03
        -0.11361E-02
        -0.11297E-02
        -0.42702E-05
        -0.18716E-06
        -0.65009E-06
        -0.54305E-05
        -0.22272E-04
        -0.16276E-04
        -0.15501E-05
        -0.64063E-05
        -0.14304E-05
        -0.59410E-05
        -0.17311E-06
        -0.34105E-05
        -0.35856E-04
        -0.20065E-04
        -0.22209E-04
        -0.16331E-04
        -0.51521E-05
        -0.17020E-05
        -0.80031E-06
        -0.24210E-05
        -0.87553E-04
        -0.79496E-04
        -0.77526E-04
        -0.45388E-05
        -0.15288E-05
        -0.68634E-06
        -0.19571E-04
        -0.25222E-06
        -0.24391E-05
        -0.41050E-05
        -0.97013E-05
        -0.39624E-05
        -0.37109E-05
        -0.29811E-05
        -0.72536E-04
        -0.21771E-04
        -0.28699E-04
        -0.28256E-04
        -0.89503E-06
        -0.68281E-05
        -0.88562E-04
        -0.93695E-04
        -0.88832E-04
        -0.46265E-04
        -0.27312E-04
        -0.93309E-05
        -0.10949E-04
        -0.15389E-04
        -0.23487E-06
        -0.36948E-06
        -0.40354E-04
        -0.30880E-04
        -0.12510E-02
        -0.12722E-02
        -0.10279E-02
        -0.70034E-03
        -0.38799E-03
        -0.82316E-04
        -0.51910E-05
        -0.54051E-04
        -0.91633E-04
        -0.31013E-03
        -0.98218E-03
        -0.13711E-02
        -0.96263E-03
        -0.87148E-03
        -0.10611E-02
        -0.11277E-02
        -0.93849E-03
        -0.83944E-03
        -0.21628E-03
        -0.14772E-04
        -0.70931E-04
        -0.73225E-04
        -0.23023E-03
        -0.69147E-03
        -0.11350E-02
        -0.11287E-02
        -0.42836E-05
        -0.18908E-06
        -0.65147E-06
        -0.54372E-05
        -0.22230E-04
        -0.16246E-04
        -0.15696E-05
        -0.63712E-05
        -0.14328E-05
        -0.59284E-05
        -0.16483E-06
        -0.34269E-05
        -0.35901E-04
        -0.19964E-04
        -0.22185E-04
        -0.16372E-04
        -0.51753E-05
        -0.16923E-05
        -0.79943E-06
        -0.24132E-05
        -0.87552E-04
        -0.79491E-04
        -0.77537E-04
        -0.45400E-05
        -0.15370E-05
        -0.68923E-06
        -0.19580E-04
        -0.24191E-06
        -0.24724E-05
        -0.41114E-05
        -0.97313E-05
        -0.39618E-05
        -0.36772E-05
        -0.29826E-05
        -0.72613E-04
        -0.21758E-04
        -0.28686E-04
        -0.28343E-04
        -0.91112E-06
        -0.68717E-05
        -0.88685E-04
        -0.93826E-04
        -0.88874E-04
        -0.46265E-04
        -0.27296E-04
        -0.93233E-05
        -0.10943E-04
        -0.15399E-04
        -0.23061E-06
        -0.36780E-06
        -0.40310E-04
        -0.30791E-04
        -0.12501E-02
        -0.12715E-02
        -0.10277E-02
        -0.70034E-03
        -0.38775E-03
        -0.82265E-04
        -0.52023E-05
        -0.54116E-04
        -0.91478E-04
        -0.30989E-03
        -0.98186E-03
        -0.13712E-02
        -0.96255E-03
        -0.87142E-03
        -0.10614E-02
        -0.11284E-02
        -0.93892E-03
        -0.83973E-03
        -0.21615E-03
        -0.14781E-04
        -0.70820E-04
        -0.73168E-04
        -0.22990E-03
        -0.69063E-03
        -0.11338E-02
        -0.11277E-02
        -0.42969E-05
        -0.19099E-06
        -0.65291E-06
        -0.54436E-05
        -0.22189E-04
        -0.16216E-04
        -0.15890E-05
        -0.63361E-05
        -0.14351E-05
        -0.59160E-05
        -0.15674E-06
        -0.34435E-05
        -0.35946E-04
        -0.19864E-04
        -0.22159E-04
        -0.16412E-04
        -0.51986E-05
        -0.16825E-05
        -0.79874E-06
        -0.24051E-05
        -0.87548E-04
        -0.79486E-04
        -0.77552E-04
        -0.45413E-05
        -0.15450E-05
        -0.69211E-06
        -0.19590E-04
        -0.23181E-06
        -0.25059E-05
        -0.41177E-05
        -0.97613E-05
        -0.39612E-05
        -0.36436E-05
        -0.29840E-05
        -0.72693E-04
        -0.21743E-04
        -0.28672E-04
        -0.28431E-04
        -0.92739E-06
        -0.69148E-05
        -0.88807E-04
        -0.93957E-04
        -0.88917E-04
        -0.46264E-04
        -0.27279E-04
        -0.93165E-05
        -0.10937E-04
        -0.15409E-04
        -0.22636E-06
        -0.36617E-06
        -0.40270E-04
        -0.30703E-04
        -0.12492E-02
        -0.12709E-02
        -0.10275E-02
        -0.70034E-03
        -0.38751E-03
        -0.82215E-04
        -0.52133E-05
        -0.54181E-04
        -0.91324E-04
        -0.30964E-03
        -0.98154E-03
        -0.13713E-02
        -0.96247E-03
        -0.87136E-03
        -0.10617E-02
        -0.11291E-02
        -0.93934E-03
        -0.84002E-03
        -0.21603E-03
        -0.14790E-04
        -0.70708E-04
        -0.73111E-04
        -0.22957E-03
        -0.68980E-03
        -0.11327E-02
        -0.11267E-02
        -0.43102E-05
        -0.19291E-06
        -0.65426E-06
        -0.54501E-05
        -0.22147E-04
        -0.16186E-04
        -0.16087E-05
        -0.63011E-05
        -0.14375E-05
        -0.59034E-05
        -0.14888E-06
        -0.34601E-05
        -0.35991E-04
        -0.19765E-04
        -0.22134E-04
        -0.16453E-04
        -0.52218E-05
        -0.16727E-05
        -0.79793E-06
        -0.23974E-05
        -0.87545E-04
        -0.79481E-04
        -0.77566E-04
        -0.45426E-05
        -0.15531E-05
        -0.69508E-06
        -0.19599E-04
        -0.22197E-06
        -0.25394E-05
        -0.41244E-05
        -0.97917E-05
        -0.39607E-05
        -0.36101E-05
        -0.29855E-05
        -0.72774E-04
        -0.21728E-04
        -0.28658E-04
        -0.28519E-04
        -0.94385E-06
        -0.69589E-05
        -0.88930E-04
        -0.94088E-04
        -0.88960E-04
        -0.46264E-04
        -0.27263E-04
        -0.93098E-05
        -0.10932E-04
        -0.15419E-04
        -0.22214E-06
        -0.36463E-06
        -0.40228E-04
        -0.30614E-04
        -0.12484E-02
        -0.12702E-02
        -0.10273E-02
        -0.70034E-03
        -0.38727E-03
        -0.82166E-04
        -0.52245E-05
        -0.54246E-04
        -0.91170E-04
        -0.30939E-03
        -0.98122E-03
        -0.13714E-02
        -0.96239E-03
        -0.87130E-03
        -0.10621E-02
        -0.11298E-02
        -0.93977E-03
        -0.84031E-03
        -0.21590E-03
        -0.14799E-04
        -0.70596E-04
        -0.73054E-04
        -0.22924E-03
        -0.68896E-03
        -0.11316E-02
        -0.11257E-02
        -0.43237E-05
        -0.19485E-06
        -0.65560E-06
        -0.54565E-05
        -0.22106E-04
        -0.16156E-04
        -0.16284E-05
        -0.62662E-05
        -0.14397E-05
        -0.58907E-05
        -0.14124E-06
        -0.34766E-05
        -0.36036E-04
        -0.19665E-04
        -0.22109E-04
        -0.16493E-04
        -0.52451E-05
        -0.16629E-05
        -0.79714E-06
        -0.23894E-05
        -0.87542E-04
        -0.79477E-04
        -0.77578E-04
        -0.45440E-05
        -0.15611E-05
        -0.69798E-06
        -0.19608E-04
        -0.21232E-06
        -0.25733E-05
        -0.41308E-05
        -0.98219E-05
        -0.39601E-05
        -0.35766E-05
        -0.29869E-05
        -0.72851E-04
        -0.21714E-04
        -0.28645E-04
        -0.28607E-04
        -0.96049E-06
        -0.70026E-05
        -0.89055E-04
        -0.94218E-04
        -0.89003E-04
        -0.46264E-04
        -0.27248E-04
        -0.93018E-05
        -0.10926E-04
        -0.15428E-04
        -0.21794E-06
        -0.36301E-06
        -0.40184E-04
        -0.30525E-04
        -0.12475E-02
        -0.12696E-02
        -0.10271E-02
        -0.70034E-03
        -0.38703E-03
        -0.82115E-04
        -0.52359E-05
        -0.54310E-04
        -0.91015E-04
        -0.30915E-03
        -0.98090E-03
        -0.13715E-02
        -0.96231E-03
        -0.87125E-03
        -0.10624E-02
        -0.11305E-02
        -0.94019E-03
        -0.84060E-03
        -0.21578E-03
        -0.14808E-04
        -0.70485E-04
        -0.72998E-04
        -0.22892E-03
        -0.68813E-03
        -0.11305E-02
        -0.11247E-02
        -0.43372E-05
        -0.19678E-06
        -0.65696E-06
        -0.54629E-05
        -0.22065E-04
        -0.16126E-04
        -0.16480E-05
        -0.62314E-05
        -0.14420E-05
        -0.58780E-05
        -0.13381E-06
        -0.34931E-05
        -0.36081E-04
        -0.19567E-04
        -0.22084E-04
        -0.16534E-04
        -0.52684E-05
        -0.16532E-05
        -0.79649E-06
        -0.23817E-05
        -0.87539E-04
        -0.79471E-04
        -0.77593E-04
        -0.45453E-05
        -0.15690E-05
        -0.70088E-06
        -0.19616E-04
        -0.20294E-06
        -0.26074E-05
        -0.41371E-05
        -0.98520E-05
        -0.39595E-05
        -0.35433E-05
        -0.29883E-05
        -0.72932E-04
        -0.21700E-04
        -0.28631E-04
        -0.28693E-04
        -0.97727E-06
        -0.70470E-05
        -0.89177E-04
        -0.94349E-04
        -0.89046E-04
        -0.46264E-04
        -0.27232E-04
        -0.92950E-05
        -0.10920E-04
        -0.15438E-04
        -0.21379E-06
        -0.36139E-06
        -0.40143E-04
        -0.30437E-04
        -0.12466E-02
        -0.12690E-02
        -0.10269E-02
        -0.70034E-03
        -0.38679E-03
        -0.82064E-04
        -0.52472E-05
        -0.54373E-04
        -0.90860E-04
        -0.30890E-03
        -0.98058E-03
        -0.13716E-02
        -0.96223E-03
        -0.87119E-03
        -0.10628E-02
        -0.11312E-02
        -0.94062E-03
        -0.84089E-03
        -0.21565E-03
        -0.14817E-04
        -0.70374E-04
        -0.72943E-04
        -0.22859E-03
        -0.68729E-03
        -0.11294E-02
        -0.11237E-02
        -0.43507E-05
        -0.19870E-06
        -0.65831E-06
        -0.54694E-05
        -0.22024E-04
        -0.16096E-04
        -0.16679E-05
        -0.61967E-05
        -0.14443E-05
        -0.58655E-05
        -0.12659E-06
        -0.35101E-05
        -0.36126E-04
        -0.19468E-04
        -0.22058E-04
        -0.16575E-04
        -0.52918E-05
        -0.16435E-05
        -0.79568E-06
        -0.23737E-05
        -0.87537E-04
        -0.79466E-04
        -0.77605E-04
        -0.45466E-05
        -0.15770E-05
        -0.70378E-06
        -0.19625E-04
        -0.19378E-06
        -0.26417E-05
        -0.41434E-05
        -0.98822E-05
        -0.39588E-05
        -0.35101E-05
        -0.29897E-05
        -0.73010E-04
        -0.21686E-04
        -0.28618E-04
        -0.28780E-04
        -0.99422E-06
        -0.70912E-05
        -0.89299E-04
        -0.94480E-04
        -0.89088E-04
        -0.46264E-04
        -0.27216E-04
        -0.92883E-05
        -0.10914E-04
        -0.15448E-04
        -0.20962E-06
        -0.35982E-06
        -0.40101E-04
        -0.30348E-04
        -0.12458E-02
        -0.12683E-02
        -0.10267E-02
        -0.70035E-03
        -0.38656E-03
        -0.82013E-04
        -0.52581E-05
        -0.54436E-04
        -0.90706E-04
        -0.30865E-03
        -0.98026E-03
        -0.13717E-02
        -0.96216E-03
        -0.87113E-03
        -0.10631E-02
        -0.11319E-02
        -0.94105E-03
        -0.84118E-03
        -0.21552E-03
        -0.14825E-04
        -0.70263E-04
        -0.72888E-04
        -0.22826E-03
        -0.68645E-03
        -0.11283E-02
        -0.11227E-02
        -0.43643E-05
        -0.20068E-06
        -0.65967E-06
        -0.54757E-05
        -0.21982E-04
        -0.16067E-04
        -0.16878E-05
        -0.61621E-05
        -0.14466E-05
        -0.58528E-05
        -0.11956E-06
        -0.35267E-05
        -0.36172E-04
        -0.19370E-04
        -0.22033E-04
        -0.16615E-04
        -0.53152E-05
        -0.16340E-05
        -0.79489E-06
        -0.23660E-05
        -0.87534E-04
        -0.79461E-04
        -0.77619E-04
        -0.45480E-05
        -0.15848E-05
        -0.70671E-06
        -0.19634E-04
        -0.18484E-06
        -0.26762E-05
        -0.41496E-05
        -0.99124E-05
        -0.39582E-05
        -0.34772E-05
        -0.29912E-05
        -0.73091E-04
        -0.21671E-04
        -0.28604E-04
        -0.28867E-04
        -0.10114E-05
        -0.71353E-05
        -0.89421E-04
        -0.94609E-04
        -0.89130E-04
        -0.46262E-04
        -0.27201E-04
        -0.92806E-05
        -0.10909E-04
        -0.15458E-04
        -0.20553E-06
        -0.35820E-06
        -0.40060E-04
        -0.30260E-04
        -0.12449E-02
        -0.12677E-02
        -0.10265E-02
        -0.70035E-03
        -0.38631E-03
        -0.81962E-04
        -0.52690E-05
        -0.54499E-04
        -0.90553E-04
        -0.30841E-03
        -0.97994E-03
        -0.13719E-02
        -0.96208E-03
        -0.87107E-03
        -0.10635E-02
        -0.11326E-02
        -0.94148E-03
        -0.84147E-03
        -0.21540E-03
        -0.14834E-04
        -0.70151E-04
        -0.72832E-04
        -0.22794E-03
        -0.68562E-03
        -0.11271E-02
        -0.11217E-02
        -0.43778E-05
        -0.20264E-06
        -0.66106E-06
        -0.54821E-05
        -0.21942E-04
        -0.16037E-04
        -0.17079E-05
        -0.61276E-05
        -0.14488E-05
        -0.58397E-05
        -0.11274E-06
        -0.35436E-05
        -0.36217E-04
        -0.19272E-04
        -0.22006E-04
        -0.16656E-04
        -0.53387E-05
        -0.16244E-05
        -0.79416E-06
        -0.23581E-05
        -0.87531E-04
        -0.79455E-04
        -0.77632E-04
        -0.45495E-05
        -0.15925E-05
        -0.70961E-06
        -0.19642E-04
        -0.17603E-06
        -0.27106E-05
        -0.41559E-05
        -0.99429E-05
        -0.39577E-05
        -0.34445E-05
        -0.29928E-05
        -0.73172E-04
        -0.21657E-04
        -0.28590E-04
        -0.28953E-04
        -0.10289E-05
        -0.71802E-05
        -0.89540E-04
        -0.94738E-04
        -0.89171E-04
        -0.46263E-04
        -0.27184E-04
        -0.92739E-05
        -0.10903E-04
        -0.15468E-04
        -0.20150E-06
        -0.35658E-06
        -0.40017E-04
        -0.30173E-04
        -0.12440E-02
        -0.12670E-02
        -0.10263E-02
        -0.70034E-03
        -0.38607E-03
        -0.81912E-04
        -0.52796E-05
        -0.54562E-04
        -0.90400E-04
        -0.30816E-03
        -0.97963E-03
        -0.13720E-02
        -0.96202E-03
        -0.87102E-03
        -0.10638E-02
        -0.11333E-02
        -0.94191E-03
        -0.84175E-03
        -0.21527E-03
        -0.14843E-04
        -0.70040E-04
        -0.72775E-04
        -0.22761E-03
        -0.68478E-03
        -0.11260E-02
        -0.11207E-02
        -0.43914E-05
        -0.20460E-06
        -0.66237E-06
        -0.54884E-05
        -0.21900E-04
        -0.16007E-04
        -0.17280E-05
        -0.60932E-05
        -0.14508E-05
        -0.58252E-05
        -0.10613E-06
        -0.35605E-05
        -0.36261E-04
        -0.19173E-04
        -0.21980E-04
        -0.16697E-04
        -0.53620E-05
        -0.16149E-05
        -0.79362E-06
        -0.23505E-05
        -0.87528E-04
        -0.79449E-04
        -0.77647E-04
        -0.45507E-05
        -0.15998E-05
        -0.71264E-06
        -0.19646E-04
        -0.16722E-06
        -0.27454E-05
        -0.41626E-05
        -0.99733E-05
        -0.39570E-05
        -0.34117E-05
        -0.29942E-05
        -0.73251E-04
        -0.21644E-04
        -0.28577E-04
        -0.29037E-04
        -0.10471E-05
        -0.72243E-05
        -0.89651E-04
        -0.94856E-04
        -0.89207E-04
        -0.46263E-04
        -0.27168E-04
        -0.92664E-05
        -0.10897E-04
        -0.15478E-04
        -0.19752E-06
        -0.35498E-06
        -0.39977E-04
        -0.30084E-04
        -0.12432E-02
        -0.12664E-02
        -0.10261E-02
        -0.70034E-03
        -0.38583E-03
        -0.81862E-04
        -0.52905E-05
        -0.54625E-04
        -0.90249E-04
        -0.30790E-03
        -0.97930E-03
        -0.13722E-02
        -0.96199E-03
        -0.87096E-03
        -0.10641E-02
        -0.11339E-02
        -0.94233E-03
        -0.84204E-03
        -0.21515E-03
        -0.14851E-04
        -0.69930E-04
        -0.72719E-04
        -0.22728E-03
        -0.68395E-03
        -0.11249E-02
        -0.11197E-02
        -0.44050E-05
        -0.20656E-06
        -0.66370E-06
        -0.54947E-05
        -0.21859E-04
        -0.15977E-04
        -0.17483E-05
        -0.60588E-05
        -0.14526E-05
        -0.58092E-05
        -0.99735E-07
        -0.35773E-05
        -0.36307E-04
        -0.19074E-04
        -0.21953E-04
        -0.16738E-04
        -0.53851E-05
        -0.16053E-05
        -0.79290E-06
        -0.23427E-05
        -0.87527E-04
        -0.79441E-04
        -0.77662E-04
        -0.45521E-05
        -0.16064E-05
        -0.71554E-06
        -0.19648E-04
        -0.15838E-06
        -0.27804E-05
        -0.41690E-05
        -0.10004E-04
        -0.39564E-05
        -0.33791E-05
        -0.29957E-05
        -0.73332E-04
        -0.21629E-04
        -0.28564E-04
        -0.29120E-04
        -0.10659E-05
        -0.72689E-05
        -0.89753E-04
        -0.94964E-04
        -0.89239E-04
        -0.46263E-04
        -0.27153E-04
        -0.92597E-05
        -0.10892E-04
        -0.15488E-04
        -0.19353E-06
        -0.35341E-06
        -0.39933E-04
        -0.29995E-04
        -0.12423E-02
        -0.12658E-02
        -0.10259E-02
        -0.70034E-03
        -0.38560E-03
        -0.81812E-04
        -0.53012E-05
        -0.54687E-04
        -0.90099E-04
        -0.30764E-03
        -0.97896E-03
        -0.13725E-02
        -0.96200E-03
        -0.87092E-03
        -0.10645E-02
        -0.11346E-02
        -0.94276E-03
        -0.84232E-03
        -0.21502E-03
        -0.14860E-04
        -0.69820E-04
        -0.72663E-04
        -0.22696E-03
        -0.68312E-03
        -0.11238E-02
        -0.11187E-02
        -0.44186E-05
        -0.20855E-06
        -0.66507E-06
        -0.55011E-05
        -0.21819E-04
        -0.15948E-04
        -0.17684E-05
        -0.60246E-05
        -0.14543E-05
        -0.57931E-05
        -0.93583E-07
        -0.35939E-05
        -0.36351E-04
        -0.18976E-04
        -0.21925E-04
        -0.16778E-04
        -0.54084E-05
        -0.15959E-05
        -0.79213E-06
        -0.23352E-05
        -0.87523E-04
        -0.79433E-04
        -0.77673E-04
        -0.45535E-05
        -0.16129E-05
        -0.71844E-06
        -0.19649E-04
        -0.14975E-06
        -0.28154E-05
        -0.41753E-05
        -0.10034E-04
        -0.39557E-05
        -0.33469E-05
        -0.29973E-05
        -0.73414E-04
        -0.21616E-04
        -0.28551E-04
        -0.29202E-04
        -0.10850E-05
        -0.73123E-05
        -0.89850E-04
        -0.95068E-04
        -0.89268E-04
        -0.46263E-04
        -0.27137E-04
        -0.92528E-05
        -0.10886E-04
        -0.15499E-04
        -0.18963E-06
        -0.35176E-06
        -0.39893E-04
        -0.29909E-04
        -0.12414E-02
        -0.12651E-02
        -0.10257E-02
        -0.70035E-03
        -0.38536E-03
        -0.81759E-04
        -0.53117E-05
        -0.54747E-04
        -0.89951E-04
        -0.30737E-03
        -0.97862E-03
        -0.13728E-02
        -0.96202E-03
        -0.87087E-03
        -0.10648E-02
        -0.11353E-02
        -0.94319E-03
        -0.84261E-03
        -0.21489E-03
        -0.14869E-04
        -0.69711E-04
        -0.72607E-04
        -0.22663E-03
        -0.68230E-03
        -0.11227E-02
        -0.11177E-02
        -0.44659E-05
        -0.21174E-06
        -0.67169E-06
        -0.55489E-05
        -0.21938E-04
        -0.16038E-04
        -0.18000E-05
        -0.60407E-05
        -0.14668E-05
        -0.58244E-05
        -0.89070E-07
        -0.36331E-05
        -0.36656E-04
        -0.19032E-04
        -0.22069E-04
        -0.16944E-04
        -0.54719E-05
        -0.15994E-05
        -0.79700E-06
        -0.23442E-05
        -0.88139E-04
        -0.80003E-04
        -0.78231E-04
        -0.45888E-05
        -0.16311E-05
        -0.72649E-06
        -0.19805E-04
        -0.14300E-06
        -0.28695E-05
        -0.42127E-05
        -0.10140E-04
        -0.39845E-05
        -0.33429E-05
        -0.30221E-05
        -0.74026E-04
        -0.21763E-04
        -0.28747E-04
        -0.29505E-04
        -0.11110E-05
        -0.74079E-05
        -0.90622E-04
        -0.95888E-04
        -0.89961E-04
        -0.46588E-04
        -0.27316E-04
        -0.93101E-05
        -0.10962E-04
        -0.15627E-04
        -0.18759E-06
        -0.35273E-06
        -0.40147E-04
        -0.30048E-04
        -0.12495E-02
        -0.12734E-02
        -0.10329E-02
        -0.70529E-03
        -0.38789E-03
        -0.82286E-04
        -0.53650E-05
        -0.55202E-04
        -0.90482E-04
        -0.30944E-03
        -0.98566E-03
        -0.13830E-02
        -0.96869E-03
        -0.87672E-03
        -0.10722E-02
        -0.11434E-02
        -0.94975E-03
        -0.84860E-03
        -0.21630E-03
        -0.14991E-04
        -0.70110E-04
        -0.73049E-04
        -0.22791E-03
        -0.68627E-03
        -0.11293E-02
        -0.11243E-02
        -0.99181E-05
        -0.47658E-06
        -0.14858E-05
        -0.12361E-04
        -0.45105E-04
        -0.33605E-04
        -0.40292E-05
        -0.13238E-04
        -0.32368E-05
        -0.12721E-04
        -0.18616E-06
        -0.72201E-05
        -0.75015E-04
        -0.40488E-04
        -0.44270E-04
        -0.37687E-04
        -0.12108E-04
        -0.35488E-05
        -0.17236E-05
        -0.50924E-05
        -0.18008E-03
        -0.16769E-03
        -0.16072E-03
        -0.10082E-04
        -0.36347E-05
        -0.16249E-05
        -0.42885E-04
        -0.30741E-06
        -0.64703E-05
        -0.93626E-05
        -0.22575E-04
        -0.88155E-05
        -0.74118E-05
        -0.67335E-05
        -0.14676E-03
        -0.45557E-04
        -0.60233E-04
        -0.62000E-04
        -0.24170E-05
        -0.16141E-04
        -0.19169E-03
        -0.20580E-03
        -0.19277E-03
        -0.97091E-04
        -0.56543E-04
        -0.18190E-04
        -0.22538E-04
        -0.32997E-04
        -0.39463E-06
        -0.74307E-06
        -0.80660E-04
        -0.62576E-04
        -0.19515E-02
        -0.19819E-02
        -0.16095E-02
        -0.11053E-02
        -0.60695E-03
        -0.12938E-03
        -0.86556E-05
        -0.90331E-04
        -0.14730E-03
        -0.49822E-03
        -0.15912E-02
        -0.22243E-02
        -0.15914E-02
        -0.14490E-02
        -0.17273E-02
        -0.18007E-02
        -0.14867E-02
        -0.13143E-02
        -0.33448E-03
        -0.23279E-04
        -0.11091E-03
        -0.11656E-03
        -0.36109E-03
        -0.10949E-02
        -0.17907E-02
        -0.17700E-02
  
SCALARS                      strain_yy  double 1
LOOKUP_TABLE default
        -0.16496E-05
        -0.17705E-06
        -0.12186E-05
        -0.33345E-06
        -0.92908E-20
        -0.70579E-21
        -0.14269E-19
        -0.83015E-20
        -0.16775E-04
        -0.73320E-05
        -0.31603E-19
        -0.24494E-19
        -0.12346E-04
        -0.31867E-07
        -0.16186E-19
        -0.66534E-22
        -0.16030E-05
        -0.20289E-04
        -0.35035E-23
        -0.36680E-21
        -0.52687E-05
        -0.72524E-04
        -0.82043E-04
        -0.85054E-19
        -0.25367E-18
        -0.17723E-18
        -0.70537E-06
        -0.71445E-04
        -0.44009E-19
        -0.16563E-18
        -0.20903E-05
        -0.15266E-05
        -0.11890E-05
        -0.11828E-19
        -0.12326E-19
        -0.53126E-23
        -0.18047E-04
        -0.15913E-04
        -0.40052E-19
        -0.24245E-19
        -0.17091E-04
        -0.66500E-05
        -0.22875E-19
        -0.19105E-19
        -0.14531E-04
        -0.17522E-05
        -0.25172E-22
        -0.60225E-20
        -0.11254E-04
        -0.13350E-20
        -0.12310E-06
        -0.87577E-23
        -0.37121E-07
        -0.19976E-19
        -0.16083E-05
        -0.67597E-20
        -0.17111E-04
        -0.56596E-06
        -0.49750E-23
        -0.20494E-22
        -0.30717E-05
        -0.40283E-04
        -0.92356E-21
        -0.12922E-19
        -0.11305E-05
        -0.37630E-20
        -0.20470E-04
        -0.55846E-20
        -0.12868E-04
        -0.35924E-05
        -0.85290E-22
        -0.14869E-19
        -0.43425E-04
        -0.71695E-19
        -0.11331E-03
        -0.67214E-19
        -0.11449E-03
        -0.38732E-19
        -0.78000E-04
        -0.27210E-19
        -0.17147E-03
        -0.10325E-03
        -0.11198E-19
        -0.55045E-21
        -0.21086E-05
        -0.68919E-23
        -0.35461E-04
        -0.27045E-19
        -0.19454E-03
        -0.82885E-19
        -0.37423E-03
        -0.14258E-03
        -0.18233E-18
        -0.11946E-18
        -0.71254E-04
        -0.71981E-19
        -0.57784E-04
        -0.75340E-19
        -0.54363E-04
        -0.87099E-19
        -0.15020E-03
        -0.10442E-03
        -0.75324E-19
        -0.17293E-19
        -0.65146E-04
        -0.95043E-05
        -0.93127E-20
        -0.14381E-19
        -0.39243E-03
        -0.10307E-18
        -0.82120E-03
        -0.22053E-18
        -0.12059E-02
        -0.33635E-18
        -0.15829E-02
        -0.33094E-18
        -0.20928E-02
        -0.20726E-18
        -0.21238E-02
        -0.12412E-18
        -0.18774E-02
        -0.10738E-18
        -0.14879E-02
        -0.97198E-19
        -0.81683E-03
        -0.39697E-19
        -0.39449E-03
        -0.43271E-20
        -0.10538E-03
        -0.18067E-20
        -0.56380E-06
        -0.40818E-20
        -0.10243E-03
        -0.10888E-20
        -0.33653E-03
        -0.99582E-20
        -0.80542E-03
        -0.79340E-19
        -0.96889E-03
        -0.19346E-18
        -0.11170E-02
        -0.33250E-18
        -0.17997E-02
        -0.33192E-18
        -0.19706E-02
        -0.25294E-18
        -0.17003E-02
        -0.24025E-18
        -0.11050E-02
        -0.24325E-18
        -0.51084E-03
        -0.15211E-18
        -0.25972E-03
        -0.53191E-19
        -0.13663E-03
        -0.31800E-19
        -0.16523E-04
        -0.45151E-05
        -0.34311E-05
        -0.32182E-06
        -0.36814E-05
        -0.40635E-05
        -0.46507E-07
        -0.10823E-04
        -0.76956E-05
        -0.16934E-04
        -0.48211E-05
        -0.88185E-04
        -0.40662E-04
        -0.54632E-06
        -0.89542E-04
        -0.11500E-05
        -0.90742E-06
        -0.37065E-06
        -0.65745E-06
        -0.37304E-06
        -0.31776E-06
        -0.21465E-06
        -0.24523E-05
        -0.17362E-07
        -0.78867E-05
        -0.17251E-06
        -0.47168E-09
        -0.14394E-06
        -0.21491E-06
        -0.49019E-05
        -0.10985E-05
        -0.13268E-05
        -0.58108E-06
        -0.35071E-07
        -0.10096E-06
        -0.29174E-05
        -0.14554E-04
        -0.68667E-04
        -0.57392E-04
        -0.41587E-04
        -0.37266E-04
        -0.22405E-05
        -0.14601E-05
        -0.11025E-04
        -0.30515E-04
        -0.83295E-04
        -0.35171E-04
        -0.17694E-04
        -0.20173E-04
        -0.23161E-04
        -0.32404E-04
        -0.66161E-05
        -0.25126E-04
        -0.35698E-04
        -0.26272E-03
        -0.49956E-03
        -0.81314E-03
        -0.11585E-02
        -0.11820E-02
        -0.97069E-03
        -0.87753E-03
        -0.78487E-03
        -0.32876E-03
        -0.61838E-04
        -0.11842E-04
        -0.22917E-05
        -0.53415E-05
        -0.83079E-04
        -0.28079E-03
        -0.48257E-03
        -0.72609E-03
        -0.94910E-03
        -0.83395E-03
        -0.74502E-03
        -0.64594E-03
        -0.31513E-03
        -0.10615E-03
        -0.81437E-04
        -0.36006E-04
        -0.14323E-04
        -0.12265E-04
        -0.69002E-06
        -0.20690E-04
        -0.41852E-05
        -0.26316E-05
        -0.32163E-04
        -0.13831E-04
        -0.28451E-04
        -0.79526E-05
        -0.14897E-03
        -0.52282E-04
        -0.10797E-05
        -0.14460E-03
        -0.51783E-05
        -0.47556E-06
        -0.43346E-06
        -0.88060E-05
        -0.32916E-06
        -0.65423E-05
        -0.32979E-05
        -0.11084E-05
        -0.78963E-06
        -0.12901E-04
        -0.78931E-06
        -0.49702E-07
        -0.17176E-06
        -0.43824E-06
        -0.12838E-04
        -0.60144E-05
        -0.41733E-06
        -0.25127E-05
        -0.18943E-05
        -0.43069E-06
        -0.40020E-05
        -0.14589E-04
        -0.83519E-04
        -0.64947E-04
        -0.50441E-04
        -0.27224E-04
        -0.16622E-05
        -0.70522E-05
        -0.11003E-04
        -0.18245E-04
        -0.76134E-04
        -0.25777E-04
        -0.11272E-04
        -0.17806E-04
        -0.24815E-04
        -0.26643E-04
        -0.14999E-06
        -0.41424E-04
        -0.84760E-04
        -0.45904E-03
        -0.76663E-03
        -0.12771E-02
        -0.18391E-02
        -0.17645E-02
        -0.13455E-02
        -0.12357E-02
        -0.12097E-02
        -0.47702E-03
        -0.51818E-04
        -0.82261E-05
        -0.60396E-05
        -0.12956E-05
        -0.93241E-04
        -0.37422E-03
        -0.72492E-03
        -0.12278E-02
        -0.15097E-02
        -0.11641E-02
        -0.10404E-02
        -0.10343E-02
        -0.51274E-03
        -0.13837E-03
        -0.12406E-03
        -0.36051E-04
        -0.14328E-04
        -0.12277E-04
        -0.70018E-06
        -0.20695E-04
        -0.41917E-05
        -0.26382E-05
        -0.32272E-04
        -0.13881E-04
        -0.28664E-04
        -0.79621E-05
        -0.14894E-03
        -0.52308E-04
        -0.10797E-05
        -0.14497E-03
        -0.51789E-05
        -0.48425E-06
        -0.43216E-06
        -0.88179E-05
        -0.32550E-06
        -0.65747E-05
        -0.33042E-05
        -0.11090E-05
        -0.78888E-06
        -0.13019E-04
        -0.78644E-06
        -0.50880E-07
        -0.17368E-06
        -0.43248E-06
        -0.12892E-04
        -0.60165E-05
        -0.41551E-06
        -0.25238E-05
        -0.19005E-05
        -0.42264E-06
        -0.40072E-05
        -0.14588E-04
        -0.83776E-04
        -0.65227E-04
        -0.50558E-04
        -0.27266E-04
        -0.16533E-05
        -0.70667E-05
        -0.11015E-04
        -0.18246E-04
        -0.76134E-04
        -0.25783E-04
        -0.11259E-04
        -0.17758E-04
        -0.24749E-04
        -0.26620E-04
        -0.14548E-06
        -0.41347E-04
        -0.84770E-04
        -0.45921E-03
        -0.76664E-03
        -0.12768E-02
        -0.18379E-02
        -0.17630E-02
        -0.13447E-02
        -0.12352E-02
        -0.12090E-02
        -0.47682E-03
        -0.51866E-04
        -0.82248E-05
        -0.60644E-05
        -0.12746E-05
        -0.93339E-04
        -0.37456E-03
        -0.72525E-03
        -0.12278E-02
        -0.15095E-02
        -0.11639E-02
        -0.10404E-02
        -0.10337E-02
        -0.51201E-03
        -0.13807E-03
        -0.12373E-03
        -0.36096E-04
        -0.14334E-04
        -0.12289E-04
        -0.71053E-06
        -0.20700E-04
        -0.41986E-05
        -0.26448E-05
        -0.32380E-04
        -0.13931E-04
        -0.28877E-04
        -0.79716E-05
        -0.14891E-03
        -0.52334E-04
        -0.10795E-05
        -0.14534E-03
        -0.51796E-05
        -0.49311E-06
        -0.43085E-06
        -0.88302E-05
        -0.32179E-06
        -0.66075E-05
        -0.33104E-05
        -0.11098E-05
        -0.78792E-06
        -0.13135E-04
        -0.78317E-06
        -0.52154E-07
        -0.17574E-06
        -0.42623E-06
        -0.12945E-04
        -0.60184E-05
        -0.41331E-06
        -0.25350E-05
        -0.19066E-05
        -0.41462E-06
        -0.40127E-05
        -0.14586E-04
        -0.84035E-04
        -0.65510E-04
        -0.50676E-04
        -0.27310E-04
        -0.16435E-05
        -0.70804E-05
        -0.11029E-04
        -0.18250E-04
        -0.76139E-04
        -0.25787E-04
        -0.11245E-04
        -0.17711E-04
        -0.24682E-04
        -0.26598E-04
        -0.14106E-06
        -0.41270E-04
        -0.84779E-04
        -0.45938E-03
        -0.76665E-03
        -0.12765E-02
        -0.18367E-02
        -0.17615E-02
        -0.13439E-02
        -0.12347E-02
        -0.12084E-02
        -0.47662E-03
        -0.51918E-04
        -0.82239E-05
        -0.60894E-05
        -0.12536E-05
        -0.93441E-04
        -0.37492E-03
        -0.72560E-03
        -0.12277E-02
        -0.15094E-02
        -0.11638E-02
        -0.10403E-02
        -0.10332E-02
        -0.51128E-03
        -0.13776E-03
        -0.12340E-03
        -0.36141E-04
        -0.14339E-04
        -0.12302E-04
        -0.72100E-06
        -0.20704E-04
        -0.42054E-05
        -0.26518E-05
        -0.32489E-04
        -0.13981E-04
        -0.29087E-04
        -0.79811E-05
        -0.14889E-03
        -0.52363E-04
        -0.10795E-05
        -0.14571E-03
        -0.51804E-05
        -0.50221E-06
        -0.42951E-06
        -0.88432E-05
        -0.31789E-06
        -0.66411E-05
        -0.33160E-05
        -0.11117E-05
        -0.78636E-06
        -0.13248E-04
        -0.77889E-06
        -0.53488E-07
        -0.17849E-06
        -0.41855E-06
        -0.12993E-04
        -0.60193E-05
        -0.41034E-06
        -0.25462E-05
        -0.19128E-05
        -0.40671E-06
        -0.40179E-05
        -0.14584E-04
        -0.84295E-04
        -0.65798E-04
        -0.50803E-04
        -0.27361E-04
        -0.16310E-05
        -0.70915E-05
        -0.11050E-04
        -0.18261E-04
        -0.76147E-04
        -0.25796E-04
        -0.11231E-04
        -0.17664E-04
        -0.24616E-04
        -0.26574E-04
        -0.13672E-06
        -0.41192E-04
        -0.84789E-04
        -0.45955E-03
        -0.76666E-03
        -0.12762E-02
        -0.18354E-02
        -0.17600E-02
        -0.13431E-02
        -0.12341E-02
        -0.12077E-02
        -0.47644E-03
        -0.51979E-04
        -0.82242E-05
        -0.61140E-05
        -0.12327E-05
        -0.93551E-04
        -0.37532E-03
        -0.72600E-03
        -0.12277E-02
        -0.15092E-02
        -0.11636E-02
        -0.10402E-02
        -0.10327E-02
        -0.51056E-03
        -0.13746E-03
        -0.12308E-03
        -0.36186E-04
        -0.14344E-04
        -0.12314E-04
        -0.73148E-06
        -0.20709E-04
        -0.42121E-05
        -0.26583E-05
        -0.32596E-04
        -0.14032E-04
        -0.29296E-04
        -0.79908E-05
        -0.14886E-03
        -0.52389E-04
        -0.10797E-05
        -0.14608E-03
        -0.51814E-05
        -0.51154E-06
        -0.42816E-06
        -0.88567E-05
        -0.31380E-06
        -0.66753E-05
        -0.33209E-05
        -0.11146E-05
        -0.78416E-06
        -0.13357E-04
        -0.77352E-06
        -0.54991E-07
        -0.18188E-06
        -0.40941E-06
        -0.13035E-04
        -0.60193E-05
        -0.40648E-06
        -0.25573E-05
        -0.19190E-05
        -0.39882E-06
        -0.40232E-05
        -0.14582E-04
        -0.84558E-04
        -0.66091E-04
        -0.50937E-04
        -0.27419E-04
        -0.16157E-05
        -0.71001E-05
        -0.11080E-04
        -0.18279E-04
        -0.76165E-04
        -0.25808E-04
        -0.11219E-04
        -0.17618E-04
        -0.24549E-04
        -0.26552E-04
        -0.13241E-06
        -0.41115E-04
        -0.84799E-04
        -0.45972E-03
        -0.76668E-03
        -0.12759E-02
        -0.18342E-02
        -0.17586E-02
        -0.13423E-02
        -0.12336E-02
        -0.12070E-02
        -0.47629E-03
        -0.52051E-04
        -0.82257E-05
        -0.61381E-05
        -0.12119E-05
        -0.93670E-04
        -0.37578E-03
        -0.72644E-03
        -0.12277E-02
        -0.15090E-02
        -0.11634E-02
        -0.10401E-02
        -0.10322E-02
        -0.50983E-03
        -0.13716E-03
        -0.12276E-03
        -0.36228E-04
        -0.14347E-04
        -0.12326E-04
        -0.74217E-06
        -0.20714E-04
        -0.42187E-05
        -0.26642E-05
        -0.32699E-04
        -0.14083E-04
        -0.29500E-04
        -0.80016E-05
        -0.14884E-03
        -0.52417E-04
        -0.10800E-05
        -0.14645E-03
        -0.51826E-05
        -0.52115E-06
        -0.42685E-06
        -0.88703E-05
        -0.30965E-06
        -0.67095E-05
        -0.33257E-05
        -0.11180E-05
        -0.78175E-06
        -0.13464E-04
        -0.76782E-06
        -0.56632E-07
        -0.18566E-06
        -0.39975E-06
        -0.13076E-04
        -0.60187E-05
        -0.40220E-06
        -0.25687E-05
        -0.19256E-05
        -0.39097E-06
        -0.40290E-05
        -0.14582E-04
        -0.84823E-04
        -0.66389E-04
        -0.51076E-04
        -0.27479E-04
        -0.15997E-05
        -0.71075E-05
        -0.11112E-04
        -0.18302E-04
        -0.76190E-04
        -0.25821E-04
        -0.11209E-04
        -0.17574E-04
        -0.24484E-04
        -0.26529E-04
        -0.12818E-06
        -0.41037E-04
        -0.84808E-04
        -0.45989E-03
        -0.76669E-03
        -0.12756E-02
        -0.18329E-02
        -0.17571E-02
        -0.13414E-02
        -0.12331E-02
        -0.12064E-02
        -0.47614E-03
        -0.52128E-04
        -0.82280E-05
        -0.61623E-05
        -0.11912E-05
        -0.93793E-04
        -0.37626E-03
        -0.72689E-03
        -0.12276E-02
        -0.15088E-02
        -0.11633E-02
        -0.10400E-02
        -0.10316E-02
        -0.50910E-03
        -0.13686E-03
        -0.12243E-03
        -0.36267E-04
        -0.14347E-04
        -0.12338E-04
        -0.75322E-06
        -0.20719E-04
        -0.42257E-05
        -0.26688E-05
        -0.32793E-04
        -0.14135E-04
        -0.29696E-04
        -0.80147E-05
        -0.14883E-03
        -0.52452E-04
        -0.10817E-05
        -0.14683E-03
        -0.51844E-05
        -0.53109E-06
        -0.42553E-06
        -0.88840E-05
        -0.30553E-06
        -0.67441E-05
        -0.33306E-05
        -0.11214E-05
        -0.77939E-06
        -0.13569E-04
        -0.76210E-06
        -0.58596E-07
        -0.18973E-06
        -0.39003E-06
        -0.13115E-04
        -0.60176E-05
        -0.39764E-06
        -0.25805E-05
        -0.19324E-05
        -0.38316E-06
        -0.40352E-05
        -0.14583E-04
        -0.85092E-04
        -0.66690E-04
        -0.51215E-04
        -0.27541E-04
        -0.15834E-05
        -0.71145E-05
        -0.11144E-04
        -0.18326E-04
        -0.76221E-04
        -0.25842E-04
        -0.11206E-04
        -0.17538E-04
        -0.24421E-04
        -0.26507E-04
        -0.12397E-06
        -0.40960E-04
        -0.84817E-04
        -0.46005E-03
        -0.76670E-03
        -0.12753E-02
        -0.18317E-02
        -0.17556E-02
        -0.13406E-02
        -0.12326E-02
        -0.12057E-02
        -0.47598E-03
        -0.52206E-04
        -0.82303E-05
        -0.61867E-05
        -0.11708E-05
        -0.93915E-04
        -0.37674E-03
        -0.72733E-03
        -0.12276E-02
        -0.15086E-02
        -0.11632E-02
        -0.10400E-02
        -0.10311E-02
        -0.50837E-03
        -0.13656E-03
        -0.12211E-03
        -0.36305E-04
        -0.14345E-04
        -0.12350E-04
        -0.76450E-06
        -0.20725E-04
        -0.42325E-05
        -0.26724E-05
        -0.32882E-04
        -0.14187E-04
        -0.29887E-04
        -0.80291E-05
        -0.14881E-03
        -0.52486E-04
        -0.10836E-05
        -0.14720E-03
        -0.51864E-05
        -0.54125E-06
        -0.42418E-06
        -0.88978E-05
        -0.30144E-06
        -0.67788E-05
        -0.33355E-05
        -0.11248E-05
        -0.77711E-06
        -0.13673E-04
        -0.75643E-06
        -0.60673E-07
        -0.19395E-06
        -0.38039E-06
        -0.13155E-04
        -0.60164E-05
        -0.39292E-06
        -0.25926E-05
        -0.19395E-05
        -0.37537E-06
        -0.40419E-05
        -0.14585E-04
        -0.85364E-04
        -0.66993E-04
        -0.51356E-04
        -0.27603E-04
        -0.15671E-05
        -0.71214E-05
        -0.11177E-04
        -0.18351E-04
        -0.76256E-04
        -0.25866E-04
        -0.11204E-04
        -0.17504E-04
        -0.24360E-04
        -0.26485E-04
        -0.11983E-06
        -0.40883E-04
        -0.84827E-04
        -0.46021E-03
        -0.76671E-03
        -0.12749E-02
        -0.18304E-02
        -0.17541E-02
        -0.13398E-02
        -0.12321E-02
        -0.12050E-02
        -0.47583E-03
        -0.52282E-04
        -0.82327E-05
        -0.62115E-05
        -0.11504E-05
        -0.94037E-04
        -0.37722E-03
        -0.72777E-03
        -0.12275E-02
        -0.15084E-02
        -0.11631E-02
        -0.10399E-02
        -0.10306E-02
        -0.50764E-03
        -0.13626E-03
        -0.12178E-03
        -0.36342E-04
        -0.14343E-04
        -0.12362E-04
        -0.77587E-06
        -0.20730E-04
        -0.42392E-05
        -0.26760E-05
        -0.32971E-04
        -0.14240E-04
        -0.30079E-04
        -0.80428E-05
        -0.14880E-03
        -0.52521E-04
        -0.10859E-05
        -0.14759E-03
        -0.51884E-05
        -0.55156E-06
        -0.42283E-06
        -0.89115E-05
        -0.29734E-06
        -0.68135E-05
        -0.33406E-05
        -0.11281E-05
        -0.77484E-06
        -0.13778E-04
        -0.75082E-06
        -0.62839E-07
        -0.19816E-06
        -0.37089E-06
        -0.13194E-04
        -0.60150E-05
        -0.38828E-06
        -0.26046E-05
        -0.19465E-05
        -0.36761E-06
        -0.40480E-05
        -0.14587E-04
        -0.85638E-04
        -0.67298E-04
        -0.51495E-04
        -0.27665E-04
        -0.15510E-05
        -0.71283E-05
        -0.11210E-04
        -0.18376E-04
        -0.76291E-04
        -0.25889E-04
        -0.11202E-04
        -0.17471E-04
        -0.24300E-04
        -0.26465E-04
        -0.11574E-06
        -0.40806E-04
        -0.84835E-04
        -0.46037E-03
        -0.76672E-03
        -0.12746E-02
        -0.18292E-02
        -0.17525E-02
        -0.13390E-02
        -0.12316E-02
        -0.12043E-02
        -0.47567E-03
        -0.52358E-04
        -0.82354E-05
        -0.62367E-05
        -0.11304E-05
        -0.94159E-04
        -0.37770E-03
        -0.72820E-03
        -0.12274E-02
        -0.15082E-02
        -0.11629E-02
        -0.10399E-02
        -0.10300E-02
        -0.50691E-03
        -0.13596E-03
        -0.12146E-03
        -0.36378E-04
        -0.14341E-04
        -0.12374E-04
        -0.78725E-06
        -0.20735E-04
        -0.42458E-05
        -0.26796E-05
        -0.33060E-04
        -0.14293E-04
        -0.30271E-04
        -0.80573E-05
        -0.14878E-03
        -0.52558E-04
        -0.10878E-05
        -0.14796E-03
        -0.51904E-05
        -0.56201E-06
        -0.42147E-06
        -0.89250E-05
        -0.29325E-06
        -0.68482E-05
        -0.33454E-05
        -0.11313E-05
        -0.77258E-06
        -0.13882E-04
        -0.74524E-06
        -0.64984E-07
        -0.20238E-06
        -0.36155E-06
        -0.13233E-04
        -0.60136E-05
        -0.38364E-06
        -0.26165E-05
        -0.19536E-05
        -0.35996E-06
        -0.40547E-05
        -0.14589E-04
        -0.85912E-04
        -0.67603E-04
        -0.51636E-04
        -0.27726E-04
        -0.15351E-05
        -0.71354E-05
        -0.11242E-04
        -0.18401E-04
        -0.76325E-04
        -0.25913E-04
        -0.11202E-04
        -0.17437E-04
        -0.24238E-04
        -0.26442E-04
        -0.11174E-06
        -0.40728E-04
        -0.84844E-04
        -0.46053E-03
        -0.76673E-03
        -0.12743E-02
        -0.18279E-02
        -0.17510E-02
        -0.13382E-02
        -0.12311E-02
        -0.12036E-02
        -0.47552E-03
        -0.52434E-04
        -0.82381E-05
        -0.62618E-05
        -0.11105E-05
        -0.94283E-04
        -0.37818E-03
        -0.72864E-03
        -0.12274E-02
        -0.15080E-02
        -0.11628E-02
        -0.10398E-02
        -0.10295E-02
        -0.50618E-03
        -0.13566E-03
        -0.12114E-03
        -0.36415E-04
        -0.14338E-04
        -0.12386E-04
        -0.79871E-06
        -0.20741E-04
        -0.42526E-05
        -0.26836E-05
        -0.33149E-04
        -0.14346E-04
        -0.30464E-04
        -0.80716E-05
        -0.14877E-03
        -0.52592E-04
        -0.10899E-05
        -0.14835E-03
        -0.51924E-05
        -0.57258E-06
        -0.42013E-06
        -0.89386E-05
        -0.28916E-06
        -0.68830E-05
        -0.33502E-05
        -0.11347E-05
        -0.77036E-06
        -0.13987E-04
        -0.73967E-06
        -0.67202E-07
        -0.20658E-06
        -0.35233E-06
        -0.13273E-04
        -0.60123E-05
        -0.37905E-06
        -0.26286E-05
        -0.19607E-05
        -0.35234E-06
        -0.40611E-05
        -0.14591E-04
        -0.86187E-04
        -0.67909E-04
        -0.51774E-04
        -0.27788E-04
        -0.15192E-05
        -0.71423E-05
        -0.11274E-04
        -0.18426E-04
        -0.76360E-04
        -0.25937E-04
        -0.11200E-04
        -0.17404E-04
        -0.24177E-04
        -0.26422E-04
        -0.10780E-06
        -0.40650E-04
        -0.84852E-04
        -0.46068E-03
        -0.76675E-03
        -0.12740E-02
        -0.18267E-02
        -0.17495E-02
        -0.13374E-02
        -0.12306E-02
        -0.12029E-02
        -0.47536E-03
        -0.52510E-04
        -0.82406E-05
        -0.62866E-05
        -0.10907E-05
        -0.94405E-04
        -0.37866E-03
        -0.72908E-03
        -0.12273E-02
        -0.15078E-02
        -0.11627E-02
        -0.10398E-02
        -0.10289E-02
        -0.50545E-03
        -0.13537E-03
        -0.12081E-03
        -0.36452E-04
        -0.14336E-04
        -0.12397E-04
        -0.81036E-06
        -0.20746E-04
        -0.42593E-05
        -0.26872E-05
        -0.33237E-04
        -0.14399E-04
        -0.30656E-04
        -0.80861E-05
        -0.14875E-03
        -0.52626E-04
        -0.10920E-05
        -0.14872E-03
        -0.51945E-05
        -0.58326E-06
        -0.41876E-06
        -0.89522E-05
        -0.28513E-06
        -0.69180E-05
        -0.33549E-05
        -0.11381E-05
        -0.76816E-06
        -0.14092E-04
        -0.73418E-06
        -0.69408E-07
        -0.21080E-06
        -0.34323E-06
        -0.13312E-04
        -0.60108E-05
        -0.37447E-06
        -0.26406E-05
        -0.19679E-05
        -0.34477E-06
        -0.40676E-05
        -0.14593E-04
        -0.86464E-04
        -0.68216E-04
        -0.51914E-04
        -0.27850E-04
        -0.15036E-05
        -0.71492E-05
        -0.11307E-04
        -0.18452E-04
        -0.76395E-04
        -0.25960E-04
        -0.11200E-04
        -0.17371E-04
        -0.24117E-04
        -0.26400E-04
        -0.10393E-06
        -0.40573E-04
        -0.84860E-04
        -0.46084E-03
        -0.76676E-03
        -0.12737E-02
        -0.18254E-02
        -0.17480E-02
        -0.13365E-02
        -0.12301E-02
        -0.12022E-02
        -0.47520E-03
        -0.52586E-04
        -0.82431E-05
        -0.63115E-05
        -0.10710E-05
        -0.94527E-04
        -0.37914E-03
        -0.72951E-03
        -0.12272E-02
        -0.15076E-02
        -0.11626E-02
        -0.10398E-02
        -0.10284E-02
        -0.50473E-03
        -0.13508E-03
        -0.12049E-03
        -0.36488E-04
        -0.14334E-04
        -0.12409E-04
        -0.82213E-06
        -0.20751E-04
        -0.42661E-05
        -0.26908E-05
        -0.33326E-04
        -0.14452E-04
        -0.30849E-04
        -0.81005E-05
        -0.14874E-03
        -0.52663E-04
        -0.10938E-05
        -0.14911E-03
        -0.51964E-05
        -0.59405E-06
        -0.41737E-06
        -0.89658E-05
        -0.28115E-06
        -0.69530E-05
        -0.33597E-05
        -0.11414E-05
        -0.76597E-06
        -0.14198E-04
        -0.72864E-06
        -0.71715E-07
        -0.21502E-06
        -0.33427E-06
        -0.13351E-04
        -0.60094E-05
        -0.36988E-06
        -0.26525E-05
        -0.19750E-05
        -0.33728E-06
        -0.40744E-05
        -0.14595E-04
        -0.86739E-04
        -0.68525E-04
        -0.52054E-04
        -0.27913E-04
        -0.14879E-05
        -0.71560E-05
        -0.11340E-04
        -0.18478E-04
        -0.76426E-04
        -0.25984E-04
        -0.11198E-04
        -0.17338E-04
        -0.24056E-04
        -0.26378E-04
        -0.10015E-06
        -0.40496E-04
        -0.84868E-04
        -0.46099E-03
        -0.76677E-03
        -0.12734E-02
        -0.18241E-02
        -0.17465E-02
        -0.13357E-02
        -0.12296E-02
        -0.12015E-02
        -0.47505E-03
        -0.52662E-04
        -0.82456E-05
        -0.63366E-05
        -0.10516E-05
        -0.94649E-04
        -0.37962E-03
        -0.72995E-03
        -0.12272E-02
        -0.15074E-02
        -0.11625E-02
        -0.10397E-02
        -0.10278E-02
        -0.50400E-03
        -0.13478E-03
        -0.12017E-03
        -0.36524E-04
        -0.14332E-04
        -0.12421E-04
        -0.83396E-06
        -0.20757E-04
        -0.42728E-05
        -0.26949E-05
        -0.33414E-04
        -0.14506E-04
        -0.31042E-04
        -0.81150E-05
        -0.14872E-03
        -0.52698E-04
        -0.10959E-05
        -0.14949E-03
        -0.51983E-05
        -0.60498E-06
        -0.41602E-06
        -0.89794E-05
        -0.27720E-06
        -0.69882E-05
        -0.33644E-05
        -0.11448E-05
        -0.76380E-06
        -0.14303E-04
        -0.72313E-06
        -0.73996E-07
        -0.21922E-06
        -0.32547E-06
        -0.13390E-04
        -0.60079E-05
        -0.36536E-06
        -0.26646E-05
        -0.19822E-05
        -0.32984E-06
        -0.40808E-05
        -0.14597E-04
        -0.87019E-04
        -0.68834E-04
        -0.52192E-04
        -0.27975E-04
        -0.14723E-05
        -0.71629E-05
        -0.11372E-04
        -0.18503E-04
        -0.76462E-04
        -0.26009E-04
        -0.11197E-04
        -0.17305E-04
        -0.23996E-04
        -0.26357E-04
        -0.96455E-07
        -0.40418E-04
        -0.84875E-04
        -0.46115E-03
        -0.76678E-03
        -0.12731E-02
        -0.18229E-02
        -0.17450E-02
        -0.13349E-02
        -0.12290E-02
        -0.12008E-02
        -0.47489E-03
        -0.52738E-04
        -0.82481E-05
        -0.63618E-05
        -0.10324E-05
        -0.94771E-04
        -0.38010E-03
        -0.73039E-03
        -0.12271E-02
        -0.15072E-02
        -0.11624E-02
        -0.10397E-02
        -0.10273E-02
        -0.50327E-03
        -0.13449E-03
        -0.11985E-03
        -0.36561E-04
        -0.14330E-04
        -0.12433E-04
        -0.84586E-06
        -0.20762E-04
        -0.42795E-05
        -0.26986E-05
        -0.33503E-04
        -0.14560E-04
        -0.31235E-04
        -0.81295E-05
        -0.14871E-03
        -0.52732E-04
        -0.10977E-05
        -0.14987E-03
        -0.52004E-05
        -0.61607E-06
        -0.41467E-06
        -0.89930E-05
        -0.27324E-06
        -0.70234E-05
        -0.33691E-05
        -0.11480E-05
        -0.76167E-06
        -0.14410E-04
        -0.71765E-06
        -0.76355E-07
        -0.22339E-06
        -0.31682E-06
        -0.13430E-04
        -0.60065E-05
        -0.36084E-06
        -0.26767E-05
        -0.19894E-05
        -0.32249E-06
        -0.40875E-05
        -0.14599E-04
        -0.87299E-04
        -0.69144E-04
        -0.52332E-04
        -0.28038E-04
        -0.14568E-05
        -0.71700E-05
        -0.11405E-04
        -0.18529E-04
        -0.76497E-04
        -0.26032E-04
        -0.11197E-04
        -0.17272E-04
        -0.23935E-04
        -0.26336E-04
        -0.92807E-07
        -0.40340E-04
        -0.84882E-04
        -0.46130E-03
        -0.76679E-03
        -0.12728E-02
        -0.18216E-02
        -0.17434E-02
        -0.13341E-02
        -0.12285E-02
        -0.12001E-02
        -0.47474E-03
        -0.52814E-04
        -0.82506E-05
        -0.63870E-05
        -0.10134E-05
        -0.94893E-04
        -0.38059E-03
        -0.73083E-03
        -0.12270E-02
        -0.15070E-02
        -0.11623E-02
        -0.10396E-02
        -0.10267E-02
        -0.50255E-03
        -0.13420E-03
        -0.11953E-03
        -0.36596E-04
        -0.14327E-04
        -0.12444E-04
        -0.85780E-06
        -0.20767E-04
        -0.42863E-05
        -0.27024E-05
        -0.33591E-04
        -0.14614E-04
        -0.31429E-04
        -0.81440E-05
        -0.14869E-03
        -0.52769E-04
        -0.10998E-05
        -0.15025E-03
        -0.52024E-05
        -0.62731E-06
        -0.41331E-06
        -0.90067E-05
        -0.26933E-06
        -0.70588E-05
        -0.33736E-05
        -0.11514E-05
        -0.75957E-06
        -0.14516E-04
        -0.71217E-06
        -0.78687E-07
        -0.22754E-06
        -0.30831E-06
        -0.13469E-04
        -0.60051E-05
        -0.35638E-06
        -0.26887E-05
        -0.19967E-05
        -0.31516E-06
        -0.40939E-05
        -0.14601E-04
        -0.87579E-04
        -0.69454E-04
        -0.52469E-04
        -0.28100E-04
        -0.14414E-05
        -0.71771E-05
        -0.11437E-04
        -0.18555E-04
        -0.76532E-04
        -0.26056E-04
        -0.11195E-04
        -0.17239E-04
        -0.23875E-04
        -0.26315E-04
        -0.89228E-07
        -0.40263E-04
        -0.84889E-04
        -0.46145E-03
        -0.76681E-03
        -0.12725E-02
        -0.18204E-02
        -0.17419E-02
        -0.13332E-02
        -0.12280E-02
        -0.11994E-02
        -0.47458E-03
        -0.52891E-04
        -0.82529E-05
        -0.64119E-05
        -0.99451E-06
        -0.95015E-04
        -0.38107E-03
        -0.73127E-03
        -0.12270E-02
        -0.15068E-02
        -0.11622E-02
        -0.10396E-02
        -0.10262E-02
        -0.50183E-03
        -0.13391E-03
        -0.11921E-03
        -0.36632E-04
        -0.14325E-04
        -0.12456E-04
        -0.86988E-06
        -0.20772E-04
        -0.42929E-05
        -0.27063E-05
        -0.33679E-04
        -0.14668E-04
        -0.31623E-04
        -0.81586E-05
        -0.14868E-03
        -0.52804E-04
        -0.11015E-05
        -0.15064E-03
        -0.52044E-05
        -0.63872E-06
        -0.41192E-06
        -0.90203E-05
        -0.26549E-06
        -0.70941E-05
        -0.33779E-05
        -0.11547E-05
        -0.75746E-06
        -0.14623E-04
        -0.70669E-06
        -0.81118E-07
        -0.23169E-06
        -0.29991E-06
        -0.13508E-04
        -0.60035E-05
        -0.35192E-06
        -0.27007E-05
        -0.20040E-05
        -0.30790E-06
        -0.41004E-05
        -0.14602E-04
        -0.87862E-04
        -0.69764E-04
        -0.52606E-04
        -0.28162E-04
        -0.14262E-05
        -0.71842E-05
        -0.11470E-04
        -0.18580E-04
        -0.76568E-04
        -0.26080E-04
        -0.11195E-04
        -0.17206E-04
        -0.23814E-04
        -0.26293E-04
        -0.85749E-07
        -0.40185E-04
        -0.84896E-04
        -0.46160E-03
        -0.76682E-03
        -0.12722E-02
        -0.18191E-02
        -0.17404E-02
        -0.13324E-02
        -0.12275E-02
        -0.11986E-02
        -0.47443E-03
        -0.52968E-04
        -0.82546E-05
        -0.64367E-05
        -0.97589E-06
        -0.95136E-04
        -0.38155E-03
        -0.73170E-03
        -0.12269E-02
        -0.15066E-02
        -0.11621E-02
        -0.10395E-02
        -0.10256E-02
        -0.50110E-03
        -0.13362E-03
        -0.11889E-03
        -0.36668E-04
        -0.14323E-04
        -0.12468E-04
        -0.88210E-06
        -0.20777E-04
        -0.42996E-05
        -0.27101E-05
        -0.33766E-04
        -0.14723E-04
        -0.31818E-04
        -0.81731E-05
        -0.14866E-03
        -0.52839E-04
        -0.11034E-05
        -0.15102E-03
        -0.52064E-05
        -0.65035E-06
        -0.41053E-06
        -0.90339E-05
        -0.26185E-06
        -0.71294E-05
        -0.33822E-05
        -0.11581E-05
        -0.75532E-06
        -0.14730E-04
        -0.70130E-06
        -0.83562E-07
        -0.23585E-06
        -0.29165E-06
        -0.13544E-04
        -0.60020E-05
        -0.34743E-06
        -0.27127E-05
        -0.20113E-05
        -0.30073E-06
        -0.41073E-05
        -0.14604E-04
        -0.88148E-04
        -0.70075E-04
        -0.52736E-04
        -0.28223E-04
        -0.14109E-05
        -0.71916E-05
        -0.11503E-04
        -0.18606E-04
        -0.76603E-04
        -0.26103E-04
        -0.11194E-04
        -0.17173E-04
        -0.23754E-04
        -0.26273E-04
        -0.82335E-07
        -0.40107E-04
        -0.84902E-04
        -0.46175E-03
        -0.76683E-03
        -0.12719E-02
        -0.18178E-02
        -0.17389E-02
        -0.13316E-02
        -0.12270E-02
        -0.11979E-02
        -0.47430E-03
        -0.53046E-04
        -0.82554E-05
        -0.64616E-05
        -0.95748E-06
        -0.95257E-04
        -0.38203E-03
        -0.73214E-03
        -0.12269E-02
        -0.15064E-02
        -0.11620E-02
        -0.10395E-02
        -0.10250E-02
        -0.50038E-03
        -0.13334E-03
        -0.11857E-03
        -0.36704E-04
        -0.14321E-04
        -0.12480E-04
        -0.89438E-06
        -0.20782E-04
        -0.43061E-05
        -0.27139E-05
        -0.33853E-04
        -0.14779E-04
        -0.32013E-04
        -0.81876E-05
        -0.14865E-03
        -0.52875E-04
        -0.11054E-05
        -0.15141E-03
        -0.52083E-05
        -0.66228E-06
        -0.40914E-06
        -0.90476E-05
        -0.25838E-06
        -0.71650E-05
        -0.33863E-05
        -0.11614E-05
        -0.75326E-06
        -0.14838E-04
        -0.69586E-06
        -0.86151E-07
        -0.24000E-06
        -0.28353E-06
        -0.13578E-04
        -0.60003E-05
        -0.34303E-06
        -0.27247E-05
        -0.20186E-05
        -0.29358E-06
        -0.41137E-05
        -0.14606E-04
        -0.88439E-04
        -0.70383E-04
        -0.52863E-04
        -0.28284E-04
        -0.13958E-05
        -0.71995E-05
        -0.11535E-04
        -0.18633E-04
        -0.76639E-04
        -0.26128E-04
        -0.11192E-04
        -0.17140E-04
        -0.23693E-04
        -0.26251E-04
        -0.78965E-07
        -0.40029E-04
        -0.84908E-04
        -0.46190E-03
        -0.76684E-03
        -0.12716E-02
        -0.18166E-02
        -0.17373E-02
        -0.13308E-02
        -0.12265E-02
        -0.11971E-02
        -0.47418E-03
        -0.53125E-04
        -0.82548E-05
        -0.64866E-05
        -0.93913E-06
        -0.95378E-04
        -0.38252E-03
        -0.73257E-03
        -0.12268E-02
        -0.15062E-02
        -0.11619E-02
        -0.10394E-02
        -0.10245E-02
        -0.49966E-03
        -0.13305E-03
        -0.11825E-03
        -0.36740E-04
        -0.14319E-04
        -0.12492E-04
        -0.90670E-06
        -0.20789E-04
        -0.43129E-05
        -0.27180E-05
        -0.33940E-04
        -0.14835E-04
        -0.32208E-04
        -0.82022E-05
        -0.14864E-03
        -0.52910E-04
        -0.11071E-05
        -0.15179E-03
        -0.52104E-05
        -0.67437E-06
        -0.40776E-06
        -0.90615E-05
        -0.25504E-06
        -0.72008E-05
        -0.33904E-05
        -0.11645E-05
        -0.75133E-06
        -0.14946E-04
        -0.69064E-06
        -0.88710E-07
        -0.24400E-06
        -0.27562E-06
        -0.13612E-04
        -0.59990E-05
        -0.33874E-06
        -0.27368E-05
        -0.20260E-05
        -0.28659E-06
        -0.41201E-05
        -0.14607E-04
        -0.88729E-04
        -0.70692E-04
        -0.52985E-04
        -0.28343E-04
        -0.13810E-05
        -0.72079E-05
        -0.11567E-04
        -0.18657E-04
        -0.76674E-04
        -0.26152E-04
        -0.11192E-04
        -0.17108E-04
        -0.23633E-04
        -0.26231E-04
        -0.75690E-07
        -0.39951E-04
        -0.84917E-04
        -0.46205E-03
        -0.76685E-03
        -0.12713E-02
        -0.18153E-02
        -0.17358E-02
        -0.13300E-02
        -0.12260E-02
        -0.11962E-02
        -0.47407E-03
        -0.53201E-04
        -0.82531E-05
        -0.65114E-05
        -0.92097E-06
        -0.95497E-04
        -0.38300E-03
        -0.73301E-03
        -0.12267E-02
        -0.15060E-02
        -0.11617E-02
        -0.10394E-02
        -0.10239E-02
        -0.49894E-03
        -0.13277E-03
        -0.11793E-03
        -0.37061E-04
        -0.14432E-04
        -0.12606E-04
        -0.92577E-06
        -0.20955E-04
        -0.43521E-05
        -0.27440E-05
        -0.34282E-04
        -0.15002E-04
        -0.32637E-04
        -0.82787E-05
        -0.14971E-03
        -0.53331E-04
        -0.11172E-05
        -0.15330E-03
        -0.52537E-05
        -0.69115E-06
        -0.40956E-06
        -0.91443E-05
        -0.25402E-06
        -0.72869E-05
        -0.34195E-05
        -0.11743E-05
        -0.75619E-06
        -0.15165E-04
        -0.69248E-06
        -0.91779E-07
        -0.24899E-06
        -0.27138E-06
        -0.13753E-04
        -0.60463E-05
        -0.33835E-06
        -0.27697E-05
        -0.20490E-05
        -0.28247E-06
        -0.41540E-05
        -0.14711E-04
        -0.89669E-04
        -0.71521E-04
        -0.53506E-04
        -0.28610E-04
        -0.13802E-05
        -0.72738E-05
        -0.11672E-04
        -0.18807E-04
        -0.77235E-04
        -0.26355E-04
        -0.11266E-04
        -0.17201E-04
        -0.23752E-04
        -0.26405E-04
        -0.73072E-07
        -0.40146E-04
        -0.85545E-04
        -0.46545E-03
        -0.77225E-03
        -0.12801E-02
        -0.18275E-02
        -0.17474E-02
        -0.13393E-02
        -0.12348E-02
        -0.12046E-02
        -0.47752E-03
        -0.53640E-04
        -0.83046E-05
        -0.65785E-05
        -0.90994E-06
        -0.96217E-04
        -0.38591E-03
        -0.73838E-03
        -0.12354E-02
        -0.15166E-02
        -0.11696E-02
        -0.10464E-02
        -0.10304E-02
        -0.50172E-03
        -0.13342E-03
        -0.11844E-03
        -0.82225E-04
        -0.32279E-04
        -0.27882E-04
        -0.20833E-05
        -0.43181E-04
        -0.91487E-05
        -0.61141E-05
        -0.75401E-04
        -0.33181E-04
        -0.71509E-04
        -0.17819E-04
        -0.29733E-03
        -0.10915E-03
        -0.23853E-05
        -0.30806E-03
        -0.11680E-04
        -0.15465E-05
        -0.90915E-06
        -0.19796E-04
        -0.54960E-06
        -0.14943E-04
        -0.71749E-05
        -0.24105E-05
        -0.16613E-05
        -0.33893E-04
        -0.15459E-05
        -0.20254E-06
        -0.55688E-06
        -0.60109E-06
        -0.30622E-04
        -0.13444E-04
        -0.74715E-06
        -0.62006E-05
        -0.45742E-05
        -0.54548E-06
        -0.87032E-05
        -0.30823E-04
        -0.18825E-03
        -0.15452E-03
        -0.11638E-03
        -0.60537E-04
        -0.29515E-05
        -0.15616E-04
        -0.24341E-04
        -0.38947E-04
        -0.15095E-03
        -0.54211E-04
        -0.23733E-04
        -0.36597E-04
        -0.50085E-04
        -0.53079E-04
        -0.14779E-06
        -0.62605E-04
        -0.13327E-03
        -0.72540E-03
        -0.12102E-02
        -0.20035E-02
        -0.28751E-02
        -0.28106E-02
        -0.21904E-02
        -0.20120E-02
        -0.19402E-02
        -0.77088E-03
        -0.86278E-04
        -0.13629E-04
        -0.10897E-04
        -0.14471E-05
        -0.15155E-03
        -0.60427E-03
        -0.11437E-02
        -0.19112E-02
        -0.23517E-02
        -0.18508E-02
        -0.16703E-02
        -0.16331E-02
        -0.80027E-03
        -0.21140E-03
        -0.18626E-03
  
SCALARS                      strain_zz  double 1
LOOKUP_TABLE default
         0.17023E+01
         0.16681E+01
         0.16898E+01
         0.17286E+01
        -0.17664E-08
        -0.19807E-08
        -0.18966E-08
        -0.17230E-08
         0.16671E+01
         0.16786E+01
        -0.17812E-08
        -0.17237E-08
         0.16187E+01
         0.16168E+01
        -0.21164E-08
        -0.19900E-08
         0.17229E+01
         0.16195E+01
        -0.15638E-08
        -0.17345E-08
         0.15815E+01
         0.15522E+01
         0.15991E+01
        -0.20976E-08
        -0.18319E-08
        -0.18916E-08
         0.15532E+01
         0.15103E+01
        -0.20123E-08
        -0.16971E-08
         0.17211E+01
         0.16761E+01
         0.17648E+01
        -0.17172E-08
        -0.15964E-08
        -0.15522E-08
         0.16951E+01
         0.16377E+01
        -0.18168E-08
        -0.16578E-08
         0.16724E+01
         0.16282E+01
        -0.15702E-08
        -0.13901E-08
         0.17098E+01
         0.17264E+01
        -0.17207E-08
        -0.19227E-08
         0.15926E+01
        -0.16810E-08
         0.17232E+01
        -0.19753E-08
         0.15408E+01
        -0.17752E-08
         0.15273E+01
        -0.17028E-08
         0.15276E+01
         0.15756E+01
        -0.17349E-08
        -0.16896E-08
         0.17202E+01
         0.17029E+01
        -0.17397E-08
        -0.19667E-08
         0.17310E+01
        -0.16787E-08
         0.17104E+01
        -0.18321E-08
         0.16566E+01
         0.16510E+01
        -0.17636E-08
        -0.18479E-08
         0.16387E+01
        -0.18634E-08
         0.14950E+01
        -0.14722E-08
         0.14875E+01
        -0.14290E-08
         0.14914E+01
        -0.15068E-08
         0.15124E+01
         0.15338E+01
        -0.14356E-08
        -0.14967E-08
         0.15772E+01
        -0.13940E-08
         0.17090E+01
        -0.18280E-08
         0.16885E+01
        -0.18709E-08
         0.16719E+01
         0.16624E+01
        -0.17967E-08
        -0.18176E-08
         0.16737E+01
        -0.16510E-08
         0.16818E+01
        -0.16274E-08
         0.16745E+01
        -0.17421E-08
         0.16721E+01
         0.16794E+01
        -0.17084E-08
        -0.17586E-08
         0.16323E+01
         0.16520E+01
        -0.13264E-08
        -0.12476E-08
         0.16289E+01
        -0.12666E-08
         0.16517E+01
        -0.12144E-08
         0.16293E+01
        -0.11975E-08
         0.15803E+01
        -0.11317E-08
         0.15329E+01
        -0.10053E-08
         0.15044E+01
        -0.90526E-09
         0.15015E+01
        -0.89897E-09
         0.15024E+01
        -0.97489E-09
         0.15332E+01
        -0.10246E-08
         0.15913E+01
        -0.93555E-09
         0.16550E+01
        -0.84330E-09
         0.16920E+01
        -0.84234E-09
         0.17287E+01
        -0.94152E-09
         0.17530E+01
        -0.10736E-08
         0.17522E+01
        -0.11533E-08
         0.16928E+01
        -0.12456E-08
         0.16513E+01
        -0.13345E-08
         0.16376E+01
        -0.12225E-08
         0.16599E+01
        -0.10724E-08
         0.16712E+01
        -0.10691E-08
         0.16515E+01
        -0.11697E-08
         0.16516E+01
        -0.12470E-08
         0.16664E+01
        -0.11834E-08
         0.16857E+01
        -0.11441E-08
        -0.41045E+00
        -0.41516E+00
        -0.41454E+00
        -0.40839E+00
        -0.41950E+00
        -0.41399E+00
        -0.42083E+00
        -0.41730E+00
        -0.40937E+00
        -0.41436E+00
        -0.42447E+00
        -0.42547E+00
        -0.42257E+00
        -0.42243E+00
        -0.42424E+00
        -0.40869E+00
        -0.40985E+00
        -0.40657E+00
        -0.41566E+00
        -0.41405E+00
        -0.41629E+00
        -0.41477E+00
        -0.41756E+00
        -0.41690E+00
        -0.41418E+00
        -0.41438E+00
        -0.41897E+00
        -0.41857E+00
        -0.42187E+00
        -0.41683E+00
        -0.40926E+00
        -0.41523E+00
        -0.40931E+00
        -0.41325E+00
        -0.42623E+00
        -0.42225E+00
        -0.42028E+00
        -0.42254E+00
        -0.42286E+00
        -0.42653E+00
        -0.42906E+00
        -0.42268E+00
        -0.41618E+00
        -0.41711E+00
        -0.42046E+00
        -0.42607E+00
        -0.42133E+00
        -0.41594E+00
        -0.41633E+00
        -0.42050E+00
        -0.42457E+00
        -0.41902E+00
        -0.43443E+00
        -0.42986E+00
        -0.43056E+00
        -0.42943E+00
        -0.42960E+00
        -0.43189E+00
        -0.43439E+00
        -0.43535E+00
        -0.43506E+00
        -0.43524E+00
        -0.43631E+00
        -0.42992E+00
        -0.42763E+00
        -0.42673E+00
        -0.42496E+00
        -0.42359E+00
        -0.42358E+00
        -0.42573E+00
        -0.43287E+00
        -0.43114E+00
        -0.42882E+00
        -0.42892E+00
        -0.42933E+00
        -0.43168E+00
        -0.42821E+00
        -0.42688E+00
         0.51183E-04
         0.19457E-04
         0.19478E-04
         0.18138E-04
         0.51218E-04
         0.33970E-04
         0.94655E-06
         0.32327E-04
         0.29622E-04
         0.27116E-04
        -0.29935E-05
         0.15209E-03
         0.90939E-04
        -0.17810E-05
         0.15941E-03
         0.24953E-04
         0.13193E-04
         0.12351E-04
         0.99941E-05
         0.43835E-05
         0.92705E-04
         0.86951E-04
         0.73104E-04
         0.30804E-05
         0.45873E-05
         0.41379E-06
        -0.13006E-04
        -0.25667E-04
        -0.10731E-04
         0.85656E-05
         0.18806E-04
         0.41376E-05
         0.16709E-04
         0.20623E-04
         0.72954E-04
         0.26661E-04
         0.46448E-04
         0.10202E-03
         0.58233E-04
         0.53170E-04
         0.11559E-03
         0.92120E-04
         0.94622E-04
         0.52513E-04
         0.41808E-04
         0.82636E-04
         0.37503E-04
         0.29193E-04
         0.23936E-04
         0.34598E-04
         0.76278E-04
         0.44828E-04
         0.12873E-02
         0.13684E-02
         0.14831E-02
         0.14757E-02
         0.16872E-02
         0.19498E-02
         0.17924E-02
         0.14242E-02
         0.13491E-02
         0.15347E-02
         0.14721E-02
         0.14297E-02
         0.97356E-03
         0.88727E-03
         0.10564E-02
         0.12037E-02
         0.12987E-02
         0.15514E-02
         0.14379E-02
         0.15294E-02
         0.12414E-02
         0.11153E-02
         0.12619E-02
         0.12057E-02
         0.12849E-02
         0.12706E-02
         0.50621E-04
         0.18818E-04
         0.18855E-04
         0.17582E-04
         0.50439E-04
         0.33255E-04
         0.26569E-06
         0.31686E-04
         0.29013E-04
         0.26538E-04
        -0.37861E-05
         0.15116E-03
         0.90196E-04
        -0.26694E-05
         0.15883E-03
         0.24311E-04
         0.12482E-04
         0.11769E-04
         0.92495E-05
         0.35799E-05
         0.91915E-04
         0.86153E-04
         0.72263E-04
         0.23096E-05
         0.38530E-05
        -0.32134E-06
        -0.13753E-04
        -0.26473E-04
        -0.11556E-04
         0.77404E-05
         0.18182E-04
         0.34392E-05
         0.16096E-04
         0.20047E-04
         0.72191E-04
         0.25917E-04
         0.45699E-04
         0.10144E-03
         0.57648E-04
         0.52459E-04
         0.11482E-03
         0.91316E-04
         0.93786E-04
         0.51705E-04
         0.41023E-04
         0.81795E-04
         0.36731E-04
         0.28457E-04
         0.23213E-04
         0.33857E-04
         0.75437E-04
         0.44024E-04
         0.12849E-02
         0.13664E-02
         0.14817E-02
         0.14744E-02
         0.16852E-02
         0.19470E-02
         0.17893E-02
         0.14219E-02
         0.13468E-02
         0.15321E-02
         0.14700E-02
         0.14283E-02
         0.97211E-03
         0.88602E-03
         0.10555E-02
         0.12029E-02
         0.12980E-02
         0.15507E-02
         0.14363E-02
         0.15277E-02
         0.12397E-02
         0.11139E-02
         0.12598E-02
         0.12028E-02
         0.12821E-02
         0.12680E-02
         0.50829E-04
         0.18952E-04
         0.19005E-04
         0.17754E-04
         0.50594E-04
         0.33419E-04
         0.43518E-06
         0.31922E-04
         0.29176E-04
         0.26770E-04
        -0.36255E-05
         0.15132E-03
         0.90419E-04
        -0.25773E-05
         0.15940E-03
         0.24209E-04
         0.12474E-04
         0.11912E-04
         0.90747E-05
         0.34175E-05
         0.91800E-04
         0.86091E-04
         0.71709E-04
         0.17531E-05
         0.36076E-05
        -0.83672E-06
        -0.13590E-04
        -0.26588E-04
        -0.11872E-04
         0.71797E-05
         0.18213E-04
         0.32786E-05
         0.16233E-04
         0.20249E-04
         0.72472E-04
         0.26088E-04
         0.45840E-04
         0.10194E-03
         0.58085E-04
         0.52665E-04
         0.11495E-03
         0.91088E-04
         0.93350E-04
         0.51168E-04
         0.40878E-04
         0.81905E-04
         0.36872E-04
         0.28619E-04
         0.23346E-04
         0.33996E-04
         0.75582E-04
         0.44128E-04
         0.12844E-02
         0.13661E-02
         0.14821E-02
         0.14747E-02
         0.16849E-02
         0.19459E-02
         0.17882E-02
         0.14215E-02
         0.13464E-02
         0.15315E-02
         0.14697E-02
         0.14284E-02
         0.97196E-03
         0.88616E-03
         0.10559E-02
         0.12033E-02
         0.12984E-02
         0.15514E-02
         0.14365E-02
         0.15280E-02
         0.12398E-02
         0.11142E-02
         0.12593E-02
         0.12016E-02
         0.12810E-02
         0.12669E-02
         0.50801E-04
         0.18904E-04
         0.18967E-04
         0.17681E-04
         0.50485E-04
         0.33337E-04
         0.39976E-06
         0.31902E-04
         0.29037E-04
         0.26633E-04
        -0.37071E-05
         0.15122E-03
         0.90426E-04
        -0.27711E-05
         0.15963E-03
         0.23710E-04
         0.12070E-04
         0.11798E-04
         0.84267E-05
         0.27388E-05
         0.91213E-04
         0.85541E-04
         0.70443E-04
         0.50873E-06
         0.27105E-05
        -0.20102E-05
        -0.13785E-04
        -0.27241E-04
        -0.12893E-04
         0.57502E-05
         0.17927E-04
         0.26498E-05
         0.16120E-04
         0.20163E-04
         0.72427E-04
         0.26001E-04
         0.45762E-04
         0.10212E-03
         0.58171E-04
         0.52439E-04
         0.11460E-03
         0.90171E-04
         0.92131E-04
         0.49909E-04
         0.40233E-04
         0.81568E-04
         0.36629E-04
         0.28480E-04
         0.23182E-04
         0.33801E-04
         0.75390E-04
         0.43954E-04
         0.12833E-02
         0.13653E-02
         0.14819E-02
         0.14746E-02
         0.16842E-02
         0.19445E-02
         0.17864E-02
         0.14205E-02
         0.13455E-02
         0.15303E-02
         0.14687E-02
         0.14277E-02
         0.97107E-03
         0.88575E-03
         0.10557E-02
         0.12028E-02
         0.12980E-02
         0.15516E-02
         0.14361E-02
         0.15276E-02
         0.12394E-02
         0.11138E-02
         0.12582E-02
         0.11999E-02
         0.12794E-02
         0.12655E-02
         0.50701E-04
         0.18800E-04
         0.18889E-04
         0.17606E-04
         0.50367E-04
         0.33232E-04
         0.33034E-06
         0.31820E-04
         0.28860E-04
         0.26477E-04
        -0.37939E-05
         0.15115E-03
         0.90423E-04
        -0.29742E-05
         0.15993E-03
         0.23387E-04
         0.11758E-04
         0.11692E-04
         0.80045E-05
         0.22463E-05
         0.90849E-04
         0.85147E-04
         0.69674E-04
        -0.26305E-06
         0.20960E-05
        -0.27623E-05
        -0.13956E-04
        -0.27712E-04
        -0.13591E-04
         0.48128E-05
         0.17628E-04
         0.21929E-05
         0.15920E-04
         0.20040E-04
         0.72382E-04
         0.25893E-04
         0.45655E-04
         0.10234E-03
         0.58299E-04
         0.52314E-04
         0.11441E-03
         0.89593E-04
         0.91352E-04
         0.49125E-04
         0.39812E-04
         0.81354E-04
         0.36417E-04
         0.28261E-04
         0.22933E-04
         0.33544E-04
         0.75138E-04
         0.43731E-04
         0.12821E-02
         0.13645E-02
         0.14817E-02
         0.14744E-02
         0.16836E-02
         0.19432E-02
         0.17849E-02
         0.14195E-02
         0.13446E-02
         0.15292E-02
         0.14679E-02
         0.14274E-02
         0.97046E-03
         0.88543E-03
         0.10558E-02
         0.12029E-02
         0.12980E-02
         0.15519E-02
         0.14359E-02
         0.15272E-02
         0.12388E-02
         0.11134E-02
         0.12571E-02
         0.11980E-02
         0.12778E-02
         0.12640E-02
         0.50369E-04
         0.18592E-04
         0.18812E-04
         0.17704E-04
         0.50429E-04
         0.33339E-04
         0.28905E-06
         0.31617E-04
         0.28592E-04
         0.26195E-04
        -0.37244E-05
         0.15135E-03
         0.90574E-04
        -0.30420E-05
         0.16053E-03
         0.23494E-04
         0.11711E-04
         0.11838E-04
         0.81059E-05
         0.23036E-05
         0.90996E-04
         0.85284E-04
         0.69707E-04
        -0.27963E-06
         0.18994E-05
        -0.28687E-05
        -0.13988E-04
        -0.27769E-04
        -0.13527E-04
         0.48231E-05
         0.17264E-04
         0.19510E-05
         0.15600E-04
         0.20017E-04
         0.72543E-04
         0.25891E-04
         0.45622E-04
         0.10285E-03
         0.58755E-04
         0.52656E-04
         0.11477E-03
         0.89813E-04
         0.91487E-04
         0.49102E-04
         0.39761E-04
         0.81333E-04
         0.36236E-04
         0.27823E-04
         0.22398E-04
         0.33221E-04
         0.75007E-04
         0.43697E-04
         0.12816E-02
         0.13643E-02
         0.14819E-02
         0.14747E-02
         0.16833E-02
         0.19421E-02
         0.17837E-02
         0.14191E-02
         0.13443E-02
         0.15287E-02
         0.14679E-02
         0.14278E-02
         0.97066E-03
         0.88568E-03
         0.10564E-02
         0.12039E-02
         0.12991E-02
         0.15529E-02
         0.14359E-02
         0.15271E-02
         0.12386E-02
         0.11131E-02
         0.12561E-02
         0.11965E-02
         0.12766E-02
         0.12629E-02
         0.49828E-04
         0.18216E-04
         0.18605E-04
         0.17666E-04
         0.50312E-04
         0.33309E-04
         0.27589E-07
         0.31147E-04
         0.28104E-04
         0.25681E-04
        -0.39102E-05
         0.15127E-03
         0.90522E-04
        -0.33925E-05
         0.16083E-03
         0.23427E-04
         0.11461E-04
         0.11798E-04
         0.80426E-05
         0.21802E-05
         0.90972E-04
         0.85246E-04
         0.69663E-04
        -0.37395E-06
         0.15698E-05
        -0.30600E-05
        -0.14285E-04
        -0.28012E-04
        -0.13581E-04
         0.47507E-05
         0.16740E-04
         0.15537E-05
         0.15123E-04
         0.19848E-04
         0.72481E-04
         0.25729E-04
         0.45435E-04
         0.10307E-03
         0.58941E-04
         0.52767E-04
         0.11492E-03
         0.89911E-04
         0.91528E-04
         0.49007E-04
         0.39535E-04
         0.81043E-04
         0.35812E-04
         0.27168E-04
         0.21662E-04
         0.32711E-04
         0.74701E-04
         0.43518E-04
         0.12805E-02
         0.13635E-02
         0.14818E-02
         0.14746E-02
         0.16826E-02
         0.19407E-02
         0.17821E-02
         0.14182E-02
         0.13435E-02
         0.15277E-02
         0.14673E-02
         0.14279E-02
         0.97058E-03
         0.88562E-03
         0.10566E-02
         0.12047E-02
         0.12999E-02
         0.15534E-02
         0.14353E-02
         0.15265E-02
         0.12379E-02
         0.11124E-02
         0.12547E-02
         0.11947E-02
         0.12750E-02
         0.12615E-02
         0.49706E-04
         0.18077E-04
         0.18528E-04
         0.17607E-04
         0.50191E-04
         0.33207E-04
        -0.94535E-07
         0.31017E-04
         0.27999E-04
         0.25650E-04
        -0.40399E-05
         0.15116E-03
         0.90472E-04
        -0.36292E-05
         0.16108E-03
         0.23371E-04
         0.11379E-04
         0.11713E-04
         0.79854E-05
         0.20816E-05
         0.90918E-04
         0.85156E-04
         0.69598E-04
        -0.44637E-06
         0.15240E-05
        -0.31695E-05
        -0.14405E-04
        -0.28143E-04
        -0.13690E-04
         0.46840E-05
         0.16588E-04
         0.13933E-05
         0.14954E-04
         0.19758E-04
         0.72443E-04
         0.25639E-04
         0.45319E-04
         0.10326E-03
         0.59108E-04
         0.52799E-04
         0.11495E-03
         0.89905E-04
         0.91499E-04
         0.48929E-04
         0.39405E-04
         0.80924E-04
         0.35684E-04
         0.27012E-04
         0.21452E-04
         0.32494E-04
         0.74488E-04
         0.43320E-04
         0.12793E-02
         0.13627E-02
         0.14817E-02
         0.14745E-02
         0.16819E-02
         0.19392E-02
         0.17804E-02
         0.14173E-02
         0.13426E-02
         0.15265E-02
         0.14666E-02
         0.14280E-02
         0.97041E-03
         0.88539E-03
         0.10567E-02
         0.12053E-02
         0.13006E-02
         0.15538E-02
         0.14349E-02
         0.15262E-02
         0.12375E-02
         0.11121E-02
         0.12536E-02
         0.11929E-02
         0.12734E-02
         0.12599E-02
         0.49867E-04
         0.18171E-04
         0.18611E-04
         0.17651E-04
         0.50248E-04
         0.33208E-04
         0.25788E-07
         0.31205E-04
         0.28157E-04
         0.25958E-04
        -0.39396E-05
         0.15128E-03
         0.90634E-04
        -0.35828E-05
         0.16161E-03
         0.23540E-04
         0.11520E-04
         0.11774E-04
         0.81287E-05
         0.21833E-05
         0.91066E-04
         0.85267E-04
         0.69735E-04
        -0.31977E-06
         0.17486E-05
        -0.30520E-05
        -0.14205E-04
        -0.27999E-04
        -0.13557E-04
         0.48365E-05
         0.16721E-04
         0.14786E-05
         0.15006E-04
         0.19801E-04
         0.72639E-04
         0.25725E-04
         0.45389E-04
         0.10375E-03
         0.59525E-04
         0.53068E-04
         0.11524E-03
         0.90135E-04
         0.91668E-04
         0.49069E-04
         0.39505E-04
         0.81045E-04
         0.35795E-04
         0.27134E-04
         0.21528E-04
         0.32520E-04
         0.74490E-04
         0.43253E-04
         0.12787E-02
         0.13623E-02
         0.14818E-02
         0.14745E-02
         0.16815E-02
         0.19381E-02
         0.17792E-02
         0.14167E-02
         0.13420E-02
         0.15256E-02
         0.14663E-02
         0.14284E-02
         0.97058E-03
         0.88551E-03
         0.10572E-02
         0.12063E-02
         0.13017E-02
         0.15548E-02
         0.14349E-02
         0.15262E-02
         0.12375E-02
         0.11122E-02
         0.12529E-02
         0.11915E-02
         0.12721E-02
         0.12588E-02
         0.49888E-04
         0.18163E-04
         0.18606E-04
         0.17619E-04
         0.50194E-04
         0.33143E-04
         0.30213E-07
         0.31210E-04
         0.28133E-04
         0.26055E-04
        -0.39914E-05
         0.15121E-03
         0.90697E-04
        -0.37489E-05
         0.16187E-03
         0.23521E-04
         0.11479E-04
         0.11684E-04
         0.80834E-05
         0.21039E-05
         0.91054E-04
         0.85208E-04
         0.69707E-04
        -0.36729E-06
         0.18144E-05
        -0.30981E-05
        -0.14235E-04
        -0.28017E-04
        -0.13568E-04
         0.48297E-05
         0.16693E-04
         0.14265E-05
         0.14905E-04
         0.19737E-04
         0.72667E-04
         0.25681E-04
         0.45353E-04
         0.10396E-03
         0.59761E-04
         0.53176E-04
         0.11534E-03
         0.90203E-04
         0.91649E-04
         0.49070E-04
         0.39481E-04
         0.81025E-04
         0.35746E-04
         0.27068E-04
         0.21423E-04
         0.32397E-04
         0.74367E-04
         0.43100E-04
         0.12777E-02
         0.13616E-02
         0.14816E-02
         0.14744E-02
         0.16809E-02
         0.19368E-02
         0.17775E-02
         0.14157E-02
         0.13412E-02
         0.15245E-02
         0.14656E-02
         0.14285E-02
         0.97038E-03
         0.88541E-03
         0.10575E-02
         0.12071E-02
         0.13026E-02
         0.15555E-02
         0.14347E-02
         0.15259E-02
         0.12371E-02
         0.11120E-02
         0.12520E-02
         0.11899E-02
         0.12706E-02
         0.12573E-02
         0.49859E-04
         0.18091E-04
         0.18567E-04
         0.17609E-04
         0.50098E-04
         0.33094E-04
        -0.62993E-08
         0.31191E-04
         0.28117E-04
         0.26152E-04
        -0.40501E-05
         0.15112E-03
         0.90717E-04
        -0.38986E-05
         0.16212E-03
         0.23478E-04
         0.11454E-04
         0.11627E-04
         0.80253E-05
         0.20408E-05
         0.91027E-04
         0.85150E-04
         0.69661E-04
        -0.44110E-06
         0.18811E-05
        -0.31840E-05
        -0.14252E-04
        -0.28052E-04
        -0.13583E-04
         0.48366E-05
         0.16640E-04
         0.13439E-05
         0.14839E-04
         0.19733E-04
         0.72643E-04
         0.25608E-04
         0.45286E-04
         0.10418E-03
         0.59988E-04
         0.53290E-04
         0.11549E-03
         0.90277E-04
         0.91637E-04
         0.49041E-04
         0.39433E-04
         0.80990E-04
         0.35701E-04
         0.27011E-04
         0.21321E-04
         0.32282E-04
         0.74251E-04
         0.42981E-04
         0.12765E-02
         0.13608E-02
         0.14815E-02
         0.14744E-02
         0.16803E-02
         0.19353E-02
         0.17757E-02
         0.14148E-02
         0.13404E-02
         0.15234E-02
         0.14650E-02
         0.14286E-02
         0.97015E-03
         0.88527E-03
         0.10577E-02
         0.12078E-02
         0.13034E-02
         0.15561E-02
         0.14344E-02
         0.15255E-02
         0.12367E-02
         0.11117E-02
         0.12510E-02
         0.11882E-02
         0.12691E-02
         0.12559E-02
         0.49961E-04
         0.18121E-04
         0.18606E-04
         0.17672E-04
         0.50125E-04
         0.33131E-04
         0.79359E-07
         0.31338E-04
         0.28220E-04
         0.26385E-04
        -0.39538E-05
         0.15120E-03
         0.90821E-04
        -0.38628E-05
         0.16264E-03
         0.23591E-04
         0.11531E-04
         0.11688E-04
         0.81166E-05
         0.21202E-05
         0.91152E-04
         0.85247E-04
         0.69759E-04
        -0.36327E-06
         0.20463E-05
        -0.31098E-05
        -0.14120E-04
        -0.27961E-04
        -0.13436E-04
         0.49992E-05
         0.16752E-04
         0.14006E-05
         0.14907E-04
         0.19827E-04
         0.72792E-04
         0.25660E-04
         0.45307E-04
         0.10464E-03
         0.60407E-04
         0.53602E-04
         0.11579E-03
         0.90479E-04
         0.91782E-04
         0.49139E-04
         0.39496E-04
         0.81071E-04
         0.35775E-04
         0.27090E-04
         0.21359E-04
         0.32295E-04
         0.74254E-04
         0.42962E-04
         0.12758E-02
         0.13604E-02
         0.14816E-02
         0.14745E-02
         0.16797E-02
         0.19340E-02
         0.17744E-02
         0.14142E-02
         0.13398E-02
         0.15227E-02
         0.14647E-02
         0.14289E-02
         0.97024E-03
         0.88541E-03
         0.10581E-02
         0.12087E-02
         0.13044E-02
         0.15569E-02
         0.14343E-02
         0.15255E-02
         0.12367E-02
         0.11118E-02
         0.12502E-02
         0.11868E-02
         0.12679E-02
         0.12548E-02
         0.49974E-04
         0.18063E-04
         0.18569E-04
         0.17634E-04
         0.50028E-04
         0.33048E-04
         0.27255E-07
         0.31326E-04
         0.28218E-04
         0.26464E-04
        -0.40404E-05
         0.15109E-03
         0.90784E-04
        -0.40480E-05
         0.16292E-03
         0.23564E-04
         0.11488E-04
         0.11593E-04
         0.80424E-05
         0.20287E-05
         0.91079E-04
         0.85143E-04
         0.69666E-04
        -0.44841E-06
         0.20657E-05
        -0.31853E-05
        -0.14220E-04
        -0.28085E-04
        -0.13511E-04
         0.49761E-05
         0.16705E-04
         0.13222E-05
         0.14789E-04
         0.19770E-04
         0.72770E-04
         0.25578E-04
         0.45204E-04
         0.10485E-03
         0.60580E-04
         0.53656E-04
         0.11583E-03
         0.90459E-04
         0.91727E-04
         0.49051E-04
         0.39401E-04
         0.81002E-04
         0.35703E-04
         0.26996E-04
         0.21239E-04
         0.32174E-04
         0.74115E-04
         0.42800E-04
         0.12747E-02
         0.13596E-02
         0.14814E-02
         0.14743E-02
         0.16789E-02
         0.19325E-02
         0.17728E-02
         0.14133E-02
         0.13390E-02
         0.15215E-02
         0.14640E-02
         0.14288E-02
         0.96999E-03
         0.88519E-03
         0.10583E-02
         0.12093E-02
         0.13050E-02
         0.15574E-02
         0.14339E-02
         0.15251E-02
         0.12363E-02
         0.11116E-02
         0.12493E-02
         0.11851E-02
         0.12663E-02
         0.12533E-02
         0.50017E-04
         0.18045E-04
         0.18567E-04
         0.17635E-04
         0.49986E-04
         0.33008E-04
         0.37196E-07
         0.31375E-04
         0.28278E-04
         0.26639E-04
        -0.40480E-05
         0.15108E-03
         0.90844E-04
        -0.41338E-05
         0.16328E-03
         0.23593E-04
         0.11525E-04
         0.11564E-04
         0.80467E-05
         0.20107E-05
         0.91089E-04
         0.85126E-04
         0.69659E-04
        -0.46460E-06
         0.21695E-05
        -0.32079E-05
        -0.14184E-04
        -0.28104E-04
        -0.13511E-04
         0.50065E-05
         0.16693E-04
         0.12888E-05
         0.14730E-04
         0.19766E-04
         0.72821E-04
         0.25546E-04
         0.45164E-04
         0.10514E-03
         0.60819E-04
         0.53785E-04
         0.11600E-03
         0.90562E-04
         0.91762E-04
         0.49062E-04
         0.39391E-04
         0.81009E-04
         0.35692E-04
         0.26965E-04
         0.21169E-04
         0.32101E-04
         0.74040E-04
         0.42693E-04
         0.12738E-02
         0.13590E-02
         0.14813E-02
         0.14743E-02
         0.16784E-02
         0.19312E-02
         0.17712E-02
         0.14124E-02
         0.13381E-02
         0.15205E-02
         0.14635E-02
         0.14289E-02
         0.96987E-03
         0.88508E-03
         0.10586E-02
         0.12101E-02
         0.13059E-02
         0.15581E-02
         0.14337E-02
         0.15249E-02
         0.12360E-02
         0.11114E-02
         0.12484E-02
         0.11835E-02
         0.12648E-02
         0.12519E-02
         0.50231E-04
         0.18225E-04
         0.18730E-04
         0.17770E-04
         0.50134E-04
         0.33124E-04
         0.27033E-06
         0.31624E-04
         0.28457E-04
         0.26969E-04
        -0.38256E-05
         0.15132E-03
         0.91137E-04
        -0.40053E-05
         0.16388E-03
         0.23788E-04
         0.11708E-04
         0.11687E-04
         0.82317E-05
         0.21863E-05
         0.91328E-04
         0.85320E-04
         0.69871E-04
        -0.29572E-06
         0.24689E-05
        -0.30414E-05
        -0.13935E-04
        -0.27854E-04
        -0.13246E-04
         0.52677E-05
         0.16889E-04
         0.14557E-05
         0.14846E-04
         0.19886E-04
         0.73095E-04
         0.25716E-04
         0.45332E-04
         0.10566E-03
         0.61337E-04
         0.54178E-04
         0.11638E-03
         0.90876E-04
         0.91988E-04
         0.49297E-04
         0.39604E-04
         0.81243E-04
         0.35893E-04
         0.27149E-04
         0.21283E-04
         0.32173E-04
         0.74115E-04
         0.42727E-04
         0.12732E-02
         0.13588E-02
         0.14816E-02
         0.14745E-02
         0.16781E-02
         0.19302E-02
         0.17700E-02
         0.14119E-02
         0.13377E-02
         0.15198E-02
         0.14633E-02
         0.14295E-02
         0.97004E-03
         0.88533E-03
         0.10592E-02
         0.12112E-02
         0.13071E-02
         0.15592E-02
         0.14339E-02
         0.15250E-02
         0.12361E-02
         0.11115E-02
         0.12478E-02
         0.11822E-02
         0.12637E-02
         0.12509E-02
         0.50212E-04
         0.18172E-04
         0.18697E-04
         0.17718E-04
         0.50021E-04
         0.33040E-04
         0.22665E-06
         0.31593E-04
         0.28431E-04
         0.27025E-04
        -0.39098E-05
         0.15124E-03
         0.91166E-04
        -0.41947E-05
         0.16413E-03
         0.23743E-04
         0.11647E-04
         0.11608E-04
         0.81297E-05
         0.20768E-05
         0.91290E-04
         0.85224E-04
         0.69822E-04
        -0.39829E-06
         0.24727E-05
        -0.31475E-05
        -0.14023E-04
        -0.27939E-04
        -0.13240E-04
         0.52649E-05
         0.16862E-04
         0.13676E-05
         0.14759E-04
         0.19815E-04
         0.73051E-04
         0.25639E-04
         0.45275E-04
         0.10585E-03
         0.61540E-04
         0.54301E-04
         0.11647E-03
         0.90886E-04
         0.91916E-04
         0.49237E-04
         0.39523E-04
         0.81183E-04
         0.35837E-04
         0.27100E-04
         0.21177E-04
         0.32022E-04
         0.73964E-04
         0.42563E-04
         0.12720E-02
         0.13579E-02
         0.14814E-02
         0.14745E-02
         0.16776E-02
         0.19288E-02
         0.17683E-02
         0.14108E-02
         0.13368E-02
         0.15186E-02
         0.14626E-02
         0.14293E-02
         0.96975E-03
         0.88519E-03
         0.10595E-02
         0.12120E-02
         0.13080E-02
         0.15597E-02
         0.14335E-02
         0.15247E-02
         0.12357E-02
         0.11113E-02
         0.12467E-02
         0.11806E-02
         0.12622E-02
         0.12494E-02
         0.50147E-04
         0.18041E-04
         0.18582E-04
         0.17642E-04
         0.49863E-04
         0.32898E-04
         0.13927E-06
         0.31545E-04
         0.28369E-04
         0.26986E-04
        -0.40136E-05
         0.15110E-03
         0.91130E-04
        -0.43866E-05
         0.16436E-03
         0.23677E-04
         0.11536E-04
         0.11517E-04
         0.80484E-05
         0.20183E-05
         0.91236E-04
         0.85109E-04
         0.69757E-04
        -0.48618E-06
         0.23910E-05
        -0.32516E-05
        -0.14245E-04
        -0.28076E-04
        -0.12933E-04
         0.54629E-05
         0.16791E-04
         0.12454E-05
         0.14673E-04
         0.19769E-04
         0.72991E-04
         0.25518E-04
         0.45154E-04
         0.10595E-03
         0.61746E-04
         0.54676E-04
         0.11664E-03
         0.90886E-04
         0.91803E-04
         0.49173E-04
         0.39415E-04
         0.81074E-04
         0.35724E-04
         0.27008E-04
         0.21059E-04
         0.31889E-04
         0.73822E-04
         0.42385E-04
         0.12709E-02
         0.13571E-02
         0.14812E-02
         0.14743E-02
         0.16768E-02
         0.19272E-02
         0.17664E-02
         0.14098E-02
         0.13359E-02
         0.15176E-02
         0.14616E-02
         0.14288E-02
         0.96939E-03
         0.88498E-03
         0.10596E-02
         0.12127E-02
         0.13087E-02
         0.15603E-02
         0.14331E-02
         0.15243E-02
         0.12353E-02
         0.11110E-02
         0.12457E-02
         0.11789E-02
         0.12606E-02
         0.12478E-02
         0.50353E-04
         0.18206E-04
         0.18759E-04
         0.17801E-04
         0.50023E-04
         0.33025E-04
         0.34679E-06
         0.31790E-04
         0.28511E-04
         0.27128E-04
        -0.38123E-05
         0.15129E-03
         0.91367E-04
        -0.42698E-05
         0.16493E-03
         0.23874E-04
         0.11673E-04
         0.11632E-04
         0.82603E-05
         0.23149E-05
         0.91439E-04
         0.85278E-04
         0.69933E-04
        -0.30408E-06
         0.25507E-05
        -0.30699E-05
        -0.14275E-04
        -0.27921E-04
        -0.12033E-04
         0.61713E-05
         0.16963E-04
         0.14151E-05
         0.14787E-04
         0.19927E-04
         0.73281E-04
         0.25708E-04
         0.45312E-04
         0.10634E-03
         0.62295E-04
         0.55576E-04
         0.11719E-03
         0.91190E-04
         0.91949E-04
         0.49380E-04
         0.39624E-04
         0.81330E-04
         0.35934E-04
         0.27177E-04
         0.21188E-04
         0.32010E-04
         0.73946E-04
         0.42443E-04
         0.12704E-02
         0.13569E-02
         0.14816E-02
         0.14746E-02
         0.16765E-02
         0.19261E-02
         0.17652E-02
         0.14093E-02
         0.13356E-02
         0.15172E-02
         0.14610E-02
         0.14285E-02
         0.96938E-03
         0.88519E-03
         0.10601E-02
         0.12136E-02
         0.13098E-02
         0.15613E-02
         0.14333E-02
         0.15244E-02
         0.12354E-02
         0.11112E-02
         0.12452E-02
         0.11777E-02
         0.12595E-02
         0.12468E-02
         0.49822E-04
         0.17599E-04
         0.18182E-04
         0.17257E-04
         0.49293E-04
         0.32344E-04
        -0.29638E-06
         0.31164E-04
         0.27929E-04
         0.26460E-04
        -0.45526E-05
         0.15043E-03
         0.90639E-04
        -0.51417E-05
         0.16441E-03
         0.23330E-04
         0.11023E-04
         0.11053E-04
         0.76046E-05
         0.16720E-05
         0.90717E-04
         0.84530E-04
         0.69215E-04
        -0.94813E-06
         0.18609E-05
        -0.36820E-05
        -0.15193E-04
        -0.28689E-04
        -0.12351E-04
         0.57605E-05
         0.16407E-04
         0.77707E-06
         0.14171E-04
         0.19308E-04
         0.72550E-04
         0.24981E-04
         0.44554E-04
         0.10569E-03
         0.61816E-04
         0.55273E-04
         0.11661E-03
         0.90480E-04
         0.91182E-04
         0.48692E-04
         0.38880E-04
         0.80502E-04
         0.35204E-04
         0.26506E-04
         0.20484E-04
         0.31227E-04
         0.73057E-04
         0.41625E-04
         0.12680E-02
         0.13549E-02
         0.14801E-02
         0.14732E-02
         0.16745E-02
         0.19234E-02
         0.17623E-02
         0.14070E-02
         0.13335E-02
         0.15148E-02
         0.14587E-02
         0.14269E-02
         0.96796E-03
         0.88398E-03
         0.10592E-02
         0.12132E-02
         0.13094E-02
         0.15606E-02
         0.14316E-02
         0.15228E-02
         0.12338E-02
         0.11098E-02
         0.12429E-02
         0.11747E-02
         0.12567E-02
         0.12442E-02
         0.50204E-04
         0.17641E-04
         0.18306E-04
         0.17491E-04
         0.49492E-04
         0.32538E-04
        -0.17720E-06
         0.31631E-04
         0.28403E-04
         0.27245E-04
        -0.43393E-05
         0.15045E-03
         0.90511E-04
        -0.47354E-05
         0.16516E-03
         0.23828E-04
         0.11503E-04
         0.11351E-04
         0.79783E-05
         0.20367E-05
         0.91091E-04
         0.84782E-04
         0.69758E-04
        -0.46564E-06
         0.26767E-05
        -0.32339E-05
        -0.14401E-04
        -0.27812E-04
        -0.11595E-04
         0.64726E-05
         0.16796E-04
         0.10523E-05
         0.14320E-04
         0.19227E-04
         0.72747E-04
         0.24920E-04
         0.44329E-04
         0.10653E-03
         0.62716E-04
         0.55941E-04
         0.11711E-03
         0.91024E-04
         0.91702E-04
         0.49213E-04
         0.39163E-04
         0.80661E-04
         0.35335E-04
         0.26806E-04
         0.20672E-04
         0.31179E-04
         0.73051E-04
         0.41550E-04
         0.12676E-02
         0.13550E-02
         0.14802E-02
         0.14729E-02
         0.16733E-02
         0.19217E-02
         0.17614E-02
         0.14070E-02
         0.13333E-02
         0.15140E-02
         0.14584E-02
         0.14275E-02
         0.96852E-03
         0.88422E-03
         0.10601E-02
         0.12148E-02
         0.13110E-02
         0.15618E-02
         0.14317E-02
         0.15226E-02
         0.12339E-02
         0.11102E-02
         0.12427E-02
         0.11740E-02
         0.12560E-02
         0.12435E-02
         0.23165E-02
         0.23814E-02
         0.23639E-02
         0.21579E-02
         0.27627E-02
         0.25649E-02
         0.25583E-02
         0.26226E-02
         0.22558E-02
         0.26259E-02
         0.28449E-02
         0.34428E-02
         0.30437E-02
         0.29372E-02
         0.35534E-02
         0.22013E-02
         0.23542E-02
         0.20583E-02
         0.24501E-02
         0.25566E-02
         0.28068E-02
         0.28220E-02
         0.26763E-02
         0.23363E-02
         0.26097E-02
         0.22352E-02
         0.28989E-02
         0.27966E-02
         0.28152E-02
         0.27031E-02
         0.22174E-02
         0.23163E-02
         0.21689E-02
         0.22684E-02
         0.30905E-02
         0.27300E-02
         0.27534E-02
         0.33229E-02
         0.31591E-02
         0.31040E-02
         0.32547E-02
         0.30567E-02
         0.29029E-02
         0.25797E-02
         0.26793E-02
         0.31168E-02
         0.27833E-02
         0.25859E-02
         0.25187E-02
         0.26269E-02
         0.29490E-02
         0.26591E-02
         0.65497E-02
         0.65103E-02
         0.67382E-02
         0.65520E-02
         0.68978E-02
         0.73904E-02
         0.72597E-02
         0.68509E-02
         0.68265E-02
         0.71612E-02
         0.69412E-02
         0.66024E-02
         0.55755E-02
         0.52295E-02
         0.54746E-02
         0.57370E-02
         0.58883E-02
         0.65396E-02
         0.67588E-02
         0.68606E-02
         0.61366E-02
         0.58467E-02
         0.61489E-02
         0.60300E-02
         0.60702E-02
         0.60610E-02
         0.24422E-01
         0.25523E-01
         0.25168E-01
         0.23049E-01
         0.28167E-01
         0.26503E-01
         0.27522E-01
         0.27754E-01
         0.23891E-01
         0.27739E-01
         0.30117E-01
         0.33773E-01
         0.30656E-01
         0.30969E-01
         0.34942E-01
         0.23431E-01
         0.25107E-01
         0.22035E-01
         0.25898E-01
         0.27190E-01
         0.28171E-01
         0.28754E-01
         0.27066E-01
         0.24945E-01
         0.28034E-01
         0.24105E-01
         0.30861E-01
         0.30342E-01
         0.30476E-01
         0.28988E-01
         0.23672E-01
         0.24840E-01
         0.23225E-01
         0.24244E-01
         0.30767E-01
         0.28279E-01
         0.28383E-01
         0.33808E-01
         0.32917E-01
         0.32524E-01
         0.33148E-01
         0.31511E-01
         0.29860E-01
         0.26428E-01
         0.27469E-01
         0.30766E-01
         0.28491E-01
         0.26845E-01
         0.26328E-01
         0.27263E-01
         0.29545E-01
         0.27345E-01
         0.49586E-01
         0.48481E-01
         0.49629E-01
         0.48158E-01
         0.49767E-01
         0.52504E-01
         0.53114E-01
         0.52511E-01
         0.52748E-01
         0.54136E-01
         0.52601E-01
         0.49606E-01
         0.44160E-01
         0.41741E-01
         0.42086E-01
         0.42793E-01
         0.43307E-01
         0.47055E-01
         0.49990E-01
         0.50298E-01
         0.46418E-01
         0.44912E-01
         0.46496E-01
         0.46096E-01
         0.45701E-01
         0.45539E-01
  
SCALARS                      strain_yz  double 1
LOOKUP_TABLE default
         0.12565E-02
        -0.41605E-03
        -0.10841E-02
        -0.56021E-03
        -0.13664E-09
        -0.37661E-10
        -0.16934E-09
        -0.12916E-09
        -0.40508E-02
         0.26686E-02
        -0.25201E-09
        -0.22187E-09
        -0.35271E-02
        -0.17930E-03
         0.18035E-09
        -0.11563E-10
         0.12305E-02
         0.45204E-02
         0.26534E-11
         0.27150E-10
        -0.23299E-02
        -0.87196E-02
        -0.91461E-02
         0.41343E-09
         0.71399E-09
         0.59680E-09
        -0.85967E-03
        -0.87606E-02
         0.29739E-09
         0.57693E-09
         0.14060E-02
         0.12186E-02
        -0.10457E-02
         0.15417E-09
         0.15738E-09
        -0.32675E-11
         0.41653E-02
         0.39813E-02
         0.28371E-09
         0.22073E-09
         0.40822E-02
         0.25811E-02
         0.21441E-09
         0.19594E-09
         0.37202E-02
         0.12851E-02
        -0.71124E-11
         0.11001E-09
         0.33939E-02
         0.51797E-10
         0.34097E-03
        -0.41952E-11
         0.19793E-03
         0.20036E-09
        -0.13080E-02
         0.11655E-09
        -0.42659E-02
         0.76499E-03
         0.31619E-11
        -0.64176E-11
         0.17049E-02
         0.62078E-02
        -0.43081E-10
        -0.16114E-09
         0.10307E-02
        -0.86961E-10
         0.44147E-02
        -0.10594E-09
        -0.35593E-02
        -0.18839E-02
        -0.13092E-10
         0.17286E-09
        -0.65747E-02
         0.37958E-09
        -0.11081E-01
         0.36752E-09
        -0.11162E-01
         0.27899E-09
        -0.92032E-02
         0.23384E-09
        -0.13563E-01
        -0.10460E-01
         0.15001E-09
        -0.33260E-10
        -0.14758E-02
        -0.37216E-11
         0.58131E-02
        -0.23313E-09
         0.13703E-01
        -0.40813E-09
         0.19104E-01
         0.11827E-01
        -0.60533E-09
        -0.48996E-09
         0.83318E-02
        -0.38033E-09
         0.74842E-02
        -0.38911E-09
         0.72756E-02
        -0.41837E-09
         0.12102E-01
         0.10068E-01
        -0.38906E-09
        -0.18642E-09
        -0.80672E-02
         0.30627E-02
         0.13680E-09
        -0.17000E-09
        -0.19819E-01
         0.45511E-09
        -0.28470E-01
         0.66571E-09
        -0.34737E-01
         0.82216E-09
        -0.40389E-01
         0.81552E-09
        -0.47090E-01
         0.64537E-09
        -0.47830E-01
         0.49944E-09
        -0.45006E-01
         0.46452E-09
        -0.40057E-01
         0.44196E-09
        -0.29417E-01
         0.28245E-09
        -0.20095E-01
         0.93252E-10
        -0.10187E-01
         0.60256E-10
         0.73664E-03
         0.90569E-10
         0.98150E-02
         0.46778E-10
         0.17653E-01
        -0.14146E-09
         0.27316E-01
        -0.39930E-09
         0.30533E-01
        -0.62352E-09
         0.33210E-01
        -0.81743E-09
         0.42329E-01
        -0.81672E-09
         0.43989E-01
        -0.71297E-09
         0.40718E-01
        -0.69485E-09
         0.33028E-01
        -0.69918E-09
         0.22457E-01
        -0.55289E-09
         0.15939E-01
        -0.32695E-09
         0.11491E-01
        -0.25280E-09
        -0.61454E-02
        -0.32148E-02
        -0.28022E-02
        -0.85741E-03
        -0.29047E-02
        -0.30493E-02
        -0.32655E-03
        -0.49790E-02
        -0.41934E-02
        -0.62252E-02
         0.33265E-02
         0.14229E-01
         0.96581E-02
         0.11195E-02
         0.14336E-01
         0.16209E-02
        -0.14401E-02
         0.91990E-03
         0.12268E-02
        -0.92390E-03
         0.85298E-03
         0.70090E-03
        -0.23700E-02
         0.19941E-03
        -0.42482E-02
         0.62832E-03
         0.32877E-04
         0.57429E-03
         0.70207E-03
        -0.33505E-02
         0.15843E-02
        -0.17427E-02
         0.11523E-02
        -0.28325E-03
         0.48151E-03
         0.25869E-02
         0.57761E-02
         0.12551E-01
         0.11475E-01
         0.97731E-02
         0.92549E-02
         0.22671E-02
        -0.18284E-02
        -0.50249E-02
        -0.83641E-02
        -0.13830E-01
        -0.89807E-02
        -0.63647E-02
        -0.67963E-02
        -0.72869E-02
        -0.86244E-02
        -0.38938E-02
         0.76051E-02
        -0.90587E-02
         0.24577E-01
         0.33885E-01
         0.43232E-01
         0.51620E-01
         0.52159E-01
         0.47276E-01
         0.44948E-01
         0.42510E-01
         0.27517E-01
         0.11923E-01
         0.52157E-02
         0.22942E-02
        -0.35016E-02
        -0.13807E-01
        -0.25382E-01
        -0.33285E-01
        -0.40873E-01
        -0.46718E-01
        -0.43777E-01
        -0.41378E-01
        -0.38531E-01
        -0.26922E-01
        -0.15617E-01
        -0.13676E-01
        -0.85062E-02
        -0.53650E-02
        -0.49646E-02
        -0.11776E-02
        -0.64481E-02
        -0.29001E-02
        -0.22997E-02
        -0.80395E-02
        -0.52721E-02
        -0.75614E-02
         0.39977E-02
         0.17301E-01
         0.10250E-01
         0.14730E-02
         0.17046E-01
         0.32259E-02
        -0.97759E-03
         0.93332E-03
         0.42067E-02
         0.81331E-03
         0.36259E-02
         0.25743E-02
        -0.14925E-02
         0.12597E-02
        -0.50918E-02
         0.12594E-02
         0.31604E-03
         0.58751E-03
        -0.93845E-03
        -0.50793E-02
         0.34766E-02
         0.91579E-03
         0.22471E-02
         0.19511E-02
        -0.93032E-03
         0.28359E-02
         0.54145E-02
         0.12955E-01
         0.11424E-01
         0.10068E-01
         0.73963E-02
        -0.18276E-02
        -0.37645E-02
        -0.47023E-02
        -0.60551E-02
        -0.12369E-01
        -0.71973E-02
        -0.47595E-02
        -0.59819E-02
        -0.70618E-02
        -0.73171E-02
        -0.54901E-03
         0.91210E-02
        -0.13047E-01
         0.30361E-01
         0.39236E-01
         0.50639E-01
         0.60765E-01
         0.59521E-01
         0.51981E-01
         0.49816E-01
         0.49287E-01
         0.30950E-01
         0.10201E-01
         0.40649E-02
         0.34831E-02
        -0.16132E-02
        -0.13685E-01
        -0.27415E-01
        -0.38153E-01
        -0.49656E-01
        -0.55061E-01
        -0.48352E-01
        -0.45714E-01
        -0.45576E-01
        -0.32090E-01
        -0.16670E-01
        -0.15785E-01
        -0.85115E-02
        -0.53660E-02
        -0.49671E-02
        -0.11862E-02
        -0.64489E-02
        -0.29023E-02
        -0.23026E-02
        -0.80531E-02
        -0.52816E-02
        -0.75896E-02
         0.40001E-02
         0.17300E-01
         0.10253E-01
         0.14730E-02
         0.17068E-01
         0.32261E-02
        -0.98648E-03
         0.93192E-03
         0.42096E-02
         0.80878E-03
         0.36348E-02
         0.25768E-02
        -0.14928E-02
         0.12591E-02
        -0.51149E-02
         0.12572E-02
         0.31976E-03
         0.59080E-03
        -0.93227E-03
        -0.50900E-02
         0.34772E-02
         0.91379E-03
         0.22521E-02
         0.19543E-02
        -0.92158E-03
         0.28377E-02
         0.54143E-02
         0.12975E-01
         0.11449E-01
         0.10080E-01
         0.74020E-02
        -0.18227E-02
        -0.37684E-02
        -0.47047E-02
        -0.60553E-02
        -0.12369E-01
        -0.71981E-02
        -0.47567E-02
        -0.59738E-02
        -0.70523E-02
        -0.73140E-02
        -0.54070E-03
         0.91125E-02
        -0.13048E-01
         0.30367E-01
         0.39237E-01
         0.50633E-01
         0.60745E-01
         0.59496E-01
         0.51965E-01
         0.49805E-01
         0.49273E-01
         0.30944E-01
         0.10206E-01
         0.40646E-02
         0.34902E-02
        -0.16000E-02
        -0.13692E-01
        -0.27427E-01
        -0.38162E-01
        -0.49655E-01
        -0.55057E-01
        -0.48349E-01
        -0.45712E-01
        -0.45564E-01
        -0.32068E-01
        -0.16652E-01
        -0.15764E-01
        -0.85169E-02
        -0.53670E-02
        -0.49696E-02
        -0.11949E-02
        -0.64496E-02
        -0.29047E-02
        -0.23054E-02
        -0.80667E-02
        -0.52911E-02
        -0.76177E-02
         0.40025E-02
         0.17298E-01
         0.10255E-01
         0.14729E-02
         0.17089E-01
         0.32263E-02
        -0.99547E-03
         0.93050E-03
         0.42125E-02
         0.80416E-03
         0.36439E-02
         0.25792E-02
        -0.14934E-02
         0.12583E-02
        -0.51377E-02
         0.12545E-02
         0.32374E-03
         0.59429E-03
        -0.92551E-03
        -0.51004E-02
         0.34777E-02
         0.91137E-03
         0.22571E-02
         0.19574E-02
        -0.91280E-03
         0.28397E-02
         0.54139E-02
         0.12995E-01
         0.11474E-01
         0.10091E-01
         0.74080E-02
        -0.18173E-02
        -0.37720E-02
        -0.47078E-02
        -0.60560E-02
        -0.12369E-01
        -0.71988E-02
        -0.47537E-02
        -0.59660E-02
        -0.70428E-02
        -0.73109E-02
        -0.53242E-03
         0.91040E-02
        -0.13048E-01
         0.30373E-01
         0.39237E-01
         0.50627E-01
         0.60724E-01
         0.59471E-01
         0.51950E-01
         0.49795E-01
         0.49260E-01
         0.30938E-01
         0.10211E-01
         0.40643E-02
         0.34974E-02
        -0.15868E-02
        -0.13699E-01
        -0.27440E-01
        -0.38171E-01
        -0.49654E-01
        -0.55054E-01
        -0.48345E-01
        -0.45710E-01
        -0.45553E-01
        -0.32045E-01
        -0.16634E-01
        -0.15743E-01
        -0.85222E-02
        -0.53680E-02
        -0.49721E-02
        -0.12037E-02
        -0.64503E-02
        -0.29071E-02
        -0.23085E-02
        -0.80801E-02
        -0.53007E-02
        -0.76455E-02
         0.40049E-02
         0.17297E-01
         0.10258E-01
         0.14729E-02
         0.17111E-01
         0.32265E-02
        -0.10046E-02
         0.92906E-03
         0.42156E-02
         0.79927E-03
         0.36531E-02
         0.25814E-02
        -0.14947E-02
         0.12571E-02
        -0.51598E-02
         0.12511E-02
         0.32786E-03
         0.59891E-03
        -0.91713E-03
        -0.51098E-02
         0.34780E-02
         0.90809E-03
         0.22620E-02
         0.19606E-02
        -0.90405E-03
         0.28415E-02
         0.54136E-02
         0.13015E-01
         0.11499E-01
         0.10104E-01
         0.74149E-02
        -0.18104E-02
        -0.37750E-02
        -0.47124E-02
        -0.60578E-02
        -0.12370E-01
        -0.72000E-02
        -0.47508E-02
        -0.59580E-02
        -0.70333E-02
        -0.73077E-02
        -0.52416E-03
         0.90955E-02
        -0.13049E-01
         0.30378E-01
         0.39237E-01
         0.50621E-01
         0.60704E-01
         0.59446E-01
         0.51934E-01
         0.49784E-01
         0.49246E-01
         0.30932E-01
         0.10217E-01
         0.40644E-02
         0.35045E-02
        -0.15735E-02
        -0.13707E-01
        -0.27455E-01
        -0.38182E-01
        -0.49653E-01
        -0.55050E-01
        -0.48342E-01
        -0.45708E-01
        -0.45541E-01
        -0.32022E-01
        -0.16615E-01
        -0.15722E-01
        -0.85275E-02
        -0.53690E-02
        -0.49746E-02
        -0.12124E-02
        -0.64511E-02
        -0.29094E-02
        -0.23113E-02
        -0.80935E-02
        -0.53102E-02
        -0.76729E-02
         0.40073E-02
         0.17296E-01
         0.10260E-01
         0.14730E-02
         0.17133E-01
         0.32268E-02
        -0.10139E-02
         0.92760E-03
         0.42188E-02
         0.79411E-03
         0.36625E-02
         0.25833E-02
        -0.14966E-02
         0.12553E-02
        -0.51810E-02
         0.12468E-02
         0.33243E-03
         0.60457E-03
        -0.90706E-03
        -0.51182E-02
         0.34780E-02
         0.90380E-03
         0.22670E-02
         0.19638E-02
        -0.89524E-03
         0.28434E-02
         0.54133E-02
         0.13035E-01
         0.11524E-01
         0.10117E-01
         0.74228E-02
        -0.18019E-02
        -0.37773E-02
        -0.47187E-02
        -0.60608E-02
        -0.12372E-01
        -0.72016E-02
        -0.47483E-02
        -0.59502E-02
        -0.70237E-02
        -0.73046E-02
        -0.51585E-03
         0.90869E-02
        -0.13050E-01
         0.30384E-01
         0.39238E-01
         0.50615E-01
         0.60683E-01
         0.59421E-01
         0.51919E-01
         0.49774E-01
         0.49232E-01
         0.30927E-01
         0.10224E-01
         0.40648E-02
         0.35114E-02
        -0.15602E-02
        -0.13716E-01
        -0.27472E-01
        -0.38193E-01
        -0.49653E-01
        -0.55047E-01
        -0.48339E-01
        -0.45706E-01
        -0.45530E-01
        -0.31999E-01
        -0.16597E-01
        -0.15701E-01
        -0.85325E-02
        -0.53696E-02
        -0.49770E-02
        -0.12213E-02
        -0.64519E-02
        -0.29117E-02
        -0.23139E-02
        -0.81063E-02
        -0.53198E-02
        -0.76995E-02
         0.40100E-02
         0.17294E-01
         0.10263E-01
         0.14732E-02
         0.17155E-01
         0.32272E-02
        -0.10234E-02
         0.92618E-03
         0.42221E-02
         0.78885E-03
         0.36719E-02
         0.25852E-02
        -0.14989E-02
         0.12534E-02
        -0.52017E-02
         0.12422E-02
         0.33735E-03
         0.61083E-03
        -0.89629E-03
        -0.51261E-02
         0.34778E-02
         0.89903E-03
         0.22720E-02
         0.19671E-02
        -0.88638E-03
         0.28455E-02
         0.54133E-02
         0.13056E-01
         0.11550E-01
         0.10131E-01
         0.74309E-02
        -0.17929E-02
        -0.37792E-02
        -0.47255E-02
        -0.60645E-02
        -0.12374E-01
        -0.72035E-02
        -0.47462E-02
        -0.59428E-02
        -0.70144E-02
        -0.73015E-02
        -0.50754E-03
         0.90784E-02
        -0.13051E-01
         0.30389E-01
         0.39238E-01
         0.50609E-01
         0.60662E-01
         0.59396E-01
         0.51903E-01
         0.49764E-01
         0.49219E-01
         0.30922E-01
         0.10231E-01
         0.40654E-02
         0.35183E-02
        -0.15468E-02
        -0.13725E-01
        -0.27489E-01
        -0.38205E-01
        -0.49652E-01
        -0.55043E-01
        -0.48335E-01
        -0.45705E-01
        -0.45518E-01
        -0.31976E-01
        -0.16579E-01
        -0.15681E-01
        -0.85371E-02
        -0.53694E-02
        -0.49795E-02
        -0.12303E-02
        -0.64527E-02
        -0.29141E-02
        -0.23159E-02
        -0.81179E-02
        -0.53296E-02
        -0.77250E-02
         0.40133E-02
         0.17293E-01
         0.10267E-01
         0.14744E-02
         0.17177E-01
         0.32278E-02
        -0.10331E-02
         0.92474E-03
         0.42253E-02
         0.78358E-03
         0.36814E-02
         0.25871E-02
        -0.15012E-02
         0.12515E-02
        -0.52219E-02
         0.12376E-02
         0.34316E-03
         0.61748E-03
        -0.88533E-03
        -0.51339E-02
         0.34775E-02
         0.89393E-03
         0.22773E-02
         0.19706E-02
        -0.87748E-03
         0.28476E-02
         0.54134E-02
         0.13076E-01
         0.11577E-01
         0.10145E-01
         0.74393E-02
        -0.17838E-02
        -0.37811E-02
        -0.47324E-02
        -0.60685E-02
        -0.12376E-01
        -0.72064E-02
        -0.47454E-02
        -0.59366E-02
        -0.70055E-02
        -0.72984E-02
        -0.49913E-03
         0.90698E-02
        -0.13051E-01
         0.30395E-01
         0.39238E-01
         0.50603E-01
         0.60642E-01
         0.59371E-01
         0.51887E-01
         0.49753E-01
         0.49205E-01
         0.30917E-01
         0.10239E-01
         0.40659E-02
         0.35253E-02
        -0.15335E-02
        -0.13734E-01
        -0.27507E-01
        -0.38217E-01
        -0.49651E-01
        -0.55040E-01
        -0.48333E-01
        -0.45703E-01
        -0.45506E-01
        -0.31953E-01
        -0.16561E-01
        -0.15660E-01
        -0.85415E-02
        -0.53691E-02
        -0.49819E-02
        -0.12395E-02
        -0.64535E-02
        -0.29164E-02
        -0.23174E-02
        -0.81289E-02
        -0.53395E-02
        -0.77499E-02
         0.40169E-02
         0.17292E-01
         0.10270E-01
         0.14757E-02
         0.17199E-01
         0.32284E-02
        -0.10429E-02
         0.92328E-03
         0.42286E-02
         0.77832E-03
         0.36908E-02
         0.25890E-02
        -0.15034E-02
         0.12497E-02
        -0.52420E-02
         0.12329E-02
         0.34918E-03
         0.62431E-03
        -0.87432E-03
        -0.51416E-02
         0.34771E-02
         0.88860E-03
         0.22825E-02
         0.19742E-02
        -0.86851E-03
         0.28500E-02
         0.54139E-02
         0.13097E-01
         0.11603E-01
         0.10159E-01
         0.74476E-02
        -0.17746E-02
        -0.37829E-02
        -0.47393E-02
        -0.60727E-02
        -0.12379E-01
        -0.72097E-02
        -0.47450E-02
        -0.59309E-02
        -0.69967E-02
        -0.72954E-02
        -0.49073E-03
         0.90613E-02
        -0.13052E-01
         0.30400E-01
         0.39239E-01
         0.50596E-01
         0.60621E-01
         0.59345E-01
         0.51871E-01
         0.49743E-01
         0.49191E-01
         0.30912E-01
         0.10247E-01
         0.40665E-02
         0.35323E-02
        -0.15201E-02
        -0.13743E-01
        -0.27524E-01
        -0.38228E-01
        -0.49649E-01
        -0.55036E-01
        -0.48331E-01
        -0.45702E-01
        -0.45494E-01
        -0.31930E-01
        -0.16543E-01
        -0.15639E-01
        -0.85458E-02
        -0.53688E-02
        -0.49843E-02
        -0.12487E-02
        -0.64544E-02
        -0.29187E-02
        -0.23190E-02
        -0.81399E-02
        -0.53494E-02
        -0.77747E-02
         0.40203E-02
         0.17292E-01
         0.10273E-01
         0.14772E-02
         0.17221E-01
         0.32290E-02
        -0.10528E-02
         0.92180E-03
         0.42318E-02
         0.77301E-03
         0.37003E-02
         0.25909E-02
        -0.15057E-02
         0.12478E-02
        -0.52619E-02
         0.12284E-02
         0.35536E-03
         0.63106E-03
        -0.86334E-03
        -0.51492E-02
         0.34767E-02
         0.88334E-03
         0.22878E-02
         0.19778E-02
        -0.85950E-03
         0.28522E-02
         0.54142E-02
         0.13118E-01
         0.11629E-01
         0.10173E-01
         0.74560E-02
        -0.17655E-02
        -0.37848E-02
        -0.47463E-02
        -0.60769E-02
        -0.12382E-01
        -0.72129E-02
        -0.47447E-02
        -0.59253E-02
        -0.69880E-02
        -0.72926E-02
        -0.48228E-03
         0.90527E-02
        -0.13053E-01
         0.30405E-01
         0.39239E-01
         0.50590E-01
         0.60600E-01
         0.59320E-01
         0.51855E-01
         0.49733E-01
         0.49177E-01
         0.30907E-01
         0.10254E-01
         0.40672E-02
         0.35395E-02
        -0.15068E-02
        -0.13752E-01
        -0.27541E-01
        -0.38240E-01
        -0.49648E-01
        -0.55033E-01
        -0.48328E-01
        -0.45702E-01
        -0.45482E-01
        -0.31907E-01
        -0.16524E-01
        -0.15618E-01
        -0.85501E-02
        -0.53683E-02
        -0.49866E-02
        -0.12578E-02
        -0.64551E-02
        -0.29210E-02
        -0.23206E-02
        -0.81509E-02
        -0.53593E-02
        -0.77995E-02
         0.40239E-02
         0.17291E-01
         0.10277E-01
         0.14785E-02
         0.17243E-01
         0.32296E-02
        -0.10627E-02
         0.92032E-03
         0.42351E-02
         0.76767E-03
         0.37097E-02
         0.25928E-02
        -0.15078E-02
         0.12460E-02
        -0.52819E-02
         0.12238E-02
         0.36138E-03
         0.63774E-03
        -0.85239E-03
        -0.51569E-02
         0.34763E-02
         0.87804E-03
         0.22931E-02
         0.19814E-02
        -0.85050E-03
         0.28545E-02
         0.54146E-02
         0.13139E-01
         0.11656E-01
         0.10187E-01
         0.74643E-02
        -0.17564E-02
        -0.37867E-02
        -0.47531E-02
        -0.60810E-02
        -0.12385E-01
        -0.72162E-02
        -0.47446E-02
        -0.59196E-02
        -0.69791E-02
        -0.72895E-02
        -0.47387E-03
         0.90441E-02
        -0.13053E-01
         0.30410E-01
         0.39239E-01
         0.50584E-01
         0.60579E-01
         0.59294E-01
         0.51840E-01
         0.49723E-01
         0.49162E-01
         0.30902E-01
         0.10261E-01
         0.40678E-02
         0.35466E-02
        -0.14935E-02
        -0.13761E-01
        -0.27559E-01
        -0.38251E-01
        -0.49647E-01
        -0.55029E-01
        -0.48326E-01
        -0.45701E-01
        -0.45470E-01
        -0.31885E-01
        -0.16506E-01
        -0.15598E-01
        -0.85544E-02
        -0.53679E-02
        -0.49890E-02
        -0.12669E-02
        -0.64560E-02
        -0.29233E-02
        -0.23223E-02
        -0.81618E-02
        -0.53693E-02
        -0.78243E-02
         0.40275E-02
         0.17290E-01
         0.10280E-01
         0.14799E-02
         0.17265E-01
         0.32303E-02
        -0.10727E-02
         0.91886E-03
         0.42383E-02
         0.76230E-03
         0.37191E-02
         0.25947E-02
        -0.15101E-02
         0.12442E-02
        -0.53018E-02
         0.12192E-02
         0.36749E-03
         0.64432E-03
        -0.84146E-03
        -0.51646E-02
         0.34760E-02
         0.87278E-03
         0.22983E-02
         0.19850E-02
        -0.84146E-03
         0.28568E-02
         0.54150E-02
         0.13160E-01
         0.11682E-01
         0.10200E-01
         0.74727E-02
        -0.17473E-02
        -0.37885E-02
        -0.47599E-02
        -0.60852E-02
        -0.12387E-01
        -0.72196E-02
        -0.47442E-02
        -0.59140E-02
        -0.69704E-02
        -0.72867E-02
        -0.46544E-03
         0.90355E-02
        -0.13054E-01
         0.30416E-01
         0.39239E-01
         0.50578E-01
         0.60559E-01
         0.59269E-01
         0.51824E-01
         0.49712E-01
         0.49148E-01
         0.30897E-01
         0.10269E-01
         0.40685E-02
         0.35536E-02
        -0.14801E-02
        -0.13770E-01
        -0.27576E-01
        -0.38263E-01
        -0.49645E-01
        -0.55025E-01
        -0.48324E-01
        -0.45699E-01
        -0.45458E-01
        -0.31862E-01
        -0.16488E-01
        -0.15577E-01
        -0.85587E-02
        -0.53675E-02
        -0.49914E-02
        -0.12761E-02
        -0.64568E-02
        -0.29257E-02
        -0.23238E-02
        -0.81727E-02
        -0.53793E-02
        -0.78490E-02
         0.40311E-02
         0.17289E-01
         0.10284E-01
         0.14814E-02
         0.17287E-01
         0.32309E-02
        -0.10826E-02
         0.91736E-03
         0.42415E-02
         0.75697E-03
         0.37285E-02
         0.25965E-02
        -0.15123E-02
         0.12425E-02
        -0.53217E-02
         0.12147E-02
         0.37348E-03
         0.65087E-03
        -0.83052E-03
        -0.51722E-02
         0.34755E-02
         0.86749E-03
         0.23036E-02
         0.19886E-02
        -0.83236E-03
         0.28591E-02
         0.54153E-02
         0.13181E-01
         0.11708E-01
         0.10214E-01
         0.74810E-02
        -0.17382E-02
        -0.37903E-02
        -0.47668E-02
        -0.60893E-02
        -0.12390E-01
        -0.72227E-02
        -0.47441E-02
        -0.59084E-02
        -0.69617E-02
        -0.72837E-02
        -0.45702E-03
         0.90269E-02
        -0.13055E-01
         0.30421E-01
         0.39240E-01
         0.50572E-01
         0.60538E-01
         0.59243E-01
         0.51808E-01
         0.49702E-01
         0.49134E-01
         0.30891E-01
         0.10276E-01
         0.40691E-02
         0.35606E-02
        -0.14667E-02
        -0.13779E-01
        -0.27594E-01
        -0.38274E-01
        -0.49644E-01
        -0.55022E-01
        -0.48321E-01
        -0.45698E-01
        -0.45446E-01
        -0.31839E-01
        -0.16471E-01
        -0.15556E-01
        -0.85630E-02
        -0.53671E-02
        -0.49937E-02
        -0.12854E-02
        -0.64576E-02
        -0.29280E-02
        -0.23254E-02
        -0.81836E-02
        -0.53892E-02
        -0.78736E-02
         0.40347E-02
         0.17288E-01
         0.10287E-01
         0.14826E-02
         0.17310E-01
         0.32315E-02
        -0.10926E-02
         0.91584E-03
         0.42447E-02
         0.75167E-03
         0.37380E-02
         0.25983E-02
        -0.15145E-02
         0.12407E-02
        -0.53415E-02
         0.12101E-02
         0.37963E-03
         0.65735E-03
        -0.81961E-03
        -0.51798E-02
         0.34751E-02
         0.86216E-03
         0.23088E-02
         0.19922E-02
        -0.82328E-03
         0.28614E-02
         0.54157E-02
         0.13202E-01
         0.11735E-01
         0.10228E-01
         0.74894E-02
        -0.17291E-02
        -0.37921E-02
        -0.47737E-02
        -0.60936E-02
        -0.12393E-01
        -0.72262E-02
        -0.47439E-02
        -0.59028E-02
        -0.69529E-02
        -0.72806E-02
        -0.44862E-03
         0.90182E-02
        -0.13055E-01
         0.30426E-01
         0.39240E-01
         0.50566E-01
         0.60517E-01
         0.59217E-01
         0.51792E-01
         0.49692E-01
         0.49120E-01
         0.30886E-01
         0.10284E-01
         0.40697E-02
         0.35677E-02
        -0.14534E-02
        -0.13787E-01
        -0.27611E-01
        -0.38285E-01
        -0.49642E-01
        -0.55018E-01
        -0.48319E-01
        -0.45697E-01
        -0.45434E-01
        -0.31816E-01
        -0.16453E-01
        -0.15535E-01
        -0.85673E-02
        -0.53667E-02
        -0.49961E-02
        -0.12946E-02
        -0.64585E-02
        -0.29303E-02
        -0.23272E-02
        -0.81944E-02
        -0.53992E-02
        -0.78982E-02
         0.40383E-02
         0.17287E-01
         0.10291E-01
         0.14840E-02
         0.17332E-01
         0.32321E-02
        -0.11026E-02
         0.91435E-03
         0.42479E-02
         0.74636E-03
         0.37474E-02
         0.26002E-02
        -0.15167E-02
         0.12389E-02
        -0.53614E-02
         0.12055E-02
         0.38562E-03
         0.66374E-03
        -0.80875E-03
        -0.51874E-02
         0.34747E-02
         0.85688E-03
         0.23140E-02
         0.19958E-02
        -0.81414E-03
         0.28637E-02
         0.54160E-02
         0.13224E-01
         0.11761E-01
         0.10241E-01
         0.74978E-02
        -0.17200E-02
        -0.37940E-02
        -0.47805E-02
        -0.60978E-02
        -0.12396E-01
        -0.72296E-02
        -0.47436E-02
        -0.58971E-02
        -0.69442E-02
        -0.72778E-02
        -0.44027E-03
         0.90096E-02
        -0.13056E-01
         0.30431E-01
         0.39240E-01
         0.50560E-01
         0.60496E-01
         0.59192E-01
         0.51776E-01
         0.49682E-01
         0.49105E-01
         0.30881E-01
         0.10291E-01
         0.40703E-02
         0.35748E-02
        -0.14400E-02
        -0.13796E-01
        -0.27629E-01
        -0.38297E-01
        -0.49641E-01
        -0.55015E-01
        -0.48317E-01
        -0.45696E-01
        -0.45422E-01
        -0.31793E-01
        -0.16435E-01
        -0.15515E-01
        -0.85715E-02
        -0.53663E-02
        -0.49985E-02
        -0.13038E-02
        -0.64593E-02
        -0.29326E-02
        -0.23288E-02
        -0.82053E-02
        -0.54092E-02
        -0.79228E-02
         0.40419E-02
         0.17286E-01
         0.10294E-01
         0.14853E-02
         0.17354E-01
         0.32327E-02
        -0.11127E-02
         0.91287E-03
         0.42512E-02
         0.74102E-03
         0.37568E-02
         0.26020E-02
        -0.15189E-02
         0.12372E-02
        -0.53813E-02
         0.12009E-02
         0.39172E-03
         0.67002E-03
        -0.79792E-03
        -0.51950E-02
         0.34743E-02
         0.85156E-03
         0.23193E-02
         0.19995E-02
        -0.80502E-03
         0.28660E-02
         0.54163E-02
         0.13245E-01
         0.11788E-01
         0.10255E-01
         0.75061E-02
        -0.17110E-02
        -0.37958E-02
        -0.47874E-02
        -0.61020E-02
        -0.12399E-01
        -0.72327E-02
        -0.47435E-02
        -0.58914E-02
        -0.69354E-02
        -0.72749E-02
        -0.43186E-03
         0.90009E-02
        -0.13056E-01
         0.30436E-01
         0.39241E-01
         0.50554E-01
         0.60475E-01
         0.59166E-01
         0.51760E-01
         0.49672E-01
         0.49090E-01
         0.30876E-01
         0.10299E-01
         0.40709E-02
         0.35819E-02
        -0.14267E-02
        -0.13805E-01
        -0.27647E-01
        -0.38308E-01
        -0.49640E-01
        -0.55011E-01
        -0.48315E-01
        -0.45695E-01
        -0.45409E-01
        -0.31770E-01
        -0.16417E-01
        -0.15494E-01
        -0.85757E-02
        -0.53658E-02
        -0.50008E-02
        -0.13130E-02
        -0.64600E-02
        -0.29349E-02
        -0.23304E-02
        -0.82161E-02
        -0.54192E-02
        -0.79473E-02
         0.40455E-02
         0.17286E-01
         0.10298E-01
         0.14866E-02
         0.17376E-01
         0.32334E-02
        -0.11228E-02
         0.91136E-03
         0.42544E-02
         0.73569E-03
         0.37663E-02
         0.26037E-02
        -0.15211E-02
         0.12355E-02
        -0.54011E-02
         0.11963E-02
         0.39766E-03
         0.67622E-03
        -0.78714E-03
        -0.52027E-02
         0.34739E-02
         0.84627E-03
         0.23245E-02
         0.20031E-02
        -0.79582E-03
         0.28683E-02
         0.54167E-02
         0.13266E-01
         0.11814E-01
         0.10268E-01
         0.75144E-02
        -0.17019E-02
        -0.37977E-02
        -0.47941E-02
        -0.61063E-02
        -0.12401E-01
        -0.72361E-02
        -0.47432E-02
        -0.58858E-02
        -0.69266E-02
        -0.72719E-02
        -0.42345E-03
         0.89923E-02
        -0.13057E-01
         0.30441E-01
         0.39241E-01
         0.50548E-01
         0.60455E-01
         0.59140E-01
         0.51744E-01
         0.49661E-01
         0.49076E-01
         0.30871E-01
         0.10306E-01
         0.40715E-02
         0.35888E-02
        -0.14133E-02
        -0.13814E-01
        -0.27664E-01
        -0.38320E-01
        -0.49639E-01
        -0.55007E-01
        -0.48313E-01
        -0.45694E-01
        -0.45397E-01
        -0.31747E-01
        -0.16399E-01
        -0.15473E-01
        -0.85799E-02
        -0.53654E-02
        -0.50032E-02
        -0.13222E-02
        -0.64609E-02
        -0.29372E-02
        -0.23321E-02
        -0.82268E-02
        -0.54293E-02
        -0.79718E-02
         0.40492E-02
         0.17285E-01
         0.10301E-01
         0.14878E-02
         0.17398E-01
         0.32340E-02
        -0.11330E-02
         0.90983E-03
         0.42576E-02
         0.73043E-03
         0.37757E-02
         0.26054E-02
        -0.15233E-02
         0.12338E-02
        -0.54209E-02
         0.11917E-02
         0.40375E-03
         0.68236E-03
        -0.77634E-03
        -0.52101E-02
         0.34734E-02
         0.84096E-03
         0.23297E-02
         0.20068E-02
        -0.78660E-03
         0.28706E-02
         0.54170E-02
         0.13288E-01
         0.11840E-01
         0.10282E-01
         0.75227E-02
        -0.16929E-02
        -0.37996E-02
        -0.48010E-02
        -0.61105E-02
        -0.12404E-01
        -0.72395E-02
        -0.47431E-02
        -0.58803E-02
        -0.69179E-02
        -0.72690E-02
        -0.41511E-03
         0.89836E-02
        -0.13057E-01
         0.30446E-01
         0.39241E-01
         0.50542E-01
         0.60433E-01
         0.59114E-01
         0.51728E-01
         0.49651E-01
         0.49061E-01
         0.30866E-01
         0.10314E-01
         0.40719E-02
         0.35958E-02
        -0.14000E-02
        -0.13823E-01
        -0.27682E-01
        -0.38331E-01
        -0.49637E-01
        -0.55004E-01
        -0.48310E-01
        -0.45693E-01
        -0.45385E-01
        -0.31724E-01
        -0.16382E-01
        -0.15452E-01
        -0.85841E-02
        -0.53650E-02
        -0.50056E-02
        -0.13314E-02
        -0.64617E-02
        -0.29395E-02
        -0.23337E-02
        -0.82375E-02
        -0.54394E-02
        -0.79963E-02
         0.40528E-02
         0.17284E-01
         0.10304E-01
         0.14891E-02
         0.17420E-01
         0.32346E-02
        -0.11432E-02
         0.90830E-03
         0.42608E-02
         0.72540E-03
         0.37851E-02
         0.26070E-02
        -0.15255E-02
         0.12320E-02
        -0.54408E-02
         0.11872E-02
         0.40979E-03
         0.68845E-03
        -0.76557E-03
        -0.52171E-02
         0.34730E-02
         0.83558E-03
         0.23349E-02
         0.20104E-02
        -0.77738E-03
         0.28730E-02
         0.54174E-02
         0.13309E-01
         0.11867E-01
         0.10294E-01
         0.75309E-02
        -0.16838E-02
        -0.38015E-02
        -0.48078E-02
        -0.61148E-02
        -0.12407E-01
        -0.72427E-02
        -0.47428E-02
        -0.58746E-02
        -0.69091E-02
        -0.72662E-02
        -0.40677E-03
         0.89749E-02
        -0.13058E-01
         0.30451E-01
         0.39242E-01
         0.50535E-01
         0.60413E-01
         0.59088E-01
         0.51712E-01
         0.49641E-01
         0.49045E-01
         0.30862E-01
         0.10321E-01
         0.40721E-02
         0.36027E-02
        -0.13868E-02
        -0.13832E-01
        -0.27699E-01
        -0.38343E-01
        -0.49636E-01
        -0.55000E-01
        -0.48308E-01
        -0.45692E-01
        -0.45373E-01
        -0.31701E-01
        -0.16364E-01
        -0.15432E-01
        -0.85883E-02
        -0.53646E-02
        -0.50079E-02
        -0.13407E-02
        -0.64625E-02
        -0.29417E-02
        -0.23353E-02
        -0.82481E-02
        -0.54497E-02
        -0.80208E-02
         0.40563E-02
         0.17283E-01
         0.10308E-01
         0.14904E-02
         0.17443E-01
         0.32352E-02
        -0.11537E-02
         0.90675E-03
         0.42641E-02
         0.72059E-03
         0.37945E-02
         0.26086E-02
        -0.15277E-02
         0.12303E-02
        -0.54606E-02
         0.11825E-02
         0.41609E-03
         0.69448E-03
        -0.75484E-03
        -0.52236E-02
         0.34725E-02
         0.83027E-03
         0.23400E-02
         0.20141E-02
        -0.76809E-03
         0.28752E-02
         0.54177E-02
         0.13331E-01
         0.11893E-01
         0.10307E-01
         0.75390E-02
        -0.16748E-02
        -0.38036E-02
        -0.48146E-02
        -0.61191E-02
        -0.12410E-01
        -0.72461E-02
        -0.47426E-02
        -0.58690E-02
        -0.69003E-02
        -0.72631E-02
        -0.39836E-03
         0.89662E-02
        -0.13058E-01
         0.30456E-01
         0.39242E-01
         0.50529E-01
         0.60392E-01
         0.59062E-01
         0.51696E-01
         0.49630E-01
         0.49029E-01
         0.30858E-01
         0.10329E-01
         0.40720E-02
         0.36097E-02
        -0.13734E-02
        -0.13840E-01
        -0.27717E-01
        -0.38354E-01
        -0.49635E-01
        -0.54996E-01
        -0.48306E-01
        -0.45691E-01
        -0.45360E-01
        -0.31679E-01
        -0.16347E-01
        -0.15411E-01
        -0.85926E-02
        -0.53642E-02
        -0.50105E-02
        -0.13499E-02
        -0.64635E-02
        -0.29440E-02
        -0.23371E-02
        -0.82587E-02
        -0.54600E-02
        -0.80452E-02
         0.40600E-02
         0.17282E-01
         0.10311E-01
         0.14916E-02
         0.17465E-01
         0.32359E-02
        -0.11641E-02
         0.90523E-03
         0.42673E-02
         0.71591E-03
         0.38040E-02
         0.26102E-02
        -0.15298E-02
         0.12288E-02
        -0.54805E-02
         0.11781E-02
         0.42222E-03
         0.70026E-03
        -0.74424E-03
        -0.52301E-02
         0.34721E-02
         0.82507E-03
         0.23452E-02
         0.20178E-02
        -0.75890E-03
         0.28775E-02
         0.54178E-02
         0.13353E-01
         0.11919E-01
         0.10319E-01
         0.75468E-02
        -0.16659E-02
        -0.38058E-02
        -0.48213E-02
        -0.61232E-02
        -0.12413E-01
        -0.72494E-02
        -0.47424E-02
        -0.58634E-02
        -0.68916E-02
        -0.72603E-02
        -0.39001E-03
         0.89574E-02
        -0.13059E-01
         0.30461E-01
         0.39242E-01
         0.50523E-01
         0.60371E-01
         0.59036E-01
         0.51681E-01
         0.49620E-01
         0.49012E-01
         0.30854E-01
         0.10336E-01
         0.40716E-02
         0.36166E-02
        -0.13601E-02
        -0.13849E-01
        -0.27734E-01
        -0.38366E-01
        -0.49634E-01
        -0.54993E-01
        -0.48304E-01
        -0.45690E-01
        -0.45348E-01
        -0.31656E-01
        -0.16329E-01
        -0.15390E-01
        -0.86267E-02
        -0.53833E-02
        -0.50312E-02
        -0.13635E-02
        -0.64863E-02
        -0.29561E-02
        -0.23473E-02
        -0.82965E-02
        -0.54887E-02
        -0.80951E-02
         0.40769E-02
         0.17335E-01
         0.10347E-01
         0.14977E-02
         0.17541E-01
         0.32481E-02
        -0.11781E-02
         0.90691E-03
         0.42850E-02
         0.71418E-03
         0.38249E-02
         0.26202E-02
        -0.15355E-02
         0.12323E-02
        -0.55182E-02
         0.11792E-02
         0.42926E-03
         0.70704E-03
        -0.73814E-03
        -0.52548E-02
         0.34845E-02
         0.82428E-03
         0.23584E-02
         0.20285E-02
        -0.75304E-03
         0.28880E-02
         0.54348E-02
         0.13416E-01
         0.11982E-01
         0.10364E-01
         0.75783E-02
        -0.16645E-02
        -0.38214E-02
        -0.48411E-02
        -0.61450E-02
        -0.12452E-01
        -0.72742E-02
        -0.47562E-02
        -0.58769E-02
        -0.69058E-02
        -0.72809E-02
        -0.38304E-03
         0.89714E-02
        -0.13096E-01
         0.30546E-01
         0.39347E-01
         0.50654E-01
         0.60518E-01
         0.59178E-01
         0.51814E-01
         0.49752E-01
         0.49138E-01
         0.30938E-01
         0.10370E-01
         0.40811E-02
         0.36325E-02
        -0.13509E-02
        -0.13891E-01
        -0.27818E-01
        -0.38474E-01
        -0.49765E-01
        -0.55137E-01
        -0.48428E-01
        -0.45807E-01
        -0.45454E-01
        -0.31718E-01
        -0.16356E-01
        -0.15411E-01
        -0.12802E-01
        -0.80200E-02
        -0.74542E-02
        -0.20383E-02
        -0.92718E-02
        -0.42689E-02
        -0.34893E-02
        -0.12253E-01
        -0.81334E-02
        -0.11932E-01
         0.59542E-02
         0.24307E-01
         0.14735E-01
         0.21782E-02
         0.24736E-01
         0.48260E-02
        -0.17555E-02
         0.13467E-02
         0.62802E-02
         0.10462E-02
         0.54542E-02
         0.37790E-02
        -0.21910E-02
         0.18196E-02
        -0.82146E-02
         0.17555E-02
         0.63471E-03
         0.10526E-02
        -0.10935E-02
        -0.78068E-02
         0.51775E-02
         0.12203E-02
         0.35164E-02
         0.30197E-02
        -0.10416E-02
         0.41625E-02
         0.78332E-02
         0.19341E-01
         0.17525E-01
         0.15210E-01
         0.10969E-01
        -0.24227E-02
        -0.55741E-02
        -0.69633E-02
        -0.88066E-02
        -0.17328E-01
        -0.10388E-01
        -0.68753E-02
        -0.85384E-02
        -0.99871E-02
        -0.10277E-01
        -0.54251E-03
         0.11122E-01
        -0.16231E-01
         0.37858E-01
         0.48911E-01
         0.62914E-01
         0.75329E-01
         0.74473E-01
         0.65755E-01
         0.63019E-01
         0.61868E-01
         0.39008E-01
         0.13057E-01
         0.51944E-02
         0.46467E-02
        -0.16932E-02
        -0.17325E-01
        -0.34591E-01
        -0.47558E-01
        -0.61447E-01
        -0.68158E-01
        -0.60507E-01
        -0.57495E-01
        -0.56835E-01
        -0.39789E-01
        -0.20452E-01
        -0.19197E-01
  
SCALARS                      strain_xz  double 1
LOOKUP_TABLE default
         0.20734E-03
        -0.14556E-02
        -0.48195E-02
         0.33264E-03
        -0.14143E-09
         0.50147E-10
         0.16768E-09
         0.33489E-10
        -0.13518E-01
        -0.90465E-02
         0.50155E-09
         0.45176E-09
         0.57211E-03
        -0.23338E-02
        -0.61858E-10
        -0.28978E-09
        -0.48604E-03
        -0.22406E-02
        -0.20932E-09
        -0.31174E-09
        -0.32616E-02
        -0.54639E-02
        -0.52209E-02
        -0.20816E-09
        -0.95990E-10
         0.16770E-09
        -0.57729E-02
        -0.46442E-02
        -0.38966E-09
        -0.30910E-09
         0.11370E-02
        -0.25114E-02
         0.24281E-03
         0.39672E-10
        -0.15331E-09
        -0.94450E-10
         0.33627E-02
         0.16076E-02
        -0.22762E-09
        -0.24235E-09
         0.66822E-02
         0.94049E-02
        -0.51343E-09
        -0.37863E-09
         0.71842E-02
         0.38335E-02
        -0.56384E-09
        -0.27139E-09
        -0.20261E-02
        -0.17035E-09
         0.49190E-02
        -0.47420E-10
        -0.20921E-02
        -0.33287E-09
         0.15584E-02
        -0.88052E-10
         0.68184E-02
         0.18890E-02
        -0.75429E-10
        -0.18232E-09
        -0.12139E-03
         0.33420E-02
         0.15087E-09
         0.10346E-09
        -0.87083E-03
        -0.15175E-10
        -0.29082E-02
         0.99815E-10
        -0.18993E-01
        -0.13006E-01
         0.62387E-09
         0.45247E-09
        -0.83490E-02
         0.32946E-09
         0.19129E-02
        -0.22791E-09
         0.59754E-02
        -0.44730E-10
         0.12679E-01
        -0.69396E-10
         0.16857E-01
         0.12028E-01
        -0.25432E-09
        -0.29086E-09
         0.10719E-01
        -0.31280E-09
         0.87111E-02
        -0.45036E-09
         0.54107E-02
        -0.28725E-09
         0.84975E-02
         0.62418E-02
        -0.12260E-09
         0.16812E-09
        -0.14292E-02
         0.19720E-09
        -0.39275E-02
         0.82803E-10
        -0.94206E-02
         0.20448E-09
        -0.13920E-01
        -0.95636E-02
         0.47147E-09
         0.49198E-09
        -0.33877E-01
        -0.37623E-01
         0.87116E-09
         0.85851E-09
        -0.33530E-01
         0.74423E-09
        -0.30665E-01
         0.55617E-09
        -0.21924E-01
         0.30564E-09
        -0.15792E-01
         0.32684E-10
        -0.58032E-02
        -0.11641E-09
         0.74292E-02
        -0.93134E-10
         0.17717E-01
        -0.91540E-10
         0.26331E-01
        -0.20643E-09
         0.35665E-01
        -0.39273E-09
         0.43838E-01
        -0.46865E-09
         0.47092E-01
        -0.44219E-09
         0.45090E-01
        -0.48084E-09
         0.41508E-01
        -0.62406E-09
         0.37427E-01
        -0.73590E-09
         0.33005E-01
        -0.68409E-09
         0.26074E-01
        -0.55596E-09
         0.15212E-01
        -0.26246E-09
         0.13011E-02
         0.50118E-10
        -0.85156E-02
         0.12168E-09
        -0.13351E-01
         0.19897E-09
        -0.20025E-01
         0.38940E-09
        -0.26406E-01
         0.63897E-09
        -0.34778E-01
         0.76769E-09
        -0.40057E-01
         0.78521E-09
        -0.19031E-02
         0.10021E-02
         0.11739E-02
        -0.23288E-02
         0.92610E-02
         0.70696E-02
         0.10847E-02
        -0.15803E-02
        -0.79982E-03
        -0.14405E-02
         0.80974E-03
         0.35158E-02
         0.72933E-02
        -0.23315E-02
        -0.28181E-02
         0.31015E-02
         0.26100E-02
        -0.12005E-02
        -0.19093E-02
        -0.20459E-02
        -0.11248E-01
        -0.11933E-01
        -0.10849E-01
        -0.33654E-02
         0.13407E-02
        -0.99948E-03
        -0.32463E-02
        -0.36366E-03
        -0.37501E-02
        -0.25481E-02
         0.27728E-02
         0.55205E-03
        -0.13067E-02
        -0.42658E-03
         0.13917E-01
         0.87833E-02
         0.79124E-02
        -0.55694E-02
        -0.31745E-02
        -0.68487E-02
        -0.14179E-01
        -0.13019E-01
        -0.12659E-01
        -0.93249E-02
        -0.67422E-02
        -0.53452E-02
         0.99256E-03
         0.40932E-02
         0.11847E-02
         0.37931E-02
         0.10231E-01
         0.85052E-02
         0.41549E-01
         0.43193E-01
         0.38679E-01
         0.32832E-01
         0.24469E-01
         0.12537E-01
        -0.74780E-03
        -0.89892E-02
        -0.13685E-01
        -0.23511E-01
        -0.38403E-01
        -0.46080E-01
        -0.41952E-01
        -0.40137E-01
        -0.42246E-01
        -0.42119E-01
        -0.38275E-01
        -0.33688E-01
        -0.17330E-01
         0.27304E-02
         0.10436E-01
         0.11631E-01
         0.19715E-01
         0.31640E-01
         0.40743E-01
         0.42704E-01
        -0.28884E-02
         0.59292E-03
        -0.11288E-02
        -0.32867E-02
         0.67418E-02
         0.57614E-02
         0.16786E-02
        -0.36643E-02
        -0.16837E-02
        -0.34837E-02
        -0.70376E-03
         0.25677E-02
         0.84469E-02
        -0.64777E-02
        -0.67096E-02
         0.56746E-02
         0.31590E-02
        -0.18921E-02
        -0.12733E-02
        -0.22362E-02
        -0.13268E-01
        -0.12645E-01
        -0.12478E-01
        -0.30181E-02
         0.17142E-02
         0.11542E-02
        -0.62596E-02
         0.83114E-03
        -0.20949E-02
        -0.28568E-02
         0.43597E-02
         0.28211E-02
        -0.28276E-02
        -0.24404E-02
         0.12023E-01
         0.66360E-02
         0.76119E-02
        -0.74407E-02
        -0.12458E-02
        -0.36118E-02
        -0.13269E-01
        -0.13650E-01
        -0.13342E-01
        -0.96470E-02
        -0.74290E-02
        -0.43468E-02
         0.46978E-02
         0.55460E-02
        -0.73312E-03
         0.88270E-03
         0.90478E-02
         0.79702E-02
         0.50261E-01
         0.50650E-01
         0.45467E-01
         0.37500E-01
         0.27981E-01
         0.12887E-01
        -0.31996E-02
        -0.10367E-01
        -0.13658E-01
        -0.25035E-01
        -0.44468E-01
        -0.52459E-01
        -0.43992E-01
        -0.41853E-01
        -0.46109E-01
        -0.47486E-01
        -0.43341E-01
        -0.40996E-01
        -0.20888E-01
         0.54290E-02
         0.12008E-01
         0.12165E-01
         0.21629E-01
         0.37448E-01
         0.47933E-01
         0.47782E-01
        -0.28938E-02
         0.59512E-03
        -0.11309E-02
        -0.32889E-02
         0.67353E-02
         0.57560E-02
         0.16892E-02
        -0.36551E-02
        -0.16855E-02
        -0.34809E-02
        -0.68951E-03
         0.25739E-02
         0.84520E-02
        -0.64617E-02
        -0.67060E-02
         0.56804E-02
         0.31660E-02
        -0.18869E-02
        -0.12727E-02
        -0.22323E-02
        -0.13267E-01
        -0.12644E-01
        -0.12477E-01
        -0.30183E-02
         0.17181E-02
         0.11562E-02
        -0.62615E-02
         0.81551E-03
        -0.21096E-02
        -0.28586E-02
         0.43661E-02
         0.28207E-02
        -0.28158E-02
        -0.24415E-02
         0.12029E-01
         0.66329E-02
         0.76095E-02
        -0.74526E-02
        -0.12577E-02
        -0.36232E-02
        -0.13278E-01
        -0.13657E-01
        -0.13343E-01
        -0.96456E-02
        -0.74263E-02
        -0.43445E-02
         0.46969E-02
         0.55479E-02
        -0.72777E-03
         0.87968E-03
         0.90420E-02
         0.79584E-02
         0.50244E-01
         0.50637E-01
         0.45463E-01
         0.37501E-01
         0.27972E-01
         0.12883E-01
        -0.32032E-02
        -0.10374E-01
        -0.13646E-01
        -0.25025E-01
        -0.44461E-01
        -0.52459E-01
        -0.43988E-01
        -0.41851E-01
        -0.46115E-01
        -0.47496E-01
        -0.43348E-01
        -0.41004E-01
        -0.20882E-01
         0.54315E-02
         0.11999E-01
         0.12160E-01
         0.21613E-01
         0.37426E-01
         0.47909E-01
         0.47760E-01
        -0.28993E-02
         0.59728E-03
        -0.11330E-02
        -0.32911E-02
         0.67286E-02
         0.57508E-02
         0.17000E-02
        -0.36458E-02
        -0.16873E-02
        -0.34780E-02
        -0.67530E-03
         0.25801E-02
         0.84571E-02
        -0.64458E-02
        -0.67024E-02
         0.56865E-02
         0.31731E-02
        -0.18816E-02
        -0.12721E-02
        -0.22285E-02
        -0.13266E-01
        -0.12642E-01
        -0.12477E-01
        -0.30184E-02
         0.17222E-02
         0.11583E-02
        -0.62633E-02
         0.80008E-03
        -0.21244E-02
        -0.28604E-02
         0.43726E-02
         0.28205E-02
        -0.28040E-02
        -0.24426E-02
         0.12036E-01
         0.66301E-02
         0.76070E-02
        -0.74645E-02
        -0.12696E-02
        -0.36347E-02
        -0.13286E-01
        -0.13665E-01
        -0.13344E-01
        -0.96444E-02
        -0.74237E-02
        -0.43424E-02
         0.46960E-02
         0.55497E-02
        -0.72228E-03
         0.87657E-03
         0.90363E-02
         0.79467E-02
         0.50227E-01
         0.50624E-01
         0.45459E-01
         0.37501E-01
         0.27964E-01
         0.12879E-01
        -0.32069E-02
        -0.10380E-01
        -0.13634E-01
        -0.25015E-01
        -0.44454E-01
        -0.52461E-01
        -0.43984E-01
        -0.41849E-01
        -0.46121E-01
        -0.47507E-01
        -0.43356E-01
        -0.41012E-01
        -0.20876E-01
         0.54339E-02
         0.11990E-01
         0.12156E-01
         0.21597E-01
         0.37403E-01
         0.47885E-01
         0.47739E-01
        -0.29048E-02
         0.59953E-03
        -0.11351E-02
        -0.32932E-02
         0.67220E-02
         0.57455E-02
         0.17106E-02
        -0.36365E-02
        -0.16888E-02
        -0.34745E-02
        -0.66112E-03
         0.25865E-02
         0.84623E-02
        -0.64299E-02
        -0.66989E-02
         0.56931E-02
         0.31804E-02
        -0.18763E-02
        -0.12715E-02
        -0.22245E-02
        -0.13265E-01
        -0.12641E-01
        -0.12477E-01
        -0.30186E-02
         0.17271E-02
         0.11608E-02
        -0.62648E-02
         0.78513E-03
        -0.21392E-02
        -0.28621E-02
         0.43796E-02
         0.28208E-02
        -0.27921E-02
        -0.24437E-02
         0.12041E-01
         0.66271E-02
         0.76046E-02
        -0.74764E-02
        -0.12815E-02
        -0.36461E-02
        -0.13295E-01
        -0.13674E-01
        -0.13345E-01
        -0.96435E-02
        -0.74208E-02
        -0.43401E-02
         0.46954E-02
         0.55516E-02
        -0.71678E-03
         0.87346E-03
         0.90304E-02
         0.79349E-02
         0.50209E-01
         0.50611E-01
         0.45454E-01
         0.37501E-01
         0.27955E-01
         0.12875E-01
        -0.32106E-02
        -0.10387E-01
        -0.13623E-01
        -0.25005E-01
        -0.44447E-01
        -0.52462E-01
        -0.43981E-01
        -0.41847E-01
        -0.46128E-01
        -0.47519E-01
        -0.43365E-01
        -0.41020E-01
        -0.20870E-01
         0.54364E-02
         0.11981E-01
         0.12151E-01
         0.21581E-01
         0.37380E-01
         0.47861E-01
         0.47718E-01
        -0.29102E-02
         0.60177E-03
        -0.11372E-02
        -0.32954E-02
         0.67155E-02
         0.57402E-02
         0.17213E-02
        -0.36271E-02
        -0.16901E-02
        -0.34706E-02
        -0.64691E-03
         0.25928E-02
         0.84675E-02
        -0.64139E-02
        -0.66952E-02
         0.57001E-02
         0.31881E-02
        -0.18709E-02
        -0.12708E-02
        -0.22205E-02
        -0.13265E-01
        -0.12641E-01
        -0.12477E-01
        -0.30188E-02
         0.17328E-02
         0.11638E-02
        -0.62661E-02
         0.77065E-03
        -0.21539E-02
        -0.28636E-02
         0.43871E-02
         0.28215E-02
        -0.27802E-02
        -0.24448E-02
         0.12048E-01
         0.66241E-02
         0.76022E-02
        -0.74882E-02
        -0.12934E-02
        -0.36576E-02
        -0.13304E-01
        -0.13683E-01
        -0.13348E-01
        -0.96429E-02
        -0.74179E-02
        -0.43376E-02
         0.46948E-02
         0.55537E-02
        -0.71132E-03
         0.87039E-03
         0.90248E-02
         0.79231E-02
         0.50192E-01
         0.50597E-01
         0.45450E-01
         0.37501E-01
         0.27946E-01
         0.12871E-01
        -0.32142E-02
        -0.10393E-01
        -0.13611E-01
        -0.24995E-01
        -0.44440E-01
        -0.52464E-01
        -0.43979E-01
        -0.41845E-01
        -0.46135E-01
        -0.47533E-01
        -0.43374E-01
        -0.41027E-01
        -0.20865E-01
         0.54389E-02
         0.11972E-01
         0.12146E-01
         0.21565E-01
         0.37357E-01
         0.47838E-01
         0.47697E-01
        -0.29154E-02
         0.60420E-03
        -0.11391E-02
        -0.32975E-02
         0.67090E-02
         0.57349E-02
         0.17320E-02
        -0.36175E-02
        -0.16913E-02
        -0.34665E-02
        -0.63269E-03
         0.25990E-02
         0.84725E-02
        -0.63979E-02
        -0.66916E-02
         0.57073E-02
         0.31958E-02
        -0.18656E-02
        -0.12701E-02
        -0.22167E-02
        -0.13265E-01
        -0.12640E-01
        -0.12478E-01
        -0.30190E-02
         0.17385E-02
         0.11668E-02
        -0.62673E-02
         0.75626E-03
        -0.21687E-02
        -0.28655E-02
         0.43946E-02
         0.28221E-02
        -0.27681E-02
        -0.24457E-02
         0.12054E-01
         0.66215E-02
         0.75999E-02
        -0.75000E-02
        -0.13052E-02
        -0.36691E-02
        -0.13313E-01
        -0.13693E-01
        -0.13351E-01
        -0.96425E-02
        -0.74152E-02
        -0.43354E-02
         0.46942E-02
         0.55557E-02
        -0.70570E-03
         0.86756E-03
         0.90193E-02
         0.79116E-02
         0.50175E-01
         0.50584E-01
         0.45446E-01
         0.37501E-01
         0.27938E-01
         0.12867E-01
        -0.32177E-02
        -0.10399E-01
        -0.13600E-01
        -0.24985E-01
        -0.44433E-01
        -0.52466E-01
        -0.43977E-01
        -0.41844E-01
        -0.46143E-01
        -0.47548E-01
        -0.43384E-01
        -0.41035E-01
        -0.20859E-01
         0.54411E-02
         0.11964E-01
         0.12141E-01
         0.21549E-01
         0.37334E-01
         0.47814E-01
         0.47675E-01
        -0.29202E-02
         0.60711E-03
        -0.11405E-02
        -0.32996E-02
         0.67026E-02
         0.57297E-02
         0.17429E-02
        -0.36077E-02
        -0.16927E-02
        -0.34626E-02
        -0.61841E-03
         0.26053E-02
         0.84778E-02
        -0.63819E-02
        -0.66879E-02
         0.57145E-02
         0.32032E-02
        -0.18602E-02
        -0.12695E-02
        -0.22129E-02
        -0.13265E-01
        -0.12640E-01
        -0.12479E-01
        -0.30194E-02
         0.17435E-02
         0.11694E-02
        -0.62686E-02
         0.74154E-03
        -0.21837E-02
        -0.28676E-02
         0.44017E-02
         0.28222E-02
        -0.27557E-02
        -0.24464E-02
         0.12060E-01
         0.66190E-02
         0.75979E-02
        -0.75118E-02
        -0.13172E-02
        -0.36809E-02
        -0.13322E-01
        -0.13702E-01
        -0.13354E-01
        -0.96422E-02
        -0.74127E-02
        -0.43334E-02
         0.46931E-02
         0.55576E-02
        -0.69960E-03
         0.86538E-03
         0.90144E-02
         0.79001E-02
         0.50158E-01
         0.50572E-01
         0.45442E-01
         0.37502E-01
         0.27929E-01
         0.12863E-01
        -0.32213E-02
        -0.10406E-01
        -0.13589E-01
        -0.24975E-01
        -0.44426E-01
        -0.52469E-01
        -0.43976E-01
        -0.41843E-01
        -0.46150E-01
        -0.47562E-01
        -0.43394E-01
        -0.41042E-01
        -0.20853E-01
         0.54429E-02
         0.11954E-01
         0.12137E-01
         0.21534E-01
         0.37311E-01
         0.47790E-01
         0.47654E-01
        -0.29248E-02
         0.61018E-03
        -0.11418E-02
        -0.33015E-02
         0.66964E-02
         0.57244E-02
         0.17540E-02
        -0.35979E-02
        -0.16941E-02
        -0.34589E-02
        -0.60408E-03
         0.26116E-02
         0.84831E-02
        -0.63659E-02
        -0.66842E-02
         0.57217E-02
         0.32105E-02
        -0.18548E-02
        -0.12689E-02
        -0.22094E-02
        -0.13264E-01
        -0.12640E-01
        -0.12480E-01
        -0.30197E-02
         0.17482E-02
         0.11719E-02
        -0.62700E-02
         0.72673E-03
        -0.21988E-02
        -0.28699E-02
         0.44085E-02
         0.28220E-02
        -0.27433E-02
        -0.24470E-02
         0.12067E-01
         0.66169E-02
         0.75961E-02
        -0.75235E-02
        -0.13291E-02
        -0.36926E-02
        -0.13331E-01
        -0.13712E-01
        -0.13358E-01
        -0.96422E-02
        -0.74105E-02
        -0.43318E-02
         0.46919E-02
         0.55593E-02
        -0.69331E-03
         0.86349E-03
         0.90096E-02
         0.78889E-02
         0.50140E-01
         0.50559E-01
         0.45438E-01
         0.37502E-01
         0.27920E-01
         0.12859E-01
        -0.32249E-02
        -0.10412E-01
        -0.13577E-01
        -0.24965E-01
        -0.44418E-01
        -0.52471E-01
        -0.43974E-01
        -0.41841E-01
        -0.46157E-01
        -0.47577E-01
        -0.43404E-01
        -0.41049E-01
        -0.20847E-01
         0.54447E-02
         0.11945E-01
         0.12132E-01
         0.21518E-01
         0.37289E-01
         0.47767E-01
         0.47633E-01
        -0.29294E-02
         0.61328E-03
        -0.11430E-02
        -0.33035E-02
         0.66901E-02
         0.57191E-02
         0.17650E-02
        -0.35880E-02
        -0.16955E-02
        -0.34553E-02
        -0.58981E-03
         0.26179E-02
         0.84884E-02
        -0.63500E-02
        -0.66804E-02
         0.57288E-02
         0.32177E-02
        -0.18494E-02
        -0.12682E-02
        -0.22057E-02
        -0.13264E-01
        -0.12639E-01
        -0.12482E-01
        -0.30201E-02
         0.17528E-02
         0.11744E-02
        -0.62714E-02
         0.71194E-03
        -0.22140E-02
        -0.28722E-02
         0.44154E-02
         0.28219E-02
        -0.27308E-02
        -0.24476E-02
         0.12073E-01
         0.66145E-02
         0.75943E-02
        -0.75352E-02
        -0.13411E-02
        -0.37042E-02
        -0.13340E-01
        -0.13722E-01
        -0.13361E-01
        -0.96422E-02
        -0.74084E-02
        -0.43302E-02
         0.46907E-02
         0.55611E-02
        -0.68701E-03
         0.86168E-03
         0.90051E-02
         0.78775E-02
         0.50123E-01
         0.50546E-01
         0.45433E-01
         0.37502E-01
         0.27912E-01
         0.12856E-01
        -0.32284E-02
        -0.10419E-01
        -0.13566E-01
        -0.24956E-01
        -0.44411E-01
        -0.52473E-01
        -0.43972E-01
        -0.41840E-01
        -0.46165E-01
        -0.47591E-01
        -0.43414E-01
        -0.41057E-01
        -0.20840E-01
         0.54464E-02
         0.11936E-01
         0.12127E-01
         0.21503E-01
         0.37266E-01
         0.47743E-01
         0.47611E-01
        -0.29340E-02
         0.61642E-03
        -0.11442E-02
        -0.33055E-02
         0.66838E-02
         0.57138E-02
         0.17760E-02
        -0.35782E-02
        -0.16969E-02
        -0.34516E-02
        -0.57553E-03
         0.26242E-02
         0.84938E-02
        -0.63341E-02
        -0.66767E-02
         0.57359E-02
         0.32250E-02
        -0.18441E-02
        -0.12675E-02
        -0.22022E-02
        -0.13264E-01
        -0.12639E-01
        -0.12483E-01
        -0.30205E-02
         0.17575E-02
         0.11769E-02
        -0.62729E-02
         0.69724E-03
        -0.22290E-02
        -0.28744E-02
         0.44222E-02
         0.28216E-02
        -0.27184E-02
        -0.24482E-02
         0.12080E-01
         0.66124E-02
         0.75925E-02
        -0.75469E-02
        -0.13531E-02
        -0.37161E-02
        -0.13350E-01
        -0.13731E-01
        -0.13364E-01
        -0.96422E-02
        -0.74062E-02
        -0.43284E-02
         0.46894E-02
         0.55629E-02
        -0.68077E-03
         0.85972E-03
         0.90003E-02
         0.78662E-02
         0.50106E-01
         0.50533E-01
         0.45429E-01
         0.37502E-01
         0.27903E-01
         0.12852E-01
        -0.32319E-02
        -0.10425E-01
        -0.13554E-01
        -0.24946E-01
        -0.44404E-01
        -0.52475E-01
        -0.43971E-01
        -0.41838E-01
        -0.46172E-01
        -0.47606E-01
        -0.43424E-01
        -0.41064E-01
        -0.20834E-01
         0.54481E-02
         0.11926E-01
         0.12123E-01
         0.21488E-01
         0.37244E-01
         0.47719E-01
         0.47590E-01
        -0.29385E-02
         0.61953E-03
        -0.11455E-02
        -0.33075E-02
         0.66776E-02
         0.57086E-02
         0.17870E-02
        -0.35683E-02
        -0.16982E-02
        -0.34480E-02
        -0.56123E-03
         0.26305E-02
         0.84991E-02
        -0.63182E-02
        -0.66729E-02
         0.57430E-02
         0.32322E-02
        -0.18388E-02
        -0.12669E-02
        -0.21985E-02
        -0.13264E-01
        -0.12638E-01
        -0.12484E-01
        -0.30210E-02
         0.17621E-02
         0.11794E-02
        -0.62744E-02
         0.68253E-03
        -0.22441E-02
        -0.28766E-02
         0.44290E-02
         0.28214E-02
        -0.27060E-02
        -0.24488E-02
         0.12086E-01
         0.66101E-02
         0.75907E-02
        -0.75586E-02
        -0.13652E-02
        -0.37277E-02
        -0.13359E-01
        -0.13741E-01
        -0.13367E-01
        -0.96421E-02
        -0.74041E-02
        -0.43269E-02
         0.46882E-02
         0.55646E-02
        -0.67446E-03
         0.85782E-03
         0.89958E-02
         0.78549E-02
         0.50088E-01
         0.50520E-01
         0.45425E-01
         0.37502E-01
         0.27894E-01
         0.12848E-01
        -0.32353E-02
        -0.10431E-01
        -0.13543E-01
        -0.24936E-01
        -0.44397E-01
        -0.52477E-01
        -0.43969E-01
        -0.41837E-01
        -0.46180E-01
        -0.47620E-01
        -0.43434E-01
        -0.41071E-01
        -0.20828E-01
         0.54497E-02
         0.11917E-01
         0.12118E-01
         0.21472E-01
         0.37221E-01
         0.47696E-01
         0.47569E-01
        -0.29431E-02
         0.62263E-03
        -0.11466E-02
        -0.33095E-02
         0.66713E-02
         0.57033E-02
         0.17980E-02
        -0.35585E-02
        -0.16996E-02
        -0.34443E-02
        -0.54698E-03
         0.26368E-02
         0.85044E-02
        -0.63024E-02
        -0.66692E-02
         0.57501E-02
         0.32394E-02
        -0.18334E-02
        -0.12663E-02
        -0.21949E-02
        -0.13264E-01
        -0.12638E-01
        -0.12485E-01
        -0.30214E-02
         0.17667E-02
         0.11819E-02
        -0.62759E-02
         0.66788E-03
        -0.22590E-02
        -0.28790E-02
         0.44359E-02
         0.28212E-02
        -0.26935E-02
        -0.24494E-02
         0.12093E-01
         0.66079E-02
         0.75888E-02
        -0.75703E-02
        -0.13772E-02
        -0.37396E-02
        -0.13368E-01
        -0.13750E-01
        -0.13370E-01
        -0.96421E-02
        -0.74019E-02
        -0.43253E-02
         0.46870E-02
         0.55664E-02
        -0.66814E-03
         0.85601E-03
         0.89911E-02
         0.78435E-02
         0.50071E-01
         0.50507E-01
         0.45420E-01
         0.37502E-01
         0.27886E-01
         0.12844E-01
        -0.32388E-02
        -0.10437E-01
        -0.13531E-01
        -0.24926E-01
        -0.44390E-01
        -0.52479E-01
        -0.43967E-01
        -0.41836E-01
        -0.46187E-01
        -0.47635E-01
        -0.43443E-01
        -0.41078E-01
        -0.20822E-01
         0.54514E-02
         0.11907E-01
         0.12113E-01
         0.21457E-01
         0.37199E-01
         0.47672E-01
         0.47548E-01
        -0.29477E-02
         0.62576E-03
        -0.11478E-02
        -0.33114E-02
         0.66650E-02
         0.56980E-02
         0.18090E-02
        -0.35486E-02
        -0.17010E-02
        -0.34406E-02
        -0.53276E-03
         0.26431E-02
         0.85098E-02
        -0.62865E-02
        -0.66654E-02
         0.57572E-02
         0.32466E-02
        -0.18280E-02
        -0.12657E-02
        -0.21913E-02
        -0.13263E-01
        -0.12638E-01
        -0.12486E-01
        -0.30219E-02
         0.17712E-02
         0.11843E-02
        -0.62773E-02
         0.65321E-03
        -0.22741E-02
        -0.28812E-02
         0.44427E-02
         0.28210E-02
        -0.26810E-02
        -0.24500E-02
         0.12099E-01
         0.66058E-02
         0.75871E-02
        -0.75819E-02
        -0.13893E-02
        -0.37513E-02
        -0.13377E-01
        -0.13760E-01
        -0.13374E-01
        -0.96422E-02
        -0.73998E-02
        -0.43235E-02
         0.46858E-02
         0.55682E-02
        -0.66179E-03
         0.85410E-03
         0.89862E-02
         0.78321E-02
         0.50054E-01
         0.50494E-01
         0.45416E-01
         0.37502E-01
         0.27877E-01
         0.12840E-01
        -0.32424E-02
        -0.10443E-01
        -0.13520E-01
        -0.24916E-01
        -0.44382E-01
        -0.52481E-01
        -0.43965E-01
        -0.41834E-01
        -0.46195E-01
        -0.47650E-01
        -0.43453E-01
        -0.41085E-01
        -0.20816E-01
         0.54531E-02
         0.11898E-01
         0.12109E-01
         0.21442E-01
         0.37176E-01
         0.47649E-01
         0.47527E-01
        -0.29523E-02
         0.62884E-03
        -0.11490E-02
        -0.33133E-02
         0.66589E-02
         0.56927E-02
         0.18198E-02
        -0.35387E-02
        -0.17023E-02
        -0.34369E-02
        -0.51856E-03
         0.26494E-02
         0.85151E-02
        -0.62707E-02
        -0.66616E-02
         0.57643E-02
         0.32538E-02
        -0.18227E-02
        -0.12652E-02
        -0.21878E-02
        -0.13263E-01
        -0.12637E-01
        -0.12487E-01
        -0.30223E-02
         0.17757E-02
         0.11868E-02
        -0.62786E-02
         0.63863E-03
        -0.22891E-02
        -0.28834E-02
         0.44496E-02
         0.28208E-02
        -0.26685E-02
        -0.24506E-02
         0.12106E-01
         0.66036E-02
         0.75852E-02
        -0.75934E-02
        -0.14014E-02
        -0.37632E-02
        -0.13387E-01
        -0.13769E-01
        -0.13377E-01
        -0.96421E-02
        -0.73976E-02
        -0.43219E-02
         0.46845E-02
         0.55699E-02
        -0.65546E-03
         0.85220E-03
         0.89817E-02
         0.78209E-02
         0.50036E-01
         0.50482E-01
         0.45411E-01
         0.37502E-01
         0.27869E-01
         0.12836E-01
        -0.32458E-02
        -0.10450E-01
        -0.13508E-01
        -0.24906E-01
        -0.44375E-01
        -0.52483E-01
        -0.43963E-01
        -0.41833E-01
        -0.46202E-01
        -0.47664E-01
        -0.43463E-01
        -0.41092E-01
        -0.20810E-01
         0.54546E-02
         0.11889E-01
         0.12104E-01
         0.21426E-01
         0.37153E-01
         0.47625E-01
         0.47505E-01
        -0.29569E-02
         0.63190E-03
        -0.11502E-02
        -0.33153E-02
         0.66527E-02
         0.56874E-02
         0.18308E-02
        -0.35289E-02
        -0.17037E-02
        -0.34332E-02
        -0.50437E-03
         0.26558E-02
         0.85204E-02
        -0.62548E-02
        -0.66577E-02
         0.57713E-02
         0.32610E-02
        -0.18174E-02
        -0.12645E-02
        -0.21841E-02
        -0.13263E-01
        -0.12637E-01
        -0.12488E-01
        -0.30227E-02
         0.17802E-02
         0.11893E-02
        -0.62800E-02
         0.62404E-03
        -0.23041E-02
        -0.28856E-02
         0.44564E-02
         0.28206E-02
        -0.26559E-02
        -0.24511E-02
         0.12113E-01
         0.66015E-02
         0.75835E-02
        -0.76049E-02
        -0.14135E-02
        -0.37749E-02
        -0.13396E-01
        -0.13779E-01
        -0.13380E-01
        -0.96421E-02
        -0.73954E-02
        -0.43203E-02
         0.46833E-02
         0.55717E-02
        -0.64904E-03
         0.85035E-03
         0.89769E-02
         0.78094E-02
         0.50019E-01
         0.50469E-01
         0.45407E-01
         0.37502E-01
         0.27860E-01
         0.12832E-01
        -0.32492E-02
        -0.10456E-01
        -0.13497E-01
        -0.24896E-01
        -0.44368E-01
        -0.52485E-01
        -0.43962E-01
        -0.41831E-01
        -0.46210E-01
        -0.47679E-01
        -0.43473E-01
        -0.41099E-01
        -0.20804E-01
         0.54562E-02
         0.11879E-01
         0.12099E-01
         0.21411E-01
         0.37131E-01
         0.47602E-01
         0.47484E-01
        -0.29615E-02
         0.63504E-03
        -0.11514E-02
        -0.33172E-02
         0.66464E-02
         0.56822E-02
         0.18417E-02
        -0.35190E-02
        -0.17050E-02
        -0.34295E-02
        -0.49017E-03
         0.26621E-02
         0.85257E-02
        -0.62390E-02
        -0.66538E-02
         0.57784E-02
         0.32682E-02
        -0.18121E-02
        -0.12639E-02
        -0.21805E-02
        -0.13263E-01
        -0.12636E-01
        -0.12489E-01
        -0.30232E-02
         0.17846E-02
         0.11917E-02
        -0.62814E-02
         0.60947E-03
        -0.23191E-02
        -0.28877E-02
         0.44632E-02
         0.28204E-02
        -0.26434E-02
        -0.24517E-02
         0.12119E-01
         0.65993E-02
         0.75817E-02
        -0.76163E-02
        -0.14256E-02
        -0.37867E-02
        -0.13405E-01
        -0.13788E-01
        -0.13383E-01
        -0.96419E-02
        -0.73933E-02
        -0.43185E-02
         0.46820E-02
         0.55735E-02
        -0.64268E-03
         0.84843E-03
         0.89723E-02
         0.77980E-02
         0.50002E-01
         0.50456E-01
         0.45403E-01
         0.37502E-01
         0.27851E-01
         0.12828E-01
        -0.32526E-02
        -0.10462E-01
        -0.13485E-01
        -0.24886E-01
        -0.44361E-01
        -0.52488E-01
        -0.43960E-01
        -0.41830E-01
        -0.46217E-01
        -0.47693E-01
        -0.43483E-01
        -0.41106E-01
        -0.20798E-01
         0.54578E-02
         0.11870E-01
         0.12095E-01
         0.21396E-01
         0.37108E-01
         0.47578E-01
         0.47463E-01
        -0.29661E-02
         0.63813E-03
        -0.11526E-02
        -0.33192E-02
         0.66403E-02
         0.56769E-02
         0.18526E-02
        -0.35091E-02
        -0.17063E-02
        -0.34257E-02
        -0.47599E-03
         0.26685E-02
         0.85310E-02
        -0.62232E-02
        -0.66499E-02
         0.57855E-02
         0.32755E-02
        -0.18068E-02
        -0.12633E-02
        -0.21769E-02
        -0.13263E-01
        -0.12636E-01
        -0.12490E-01
        -0.30237E-02
         0.17890E-02
         0.11942E-02
        -0.62827E-02
         0.59477E-03
        -0.23339E-02
        -0.28899E-02
         0.44700E-02
         0.28202E-02
        -0.26310E-02
        -0.24524E-02
         0.12126E-01
         0.65971E-02
         0.75799E-02
        -0.76277E-02
        -0.14379E-02
        -0.37986E-02
        -0.13414E-01
        -0.13798E-01
        -0.13386E-01
        -0.96420E-02
        -0.73911E-02
        -0.43170E-02
         0.46808E-02
         0.55753E-02
        -0.63635E-03
         0.84651E-03
         0.89675E-02
         0.77868E-02
         0.49984E-01
         0.50443E-01
         0.45398E-01
         0.37502E-01
         0.27843E-01
         0.12824E-01
        -0.32559E-02
        -0.10468E-01
        -0.13474E-01
        -0.24876E-01
        -0.44354E-01
        -0.52490E-01
        -0.43958E-01
        -0.41829E-01
        -0.46224E-01
        -0.47708E-01
        -0.43493E-01
        -0.41113E-01
        -0.20792E-01
         0.54594E-02
         0.11860E-01
         0.12090E-01
         0.21380E-01
         0.37086E-01
         0.47555E-01
         0.47442E-01
        -0.29707E-02
         0.64122E-03
        -0.11537E-02
        -0.33211E-02
         0.66340E-02
         0.56717E-02
         0.18635E-02
        -0.34992E-02
        -0.17075E-02
        -0.34214E-02
        -0.46182E-03
         0.26748E-02
         0.85363E-02
        -0.62073E-02
        -0.66459E-02
         0.57926E-02
         0.32826E-02
        -0.18015E-02
        -0.12629E-02
        -0.21734E-02
        -0.13262E-01
        -0.12636E-01
        -0.12491E-01
        -0.30241E-02
         0.17930E-02
         0.11967E-02
        -0.62834E-02
         0.57969E-03
        -0.23489E-02
        -0.28923E-02
         0.44769E-02
         0.28199E-02
        -0.26184E-02
        -0.24530E-02
         0.12133E-01
         0.65951E-02
         0.75781E-02
        -0.76388E-02
        -0.14506E-02
        -0.38102E-02
        -0.13422E-01
        -0.13806E-01
        -0.13389E-01
        -0.96420E-02
        -0.73890E-02
        -0.43152E-02
         0.46796E-02
         0.55771E-02
        -0.63003E-03
         0.84461E-03
         0.89630E-02
         0.77754E-02
         0.49967E-01
         0.50431E-01
         0.45394E-01
         0.37502E-01
         0.27834E-01
         0.12820E-01
        -0.32592E-02
        -0.10474E-01
        -0.13463E-01
        -0.24866E-01
        -0.44346E-01
        -0.52494E-01
        -0.43958E-01
        -0.41827E-01
        -0.46231E-01
        -0.47722E-01
        -0.43503E-01
        -0.41120E-01
        -0.20786E-01
         0.54610E-02
         0.11851E-01
         0.12085E-01
         0.21365E-01
         0.37063E-01
         0.47531E-01
         0.47421E-01
        -0.29752E-02
         0.64429E-03
        -0.11549E-02
        -0.33230E-02
         0.66278E-02
         0.56663E-02
         0.18744E-02
        -0.34893E-02
        -0.17086E-02
        -0.34167E-02
        -0.44769E-03
         0.26811E-02
         0.85416E-02
        -0.61913E-02
        -0.66417E-02
         0.57996E-02
         0.32897E-02
        -0.17961E-02
        -0.12623E-02
        -0.21698E-02
        -0.13262E-01
        -0.12635E-01
        -0.12493E-01
        -0.30246E-02
         0.17968E-02
         0.11991E-02
        -0.62837E-02
         0.56417E-03
        -0.23638E-02
        -0.28945E-02
         0.44837E-02
         0.28197E-02
        -0.26059E-02
        -0.24536E-02
         0.12139E-01
         0.65929E-02
         0.75764E-02
        -0.76496E-02
        -0.14635E-02
        -0.38219E-02
        -0.13430E-01
        -0.13814E-01
        -0.13391E-01
        -0.96420E-02
        -0.73869E-02
        -0.43137E-02
         0.46784E-02
         0.55789E-02
        -0.62363E-03
         0.84273E-03
         0.89581E-02
         0.77639E-02
         0.49950E-01
         0.50418E-01
         0.45389E-01
         0.37502E-01
         0.27825E-01
         0.12816E-01
        -0.32625E-02
        -0.10480E-01
        -0.13452E-01
        -0.24855E-01
        -0.44338E-01
        -0.52500E-01
        -0.43958E-01
        -0.41826E-01
        -0.46239E-01
        -0.47737E-01
        -0.43513E-01
        -0.41127E-01
        -0.20780E-01
         0.54626E-02
         0.11842E-01
         0.12081E-01
         0.21350E-01
         0.37041E-01
         0.47508E-01
         0.47400E-01
        -0.29798E-02
         0.64737E-03
        -0.11561E-02
        -0.33249E-02
         0.66217E-02
         0.56612E-02
         0.18852E-02
        -0.34795E-02
        -0.17095E-02
        -0.34120E-02
        -0.43367E-03
         0.26874E-02
         0.85469E-02
        -0.61753E-02
        -0.66376E-02
         0.58067E-02
         0.32968E-02
        -0.17909E-02
        -0.12617E-02
        -0.21663E-02
        -0.13262E-01
        -0.12634E-01
        -0.12494E-01
        -0.30250E-02
         0.18004E-02
         0.12016E-02
        -0.62838E-02
         0.54858E-03
        -0.23786E-02
        -0.28967E-02
         0.44905E-02
         0.28195E-02
        -0.25934E-02
        -0.24542E-02
         0.12146E-01
         0.65909E-02
         0.75746E-02
        -0.76604E-02
        -0.14766E-02
        -0.38333E-02
        -0.13437E-01
        -0.13822E-01
        -0.13394E-01
        -0.96420E-02
        -0.73847E-02
        -0.43120E-02
         0.46773E-02
         0.55808E-02
        -0.61731E-03
         0.84077E-03
         0.89536E-02
         0.77527E-02
         0.49932E-01
         0.50405E-01
         0.45385E-01
         0.37502E-01
         0.27817E-01
         0.12812E-01
        -0.32657E-02
        -0.10485E-01
        -0.13440E-01
        -0.24844E-01
        -0.44331E-01
        -0.52505E-01
        -0.43959E-01
        -0.41825E-01
        -0.46246E-01
        -0.47751E-01
        -0.43522E-01
        -0.41134E-01
        -0.20774E-01
         0.54643E-02
         0.11832E-01
         0.12076E-01
         0.21335E-01
         0.37018E-01
         0.47484E-01
         0.47378E-01
        -0.29946E-02
         0.65206E-03
        -0.11614E-02
        -0.33381E-02
         0.66367E-02
         0.56748E-02
         0.19011E-02
        -0.34827E-02
        -0.17163E-02
        -0.34197E-02
        -0.42288E-03
         0.27005E-02
         0.85784E-02
        -0.61814E-02
        -0.66555E-02
         0.58331E-02
         0.33148E-02
        -0.17922E-02
        -0.12651E-02
        -0.21696E-02
        -0.13303E-01
        -0.12674E-01
        -0.12533E-01
        -0.30355E-02
         0.18097E-02
         0.12078E-02
        -0.63057E-02
         0.53582E-03
        -0.24002E-02
        -0.29083E-02
         0.45124E-02
         0.28286E-02
        -0.25910E-02
        -0.24635E-02
         0.12191E-01
         0.66102E-02
         0.75971E-02
        -0.76959E-02
        -0.14935E-02
        -0.38564E-02
        -0.13488E-01
        -0.13874E-01
        -0.13439E-01
        -0.96718E-02
        -0.74057E-02
        -0.43232E-02
         0.46914E-02
         0.56015E-02
        -0.61374E-03
         0.84157E-03
         0.89778E-02
         0.77673E-02
         0.50050E-01
         0.50526E-01
         0.45503E-01
         0.37602E-01
         0.27884E-01
         0.12842E-01
        -0.32791E-02
        -0.10519E-01
        -0.13468E-01
        -0.24904E-01
        -0.44450E-01
        -0.52655E-01
        -0.44077E-01
        -0.41935E-01
        -0.46372E-01
        -0.47884E-01
        -0.43640E-01
        -0.41246E-01
        -0.20823E-01
         0.54818E-02
         0.11857E-01
         0.12103E-01
         0.21377E-01
         0.37096E-01
         0.47587E-01
         0.47481E-01
        -0.44464E-02
         0.97450E-03
        -0.17207E-02
        -0.49651E-02
         0.94762E-02
         0.81817E-02
         0.28326E-02
        -0.51341E-02
        -0.25403E-02
        -0.50327E-02
        -0.60859E-03
         0.37877E-02
         0.12215E-01
        -0.89739E-02
        -0.93772E-02
         0.86688E-02
         0.49122E-02
        -0.26608E-02
        -0.18531E-02
        -0.31846E-02
        -0.18934E-01
        -0.18269E-01
        -0.17891E-01
        -0.44826E-02
         0.26901E-02
         0.17998E-02
        -0.92358E-02
         0.78202E-03
        -0.35877E-02
        -0.43168E-02
         0.67090E-02
         0.41917E-02
        -0.38445E-02
        -0.36638E-02
         0.17085E-01
         0.95233E-02
         0.10950E-01
        -0.11099E-01
        -0.21918E-02
        -0.56645E-02
        -0.19518E-01
        -0.20230E-01
        -0.19585E-01
        -0.13907E-01
        -0.10611E-01
        -0.60151E-02
         0.66982E-02
         0.81068E-02
        -0.88664E-03
         0.12165E-02
         0.12669E-01
         0.11163E-01
         0.62098E-01
         0.62591E-01
         0.56392E-01
         0.46743E-01
         0.34628E-01
         0.15980E-01
        -0.41328E-02
        -0.13353E-01
        -0.17051E-01
        -0.31351E-01
        -0.56042E-01
        -0.66294E-01
        -0.56130E-01
        -0.53582E-01
        -0.58497E-01
        -0.59718E-01
        -0.54257E-01
        -0.50981E-01
        -0.25706E-01
         0.67812E-02
         0.14812E-01
         0.15189E-01
         0.26725E-01
         0.46541E-01
         0.59524E-01
         0.59180E-01
  
SCALARS                      strain_xy  double 1
LOOKUP_TABLE default
        -0.27221E-06
        -0.61945E-06
        -0.54172E-05
         0.19800E-06
        -0.96164E-20
         0.93978E-21
         0.14130E-19
         0.21524E-20
        -0.55980E-04
         0.24855E-04
         0.62896E-19
         0.49876E-19
         0.20026E-05
        -0.41479E-06
         0.55515E-20
        -0.16673E-20
         0.63317E-06
         0.10057E-04
         0.27638E-21
         0.42116E-20
        -0.73754E-05
        -0.45445E-04
        -0.46833E-04
         0.42825E-19
         0.34104E-19
        -0.49802E-19
        -0.47367E-05
        -0.37875E-04
         0.57663E-19
         0.88738E-19
        -0.16904E-05
         0.31460E-05
         0.27610E-06
        -0.30435E-20
         0.12007E-19
        -0.15357E-21
        -0.14570E-04
        -0.64256E-05
         0.32133E-19
         0.26619E-19
        -0.27976E-04
        -0.24231E-04
         0.54779E-19
         0.36917E-19
        -0.28061E-04
        -0.52268E-05
        -0.19955E-20
         0.14857E-19
         0.67183E-05
         0.43907E-20
        -0.17759E-05
        -0.98991E-22
         0.39237E-06
         0.33187E-19
         0.19162E-05
         0.51068E-20
         0.27349E-04
        -0.13975E-05
         0.11868E-21
        -0.58224E-21
         0.21871E-06
        -0.21687E-04
         0.32342E-20
         0.82957E-20
         0.95511E-06
        -0.65666E-21
         0.13484E-04
         0.52618E-20
        -0.68669E-04
        -0.24800E-04
         0.40643E-20
        -0.38920E-19
        -0.55145E-04
        -0.62229E-19
         0.19561E-04
         0.41680E-19
         0.61288E-04
         0.62097E-20
         0.10746E-03
         0.80750E-20
         0.21311E-03
         0.11873E-03
         0.18984E-19
        -0.48138E-20
         0.15314E-04
        -0.57927E-21
        -0.53139E-04
        -0.52246E-19
        -0.76815E-04
        -0.58337E-19
        -0.16646E-03
        -0.75247E-04
        -0.36928E-19
         0.40989E-19
         0.12223E-04
         0.37322E-19
         0.30324E-04
         0.16032E-19
         0.70391E-04
         0.42569E-19
         0.17276E-03
         0.99186E-04
         0.91277E-19
         0.45638E-19
        -0.27357E-03
         0.11675E-03
        -0.59304E-19
         0.72625E-19
        -0.66390E-03
        -0.16854E-18
        -0.88451E-03
        -0.18424E-18
        -0.76111E-03
        -0.12504E-18
        -0.61894E-03
        -0.13263E-19
        -0.25791E-03
         0.37384E-19
         0.32989E-03
         0.23146E-19
         0.73904E-03
         0.21159E-19
         0.97802E-03
         0.45398E-19
         0.99033E-03
         0.55197E-19
         0.86059E-03
         0.21747E-19
         0.48715E-03
         0.13258E-19
        -0.34510E-04
         0.21671E-19
        -0.43318E-03
         0.14526E-19
        -0.71350E-03
        -0.51803E-19
        -0.97319E-03
        -0.13593E-18
        -0.82739E-03
        -0.17250E-18
        -0.51164E-03
        -0.10676E-18
        -0.55320E-04
         0.20368E-19
         0.38148E-03
         0.43169E-19
         0.55748E-03
         0.68797E-19
         0.66997E-03
         0.13548E-18
         0.60065E-03
         0.17580E-18
         0.56669E-03
         0.12490E-18
         0.47629E-03
         0.98774E-19
        -0.51168E-05
         0.14074E-05
         0.14374E-05
        -0.87408E-06
         0.11737E-04
         0.94212E-05
         0.15449E-06
        -0.34353E-05
        -0.14678E-05
        -0.39187E-05
        -0.11735E-05
        -0.21789E-04
        -0.30706E-04
         0.11378E-05
         0.17602E-04
        -0.22005E-05
         0.16446E-05
         0.48371E-06
         0.10232E-05
        -0.82609E-06
         0.41901E-05
         0.36544E-05
        -0.11225E-04
         0.29303E-06
         0.24889E-05
         0.27442E-06
         0.46575E-07
         0.91147E-07
         0.11479E-05
        -0.37279E-05
        -0.19226E-05
         0.42030E-06
         0.65897E-06
        -0.52818E-07
        -0.29180E-05
        -0.99055E-05
        -0.19936E-04
         0.30471E-04
         0.15878E-04
         0.29143E-04
         0.57094E-04
         0.12866E-04
        -0.10109E-04
        -0.20459E-04
        -0.24598E-04
        -0.32192E-04
         0.38871E-05
         0.11379E-04
         0.35165E-05
         0.12056E-04
         0.38443E-04
         0.14452E-04
        -0.13727E-03
         0.17021E-03
        -0.41345E-03
        -0.48404E-03
        -0.46023E-03
        -0.28137E-03
         0.16946E-04
         0.18457E-03
         0.26717E-03
         0.43408E-03
         0.45882E-03
         0.23900E-03
         0.95249E-04
         0.40094E-04
        -0.64445E-04
        -0.25345E-03
        -0.42342E-03
        -0.48840E-03
        -0.30787E-03
         0.55469E-04
         0.19880E-03
         0.20943E-03
         0.33051E-03
         0.37036E-03
         0.27693E-03
         0.25429E-03
        -0.12226E-04
         0.15829E-05
        -0.27886E-05
        -0.19259E-05
         0.21632E-04
         0.83143E-05
         0.19209E-05
        -0.14660E-04
        -0.44171E-05
        -0.13108E-04
         0.14000E-05
        -0.22107E-04
        -0.43085E-04
         0.47480E-05
         0.56917E-04
        -0.91090E-05
         0.15368E-05
         0.87875E-06
         0.26655E-05
         0.90501E-06
         0.23941E-04
         0.16199E-04
        -0.92675E-05
         0.18919E-05
         0.43435E-05
        -0.72337E-06
         0.98441E-06
        -0.24298E-06
        -0.97827E-06
        -0.72205E-05
        -0.75422E-05
        -0.12856E-05
         0.31618E-05
         0.23694E-05
         0.55663E-05
        -0.93646E-05
        -0.20509E-04
         0.47969E-04
         0.70821E-05
         0.18095E-04
         0.48840E-04
        -0.12414E-04
        -0.24994E-04
        -0.22574E-04
        -0.22384E-04
        -0.26755E-04
         0.16825E-04
         0.13135E-04
        -0.21822E-05
         0.31018E-05
         0.32945E-04
         0.21774E-05
        -0.22827E-03
         0.32905E-03
        -0.68742E-03
        -0.73271E-03
        -0.70566E-03
        -0.39004E-03
         0.94851E-04
         0.26835E-03
         0.33878E-03
         0.61446E-03
         0.68536E-03
         0.26647E-03
         0.89027E-04
         0.72573E-04
        -0.37033E-04
        -0.32355E-03
        -0.59163E-03
        -0.77892E-03
        -0.51649E-03
         0.14886E-03
         0.28908E-03
         0.27688E-03
         0.49082E-03
         0.59835E-03
         0.39787E-03
         0.37554E-03
        -0.12257E-04
         0.15891E-05
        -0.27953E-05
        -0.19413E-05
         0.21614E-04
         0.83131E-05
         0.19355E-05
        -0.14647E-04
        -0.44299E-05
        -0.13146E-04
         0.13725E-05
        -0.22159E-04
        -0.43122E-04
         0.47364E-05
         0.56959E-04
        -0.91190E-05
         0.15541E-05
         0.87501E-06
         0.26660E-05
         0.89838E-06
         0.23998E-04
         0.16213E-04
        -0.92690E-05
         0.18911E-05
         0.43730E-05
        -0.72326E-06
         0.99630E-06
        -0.23975E-06
        -0.97865E-06
        -0.72404E-05
        -0.75545E-05
        -0.12826E-05
         0.31556E-05
         0.23743E-05
         0.55168E-05
        -0.93664E-05
        -0.20502E-04
         0.48120E-04
         0.71654E-05
         0.18173E-04
         0.48908E-04
        -0.12388E-04
        -0.25021E-04
        -0.22582E-04
        -0.22377E-04
        -0.26741E-04
         0.16824E-04
         0.13132E-04
        -0.21634E-05
         0.30871E-05
         0.32909E-04
         0.21413E-05
        -0.22797E-03
         0.32899E-03
        -0.68748E-03
        -0.73272E-03
        -0.70536E-03
        -0.38979E-03
         0.94919E-04
         0.26844E-03
         0.33842E-03
         0.61405E-03
         0.68511E-03
         0.26660E-03
         0.89011E-04
         0.72718E-04
        -0.36736E-04
        -0.32379E-03
        -0.59200E-03
        -0.77926E-03
        -0.51634E-03
         0.14892E-03
         0.28885E-03
         0.27676E-03
         0.49034E-03
         0.59756E-03
         0.39723E-03
         0.37488E-03
        -0.12288E-04
         0.15952E-05
        -0.28019E-05
        -0.19569E-05
         0.21595E-04
         0.83125E-05
         0.19502E-05
        -0.14635E-04
        -0.44424E-05
        -0.13184E-04
         0.13450E-05
        -0.22211E-04
        -0.43159E-04
         0.47242E-05
         0.57001E-04
        -0.91293E-05
         0.15718E-05
         0.87123E-06
         0.26665E-05
         0.89174E-06
         0.24055E-04
         0.16226E-04
        -0.92720E-05
         0.18900E-05
         0.44030E-05
        -0.72306E-06
         0.10090E-05
        -0.23660E-06
        -0.97838E-06
        -0.72597E-05
        -0.75670E-05
        -0.12791E-05
         0.31493E-05
         0.23792E-05
         0.54669E-05
        -0.93688E-05
        -0.20494E-04
         0.48271E-04
         0.72490E-05
         0.18252E-04
         0.48979E-04
        -0.12358E-04
        -0.25047E-04
        -0.22594E-04
        -0.22372E-04
        -0.26729E-04
         0.16822E-04
         0.13128E-04
        -0.21443E-05
         0.30720E-05
         0.32875E-04
         0.21054E-05
        -0.22768E-03
         0.32892E-03
        -0.68755E-03
        -0.73273E-03
        -0.70506E-03
        -0.38954E-03
         0.94987E-04
         0.26853E-03
         0.33807E-03
         0.61364E-03
         0.68486E-03
         0.26674E-03
         0.88998E-04
         0.72863E-04
        -0.36437E-04
        -0.32404E-03
        -0.59239E-03
        -0.77960E-03
        -0.51618E-03
         0.14898E-03
         0.28862E-03
         0.27664E-03
         0.48985E-03
         0.59677E-03
         0.39660E-03
         0.37422E-03
        -0.12319E-04
         0.16014E-05
        -0.28085E-05
        -0.19726E-05
         0.21576E-04
         0.83115E-05
         0.19650E-05
        -0.14622E-04
        -0.44545E-05
        -0.13219E-04
         0.13175E-05
        -0.22264E-04
        -0.43197E-04
         0.47127E-05
         0.57043E-04
        -0.91406E-05
         0.15899E-05
         0.86742E-06
         0.26673E-05
         0.88473E-06
         0.24115E-04
         0.16239E-04
        -0.92800E-05
         0.18883E-05
         0.44345E-05
        -0.72268E-06
         0.10221E-05
        -0.23398E-06
        -0.97626E-06
        -0.72773E-05
        -0.75798E-05
        -0.12746E-05
         0.31428E-05
         0.23841E-05
         0.54172E-05
        -0.93707E-05
        -0.20486E-04
         0.48423E-04
         0.73330E-05
         0.18332E-04
         0.49057E-04
        -0.12319E-04
        -0.25070E-04
        -0.22614E-04
        -0.22370E-04
        -0.26716E-04
         0.16823E-04
         0.13125E-04
        -0.21251E-05
         0.30570E-05
         0.32839E-04
         0.20697E-05
        -0.22739E-03
         0.32885E-03
        -0.68762E-03
        -0.73274E-03
        -0.70476E-03
        -0.38929E-03
         0.95057E-04
         0.26861E-03
         0.33771E-03
         0.61322E-03
         0.68463E-03
         0.26691E-03
         0.88994E-04
         0.73007E-04
        -0.36137E-04
        -0.32432E-03
        -0.59283E-03
        -0.77996E-03
        -0.51603E-03
         0.14904E-03
         0.28839E-03
         0.27652E-03
         0.48937E-03
         0.59598E-03
         0.39597E-03
         0.37356E-03
        -0.12349E-04
         0.16077E-05
        -0.28151E-05
        -0.19882E-05
         0.21558E-04
         0.83104E-05
         0.19797E-05
        -0.14608E-04
        -0.44659E-05
        -0.13251E-04
         0.12900E-05
        -0.22316E-04
        -0.43234E-04
         0.47012E-05
         0.57085E-04
        -0.91528E-05
         0.16085E-05
         0.86360E-06
         0.26679E-05
         0.87744E-06
         0.24176E-04
         0.16250E-04
        -0.92926E-05
         0.18857E-05
         0.44674E-05
        -0.72201E-06
         0.10365E-05
        -0.23184E-06
        -0.97219E-06
        -0.72933E-05
        -0.75928E-05
        -0.12689E-05
         0.31362E-05
         0.23890E-05
         0.53671E-05
        -0.93726E-05
        -0.20479E-04
         0.48575E-04
         0.74173E-05
         0.18415E-04
         0.49142E-04
        -0.12270E-04
        -0.25090E-04
        -0.22643E-04
        -0.22372E-04
        -0.26704E-04
         0.16824E-04
         0.13122E-04
        -0.21062E-05
         0.30421E-05
         0.32805E-04
         0.20338E-05
        -0.22710E-03
         0.32879E-03
        -0.68768E-03
        -0.73275E-03
        -0.70445E-03
        -0.38904E-03
         0.95123E-04
         0.26870E-03
         0.33735E-03
         0.61280E-03
         0.68440E-03
         0.26710E-03
         0.88998E-04
         0.73148E-04
        -0.35836E-04
        -0.32462E-03
        -0.59332E-03
        -0.78034E-03
        -0.51588E-03
         0.14909E-03
         0.28816E-03
         0.27640E-03
         0.48888E-03
         0.59519E-03
         0.39534E-03
         0.37290E-03
        -0.12379E-04
         0.16144E-05
        -0.28211E-05
        -0.20039E-05
         0.21540E-04
         0.83093E-05
         0.19943E-05
        -0.14592E-04
        -0.44774E-05
        -0.13281E-04
         0.12625E-05
        -0.22368E-04
        -0.43272E-04
         0.46903E-05
         0.57126E-04
        -0.91654E-05
         0.16275E-05
         0.85981E-06
         0.26684E-05
         0.87012E-06
         0.24238E-04
         0.16261E-04
        -0.93075E-05
         0.18830E-05
         0.44999E-05
        -0.72121E-06
         0.10521E-05
        -0.22987E-06
        -0.96725E-06
        -0.73093E-05
        -0.76053E-05
        -0.12625E-05
         0.31296E-05
         0.23940E-05
         0.53167E-05
        -0.93756E-05
        -0.20472E-04
         0.48728E-04
         0.75021E-05
         0.18498E-04
         0.49229E-04
        -0.12217E-04
        -0.25109E-04
        -0.22674E-04
        -0.22378E-04
        -0.26695E-04
         0.16826E-04
         0.13121E-04
        -0.20869E-05
         0.30282E-05
         0.32771E-04
         0.19982E-05
        -0.22681E-03
         0.32872E-03
        -0.68774E-03
        -0.73276E-03
        -0.70415E-03
        -0.38879E-03
         0.95188E-04
         0.26878E-03
         0.33700E-03
         0.61239E-03
         0.68419E-03
         0.26731E-03
         0.89008E-04
         0.73290E-04
        -0.35535E-04
        -0.32493E-03
        -0.59383E-03
        -0.78073E-03
        -0.51573E-03
         0.14915E-03
         0.28792E-03
         0.27628E-03
         0.48840E-03
         0.59440E-03
         0.39471E-03
         0.37224E-03
        -0.12406E-04
         0.16221E-05
        -0.28261E-05
        -0.20200E-05
         0.21522E-04
         0.83086E-05
         0.20086E-05
        -0.14574E-04
        -0.44891E-05
        -0.13311E-04
         0.12350E-05
        -0.22421E-04
        -0.43313E-04
         0.46822E-05
         0.57168E-04
        -0.91785E-05
         0.16467E-05
         0.85601E-06
         0.26693E-05
         0.86285E-06
         0.24300E-04
         0.16273E-04
        -0.93225E-05
         0.18804E-05
         0.45304E-05
        -0.72016E-06
         0.10704E-05
        -0.22785E-06
        -0.96200E-06
        -0.73258E-05
        -0.76168E-05
        -0.12554E-05
         0.31228E-05
         0.23990E-05
         0.52661E-05
        -0.93793E-05
        -0.20467E-04
         0.48881E-04
         0.75880E-05
         0.18582E-04
         0.49318E-04
        -0.12163E-04
        -0.25127E-04
        -0.22707E-04
        -0.22385E-04
        -0.26688E-04
         0.16829E-04
         0.13123E-04
        -0.20667E-05
         0.30168E-05
         0.32739E-04
         0.19622E-05
        -0.22652E-03
         0.32865E-03
        -0.68780E-03
        -0.73277E-03
        -0.70385E-03
        -0.38854E-03
         0.95252E-04
         0.26886E-03
         0.33664E-03
         0.61197E-03
         0.68396E-03
         0.26752E-03
         0.89017E-04
         0.73432E-04
        -0.35234E-04
        -0.32524E-03
        -0.59435E-03
        -0.78111E-03
        -0.51557E-03
         0.14919E-03
         0.28769E-03
         0.27617E-03
         0.48792E-03
         0.59361E-03
         0.39408E-03
         0.37158E-03
        -0.12432E-04
         0.16302E-05
        -0.28305E-05
        -0.20363E-05
         0.21505E-04
         0.83075E-05
         0.20227E-05
        -0.14554E-04
        -0.45011E-05
        -0.13339E-04
         0.12075E-05
        -0.22474E-04
        -0.43354E-04
         0.46746E-05
         0.57210E-04
        -0.91918E-05
         0.16661E-05
         0.85216E-06
         0.26700E-05
         0.85569E-06
         0.24362E-04
         0.16284E-04
        -0.93371E-05
         0.18778E-05
         0.45600E-05
        -0.71901E-06
         0.10894E-05
        -0.22576E-06
        -0.95664E-06
        -0.73426E-05
        -0.76279E-05
        -0.12478E-05
         0.31159E-05
         0.24039E-05
         0.52152E-05
        -0.93840E-05
        -0.20464E-04
         0.49036E-04
         0.76742E-05
         0.18667E-04
         0.49408E-04
        -0.12109E-04
        -0.25146E-04
        -0.22740E-04
        -0.22394E-04
        -0.26684E-04
         0.16833E-04
         0.13127E-04
        -0.20462E-05
         0.30064E-05
         0.32709E-04
         0.19264E-05
        -0.22623E-03
         0.32859E-03
        -0.68786E-03
        -0.73277E-03
        -0.70354E-03
        -0.38829E-03
         0.95317E-04
         0.26894E-03
         0.33629E-03
         0.61156E-03
         0.68374E-03
         0.26773E-03
         0.89026E-04
         0.73577E-04
        -0.34933E-04
        -0.32555E-03
        -0.59486E-03
        -0.78148E-03
        -0.51540E-03
         0.14922E-03
         0.28745E-03
         0.27606E-03
         0.48745E-03
         0.59283E-03
         0.39345E-03
         0.37092E-03
        -0.12457E-04
         0.16384E-05
        -0.28349E-05
        -0.20526E-05
         0.21487E-04
         0.83064E-05
         0.20367E-05
        -0.14533E-04
        -0.45132E-05
        -0.13368E-04
         0.11799E-05
        -0.22527E-04
        -0.43396E-04
         0.46677E-05
         0.57252E-04
        -0.92050E-05
         0.16857E-05
         0.84833E-06
         0.26706E-05
         0.84845E-06
         0.24424E-04
         0.16296E-04
        -0.93520E-05
         0.18753E-05
         0.45895E-05
        -0.71785E-06
         0.11090E-05
        -0.22356E-06
        -0.95112E-06
        -0.73594E-05
        -0.76389E-05
        -0.12404E-05
         0.31089E-05
         0.24089E-05
         0.51639E-05
        -0.93878E-05
        -0.20460E-04
         0.49191E-04
         0.77610E-05
         0.18751E-04
         0.49498E-04
        -0.12055E-04
        -0.25164E-04
        -0.22773E-04
        -0.22403E-04
        -0.26681E-04
         0.16836E-04
         0.13130E-04
        -0.20257E-05
         0.29964E-05
         0.32679E-04
         0.18905E-05
        -0.22593E-03
         0.32852E-03
        -0.68791E-03
        -0.73278E-03
        -0.70324E-03
        -0.38803E-03
         0.95380E-04
         0.26902E-03
         0.33594E-03
         0.61114E-03
         0.68352E-03
         0.26793E-03
         0.89037E-04
         0.73723E-04
        -0.34632E-04
        -0.32586E-03
        -0.59537E-03
        -0.78185E-03
        -0.51524E-03
         0.14926E-03
         0.28721E-03
         0.27595E-03
         0.48697E-03
         0.59204E-03
         0.39282E-03
         0.37026E-03
        -0.12483E-04
         0.16467E-05
        -0.28392E-05
        -0.20689E-05
         0.21470E-04
         0.83052E-05
         0.20508E-05
        -0.14513E-04
        -0.45253E-05
        -0.13396E-04
         0.11524E-05
        -0.22580E-04
        -0.43438E-04
         0.46601E-05
         0.57293E-04
        -0.92182E-05
         0.17055E-05
         0.84454E-06
         0.26711E-05
         0.84123E-06
         0.24486E-04
         0.16307E-04
        -0.93660E-05
         0.18728E-05
         0.46192E-05
        -0.71669E-06
         0.11280E-05
        -0.22126E-06
        -0.94546E-06
        -0.73761E-05
        -0.76498E-05
        -0.12328E-05
         0.31018E-05
         0.24139E-05
         0.51125E-05
        -0.93926E-05
        -0.20457E-04
         0.49346E-04
         0.78482E-05
         0.18837E-04
         0.49587E-04
        -0.12001E-04
        -0.25182E-04
        -0.22806E-04
        -0.22411E-04
        -0.26676E-04
         0.16839E-04
         0.13134E-04
        -0.20053E-05
         0.29857E-05
         0.32648E-04
         0.18549E-05
        -0.22564E-03
         0.32845E-03
        -0.68796E-03
        -0.73279E-03
        -0.70294E-03
        -0.38778E-03
         0.95443E-04
         0.26910E-03
         0.33558E-03
         0.61072E-03
         0.68330E-03
         0.26814E-03
         0.89048E-04
         0.73869E-04
        -0.34332E-04
        -0.32618E-03
        -0.59588E-03
        -0.78222E-03
        -0.51507E-03
         0.14930E-03
         0.28697E-03
         0.27583E-03
         0.48649E-03
         0.59126E-03
         0.39220E-03
         0.36960E-03
        -0.12509E-04
         0.16548E-05
        -0.28437E-05
        -0.20852E-05
         0.21453E-04
         0.83043E-05
         0.20650E-05
        -0.14492E-04
        -0.45374E-05
        -0.13425E-04
         0.11248E-05
        -0.22633E-04
        -0.43480E-04
         0.46529E-05
         0.57335E-04
        -0.92314E-05
         0.17253E-05
         0.84075E-06
         0.26720E-05
         0.83394E-06
         0.24548E-04
         0.16318E-04
        -0.93808E-05
         0.18704E-05
         0.46487E-05
        -0.71550E-06
         0.11474E-05
        -0.21883E-06
        -0.93964E-06
        -0.73928E-05
        -0.76608E-05
        -0.12254E-05
         0.30948E-05
         0.24188E-05
         0.50609E-05
        -0.93968E-05
        -0.20454E-04
         0.49502E-04
         0.79359E-05
         0.18921E-04
         0.49677E-04
        -0.11947E-04
        -0.25201E-04
        -0.22839E-04
        -0.22420E-04
        -0.26672E-04
         0.16843E-04
         0.13137E-04
        -0.19848E-05
         0.29754E-05
         0.32619E-04
         0.18193E-05
        -0.22535E-03
         0.32839E-03
        -0.68801E-03
        -0.73279E-03
        -0.70263E-03
        -0.38753E-03
         0.95503E-04
         0.26918E-03
         0.33523E-03
         0.61030E-03
         0.68307E-03
         0.26834E-03
         0.89058E-04
         0.74013E-04
        -0.34030E-04
        -0.32649E-03
        -0.59640E-03
        -0.78259E-03
        -0.51491E-03
         0.14933E-03
         0.28673E-03
         0.27572E-03
         0.48601E-03
         0.59047E-03
         0.39158E-03
         0.36895E-03
        -0.12535E-04
         0.16630E-05
        -0.28480E-05
        -0.21016E-05
         0.21435E-04
         0.83032E-05
         0.20791E-05
        -0.14472E-04
        -0.45495E-05
        -0.13453E-04
         0.10972E-05
        -0.22687E-04
        -0.43521E-04
         0.46458E-05
         0.57375E-04
        -0.92447E-05
         0.17452E-05
         0.83693E-06
         0.26727E-05
         0.82678E-06
         0.24610E-04
         0.16329E-04
        -0.93956E-05
         0.18680E-05
         0.46783E-05
        -0.71436E-06
         0.11663E-05
        -0.21631E-06
        -0.93359E-06
        -0.74097E-05
        -0.76718E-05
        -0.12179E-05
         0.30875E-05
         0.24238E-05
         0.50090E-05
        -0.94011E-05
        -0.20450E-04
         0.49658E-04
         0.80241E-05
         0.19007E-04
         0.49767E-04
        -0.11894E-04
        -0.25219E-04
        -0.22871E-04
        -0.22429E-04
        -0.26669E-04
         0.16846E-04
         0.13141E-04
        -0.19644E-05
         0.29654E-05
         0.32589E-04
         0.17838E-05
        -0.22505E-03
         0.32832E-03
        -0.68806E-03
        -0.73280E-03
        -0.70233E-03
        -0.38728E-03
         0.95564E-04
         0.26926E-03
         0.33488E-03
         0.60988E-03
         0.68285E-03
         0.26855E-03
         0.89068E-04
         0.74157E-04
        -0.33727E-04
        -0.32680E-03
        -0.59691E-03
        -0.78296E-03
        -0.51474E-03
         0.14937E-03
         0.28649E-03
         0.27561E-03
         0.48554E-03
         0.58969E-03
         0.39096E-03
         0.36829E-03
        -0.12560E-04
         0.16712E-05
        -0.28523E-05
        -0.21180E-05
         0.21418E-04
         0.83020E-05
         0.20933E-05
        -0.14451E-04
        -0.45615E-05
        -0.13480E-04
         0.10696E-05
        -0.22740E-04
        -0.43564E-04
         0.46380E-05
         0.57416E-04
        -0.92578E-05
         0.17652E-05
         0.83309E-06
         0.26734E-05
         0.81963E-06
         0.24672E-04
         0.16341E-04
        -0.94100E-05
         0.18656E-05
         0.47078E-05
        -0.71314E-06
         0.11858E-05
        -0.21366E-06
        -0.92746E-06
        -0.74263E-05
        -0.76827E-05
        -0.12103E-05
         0.30801E-05
         0.24288E-05
         0.49570E-05
        -0.94059E-05
        -0.20447E-04
         0.49813E-04
         0.81128E-05
         0.19092E-04
         0.49858E-04
        -0.11840E-04
        -0.25237E-04
        -0.22905E-04
        -0.22438E-04
        -0.26663E-04
         0.16849E-04
         0.13144E-04
        -0.19439E-05
         0.29551E-05
         0.32557E-04
         0.17484E-05
        -0.22476E-03
         0.32825E-03
        -0.68811E-03
        -0.73280E-03
        -0.70203E-03
        -0.38703E-03
         0.95627E-04
         0.26934E-03
         0.33453E-03
         0.60946E-03
         0.68262E-03
         0.26875E-03
         0.89078E-04
         0.74302E-04
        -0.33426E-04
        -0.32711E-03
        -0.59742E-03
        -0.78333E-03
        -0.51458E-03
         0.14940E-03
         0.28625E-03
         0.27549E-03
         0.48506E-03
         0.58891E-03
         0.39035E-03
         0.36764E-03
        -0.12586E-04
         0.16793E-05
        -0.28566E-05
        -0.21344E-05
         0.21401E-04
         0.83008E-05
         0.21074E-05
        -0.14430E-04
        -0.45736E-05
        -0.13508E-04
         0.10420E-05
        -0.22792E-04
        -0.43605E-04
         0.46307E-05
         0.57457E-04
        -0.92709E-05
         0.17853E-05
         0.82931E-06
         0.26743E-05
         0.81253E-06
         0.24733E-04
         0.16352E-04
        -0.94247E-05
         0.18632E-05
         0.47374E-05
        -0.71192E-06
         0.12048E-05
        -0.21093E-06
        -0.92122E-06
        -0.74429E-05
        -0.76935E-05
        -0.12028E-05
         0.30727E-05
         0.24338E-05
         0.49047E-05
        -0.94102E-05
        -0.20443E-04
         0.49969E-04
         0.82018E-05
         0.19178E-04
         0.49947E-04
        -0.11786E-04
        -0.25255E-04
        -0.22938E-04
        -0.22447E-04
        -0.26659E-04
         0.16853E-04
         0.13148E-04
        -0.19234E-05
         0.29448E-05
         0.32528E-04
         0.17134E-05
        -0.22447E-03
         0.32818E-03
        -0.68816E-03
        -0.73281E-03
        -0.70173E-03
        -0.38677E-03
         0.95688E-04
         0.26941E-03
         0.33417E-03
         0.60903E-03
         0.68240E-03
         0.26896E-03
         0.89088E-04
         0.74447E-04
        -0.33125E-04
        -0.32742E-03
        -0.59794E-03
        -0.78370E-03
        -0.51442E-03
         0.14944E-03
         0.28601E-03
         0.27538E-03
         0.48458E-03
         0.58813E-03
         0.38973E-03
         0.36698E-03
        -0.12612E-04
         0.16874E-05
        -0.28609E-05
        -0.21509E-05
         0.21383E-04
         0.82996E-05
         0.21216E-05
        -0.14409E-04
        -0.45858E-05
        -0.13536E-04
         0.10144E-05
        -0.22847E-04
        -0.43647E-04
         0.46228E-05
         0.57497E-04
        -0.92841E-05
         0.18056E-05
         0.82554E-06
         0.26750E-05
         0.80535E-06
         0.24795E-04
         0.16362E-04
        -0.94389E-05
         0.18609E-05
         0.47670E-05
        -0.71068E-06
         0.12241E-05
        -0.20806E-06
        -0.91485E-06
        -0.74595E-05
        -0.77044E-05
        -0.11952E-05
         0.30652E-05
         0.24388E-05
         0.48523E-05
        -0.94150E-05
        -0.20440E-04
         0.50124E-04
         0.82912E-05
         0.19264E-04
         0.50037E-04
        -0.11732E-04
        -0.25274E-04
        -0.22970E-04
        -0.22456E-04
        -0.26656E-04
         0.16856E-04
         0.13152E-04
        -0.19027E-05
         0.29347E-05
         0.32498E-04
         0.16783E-05
        -0.22418E-03
         0.32811E-03
        -0.68821E-03
        -0.73282E-03
        -0.70143E-03
        -0.38652E-03
         0.95746E-04
         0.26948E-03
         0.33382E-03
         0.60861E-03
         0.68218E-03
         0.26916E-03
         0.89097E-04
         0.74592E-04
        -0.32823E-04
        -0.32773E-03
        -0.59846E-03
        -0.78407E-03
        -0.51425E-03
         0.14947E-03
         0.28577E-03
         0.27527E-03
         0.48411E-03
         0.58735E-03
         0.38912E-03
         0.36632E-03
        -0.12638E-04
         0.16956E-05
        -0.28652E-05
        -0.21673E-05
         0.21366E-04
         0.82986E-05
         0.21357E-05
        -0.14387E-04
        -0.45979E-05
        -0.13563E-04
         0.98676E-06
        -0.22900E-04
        -0.43689E-04
         0.46154E-05
         0.57537E-04
        -0.92973E-05
         0.18260E-05
         0.82178E-06
         0.26757E-05
         0.79826E-06
         0.24857E-04
         0.16373E-04
        -0.94535E-05
         0.18586E-05
         0.47965E-05
        -0.70944E-06
         0.12429E-05
        -0.20508E-06
        -0.90836E-06
        -0.74761E-05
        -0.77152E-05
        -0.11877E-05
         0.30576E-05
         0.24439E-05
         0.47995E-05
        -0.94192E-05
        -0.20436E-04
         0.50281E-04
         0.83813E-05
         0.19349E-04
         0.50127E-04
        -0.11678E-04
        -0.25292E-04
        -0.23002E-04
        -0.22465E-04
        -0.26651E-04
         0.16859E-04
         0.13155E-04
        -0.18823E-05
         0.29244E-05
         0.32468E-04
         0.16432E-05
        -0.22388E-03
         0.32804E-03
        -0.68825E-03
        -0.73282E-03
        -0.70113E-03
        -0.38627E-03
         0.95802E-04
         0.26956E-03
         0.33347E-03
         0.60819E-03
         0.68196E-03
         0.26937E-03
         0.89106E-04
         0.74735E-04
        -0.32521E-04
        -0.32804E-03
        -0.59897E-03
        -0.78443E-03
        -0.51409E-03
         0.14951E-03
         0.28553E-03
         0.27516E-03
         0.48363E-03
         0.58657E-03
         0.38850E-03
         0.36567E-03
        -0.12664E-04
         0.17037E-05
        -0.28696E-05
        -0.21837E-05
         0.21349E-04
         0.82973E-05
         0.21499E-05
        -0.14366E-04
        -0.46100E-05
        -0.13589E-04
         0.95906E-06
        -0.22953E-04
        -0.43731E-04
         0.46073E-05
         0.57576E-04
        -0.93105E-05
         0.18466E-05
         0.81801E-06
         0.26765E-05
         0.79122E-06
         0.24919E-04
         0.16383E-04
        -0.94679E-05
         0.18564E-05
         0.48257E-05
        -0.70815E-06
         0.12623E-05
        -0.20195E-06
        -0.90163E-06
        -0.74924E-05
        -0.77261E-05
        -0.11802E-05
         0.30500E-05
         0.24489E-05
         0.47466E-05
        -0.94235E-05
        -0.20432E-04
         0.50437E-04
         0.84724E-05
         0.19435E-04
         0.50216E-04
        -0.11624E-04
        -0.25310E-04
        -0.23035E-04
        -0.22474E-04
        -0.26647E-04
         0.16863E-04
         0.13159E-04
        -0.18620E-05
         0.29141E-05
         0.32437E-04
         0.16085E-05
        -0.22359E-03
         0.32797E-03
        -0.68830E-03
        -0.73283E-03
        -0.70082E-03
        -0.38601E-03
         0.95857E-04
         0.26963E-03
         0.33312E-03
         0.60776E-03
         0.68174E-03
         0.26958E-03
         0.89113E-04
         0.74877E-04
        -0.32220E-04
        -0.32835E-03
        -0.59949E-03
        -0.78480E-03
        -0.51392E-03
         0.14954E-03
         0.28529E-03
         0.27505E-03
         0.48315E-03
         0.58579E-03
         0.38789E-03
         0.36502E-03
        -0.12690E-04
         0.17118E-05
        -0.28738E-05
        -0.22003E-05
         0.21332E-04
         0.82960E-05
         0.21640E-05
        -0.14344E-04
        -0.46218E-05
        -0.13614E-04
         0.93134E-06
        -0.23007E-04
        -0.43772E-04
         0.45996E-05
         0.57614E-04
        -0.93237E-05
         0.18674E-05
         0.81422E-06
         0.26776E-05
         0.78452E-06
         0.24980E-04
         0.16392E-04
        -0.94826E-05
         0.18540E-05
         0.48544E-05
        -0.70695E-06
         0.12813E-05
        -0.19859E-06
        -0.89482E-06
        -0.75085E-05
        -0.77369E-05
        -0.11725E-05
         0.30422E-05
         0.24540E-05
         0.46934E-05
        -0.94285E-05
        -0.20429E-04
         0.50593E-04
         0.85658E-05
         0.19519E-04
         0.50302E-04
        -0.11569E-04
        -0.25329E-04
        -0.23068E-04
        -0.22483E-04
        -0.26643E-04
         0.16866E-04
         0.13163E-04
        -0.18417E-05
         0.29038E-05
         0.32409E-04
         0.15738E-05
        -0.22329E-03
         0.32790E-03
        -0.68834E-03
        -0.73283E-03
        -0.70052E-03
        -0.38576E-03
         0.95913E-04
         0.26970E-03
         0.33277E-03
         0.60731E-03
         0.68153E-03
         0.26980E-03
         0.89115E-04
         0.75019E-04
        -0.31920E-04
        -0.32866E-03
        -0.60000E-03
        -0.78517E-03
        -0.51376E-03
         0.14957E-03
         0.28506E-03
         0.27493E-03
         0.48268E-03
         0.58501E-03
         0.38729E-03
         0.36436E-03
        -0.12715E-04
         0.17199E-05
        -0.28780E-05
        -0.22168E-05
         0.21314E-04
         0.82946E-05
         0.21782E-05
        -0.14322E-04
        -0.46333E-05
        -0.13637E-04
         0.90365E-06
        -0.23060E-04
        -0.43815E-04
         0.45918E-05
         0.57652E-04
        -0.93367E-05
         0.18885E-05
         0.81043E-06
         0.26784E-05
         0.77802E-06
         0.25042E-04
         0.16402E-04
        -0.94971E-05
         0.18517E-05
         0.48823E-05
        -0.70563E-06
         0.13010E-05
        -0.19496E-06
        -0.88788E-06
        -0.75237E-05
        -0.77477E-05
        -0.11650E-05
         0.30343E-05
         0.24591E-05
         0.46399E-05
        -0.94327E-05
        -0.20426E-04
         0.50748E-04
         0.86614E-05
         0.19603E-04
         0.50384E-04
        -0.11513E-04
        -0.25347E-04
        -0.23101E-04
        -0.22493E-04
        -0.26639E-04
         0.16869E-04
         0.13166E-04
        -0.18213E-05
         0.28937E-05
         0.32377E-04
         0.15390E-05
        -0.22300E-03
         0.32783E-03
        -0.68839E-03
        -0.73284E-03
        -0.70022E-03
        -0.38551E-03
         0.95968E-04
         0.26977E-03
         0.33243E-03
         0.60685E-03
         0.68132E-03
         0.27002E-03
         0.89113E-04
         0.75162E-04
        -0.31618E-04
        -0.32897E-03
        -0.60052E-03
        -0.78553E-03
        -0.51360E-03
         0.14961E-03
         0.28482E-03
         0.27482E-03
         0.48220E-03
         0.58423E-03
         0.38668E-03
         0.36371E-03
        -0.12741E-04
         0.17280E-05
        -0.28824E-05
        -0.22334E-05
         0.21298E-04
         0.82936E-05
         0.21924E-05
        -0.14300E-04
        -0.46448E-05
        -0.13660E-04
         0.87612E-06
        -0.23112E-04
        -0.43856E-04
         0.45834E-05
         0.57689E-04
        -0.93500E-05
         0.19098E-05
         0.80669E-06
         0.26792E-05
         0.77172E-06
         0.25104E-04
         0.16411E-04
        -0.95106E-05
         0.18497E-05
         0.49099E-05
        -0.70440E-06
         0.13202E-05
        -0.19115E-06
        -0.88090E-06
        -0.75387E-05
        -0.77586E-05
        -0.11576E-05
         0.30265E-05
         0.24642E-05
         0.45870E-05
        -0.94372E-05
        -0.20421E-04
         0.50902E-04
         0.87581E-05
         0.19684E-04
         0.50464E-04
        -0.11458E-04
        -0.25366E-04
        -0.23133E-04
        -0.22501E-04
        -0.26635E-04
         0.16873E-04
         0.13170E-04
        -0.18012E-05
         0.28833E-05
         0.32349E-04
         0.15046E-05
        -0.22270E-03
         0.32776E-03
        -0.68843E-03
        -0.73285E-03
        -0.69992E-03
        -0.38525E-03
         0.96021E-04
         0.26984E-03
         0.33208E-03
         0.60638E-03
         0.68112E-03
         0.27025E-03
         0.89105E-04
         0.75303E-04
        -0.31315E-04
        -0.32927E-03
        -0.60103E-03
        -0.78590E-03
        -0.51344E-03
         0.14964E-03
         0.28458E-03
         0.27471E-03
         0.48172E-03
         0.58346E-03
         0.38608E-03
         0.36306E-03
        -0.12865E-04
         0.17481E-05
        -0.29099E-05
        -0.22665E-05
         0.21441E-04
         0.83547E-05
         0.22225E-05
        -0.14391E-04
        -0.46910E-05
        -0.13787E-04
         0.85871E-06
        -0.23322E-04
        -0.44214E-04
         0.46112E-05
         0.58164E-04
        -0.94349E-05
         0.19447E-05
         0.80934E-06
         0.26996E-05
         0.77168E-06
         0.25343E-04
         0.16540E-04
        -0.95846E-05
         0.18628E-05
         0.49736E-05
        -0.70928E-06
         0.13482E-05
        -0.18869E-06
        -0.88245E-06
        -0.76116E-05
        -0.78299E-05
        -0.11611E-05
         0.30429E-05
         0.24884E-05
         0.45727E-05
        -0.95081E-05
        -0.20564E-04
         0.51436E-04
         0.89142E-05
         0.19909E-04
         0.50918E-04
        -0.11504E-04
        -0.25580E-04
        -0.23319E-04
        -0.22666E-04
        -0.26815E-04
         0.16997E-04
         0.13269E-04
        -0.17963E-05
         0.28945E-05
         0.32559E-04
         0.14818E-05
        -0.22397E-03
         0.33005E-03
        -0.69336E-03
        -0.73801E-03
        -0.70465E-03
        -0.38779E-03
         0.96823E-04
         0.27190E-03
         0.33425E-03
         0.61054E-03
         0.68605E-03
         0.27237E-03
         0.89692E-04
         0.75944E-04
        -0.31235E-04
        -0.33168E-03
        -0.60541E-03
        -0.79157E-03
        -0.51693E-03
         0.15078E-03
         0.28636E-03
         0.27647E-03
         0.48461E-03
         0.58679E-03
         0.38817E-03
         0.36492E-03
        -0.28557E-04
         0.39222E-05
        -0.64364E-05
        -0.50746E-05
         0.44133E-04
         0.17534E-04
         0.49634E-05
        -0.31594E-04
        -0.10363E-04
        -0.30160E-04
         0.18213E-05
        -0.46333E-04
        -0.90485E-04
         0.98274E-05
         0.11678E-03
        -0.20981E-04
         0.43271E-05
         0.17962E-05
         0.58412E-05
         0.16730E-05
         0.51874E-04
         0.34686E-04
        -0.19683E-04
         0.40925E-05
         0.11099E-04
        -0.15849E-05
         0.29472E-05
        -0.41375E-06
        -0.19721E-05
        -0.16932E-04
        -0.17421E-04
        -0.25664E-05
         0.67792E-05
         0.55498E-05
         0.89472E-05
        -0.19912E-04
        -0.43088E-04
         0.10804E-03
         0.19325E-04
         0.43341E-04
         0.10772E-03
        -0.24646E-04
        -0.54867E-04
        -0.48614E-04
        -0.46928E-04
        -0.52400E-04
         0.34955E-04
         0.27984E-04
        -0.38003E-05
         0.61006E-05
         0.65432E-04
         0.30411E-05
        -0.34954E-03
         0.51394E-03
        -0.10805E-02
        -0.11565E-02
        -0.11027E-02
        -0.60990E-03
         0.15597E-03
         0.44481E-03
         0.54440E-03
         0.98318E-03
         0.11075E-02
         0.43807E-03
         0.14728E-03
         0.12566E-03
        -0.49996E-04
        -0.52239E-03
        -0.94783E-03
        -0.12261E-02
        -0.79953E-03
         0.23398E-03
         0.45307E-03
         0.44124E-03
         0.76791E-03
         0.93606E-03
         0.61528E-03
         0.57417E-03
  
SCALARS                      strain_eq  double 1
LOOKUP_TABLE default
         0.13899E+01
         0.13620E+01
         0.13797E+01
         0.14114E+01
         0.14600E-08
         0.16189E-08
         0.15728E-08
         0.14152E-08
         0.13613E+01
         0.13706E+01
         0.15922E-08
         0.15227E-08
         0.13216E+01
         0.13201E+01
         0.17420E-08
         0.16589E-08
         0.14068E+01
         0.13223E+01
         0.12995E-08
         0.14616E-08
         0.12913E+01
         0.12674E+01
         0.13057E+01
         0.17941E-08
         0.17115E-08
         0.17023E-08
         0.12682E+01
         0.12332E+01
         0.17378E-08
         0.15784E-08
         0.14053E+01
         0.13685E+01
         0.14409E+01
         0.14141E-08
         0.13279E-08
         0.12720E-08
         0.13840E+01
         0.13372E+01
         0.15417E-08
         0.14055E-08
         0.13655E+01
         0.13294E+01
         0.14340E-08
         0.12372E-08
         0.13961E+01
         0.14096E+01
         0.15485E-08
         0.16059E-08
         0.13004E+01
         0.13878E-08
         0.14070E+01
         0.16137E-08
         0.12581E+01
         0.15173E-08
         0.12470E+01
         0.14005E-08
         0.12473E+01
         0.12864E+01
         0.14192E-08
         0.13956E-08
         0.14045E+01
         0.13904E+01
         0.14320E-08
         0.16210E-08
         0.14133E+01
         0.13744E-08
         0.13966E+01
         0.15053E-08
         0.13528E+01
         0.13481E+01
         0.16102E-08
         0.16091E-08
         0.13381E+01
         0.16284E-08
         0.12208E+01
         0.13017E-08
         0.12147E+01
         0.12115E-08
         0.12178E+01
         0.12621E-08
         0.12351E+01
         0.12525E+01
         0.12207E-08
         0.12679E-08
         0.12878E+01
         0.11941E-08
         0.13955E+01
         0.16033E-08
         0.13788E+01
         0.16327E-08
         0.13653E+01
         0.13574E+01
         0.16311E-08
         0.16001E-08
         0.13666E+01
         0.14359E-08
         0.13732E+01
         0.14059E-08
         0.13673E+01
         0.15207E-08
         0.13655E+01
         0.13713E+01
         0.15633E-08
         0.15591E-08
         0.13334E+01
         0.13496E+01
         0.14865E-08
         0.14349E-08
         0.13307E+01
         0.14437E-08
         0.13494E+01
         0.14095E-08
         0.13312E+01
         0.14078E-08
         0.12913E+01
         0.13198E-08
         0.12528E+01
         0.11168E-08
         0.12296E+01
         0.94366E-09
         0.12273E+01
         0.91523E-09
         0.12279E+01
         0.97512E-09
         0.12530E+01
         0.10059E-08
         0.13005E+01
         0.94231E-09
         0.13525E+01
         0.86003E-09
         0.13825E+01
         0.89008E-09
         0.14123E+01
         0.10551E-08
         0.14321E+01
         0.12317E-08
         0.14315E+01
         0.13128E-08
         0.13829E+01
         0.14017E-08
         0.13489E+01
         0.14731E-08
         0.13379E+01
         0.13744E-08
         0.13563E+01
         0.12101E-08
         0.13655E+01
         0.12077E-08
         0.13492E+01
         0.13290E-08
         0.13491E+01
         0.14102E-08
         0.13613E+01
         0.13645E-08
         0.13772E+01
         0.13341E-08
         0.33521E+00
         0.33900E+00
         0.33849E+00
         0.33346E+00
         0.34270E+00
         0.33814E+00
         0.34361E+00
         0.34078E+00
         0.33429E+00
         0.33840E+00
         0.34660E+00
         0.34781E+00
         0.34531E+00
         0.34493E+00
         0.34680E+00
         0.33371E+00
         0.33466E+00
         0.33196E+00
         0.33940E+00
         0.33808E+00
         0.34015E+00
         0.33894E+00
         0.34118E+00
         0.34042E+00
         0.33822E+00
         0.33835E+00
         0.34211E+00
         0.34176E+00
         0.34448E+00
         0.34037E+00
         0.33418E+00
         0.33904E+00
         0.33421E+00
         0.33742E+00
         0.34839E+00
         0.34493E+00
         0.34334E+00
         0.34537E+00
         0.34554E+00
         0.34853E+00
         0.35087E+00
         0.34545E+00
         0.34013E+00
         0.34079E+00
         0.34353E+00
         0.34831E+00
         0.34417E+00
         0.33973E+00
         0.34003E+00
         0.34347E+00
         0.34700E+00
         0.34230E+00
         0.35805E+00
         0.35466E+00
         0.35551E+00
         0.35484E+00
         0.35543E+00
         0.35794E+00
         0.35976E+00
         0.35978E+00
         0.35935E+00
         0.35977E+00
         0.36040E+00
         0.35531E+00
         0.35256E+00
         0.35150E+00
         0.35042E+00
         0.34962E+00
         0.34990E+00
         0.35188E+00
         0.35713E+00
         0.35615E+00
         0.35396E+00
         0.35371E+00
         0.35409E+00
         0.35572E+00
         0.35325E+00
         0.35237E+00
         0.10373E-01
         0.62327E-02
         0.58790E-02
         0.40314E-02
         0.10772E-01
         0.74480E-02
         0.32876E-02
         0.10202E-01
         0.63907E-02
         0.96133E-02
         0.46872E-02
         0.20198E-01
         0.15337E-01
         0.76708E-02
         0.21154E-01
         0.75372E-02
         0.38184E-02
         0.24362E-02
         0.50752E-02
         0.27476E-02
         0.15883E-01
         0.14901E-01
         0.14512E-01
         0.37764E-02
         0.62038E-02
         0.19726E-02
         0.72372E-02
         0.11755E-02
         0.26506E-02
         0.67291E-02
         0.64388E-02
         0.34249E-02
         0.41705E-02
         0.36079E-02
         0.13925E-01
         0.83330E-02
         0.10786E-01
         0.17251E-01
         0.13270E-01
         0.12351E-01
         0.17542E-01
         0.15902E-01
         0.16008E-01
         0.12392E-01
         0.11067E-01
         0.15139E-01
         0.99245E-02
         0.84390E-02
         0.69590E-02
         0.82178E-02
         0.13437E-01
         0.92251E-02
         0.59003E-01
         0.60415E-01
         0.63153E-01
         0.62694E-01
         0.66834E-01
         0.71761E-01
         0.68859E-01
         0.61226E-01
         0.59665E-01
         0.63857E-01
         0.62583E-01
         0.61731E-01
         0.51027E-01
         0.48506E-01
         0.53289E-01
         0.57081E-01
         0.59236E-01
         0.64692E-01
         0.62226E-01
         0.63911E-01
         0.57546E-01
         0.54638E-01
         0.58270E-01
         0.56964E-01
         0.58619E-01
         0.58125E-01
         0.10381E-01
         0.62341E-02
         0.58823E-02
         0.40372E-02
         0.10768E-01
         0.74437E-02
         0.32976E-02
         0.10212E-01
         0.64017E-02
         0.96416E-02
         0.46870E-02
         0.20197E-01
         0.15343E-01
         0.76528E-02
         0.21176E-01
         0.75432E-02
         0.38291E-02
         0.24300E-02
         0.50781E-02
         0.27416E-02
         0.15884E-01
         0.14900E-01
         0.14511E-01
         0.37763E-02
         0.62305E-02
         0.19722E-02
         0.72396E-02
         0.11630E-02
         0.26632E-02
         0.67409E-02
         0.64450E-02
         0.34237E-02
         0.41635E-02
         0.36112E-02
         0.13931E-01
         0.83306E-02
         0.10784E-01
         0.17278E-01
         0.13300E-01
         0.12368E-01
         0.17554E-01
         0.15910E-01
         0.16010E-01
         0.12392E-01
         0.11065E-01
         0.15138E-01
         0.99247E-02
         0.84385E-02
         0.69490E-02
         0.82065E-02
         0.13429E-01
         0.92109E-02
         0.58982E-01
         0.60401E-01
         0.63153E-01
         0.62695E-01
         0.66823E-01
         0.71737E-01
         0.68831E-01
         0.61210E-01
         0.59650E-01
         0.63838E-01
         0.62572E-01
         0.61733E-01
         0.51022E-01
         0.48504E-01
         0.53295E-01
         0.57094E-01
         0.59251E-01
         0.64705E-01
         0.62222E-01
         0.63907E-01
         0.57539E-01
         0.54634E-01
         0.58250E-01
         0.56926E-01
         0.58586E-01
         0.58094E-01
         0.10389E-01
         0.62356E-02
         0.58857E-02
         0.40430E-02
         0.10763E-01
         0.74396E-02
         0.33076E-02
         0.10222E-01
         0.64128E-02
         0.96697E-02
         0.46870E-02
         0.20196E-01
         0.15349E-01
         0.76348E-02
         0.21197E-01
         0.75495E-02
         0.38400E-02
         0.24239E-02
         0.50811E-02
         0.27356E-02
         0.15886E-01
         0.14899E-01
         0.14510E-01
         0.37761E-02
         0.62570E-02
         0.19716E-02
         0.72419E-02
         0.11510E-02
         0.26758E-02
         0.67524E-02
         0.64513E-02
         0.34226E-02
         0.41564E-02
         0.36144E-02
         0.13938E-01
         0.83285E-02
         0.10781E-01
         0.17305E-01
         0.13330E-01
         0.12385E-01
         0.17566E-01
         0.15919E-01
         0.16012E-01
         0.12393E-01
         0.11063E-01
         0.15138E-01
         0.99248E-02
         0.84378E-02
         0.69392E-02
         0.81952E-02
         0.13422E-01
         0.91968E-02
         0.58961E-01
         0.60386E-01
         0.63152E-01
         0.62695E-01
         0.66812E-01
         0.71713E-01
         0.68802E-01
         0.61194E-01
         0.59635E-01
         0.63818E-01
         0.62561E-01
         0.61735E-01
         0.51017E-01
         0.48502E-01
         0.53302E-01
         0.57108E-01
         0.59267E-01
         0.64719E-01
         0.62219E-01
         0.63904E-01
         0.57533E-01
         0.54631E-01
         0.58230E-01
         0.56889E-01
         0.58553E-01
         0.58063E-01
         0.10397E-01
         0.62370E-02
         0.58890E-02
         0.40488E-02
         0.10758E-01
         0.74353E-02
         0.33177E-02
         0.10232E-01
         0.64239E-02
         0.96972E-02
         0.46870E-02
         0.20196E-01
         0.15355E-01
         0.76169E-02
         0.21219E-01
         0.75562E-02
         0.38513E-02
         0.24176E-02
         0.50844E-02
         0.27294E-02
         0.15888E-01
         0.14899E-01
         0.14510E-01
         0.37758E-02
         0.62829E-02
         0.19707E-02
         0.72439E-02
         0.11405E-02
         0.26876E-02
         0.67628E-02
         0.64578E-02
         0.34218E-02
         0.41493E-02
         0.36177E-02
         0.13944E-01
         0.83262E-02
         0.10779E-01
         0.17332E-01
         0.13360E-01
         0.12404E-01
         0.17578E-01
         0.15928E-01
         0.16015E-01
         0.12394E-01
         0.11062E-01
         0.15138E-01
         0.99256E-02
         0.84374E-02
         0.69294E-02
         0.81839E-02
         0.13414E-01
         0.91825E-02
         0.58939E-01
         0.60372E-01
         0.63152E-01
         0.62696E-01
         0.66801E-01
         0.71688E-01
         0.68773E-01
         0.61178E-01
         0.59619E-01
         0.63799E-01
         0.62551E-01
         0.61738E-01
         0.51014E-01
         0.48500E-01
         0.53309E-01
         0.57125E-01
         0.59285E-01
         0.64734E-01
         0.62216E-01
         0.63900E-01
         0.57527E-01
         0.54627E-01
         0.58210E-01
         0.56852E-01
         0.58520E-01
         0.58032E-01
         0.10404E-01
         0.62384E-02
         0.58924E-02
         0.40546E-02
         0.10753E-01
         0.74310E-02
         0.33277E-02
         0.10241E-01
         0.64348E-02
         0.97241E-02
         0.46871E-02
         0.20195E-01
         0.15362E-01
         0.75990E-02
         0.21241E-01
         0.75635E-02
         0.38630E-02
         0.24114E-02
         0.50877E-02
         0.27230E-02
         0.15890E-01
         0.14898E-01
         0.14511E-01
         0.37752E-02
         0.63082E-02
         0.19694E-02
         0.72456E-02
         0.11312E-02
         0.26987E-02
         0.67721E-02
         0.64646E-02
         0.34210E-02
         0.41422E-02
         0.36210E-02
         0.13950E-01
         0.83238E-02
         0.10776E-01
         0.17359E-01
         0.13391E-01
         0.12423E-01
         0.17592E-01
         0.15937E-01
         0.16019E-01
         0.12396E-01
         0.11061E-01
         0.15138E-01
         0.99268E-02
         0.84373E-02
         0.69197E-02
         0.81724E-02
         0.13407E-01
         0.91683E-02
         0.58918E-01
         0.60357E-01
         0.63152E-01
         0.62696E-01
         0.66790E-01
         0.71664E-01
         0.68745E-01
         0.61161E-01
         0.59604E-01
         0.63780E-01
         0.62541E-01
         0.61742E-01
         0.51011E-01
         0.48499E-01
         0.53317E-01
         0.57143E-01
         0.59304E-01
         0.64750E-01
         0.62213E-01
         0.63896E-01
         0.57521E-01
         0.54624E-01
         0.58190E-01
         0.56814E-01
         0.58487E-01
         0.58001E-01
         0.10412E-01
         0.62394E-02
         0.58956E-02
         0.40604E-02
         0.10748E-01
         0.74268E-02
         0.33375E-02
         0.10250E-01
         0.64458E-02
         0.97502E-02
         0.46876E-02
         0.20195E-01
         0.15368E-01
         0.75810E-02
         0.21263E-01
         0.75709E-02
         0.38748E-02
         0.24051E-02
         0.50910E-02
         0.27168E-02
         0.15893E-01
         0.14898E-01
         0.14512E-01
         0.37746E-02
         0.63330E-02
         0.19679E-02
         0.72473E-02
         0.11228E-02
         0.27097E-02
         0.67812E-02
         0.64713E-02
         0.34200E-02
         0.41351E-02
         0.36243E-02
         0.13956E-01
         0.83219E-02
         0.10774E-01
         0.17386E-01
         0.13422E-01
         0.12442E-01
         0.17605E-01
         0.15946E-01
         0.16023E-01
         0.12400E-01
         0.11061E-01
         0.15140E-01
         0.99281E-02
         0.84374E-02
         0.69104E-02
         0.81614E-02
         0.13400E-01
         0.91545E-02
         0.58897E-01
         0.60343E-01
         0.63151E-01
         0.62697E-01
         0.66779E-01
         0.71640E-01
         0.68716E-01
         0.61145E-01
         0.59589E-01
         0.63760E-01
         0.62531E-01
         0.61746E-01
         0.51010E-01
         0.48498E-01
         0.53325E-01
         0.57162E-01
         0.59325E-01
         0.64766E-01
         0.62209E-01
         0.63893E-01
         0.57515E-01
         0.54621E-01
         0.58170E-01
         0.56777E-01
         0.58454E-01
         0.57970E-01
         0.10419E-01
         0.62396E-02
         0.58987E-02
         0.40663E-02
         0.10743E-01
         0.74227E-02
         0.33469E-02
         0.10258E-01
         0.64571E-02
         0.97752E-02
         0.46888E-02
         0.20195E-01
         0.15375E-01
         0.75633E-02
         0.21285E-01
         0.75784E-02
         0.38864E-02
         0.23988E-02
         0.50945E-02
         0.27107E-02
         0.15896E-01
         0.14898E-01
         0.14514E-01
         0.37741E-02
         0.63570E-02
         0.19661E-02
         0.72492E-02
         0.11145E-02
         0.27209E-02
         0.67902E-02
         0.64774E-02
         0.34184E-02
         0.41280E-02
         0.36274E-02
         0.13963E-01
         0.83203E-02
         0.10772E-01
         0.17414E-01
         0.13454E-01
         0.12462E-01
         0.17619E-01
         0.15956E-01
         0.16027E-01
         0.12403E-01
         0.11062E-01
         0.15142E-01
         0.99303E-02
         0.84385E-02
         0.69025E-02
         0.81508E-02
         0.13393E-01
         0.91406E-02
         0.58875E-01
         0.60329E-01
         0.63151E-01
         0.62697E-01
         0.66768E-01
         0.71615E-01
         0.68687E-01
         0.61129E-01
         0.59574E-01
         0.63741E-01
         0.62521E-01
         0.61750E-01
         0.51008E-01
         0.48497E-01
         0.53333E-01
         0.57181E-01
         0.59345E-01
         0.64781E-01
         0.62205E-01
         0.63889E-01
         0.57509E-01
         0.54618E-01
         0.58150E-01
         0.56740E-01
         0.58421E-01
         0.57939E-01
         0.10425E-01
         0.62397E-02
         0.59018E-02
         0.40721E-02
         0.10739E-01
         0.74184E-02
         0.33560E-02
         0.10265E-01
         0.64684E-02
         0.97998E-02
         0.46905E-02
         0.20195E-01
         0.15382E-01
         0.75457E-02
         0.21307E-01
         0.75860E-02
         0.38979E-02
         0.23925E-02
         0.50979E-02
         0.27049E-02
         0.15899E-01
         0.14898E-01
         0.14516E-01
         0.37736E-02
         0.63806E-02
         0.19642E-02
         0.72512E-02
         0.11065E-02
         0.27324E-02
         0.67992E-02
         0.64834E-02
         0.34163E-02
         0.41208E-02
         0.36306E-02
         0.13970E-01
         0.83191E-02
         0.10771E-01
         0.17442E-01
         0.13486E-01
         0.12482E-01
         0.17633E-01
         0.15966E-01
         0.16031E-01
         0.12406E-01
         0.11063E-01
         0.15144E-01
         0.99328E-02
         0.84397E-02
         0.68951E-02
         0.81404E-02
         0.13387E-01
         0.91271E-02
         0.58854E-01
         0.60314E-01
         0.63150E-01
         0.62697E-01
         0.66757E-01
         0.71591E-01
         0.68658E-01
         0.61112E-01
         0.59559E-01
         0.63721E-01
         0.62511E-01
         0.61754E-01
         0.51006E-01
         0.48497E-01
         0.53341E-01
         0.57200E-01
         0.59366E-01
         0.64796E-01
         0.62201E-01
         0.63885E-01
         0.57504E-01
         0.54616E-01
         0.58130E-01
         0.56703E-01
         0.58389E-01
         0.57908E-01
         0.10432E-01
         0.62397E-02
         0.59047E-02
         0.40780E-02
         0.10734E-01
         0.74142E-02
         0.33651E-02
         0.10272E-01
         0.64799E-02
         0.98242E-02
         0.46920E-02
         0.20195E-01
         0.15388E-01
         0.75281E-02
         0.21330E-01
         0.75935E-02
         0.39093E-02
         0.23861E-02
         0.51012E-02
         0.26988E-02
         0.15901E-01
         0.14898E-01
         0.14517E-01
         0.37733E-02
         0.64042E-02
         0.19624E-02
         0.72533E-02
         0.10988E-02
         0.27440E-02
         0.68082E-02
         0.64893E-02
         0.34143E-02
         0.41137E-02
         0.36337E-02
         0.13977E-01
         0.83176E-02
         0.10770E-01
         0.17469E-01
         0.13517E-01
         0.12501E-01
         0.17647E-01
         0.15975E-01
         0.16035E-01
         0.12410E-01
         0.11064E-01
         0.15147E-01
         0.99351E-02
         0.84410E-02
         0.68878E-02
         0.81302E-02
         0.13381E-01
         0.91133E-02
         0.58832E-01
         0.60300E-01
         0.63149E-01
         0.62698E-01
         0.66746E-01
         0.71567E-01
         0.68628E-01
         0.61096E-01
         0.59544E-01
         0.63702E-01
         0.62500E-01
         0.61758E-01
         0.51004E-01
         0.48496E-01
         0.53349E-01
         0.57219E-01
         0.59386E-01
         0.64811E-01
         0.62197E-01
         0.63881E-01
         0.57499E-01
         0.54613E-01
         0.58110E-01
         0.56666E-01
         0.58356E-01
         0.57878E-01
         0.10438E-01
         0.62396E-02
         0.59077E-02
         0.40839E-02
         0.10730E-01
         0.74099E-02
         0.33743E-02
         0.10279E-01
         0.64913E-02
         0.98487E-02
         0.46937E-02
         0.20195E-01
         0.15396E-01
         0.75106E-02
         0.21352E-01
         0.76010E-02
         0.39209E-02
         0.23799E-02
         0.51045E-02
         0.26929E-02
         0.15904E-01
         0.14898E-01
         0.14519E-01
         0.37729E-02
         0.64278E-02
         0.19605E-02
         0.72553E-02
         0.10913E-02
         0.27557E-02
         0.68173E-02
         0.64952E-02
         0.34123E-02
         0.41066E-02
         0.36368E-02
         0.13983E-01
         0.83165E-02
         0.10768E-01
         0.17497E-01
         0.13549E-01
         0.12521E-01
         0.17661E-01
         0.15985E-01
         0.16039E-01
         0.12413E-01
         0.11065E-01
         0.15149E-01
         0.99375E-02
         0.84425E-02
         0.68804E-02
         0.81198E-02
         0.13374E-01
         0.90996E-02
         0.58811E-01
         0.60286E-01
         0.63148E-01
         0.62698E-01
         0.66735E-01
         0.71542E-01
         0.68599E-01
         0.61079E-01
         0.59530E-01
         0.63682E-01
         0.62490E-01
         0.61762E-01
         0.51002E-01
         0.48495E-01
         0.53357E-01
         0.57238E-01
         0.59406E-01
         0.64826E-01
         0.62192E-01
         0.63877E-01
         0.57494E-01
         0.54611E-01
         0.58090E-01
         0.56629E-01
         0.58323E-01
         0.57847E-01
         0.10444E-01
         0.62395E-02
         0.59107E-02
         0.40898E-02
         0.10725E-01
         0.74059E-02
         0.33836E-02
         0.10286E-01
         0.65027E-02
         0.98731E-02
         0.46955E-02
         0.20195E-01
         0.15403E-01
         0.74931E-02
         0.21374E-01
         0.76085E-02
         0.39324E-02
         0.23736E-02
         0.51079E-02
         0.26869E-02
         0.15907E-01
         0.14898E-01
         0.14520E-01
         0.37726E-02
         0.64513E-02
         0.19587E-02
         0.72575E-02
         0.10841E-02
         0.27675E-02
         0.68262E-02
         0.65012E-02
         0.34102E-02
         0.40996E-02
         0.36400E-02
         0.13990E-01
         0.83151E-02
         0.10767E-01
         0.17525E-01
         0.13581E-01
         0.12540E-01
         0.17675E-01
         0.15995E-01
         0.16043E-01
         0.12417E-01
         0.11067E-01
         0.15152E-01
         0.99400E-02
         0.84438E-02
         0.68732E-02
         0.81095E-02
         0.13368E-01
         0.90861E-02
         0.58789E-01
         0.60272E-01
         0.63147E-01
         0.62698E-01
         0.66724E-01
         0.71518E-01
         0.68570E-01
         0.61063E-01
         0.59515E-01
         0.63662E-01
         0.62480E-01
         0.61766E-01
         0.51000E-01
         0.48494E-01
         0.53365E-01
         0.57257E-01
         0.59427E-01
         0.64841E-01
         0.62188E-01
         0.63873E-01
         0.57489E-01
         0.54608E-01
         0.58070E-01
         0.56592E-01
         0.58291E-01
         0.57816E-01
         0.10451E-01
         0.62394E-02
         0.59137E-02
         0.40957E-02
         0.10721E-01
         0.74016E-02
         0.33927E-02
         0.10293E-01
         0.65141E-02
         0.98975E-02
         0.46974E-02
         0.20195E-01
         0.15409E-01
         0.74757E-02
         0.21397E-01
         0.76160E-02
         0.39439E-02
         0.23673E-02
         0.51113E-02
         0.26810E-02
         0.15910E-01
         0.14898E-01
         0.14522E-01
         0.37723E-02
         0.64747E-02
         0.19570E-02
         0.72596E-02
         0.10771E-02
         0.27792E-02
         0.68352E-02
         0.65071E-02
         0.34082E-02
         0.40925E-02
         0.36432E-02
         0.13997E-01
         0.83138E-02
         0.10765E-01
         0.17553E-01
         0.13613E-01
         0.12560E-01
         0.17689E-01
         0.16004E-01
         0.16048E-01
         0.12420E-01
         0.11068E-01
         0.15154E-01
         0.99423E-02
         0.84453E-02
         0.68659E-02
         0.80993E-02
         0.13361E-01
         0.90724E-02
         0.58768E-01
         0.60258E-01
         0.63147E-01
         0.62698E-01
         0.66713E-01
         0.71493E-01
         0.68540E-01
         0.61046E-01
         0.59500E-01
         0.63642E-01
         0.62470E-01
         0.61770E-01
         0.50998E-01
         0.48493E-01
         0.53373E-01
         0.57276E-01
         0.59447E-01
         0.64856E-01
         0.62184E-01
         0.63869E-01
         0.57484E-01
         0.54605E-01
         0.58049E-01
         0.56555E-01
         0.58258E-01
         0.57785E-01
         0.10457E-01
         0.62394E-02
         0.59167E-02
         0.41017E-02
         0.10716E-01
         0.73974E-02
         0.34020E-02
         0.10300E-01
         0.65256E-02
         0.99218E-02
         0.46993E-02
         0.20195E-01
         0.15417E-01
         0.74582E-02
         0.21419E-01
         0.76235E-02
         0.39555E-02
         0.23609E-02
         0.51147E-02
         0.26750E-02
         0.15912E-01
         0.14898E-01
         0.14523E-01
         0.37720E-02
         0.64981E-02
         0.19552E-02
         0.72617E-02
         0.10703E-02
         0.27912E-02
         0.68441E-02
         0.65130E-02
         0.34062E-02
         0.40855E-02
         0.36463E-02
         0.14004E-01
         0.83126E-02
         0.10764E-01
         0.17580E-01
         0.13645E-01
         0.12579E-01
         0.17703E-01
         0.16014E-01
         0.16052E-01
         0.12424E-01
         0.11069E-01
         0.15156E-01
         0.99449E-02
         0.84467E-02
         0.68587E-02
         0.80890E-02
         0.13355E-01
         0.90587E-02
         0.58746E-01
         0.60243E-01
         0.63146E-01
         0.62699E-01
         0.66702E-01
         0.71469E-01
         0.68511E-01
         0.61029E-01
         0.59485E-01
         0.63622E-01
         0.62459E-01
         0.61774E-01
         0.50996E-01
         0.48492E-01
         0.53381E-01
         0.57295E-01
         0.59468E-01
         0.64871E-01
         0.62180E-01
         0.63865E-01
         0.57479E-01
         0.54603E-01
         0.58029E-01
         0.56518E-01
         0.58226E-01
         0.57755E-01
         0.10464E-01
         0.62394E-02
         0.59197E-02
         0.41076E-02
         0.10712E-01
         0.73932E-02
         0.34113E-02
         0.10307E-01
         0.65370E-02
         0.99462E-02
         0.47013E-02
         0.20195E-01
         0.15423E-01
         0.74408E-02
         0.21441E-01
         0.76310E-02
         0.39671E-02
         0.23547E-02
         0.51180E-02
         0.26692E-02
         0.15915E-01
         0.14898E-01
         0.14525E-01
         0.37717E-02
         0.65215E-02
         0.19534E-02
         0.72636E-02
         0.10638E-02
         0.28034E-02
         0.68531E-02
         0.65189E-02
         0.34042E-02
         0.40785E-02
         0.36495E-02
         0.14011E-01
         0.83113E-02
         0.10762E-01
         0.17608E-01
         0.13677E-01
         0.12599E-01
         0.17717E-01
         0.16023E-01
         0.16056E-01
         0.12427E-01
         0.11070E-01
         0.15159E-01
         0.99474E-02
         0.84480E-02
         0.68513E-02
         0.80787E-02
         0.13349E-01
         0.90452E-02
         0.58725E-01
         0.60229E-01
         0.63145E-01
         0.62699E-01
         0.66691E-01
         0.71445E-01
         0.68481E-01
         0.61013E-01
         0.59470E-01
         0.63602E-01
         0.62449E-01
         0.61779E-01
         0.50994E-01
         0.48491E-01
         0.53390E-01
         0.57314E-01
         0.59488E-01
         0.64886E-01
         0.62176E-01
         0.63861E-01
         0.57473E-01
         0.54600E-01
         0.58009E-01
         0.56481E-01
         0.58194E-01
         0.57724E-01
         0.10470E-01
         0.62393E-02
         0.59226E-02
         0.41136E-02
         0.10707E-01
         0.73889E-02
         0.34205E-02
         0.10314E-01
         0.65485E-02
         0.99705E-02
         0.47034E-02
         0.20196E-01
         0.15430E-01
         0.74233E-02
         0.21464E-01
         0.76384E-02
         0.39787E-02
         0.23484E-02
         0.51214E-02
         0.26632E-02
         0.15918E-01
         0.14898E-01
         0.14526E-01
         0.37714E-02
         0.65449E-02
         0.19516E-02
         0.72657E-02
         0.10575E-02
         0.28156E-02
         0.68620E-02
         0.65248E-02
         0.34021E-02
         0.40715E-02
         0.36526E-02
         0.14018E-01
         0.83102E-02
         0.10761E-01
         0.17636E-01
         0.13709E-01
         0.12618E-01
         0.17731E-01
         0.16033E-01
         0.16060E-01
         0.12431E-01
         0.11071E-01
         0.15161E-01
         0.99497E-02
         0.84495E-02
         0.68440E-02
         0.80683E-02
         0.13342E-01
         0.90314E-02
         0.58703E-01
         0.60215E-01
         0.63144E-01
         0.62699E-01
         0.66680E-01
         0.71420E-01
         0.68452E-01
         0.60996E-01
         0.59455E-01
         0.63582E-01
         0.62439E-01
         0.61783E-01
         0.50992E-01
         0.48490E-01
         0.53398E-01
         0.57333E-01
         0.59509E-01
         0.64901E-01
         0.62172E-01
         0.63857E-01
         0.57468E-01
         0.54598E-01
         0.57989E-01
         0.56444E-01
         0.58161E-01
         0.57693E-01
         0.10476E-01
         0.62392E-02
         0.59256E-02
         0.41196E-02
         0.10703E-01
         0.73849E-02
         0.34298E-02
         0.10321E-01
         0.65600E-02
         0.99948E-02
         0.47056E-02
         0.20196E-01
         0.15437E-01
         0.74059E-02
         0.21486E-01
         0.76459E-02
         0.39904E-02
         0.23422E-02
         0.51248E-02
         0.26573E-02
         0.15920E-01
         0.14898E-01
         0.14528E-01
         0.37711E-02
         0.65683E-02
         0.19498E-02
         0.72677E-02
         0.10514E-02
         0.28279E-02
         0.68709E-02
         0.65307E-02
         0.34001E-02
         0.40647E-02
         0.36558E-02
         0.14025E-01
         0.83089E-02
         0.10759E-01
         0.17664E-01
         0.13741E-01
         0.12638E-01
         0.17745E-01
         0.16043E-01
         0.16064E-01
         0.12434E-01
         0.11073E-01
         0.15164E-01
         0.99522E-02
         0.84508E-02
         0.68368E-02
         0.80580E-02
         0.13336E-01
         0.90178E-02
         0.58682E-01
         0.60201E-01
         0.63143E-01
         0.62699E-01
         0.66669E-01
         0.71395E-01
         0.68422E-01
         0.60979E-01
         0.59440E-01
         0.63561E-01
         0.62429E-01
         0.61787E-01
         0.50990E-01
         0.48489E-01
         0.53406E-01
         0.57352E-01
         0.59529E-01
         0.64916E-01
         0.62168E-01
         0.63853E-01
         0.57463E-01
         0.54595E-01
         0.57968E-01
         0.56407E-01
         0.58129E-01
         0.57662E-01
         0.10483E-01
         0.62391E-02
         0.59286E-02
         0.41256E-02
         0.10698E-01
         0.73806E-02
         0.34392E-02
         0.10328E-01
         0.65716E-02
         0.10019E-01
         0.47078E-02
         0.20196E-01
         0.15444E-01
         0.73885E-02
         0.21508E-01
         0.76535E-02
         0.40020E-02
         0.23359E-02
         0.51281E-02
         0.26514E-02
         0.15923E-01
         0.14898E-01
         0.14530E-01
         0.37709E-02
         0.65916E-02
         0.19481E-02
         0.72696E-02
         0.10455E-02
         0.28402E-02
         0.68796E-02
         0.65367E-02
         0.33982E-02
         0.40578E-02
         0.36591E-02
         0.14032E-01
         0.83076E-02
         0.10758E-01
         0.17692E-01
         0.13773E-01
         0.12657E-01
         0.17759E-01
         0.16052E-01
         0.16068E-01
         0.12438E-01
         0.11074E-01
         0.15166E-01
         0.99547E-02
         0.84523E-02
         0.68296E-02
         0.80477E-02
         0.13330E-01
         0.90043E-02
         0.58660E-01
         0.60187E-01
         0.63142E-01
         0.62700E-01
         0.66658E-01
         0.71371E-01
         0.68392E-01
         0.60962E-01
         0.59426E-01
         0.63541E-01
         0.62419E-01
         0.61792E-01
         0.50988E-01
         0.48488E-01
         0.53414E-01
         0.57371E-01
         0.59550E-01
         0.64931E-01
         0.62164E-01
         0.63849E-01
         0.57458E-01
         0.54593E-01
         0.57948E-01
         0.56370E-01
         0.58096E-01
         0.57632E-01
         0.10489E-01
         0.62391E-02
         0.59315E-02
         0.41316E-02
         0.10694E-01
         0.73764E-02
         0.34485E-02
         0.10335E-01
         0.65832E-02
         0.10043E-01
         0.47100E-02
         0.20196E-01
         0.15451E-01
         0.73710E-02
         0.21530E-01
         0.76609E-02
         0.40137E-02
         0.23296E-02
         0.51315E-02
         0.26457E-02
         0.15926E-01
         0.14898E-01
         0.14531E-01
         0.37706E-02
         0.66148E-02
         0.19464E-02
         0.72709E-02
         0.10395E-02
         0.28527E-02
         0.68880E-02
         0.65426E-02
         0.33961E-02
         0.40510E-02
         0.36623E-02
         0.14039E-01
         0.83066E-02
         0.10757E-01
         0.17720E-01
         0.13805E-01
         0.12675E-01
         0.17772E-01
         0.16061E-01
         0.16072E-01
         0.12441E-01
         0.11075E-01
         0.15169E-01
         0.99571E-02
         0.84538E-02
         0.68223E-02
         0.80374E-02
         0.13324E-01
         0.89906E-02
         0.58639E-01
         0.60173E-01
         0.63141E-01
         0.62700E-01
         0.66647E-01
         0.71346E-01
         0.68362E-01
         0.60946E-01
         0.59411E-01
         0.63519E-01
         0.62409E-01
         0.61798E-01
         0.50988E-01
         0.48488E-01
         0.53422E-01
         0.57390E-01
         0.59570E-01
         0.64946E-01
         0.62159E-01
         0.63845E-01
         0.57453E-01
         0.54590E-01
         0.57928E-01
         0.56333E-01
         0.58064E-01
         0.57601E-01
         0.10495E-01
         0.62390E-02
         0.59345E-02
         0.41376E-02
         0.10689E-01
         0.73722E-02
         0.34578E-02
         0.10341E-01
         0.65948E-02
         0.10067E-01
         0.47123E-02
         0.20196E-01
         0.15458E-01
         0.73533E-02
         0.21553E-01
         0.76684E-02
         0.40254E-02
         0.23233E-02
         0.51349E-02
         0.26400E-02
         0.15929E-01
         0.14897E-01
         0.14533E-01
         0.37704E-02
         0.66380E-02
         0.19447E-02
         0.72717E-02
         0.10334E-02
         0.28653E-02
         0.68958E-02
         0.65485E-02
         0.33941E-02
         0.40441E-02
         0.36655E-02
         0.14046E-01
         0.83053E-02
         0.10755E-01
         0.17748E-01
         0.13836E-01
         0.12693E-01
         0.17784E-01
         0.16068E-01
         0.16075E-01
         0.12445E-01
         0.11076E-01
         0.15171E-01
         0.99596E-02
         0.84552E-02
         0.68152E-02
         0.80270E-02
         0.13317E-01
         0.89768E-02
         0.58617E-01
         0.60159E-01
         0.63140E-01
         0.62700E-01
         0.66636E-01
         0.71321E-01
         0.68333E-01
         0.60929E-01
         0.59395E-01
         0.63497E-01
         0.62399E-01
         0.61805E-01
         0.50988E-01
         0.48487E-01
         0.53430E-01
         0.57409E-01
         0.59591E-01
         0.64961E-01
         0.62155E-01
         0.63841E-01
         0.57448E-01
         0.54588E-01
         0.57907E-01
         0.56296E-01
         0.58032E-01
         0.57570E-01
         0.10502E-01
         0.62390E-02
         0.59376E-02
         0.41436E-02
         0.10685E-01
         0.73682E-02
         0.34672E-02
         0.10348E-01
         0.66065E-02
         0.10091E-01
         0.47147E-02
         0.20196E-01
         0.15465E-01
         0.73357E-02
         0.21575E-01
         0.76759E-02
         0.40372E-02
         0.23171E-02
         0.51384E-02
         0.26345E-02
         0.15931E-01
         0.14897E-01
         0.14534E-01
         0.37702E-02
         0.66611E-02
         0.19431E-02
         0.72723E-02
         0.10274E-02
         0.28779E-02
         0.69036E-02
         0.65545E-02
         0.33922E-02
         0.40375E-02
         0.36688E-02
         0.14053E-01
         0.83042E-02
         0.10754E-01
         0.17776E-01
         0.13868E-01
         0.12711E-01
         0.17796E-01
         0.16076E-01
         0.16078E-01
         0.12448E-01
         0.11077E-01
         0.15174E-01
         0.99621E-02
         0.84567E-02
         0.68080E-02
         0.80167E-02
         0.13311E-01
         0.89634E-02
         0.58596E-01
         0.60145E-01
         0.63139E-01
         0.62700E-01
         0.66625E-01
         0.71297E-01
         0.68303E-01
         0.60913E-01
         0.59380E-01
         0.63474E-01
         0.62389E-01
         0.61814E-01
         0.50988E-01
         0.48486E-01
         0.53438E-01
         0.57428E-01
         0.59611E-01
         0.64976E-01
         0.62152E-01
         0.63837E-01
         0.57443E-01
         0.54585E-01
         0.57887E-01
         0.56259E-01
         0.58000E-01
         0.57540E-01
         0.10713E-01
         0.65565E-02
         0.62669E-02
         0.45211E-02
         0.10951E-01
         0.76796E-02
         0.40656E-02
         0.10608E-01
         0.68911E-02
         0.10371E-01
         0.52722E-02
         0.20453E-01
         0.15718E-01
         0.77258E-02
         0.21858E-01
         0.79161E-02
         0.44940E-02
         0.28642E-02
         0.55334E-02
         0.33636E-02
         0.16146E-01
         0.15121E-01
         0.14743E-01
         0.42367E-02
         0.70362E-02
         0.26702E-02
         0.76723E-02
         0.25027E-02
         0.37002E-02
         0.72778E-02
         0.68276E-02
         0.38924E-02
         0.44162E-02
         0.41241E-02
         0.14327E-01
         0.86227E-02
         0.11018E-01
         0.18065E-01
         0.14180E-01
         0.13018E-01
         0.18061E-01
         0.16328E-01
         0.16307E-01
         0.12665E-01
         0.11325E-01
         0.15432E-01
         0.10250E-01
         0.87439E-02
         0.71262E-02
         0.83146E-02
         0.13563E-01
         0.92386E-02
         0.58967E-01
         0.60515E-01
         0.63534E-01
         0.63084E-01
         0.67018E-01
         0.71707E-01
         0.68709E-01
         0.61316E-01
         0.59786E-01
         0.63891E-01
         0.62802E-01
         0.62214E-01
         0.51322E-01
         0.48796E-01
         0.53762E-01
         0.57770E-01
         0.59962E-01
         0.65361E-01
         0.62546E-01
         0.64237E-01
         0.57798E-01
         0.54924E-01
         0.58227E-01
         0.56581E-01
         0.58324E-01
         0.57863E-01
         0.25348E-01
         0.22832E-01
         0.22368E-01
         0.19814E-01
         0.27628E-01
         0.24121E-01
         0.23063E-01
         0.27365E-01
         0.21848E-01
         0.27140E-01
         0.25543E-01
         0.39590E-01
         0.33391E-01
         0.27442E-01
         0.41798E-01
         0.22300E-01
         0.21367E-01
         0.18318E-01
         0.22457E-01
         0.22536E-01
         0.32354E-01
         0.31863E-01
         0.30357E-01
         0.21120E-01
         0.24971E-01
         0.19894E-01
         0.27371E-01
         0.24820E-01
         0.25257E-01
         0.25813E-01
         0.21664E-01
         0.20899E-01
         0.19895E-01
         0.20541E-01
         0.31965E-01
         0.26023E-01
         0.27906E-01
         0.37750E-01
         0.33739E-01
         0.32503E-01
         0.37429E-01
         0.34864E-01
         0.33871E-01
         0.28074E-01
         0.27506E-01
         0.32858E-01
         0.27292E-01
         0.25122E-01
         0.23672E-01
         0.25110E-01
         0.30607E-01
         0.25789E-01
         0.83357E-01
         0.84526E-01
         0.88299E-01
         0.87479E-01
         0.92369E-01
         0.98743E-01
         0.96456E-01
         0.88569E-01
         0.86838E-01
         0.91498E-01
         0.89804E-01
         0.87927E-01
         0.74421E-01
         0.70850E-01
         0.75823E-01
         0.79866E-01
         0.82303E-01
         0.89226E-01
         0.87090E-01
         0.89138E-01
         0.81320E-01
         0.77859E-01
         0.81873E-01
         0.80112E-01
         0.81712E-01
         0.80908E-01
  
SCALARS                     nodal_mass  double 1
LOOKUP_TABLE default
         0.24608E-05
         0.19551E-05
         0.20945E-05
         0.35953E-05
         0.12304E-05
         0.97770E-06
         0.10472E-05
         0.17973E-05
         0.19315E-05
         0.24627E-05
         0.96570E-06
         0.12312E-05
         0.13823E-05
         0.16614E-05
         0.69133E-06
         0.83095E-06
         0.27274E-05
         0.20125E-05
         0.13635E-05
         0.10066E-05
         0.81737E-06
         0.15393E-05
         0.16929E-05
         0.40889E-06
         0.76975E-06
         0.84649E-06
         0.13859E-05
         0.17532E-05
         0.69345E-06
         0.87672E-06
         0.32470E-05
         0.25355E-05
         0.32225E-05
         0.16233E-05
         0.12675E-05
         0.16109E-05
         0.18980E-05
         0.21673E-05
         0.94902E-06
         0.10836E-05
         0.20482E-05
         0.22683E-05
         0.10242E-05
         0.11342E-05
         0.17426E-05
         0.10823E-05
         0.87140E-06
         0.54121E-06
         0.20598E-05
         0.10301E-05
         0.17103E-05
         0.85523E-06
         0.17977E-05
         0.89958E-06
         0.18362E-05
         0.91859E-06
         0.15911E-05
         0.19369E-05
         0.79575E-06
         0.96860E-06
         0.24553E-05
         0.17361E-05
         0.12277E-05
         0.86816E-06
         0.27409E-05
         0.13702E-05
         0.23792E-05
         0.11891E-05
         0.10821E-05
         0.16705E-05
         0.54106E-06
         0.83538E-06
         0.18955E-05
         0.94787E-06
         0.20026E-05
         0.10014E-05
         0.19316E-05
         0.96578E-06
         0.15181E-05
         0.75906E-06
         0.95443E-06
         0.15782E-05
         0.47723E-06
         0.78918E-06
         0.20886E-05
         0.10443E-05
         0.16867E-05
         0.84342E-06
         0.14838E-05
         0.74203E-06
         0.97224E-06
         0.16569E-05
         0.48620E-06
         0.82849E-06
         0.22482E-05
         0.11241E-05
         0.23568E-05
         0.11783E-05
         0.19018E-05
         0.95085E-06
         0.11709E-05
         0.20091E-05
         0.58544E-06
         0.10044E-05
         0.74681E-06
         0.94889E-06
         0.37348E-06
         0.47447E-06
         0.88885E-06
         0.44455E-06
         0.10466E-05
         0.52333E-06
         0.10205E-05
         0.51021E-06
         0.99108E-06
         0.49550E-06
         0.10560E-05
         0.52791E-06
         0.11142E-05
         0.55694E-06
         0.10497E-05
         0.52469E-06
         0.82085E-06
         0.41039E-06
         0.66950E-06
         0.33475E-06
         0.86397E-06
         0.43199E-06
         0.11504E-05
         0.57519E-06
         0.12637E-05
         0.63182E-06
         0.12132E-05
         0.60658E-06
         0.10948E-05
         0.54745E-06
         0.99429E-06
         0.49718E-06
         0.80759E-06
         0.40382E-06
         0.67982E-06
         0.33995E-06
         0.88797E-06
         0.44401E-06
         0.11753E-05
         0.58766E-06
         0.12140E-05
         0.60702E-06
         0.98236E-06
         0.49125E-06
         0.79766E-06
         0.39889E-06
         0.97540E-06
         0.48769E-06
         0.11548E-05
         0.57743E-06
         0.24609E-05
         0.19547E-05
         0.20946E-05
         0.35969E-05
         0.19318E-05
         0.24634E-05
         0.13815E-05
         0.16603E-05
         0.27283E-05
         0.20111E-05
         0.81658E-06
         0.15390E-05
         0.16927E-05
         0.13839E-05
         0.17528E-05
         0.32479E-05
         0.25367E-05
         0.32241E-05
         0.18980E-05
         0.21675E-05
         0.20481E-05
         0.22684E-05
         0.17424E-05
         0.10822E-05
         0.20589E-05
         0.17102E-05
         0.17950E-05
         0.18344E-05
         0.15904E-05
         0.19365E-05
         0.24555E-05
         0.17359E-05
         0.27423E-05
         0.23814E-05
         0.10820E-05
         0.16702E-05
         0.18953E-05
         0.20025E-05
         0.19317E-05
         0.15181E-05
         0.95442E-06
         0.15780E-05
         0.20884E-05
         0.16864E-05
         0.14835E-05
         0.97197E-06
         0.16567E-05
         0.22482E-05
         0.23571E-05
         0.19022E-05
         0.11709E-05
         0.20101E-05
         0.74658E-06
         0.94886E-06
         0.88841E-06
         0.10467E-05
         0.10207E-05
         0.99128E-06
         0.10565E-05
         0.11150E-05
         0.10503E-05
         0.82102E-06
         0.66954E-06
         0.86398E-06
         0.11506E-05
         0.12640E-05
         0.12133E-05
         0.10948E-05
         0.99421E-06
         0.80751E-06
         0.67970E-06
         0.88789E-06
         0.11752E-05
         0.12140E-05
         0.98215E-06
         0.79747E-06
         0.97551E-06
         0.11548E-05
         0.24611E-05
         0.19543E-05
         0.20949E-05
         0.35987E-05
         0.19321E-05
         0.24642E-05
         0.13808E-05
         0.16594E-05
         0.27293E-05
         0.20098E-05
         0.81582E-06
         0.15388E-05
         0.16927E-05
         0.13821E-05
         0.17525E-05
         0.32489E-05
         0.25379E-05
         0.32257E-05
         0.18982E-05
         0.21678E-05
         0.20480E-05
         0.22685E-05
         0.17423E-05
         0.10821E-05
         0.20580E-05
         0.17101E-05
         0.17924E-05
         0.18326E-05
         0.15898E-05
         0.19361E-05
         0.24558E-05
         0.17357E-05
         0.27438E-05
         0.23836E-05
         0.10821E-05
         0.16699E-05
         0.18951E-05
         0.20024E-05
         0.19318E-05
         0.15183E-05
         0.95445E-06
         0.15778E-05
         0.20884E-05
         0.16862E-05
         0.14831E-05
         0.97174E-06
         0.16566E-05
         0.22483E-05
         0.23575E-05
         0.19026E-05
         0.11709E-05
         0.20112E-05
         0.74636E-06
         0.94886E-06
         0.88800E-06
         0.10467E-05
         0.10210E-05
         0.99152E-06
         0.10570E-05
         0.11159E-05
         0.10509E-05
         0.82122E-06
         0.66961E-06
         0.86402E-06
         0.11507E-05
         0.12643E-05
         0.12135E-05
         0.10948E-05
         0.99417E-06
         0.80747E-06
         0.67961E-06
         0.88784E-06
         0.11752E-05
         0.12140E-05
         0.98197E-06
         0.79731E-06
         0.97565E-06
         0.11548E-05
         0.24612E-05
         0.19539E-05
         0.20950E-05
         0.36004E-05
         0.19324E-05
         0.24650E-05
         0.13801E-05
         0.16584E-05
         0.27303E-05
         0.20085E-05
         0.81504E-06
         0.15385E-05
         0.16925E-05
         0.13801E-05
         0.17521E-05
         0.32498E-05
         0.25390E-05
         0.32274E-05
         0.18982E-05
         0.21681E-05
         0.20479E-05
         0.22686E-05
         0.17421E-05
         0.10820E-05
         0.20571E-05
         0.17099E-05
         0.17897E-05
         0.18308E-05
         0.15891E-05
         0.19356E-05
         0.24561E-05
         0.17355E-05
         0.27453E-05
         0.23857E-05
         0.10820E-05
         0.16696E-05
         0.18948E-05
         0.20022E-05
         0.19320E-05
         0.15183E-05
         0.95445E-06
         0.15776E-05
         0.20883E-05
         0.16859E-05
         0.14828E-05
         0.97149E-06
         0.16564E-05
         0.22483E-05
         0.23578E-05
         0.19030E-05
         0.11710E-05
         0.20122E-05
         0.74613E-06
         0.94884E-06
         0.88756E-06
         0.10467E-05
         0.10212E-05
         0.99173E-06
         0.10574E-05
         0.11167E-05
         0.10515E-05
         0.82140E-06
         0.66966E-06
         0.86404E-06
         0.11509E-05
         0.12646E-05
         0.12136E-05
         0.10947E-05
         0.99410E-06
         0.80740E-06
         0.67950E-06
         0.88777E-06
         0.11752E-05
         0.12140E-05
         0.98177E-06
         0.79713E-06
         0.97576E-06
         0.11547E-05
         0.24613E-05
         0.19535E-05
         0.20952E-05
         0.36022E-05
         0.19327E-05
         0.24657E-05
         0.13794E-05
         0.16574E-05
         0.27313E-05
         0.20072E-05
         0.81426E-06
         0.15382E-05
         0.16924E-05
         0.13782E-05
         0.17517E-05
         0.32508E-05
         0.25402E-05
         0.32290E-05
         0.18983E-05
         0.21684E-05
         0.20479E-05
         0.22687E-05
         0.17420E-05
         0.10819E-05
         0.20563E-05
         0.17098E-05
         0.17870E-05
         0.18290E-05
         0.15884E-05
         0.19352E-05
         0.24563E-05
         0.17353E-05
         0.27467E-05
         0.23879E-05
         0.10820E-05
         0.16693E-05
         0.18946E-05
         0.20021E-05
         0.19321E-05
         0.15184E-05
         0.95445E-06
         0.15773E-05
         0.20882E-05
         0.16857E-05
         0.14824E-05
         0.97124E-06
         0.16563E-05
         0.22484E-05
         0.23582E-05
         0.19034E-05
         0.11710E-05
         0.20132E-05
         0.74590E-06
         0.94883E-06
         0.88713E-06
         0.10468E-05
         0.10215E-05
         0.99194E-06
         0.10579E-05
         0.11175E-05
         0.10521E-05
         0.82159E-06
         0.66972E-06
         0.86406E-06
         0.11510E-05
         0.12649E-05
         0.12138E-05
         0.10947E-05
         0.99404E-06
         0.80734E-06
         0.67940E-06
         0.88771E-06
         0.11752E-05
         0.12140E-05
         0.98157E-06
         0.79696E-06
         0.97588E-06
         0.11547E-05
         0.24615E-05
         0.19531E-05
         0.20954E-05
         0.36039E-05
         0.19331E-05
         0.24665E-05
         0.13787E-05
         0.16564E-05
         0.27322E-05
         0.20059E-05
         0.81349E-06
         0.15380E-05
         0.16923E-05
         0.13763E-05
         0.17514E-05
         0.32518E-05
         0.25414E-05
         0.32306E-05
         0.18984E-05
         0.21687E-05
         0.20478E-05
         0.22688E-05
         0.17418E-05
         0.10818E-05
         0.20554E-05
         0.17096E-05
         0.17843E-05
         0.18272E-05
         0.15878E-05
         0.19347E-05
         0.24566E-05
         0.17351E-05
         0.27482E-05
         0.23901E-05
         0.10820E-05
         0.16690E-05
         0.18943E-05
         0.20019E-05
         0.19322E-05
         0.15185E-05
         0.95446E-06
         0.15771E-05
         0.20881E-05
         0.16855E-05
         0.14821E-05
         0.97100E-06
         0.16562E-05
         0.22484E-05
         0.23586E-05
         0.19038E-05
         0.11710E-05
         0.20142E-05
         0.74568E-06
         0.94882E-06
         0.88671E-06
         0.10468E-05
         0.10217E-05
         0.99216E-06
         0.10583E-05
         0.11183E-05
         0.10528E-05
         0.82178E-06
         0.66977E-06
         0.86408E-06
         0.11512E-05
         0.12652E-05
         0.12139E-05
         0.10947E-05
         0.99398E-06
         0.80728E-06
         0.67930E-06
         0.88766E-06
         0.11752E-05
         0.12140E-05
         0.98138E-06
         0.79679E-06
         0.97601E-06
         0.11547E-05
         0.24616E-05
         0.19527E-05
         0.20956E-05
         0.36056E-05
         0.19334E-05
         0.24672E-05
         0.13779E-05
         0.16554E-05
         0.27332E-05
         0.20046E-05
         0.81271E-06
         0.15377E-05
         0.16922E-05
         0.13744E-05
         0.17510E-05
         0.32527E-05
         0.25425E-05
         0.32322E-05
         0.18984E-05
         0.21689E-05
         0.20477E-05
         0.22689E-05
         0.17416E-05
         0.10816E-05
         0.20545E-05
         0.17095E-05
         0.17817E-05
         0.18254E-05
         0.15871E-05
         0.19343E-05
         0.24568E-05
         0.17349E-05
         0.27496E-05
         0.23922E-05
         0.10820E-05
         0.16686E-05
         0.18941E-05
         0.20018E-05
         0.19324E-05
         0.15186E-05
         0.95446E-06
         0.15769E-05
         0.20880E-05
         0.16852E-05
         0.14817E-05
         0.97074E-06
         0.16560E-05
         0.22484E-05
         0.23589E-05
         0.19042E-05
         0.11710E-05
         0.20152E-05
         0.74544E-06
         0.94880E-06
         0.88627E-06
         0.10469E-05
         0.10219E-05
         0.99237E-06
         0.10588E-05
         0.11191E-05
         0.10534E-05
         0.82196E-06
         0.66982E-06
         0.86410E-06
         0.11513E-05
         0.12654E-05
         0.12140E-05
         0.10947E-05
         0.99391E-06
         0.80721E-06
         0.67919E-06
         0.88759E-06
         0.11751E-05
         0.12140E-05
         0.98118E-06
         0.79661E-06
         0.97612E-06
         0.11546E-05
         0.24618E-05
         0.19523E-05
         0.20957E-05
         0.36073E-05
         0.19337E-05
         0.24680E-05
         0.13772E-05
         0.16545E-05
         0.27341E-05
         0.20033E-05
         0.81194E-06
         0.15374E-05
         0.16921E-05
         0.13725E-05
         0.17506E-05
         0.32537E-05
         0.25437E-05
         0.32339E-05
         0.18985E-05
         0.21692E-05
         0.20476E-05
         0.22690E-05
         0.17414E-05
         0.10815E-05
         0.20536E-05
         0.17093E-05
         0.17790E-05
         0.18236E-05
         0.15864E-05
         0.19339E-05
         0.24571E-05
         0.17347E-05
         0.27511E-05
         0.23944E-05
         0.10820E-05
         0.16683E-05
         0.18938E-05
         0.20016E-05
         0.19325E-05
         0.15186E-05
         0.95446E-06
         0.15767E-05
         0.20878E-05
         0.16850E-05
         0.14814E-05
         0.97050E-06
         0.16559E-05
         0.22484E-05
         0.23593E-05
         0.19046E-05
         0.11711E-05
         0.20162E-05
         0.74522E-06
         0.94878E-06
         0.88584E-06
         0.10469E-05
         0.10222E-05
         0.99258E-06
         0.10593E-05
         0.11199E-05
         0.10540E-05
         0.82215E-06
         0.66988E-06
         0.86413E-06
         0.11515E-05
         0.12657E-05
         0.12142E-05
         0.10946E-05
         0.99385E-06
         0.80715E-06
         0.67909E-06
         0.88752E-06
         0.11751E-05
         0.12140E-05
         0.98098E-06
         0.79643E-06
         0.97624E-06
         0.11546E-05
         0.24619E-05
         0.19519E-05
         0.20959E-05
         0.36091E-05
         0.19340E-05
         0.24688E-05
         0.13765E-05
         0.16535E-05
         0.27351E-05
         0.20020E-05
         0.81117E-06
         0.15372E-05
         0.16920E-05
         0.13706E-05
         0.17503E-05
         0.32546E-05
         0.25448E-05
         0.32355E-05
         0.18986E-05
         0.21695E-05
         0.20475E-05
         0.22691E-05
         0.17413E-05
         0.10814E-05
         0.20527E-05
         0.17092E-05
         0.17763E-05
         0.18219E-05
         0.15858E-05
         0.19334E-05
         0.24573E-05
         0.17345E-05
         0.27525E-05
         0.23966E-05
         0.10820E-05
         0.16680E-05
         0.18936E-05
         0.20015E-05
         0.19326E-05
         0.15187E-05
         0.95447E-06
         0.15765E-05
         0.20878E-05
         0.16848E-05
         0.14810E-05
         0.97025E-06
         0.16557E-05
         0.22485E-05
         0.23597E-05
         0.19050E-05
         0.11711E-05
         0.20172E-05
         0.74499E-06
         0.94877E-06
         0.88541E-06
         0.10469E-05
         0.10224E-05
         0.99280E-06
         0.10597E-05
         0.11207E-05
         0.10546E-05
         0.82234E-06
         0.66994E-06
         0.86415E-06
         0.11517E-05
         0.12660E-05
         0.12143E-05
         0.10946E-05
         0.99379E-06
         0.80709E-06
         0.67898E-06
         0.88746E-06
         0.11751E-05
         0.12140E-05
         0.98079E-06
         0.79626E-06
         0.97636E-06
         0.11546E-05
         0.24621E-05
         0.19515E-05
         0.20961E-05
         0.36108E-05
         0.19343E-05
         0.24695E-05
         0.13758E-05
         0.16525E-05
         0.27361E-05
         0.20006E-05
         0.81039E-06
         0.15369E-05
         0.16919E-05
         0.13686E-05
         0.17499E-05
         0.32556E-05
         0.25460E-05
         0.32371E-05
         0.18986E-05
         0.21697E-05
         0.20474E-05
         0.22692E-05
         0.17411E-05
         0.10813E-05
         0.20519E-05
         0.17091E-05
         0.17736E-05
         0.18201E-05
         0.15851E-05
         0.19330E-05
         0.24575E-05
         0.17342E-05
         0.27540E-05
         0.23987E-05
         0.10820E-05
         0.16677E-05
         0.18933E-05
         0.20014E-05
         0.19328E-05
         0.15188E-05
         0.95448E-06
         0.15763E-05
         0.20876E-05
         0.16845E-05
         0.14807E-05
         0.97000E-06
         0.16556E-05
         0.22485E-05
         0.23600E-05
         0.19053E-05
         0.11711E-05
         0.20182E-05
         0.74476E-06
         0.94875E-06
         0.88498E-06
         0.10470E-05
         0.10227E-05
         0.99301E-06
         0.10602E-05
         0.11215E-05
         0.10553E-05
         0.82252E-06
         0.66999E-06
         0.86417E-06
         0.11518E-05
         0.12663E-05
         0.12145E-05
         0.10946E-05
         0.99373E-06
         0.80702E-06
         0.67888E-06
         0.88740E-06
         0.11751E-05
         0.12140E-05
         0.98058E-06
         0.79608E-06
         0.97648E-06
         0.11546E-05
         0.24622E-05
         0.19511E-05
         0.20963E-05
         0.36125E-05
         0.19346E-05
         0.24703E-05
         0.13751E-05
         0.16515E-05
         0.27370E-05
         0.19993E-05
         0.80962E-06
         0.15366E-05
         0.16917E-05
         0.13667E-05
         0.17495E-05
         0.32565E-05
         0.25471E-05
         0.32388E-05
         0.18987E-05
         0.21700E-05
         0.20473E-05
         0.22693E-05
         0.17409E-05
         0.10812E-05
         0.20510E-05
         0.17089E-05
         0.17710E-05
         0.18183E-05
         0.15844E-05
         0.19325E-05
         0.24578E-05
         0.17340E-05
         0.27554E-05
         0.24009E-05
         0.10820E-05
         0.16674E-05
         0.18931E-05
         0.20012E-05
         0.19329E-05
         0.15189E-05
         0.95448E-06
         0.15760E-05
         0.20875E-05
         0.16843E-05
         0.14803E-05
         0.96975E-06
         0.16555E-05
         0.22485E-05
         0.23604E-05
         0.19057E-05
         0.11712E-05
         0.20192E-05
         0.74453E-06
         0.94874E-06
         0.88455E-06
         0.10470E-05
         0.10229E-05
         0.99322E-06
         0.10606E-05
         0.11223E-05
         0.10559E-05
         0.82270E-06
         0.67004E-06
         0.86419E-06
         0.11520E-05
         0.12666E-05
         0.12146E-05
         0.10945E-05
         0.99366E-06
         0.80696E-06
         0.67877E-06
         0.88733E-06
         0.11751E-05
         0.12140E-05
         0.98038E-06
         0.79590E-06
         0.97660E-06
         0.11545E-05
         0.24623E-05
         0.19507E-05
         0.20964E-05
         0.36142E-05
         0.19349E-05
         0.24710E-05
         0.13743E-05
         0.16505E-05
         0.27380E-05
         0.19980E-05
         0.80885E-06
         0.15364E-05
         0.16916E-05
         0.13648E-05
         0.17492E-05
         0.32575E-05
         0.25483E-05
         0.32404E-05
         0.18988E-05
         0.21703E-05
         0.20473E-05
         0.22694E-05
         0.17407E-05
         0.10811E-05
         0.20501E-05
         0.17088E-05
         0.17683E-05
         0.18165E-05
         0.15837E-05
         0.19321E-05
         0.24580E-05
         0.17338E-05
         0.27569E-05
         0.24031E-05
         0.10820E-05
         0.16670E-05
         0.18928E-05
         0.20011E-05
         0.19330E-05
         0.15189E-05
         0.95448E-06
         0.15758E-05
         0.20874E-05
         0.16840E-05
         0.14800E-05
         0.96950E-06
         0.16553E-05
         0.22485E-05
         0.23608E-05
         0.19061E-05
         0.11712E-05
         0.20202E-05
         0.74430E-06
         0.94872E-06
         0.88412E-06
         0.10470E-05
         0.10231E-05
         0.99344E-06
         0.10611E-05
         0.11231E-05
         0.10565E-05
         0.82289E-06
         0.67009E-06
         0.86422E-06
         0.11521E-05
         0.12669E-05
         0.12147E-05
         0.10945E-05
         0.99360E-06
         0.80690E-06
         0.67867E-06
         0.88727E-06
         0.11750E-05
         0.12140E-05
         0.98019E-06
         0.79573E-06
         0.97672E-06
         0.11545E-05
         0.24625E-05
         0.19503E-05
         0.20966E-05
         0.36160E-05
         0.19352E-05
         0.24718E-05
         0.13736E-05
         0.16496E-05
         0.27389E-05
         0.19967E-05
         0.80807E-06
         0.15361E-05
         0.16915E-05
         0.13629E-05
         0.17488E-05
         0.32584E-05
         0.25495E-05
         0.32420E-05
         0.18988E-05
         0.21705E-05
         0.20472E-05
         0.22695E-05
         0.17406E-05
         0.10810E-05
         0.20492E-05
         0.17086E-05
         0.17656E-05
         0.18147E-05
         0.15831E-05
         0.19317E-05
         0.24583E-05
         0.17336E-05
         0.27583E-05
         0.24053E-05
         0.10820E-05
         0.16667E-05
         0.18926E-05
         0.20009E-05
         0.19331E-05
         0.15190E-05
         0.95449E-06
         0.15756E-05
         0.20873E-05
         0.16838E-05
         0.14796E-05
         0.96925E-06
         0.16552E-05
         0.22486E-05
         0.23611E-05
         0.19065E-05
         0.11712E-05
         0.20212E-05
         0.74407E-06
         0.94870E-06
         0.88368E-06
         0.10471E-05
         0.10234E-05
         0.99365E-06
         0.10616E-05
         0.11239E-05
         0.10571E-05
         0.82307E-06
         0.67014E-06
         0.86424E-06
         0.11523E-05
         0.12672E-05
         0.12149E-05
         0.10945E-05
         0.99354E-06
         0.80683E-06
         0.67856E-06
         0.88721E-06
         0.11750E-05
         0.12140E-05
         0.97999E-06
         0.79555E-06
         0.97684E-06
         0.11545E-05
         0.24626E-05
         0.19499E-05
         0.20968E-05
         0.36177E-05
         0.19355E-05
         0.24725E-05
         0.13729E-05
         0.16486E-05
         0.27399E-05
         0.19954E-05
         0.80730E-06
         0.15358E-05
         0.16914E-05
         0.13610E-05
         0.17484E-05
         0.32594E-05
         0.25506E-05
         0.32437E-05
         0.18989E-05
         0.21708E-05
         0.20471E-05
         0.22696E-05
         0.17404E-05
         0.10808E-05
         0.20483E-05
         0.17085E-05
         0.17629E-05
         0.18129E-05
         0.15824E-05
         0.19312E-05
         0.24585E-05
         0.17334E-05
         0.27598E-05
         0.24074E-05
         0.10820E-05
         0.16664E-05
         0.18923E-05
         0.20008E-05
         0.19333E-05
         0.15191E-05
         0.95449E-06
         0.15754E-05
         0.20872E-05
         0.16835E-05
         0.14793E-05
         0.96901E-06
         0.16550E-05
         0.22486E-05
         0.23615E-05
         0.19069E-05
         0.11713E-05
         0.20222E-05
         0.74384E-06
         0.94869E-06
         0.88325E-06
         0.10471E-05
         0.10236E-05
         0.99386E-06
         0.10620E-05
         0.11247E-05
         0.10577E-05
         0.82326E-06
         0.67020E-06
         0.86426E-06
         0.11524E-05
         0.12674E-05
         0.12150E-05
         0.10944E-05
         0.99348E-06
         0.80677E-06
         0.67846E-06
         0.88714E-06
         0.11750E-05
         0.12140E-05
         0.97979E-06
         0.79538E-06
         0.97696E-06
         0.11544E-05
         0.24628E-05
         0.19495E-05
         0.20970E-05
         0.36194E-05
         0.19358E-05
         0.24733E-05
         0.13722E-05
         0.16476E-05
         0.27409E-05
         0.19941E-05
         0.80652E-06
         0.15355E-05
         0.16913E-05
         0.13591E-05
         0.17481E-05
         0.32604E-05
         0.25518E-05
         0.32453E-05
         0.18990E-05
         0.21711E-05
         0.20470E-05
         0.22697E-05
         0.17402E-05
         0.10807E-05
         0.20474E-05
         0.17084E-05
         0.17603E-05
         0.18111E-05
         0.15817E-05
         0.19308E-05
         0.24588E-05
         0.17332E-05
         0.27613E-05
         0.24096E-05
         0.10819E-05
         0.16661E-05
         0.18921E-05
         0.20006E-05
         0.19334E-05
         0.15192E-05
         0.95450E-06
         0.15752E-05
         0.20871E-05
         0.16833E-05
         0.14789E-05
         0.96876E-06
         0.16549E-05
         0.22486E-05
         0.23619E-05
         0.19073E-05
         0.11713E-05
         0.20232E-05
         0.74362E-06
         0.94868E-06
         0.88282E-06
         0.10472E-05
         0.10238E-05
         0.99408E-06
         0.10625E-05
         0.11255E-05
         0.10584E-05
         0.82345E-06
         0.67025E-06
         0.86428E-06
         0.11526E-05
         0.12677E-05
         0.12152E-05
         0.10944E-05
         0.99342E-06
         0.80671E-06
         0.67836E-06
         0.88709E-06
         0.11750E-05
         0.12140E-05
         0.97959E-06
         0.79521E-06
         0.97708E-06
         0.11544E-05
         0.24629E-05
         0.19491E-05
         0.20972E-05
         0.36212E-05
         0.19361E-05
         0.24741E-05
         0.13715E-05
         0.16466E-05
         0.27418E-05
         0.19928E-05
         0.80575E-06
         0.15353E-05
         0.16912E-05
         0.13572E-05
         0.17477E-05
         0.32613E-05
         0.25529E-05
         0.32469E-05
         0.18990E-05
         0.21714E-05
         0.20469E-05
         0.22698E-05
         0.17400E-05
         0.10806E-05
         0.20466E-05
         0.17082E-05
         0.17576E-05
         0.18093E-05
         0.15810E-05
         0.19303E-05
         0.24590E-05
         0.17330E-05
         0.27627E-05
         0.24118E-05
         0.10819E-05
         0.16658E-05
         0.18919E-05
         0.20005E-05
         0.19335E-05
         0.15192E-05
         0.95450E-06
         0.15750E-05
         0.20870E-05
         0.16831E-05
         0.14786E-05
         0.96851E-06
         0.16548E-05
         0.22487E-05
         0.23622E-05
         0.19077E-05
         0.11713E-05
         0.20242E-05
         0.74339E-06
         0.94866E-06
         0.88239E-06
         0.10472E-05
         0.10241E-05
         0.99429E-06
         0.10630E-05
         0.11263E-05
         0.10590E-05
         0.82363E-06
         0.67030E-06
         0.86430E-06
         0.11527E-05
         0.12680E-05
         0.12153E-05
         0.10944E-05
         0.99335E-06
         0.80665E-06
         0.67825E-06
         0.88702E-06
         0.11749E-05
         0.12140E-05
         0.97939E-06
         0.79503E-06
         0.97720E-06
         0.11544E-05
         0.24631E-05
         0.19487E-05
         0.20973E-05
         0.36229E-05
         0.19364E-05
         0.24748E-05
         0.13707E-05
         0.16456E-05
         0.27428E-05
         0.19915E-05
         0.80498E-06
         0.15350E-05
         0.16911E-05
         0.13553E-05
         0.17473E-05
         0.32623E-05
         0.25541E-05
         0.32486E-05
         0.18991E-05
         0.21716E-05
         0.20468E-05
         0.22699E-05
         0.17399E-05
         0.10805E-05
         0.20457E-05
         0.17081E-05
         0.17549E-05
         0.18075E-05
         0.15804E-05
         0.19299E-05
         0.24592E-05
         0.17328E-05
         0.27642E-05
         0.24140E-05
         0.10819E-05
         0.16654E-05
         0.18916E-05
         0.20003E-05
         0.19337E-05
         0.15193E-05
         0.95450E-06
         0.15748E-05
         0.20869E-05
         0.16828E-05
         0.14782E-05
         0.96826E-06
         0.16546E-05
         0.22487E-05
         0.23626E-05
         0.19081E-05
         0.11714E-05
         0.20253E-05
         0.74316E-06
         0.94864E-06
         0.88196E-06
         0.10472E-05
         0.10243E-05
         0.99450E-06
         0.10634E-05
         0.11271E-05
         0.10596E-05
         0.82381E-06
         0.67036E-06
         0.86432E-06
         0.11529E-05
         0.12683E-05
         0.12154E-05
         0.10943E-05
         0.99329E-06
         0.80658E-06
         0.67815E-06
         0.88696E-06
         0.11749E-05
         0.12140E-05
         0.97919E-06
         0.79485E-06
         0.97732E-06
         0.11544E-05
         0.24632E-05
         0.19483E-05
         0.20975E-05
         0.36246E-05
         0.19368E-05
         0.24756E-05
         0.13700E-05
         0.16447E-05
         0.27437E-05
         0.19902E-05
         0.80421E-06
         0.15347E-05
         0.16910E-05
         0.13534E-05
         0.17470E-05
         0.32632E-05
         0.25552E-05
         0.32502E-05
         0.18992E-05
         0.21719E-05
         0.20467E-05
         0.22700E-05
         0.17397E-05
         0.10804E-05
         0.20448E-05
         0.17079E-05
         0.17523E-05
         0.18057E-05
         0.15797E-05
         0.19295E-05
         0.24595E-05
         0.17326E-05
         0.27656E-05
         0.24161E-05
         0.10819E-05
         0.16651E-05
         0.18914E-05
         0.20002E-05
         0.19338E-05
         0.15194E-05
         0.95451E-06
         0.15745E-05
         0.20868E-05
         0.16826E-05
         0.14779E-05
         0.96801E-06
         0.16545E-05
         0.22487E-05
         0.23630E-05
         0.19085E-05
         0.11714E-05
         0.20263E-05
         0.74293E-06
         0.94863E-06
         0.88153E-06
         0.10473E-05
         0.10245E-05
         0.99472E-06
         0.10639E-05
         0.11279E-05
         0.10602E-05
         0.82400E-06
         0.67041E-06
         0.86435E-06
         0.11530E-05
         0.12686E-05
         0.12156E-05
         0.10943E-05
         0.99323E-06
         0.80652E-06
         0.67804E-06
         0.88690E-06
         0.11749E-05
         0.12140E-05
         0.97900E-06
         0.79468E-06
         0.97744E-06
         0.11543E-05
         0.24633E-05
         0.19479E-05
         0.20977E-05
         0.36264E-05
         0.19371E-05
         0.24763E-05
         0.13693E-05
         0.16437E-05
         0.27447E-05
         0.19888E-05
         0.80343E-06
         0.15345E-05
         0.16908E-05
         0.13515E-05
         0.17466E-05
         0.32642E-05
         0.25564E-05
         0.32518E-05
         0.18992E-05
         0.21722E-05
         0.20466E-05
         0.22701E-05
         0.17395E-05
         0.10803E-05
         0.20439E-05
         0.17078E-05
         0.17496E-05
         0.18039E-05
         0.15790E-05
         0.19290E-05
         0.24597E-05
         0.17323E-05
         0.27671E-05
         0.24183E-05
         0.10819E-05
         0.16648E-05
         0.18911E-05
         0.20001E-05
         0.19339E-05
         0.15195E-05
         0.95452E-06
         0.15743E-05
         0.20867E-05
         0.16823E-05
         0.14775E-05
         0.96776E-06
         0.16543E-05
         0.22487E-05
         0.23633E-05
         0.19089E-05
         0.11714E-05
         0.20273E-05
         0.74270E-06
         0.94861E-06
         0.88109E-06
         0.10473E-05
         0.10248E-05
         0.99493E-06
         0.10643E-05
         0.11287E-05
         0.10609E-05
         0.82418E-06
         0.67046E-06
         0.86437E-06
         0.11532E-05
         0.12689E-05
         0.12157E-05
         0.10943E-05
         0.99316E-06
         0.80646E-06
         0.67794E-06
         0.88683E-06
         0.11749E-05
         0.12140E-05
         0.97879E-06
         0.79450E-06
         0.97755E-06
         0.11543E-05
         0.24635E-05
         0.19475E-05
         0.20979E-05
         0.36281E-05
         0.19374E-05
         0.24771E-05
         0.13686E-05
         0.16427E-05
         0.27456E-05
         0.19875E-05
         0.80266E-06
         0.15342E-05
         0.16907E-05
         0.13496E-05
         0.17463E-05
         0.32651E-05
         0.25575E-05
         0.32534E-05
         0.18993E-05
         0.21724E-05
         0.20466E-05
         0.22702E-05
         0.17393E-05
         0.10802E-05
         0.20430E-05
         0.17076E-05
         0.17469E-05
         0.18021E-05
         0.15784E-05
         0.19286E-05
         0.24600E-05
         0.17321E-05
         0.27685E-05
         0.24205E-05
         0.10819E-05
         0.16645E-05
         0.18909E-05
         0.19999E-05
         0.19341E-05
         0.15195E-05
         0.95452E-06
         0.15741E-05
         0.20866E-05
         0.16821E-05
         0.14772E-05
         0.96751E-06
         0.16542E-05
         0.22488E-05
         0.23637E-05
         0.19092E-05
         0.11715E-05
         0.20283E-05
         0.74247E-06
         0.94860E-06
         0.88066E-06
         0.10473E-05
         0.10250E-05
         0.99514E-06
         0.10648E-05
         0.11295E-05
         0.10615E-05
         0.82437E-06
         0.67052E-06
         0.86439E-06
         0.11533E-05
         0.12691E-05
         0.12159E-05
         0.10942E-05
         0.99310E-06
         0.80639E-06
         0.67783E-06
         0.88676E-06
         0.11748E-05
         0.12140E-05
         0.97859E-06
         0.79433E-06
         0.97767E-06
         0.11543E-05
         0.24636E-05
         0.19471E-05
         0.20980E-05
         0.36298E-05
         0.19377E-05
         0.24779E-05
         0.13679E-05
         0.16417E-05
         0.27466E-05
         0.19862E-05
         0.80189E-06
         0.15339E-05
         0.16906E-05
         0.13477E-05
         0.17459E-05
         0.32661E-05
         0.25587E-05
         0.32551E-05
         0.18994E-05
         0.21727E-05
         0.20465E-05
         0.22703E-05
         0.17392E-05
         0.10800E-05
         0.20421E-05
         0.17075E-05
         0.17443E-05
         0.18003E-05
         0.15777E-05
         0.19281E-05
         0.24602E-05
         0.17319E-05
         0.27700E-05
         0.24227E-05
         0.10819E-05
         0.16642E-05
         0.18906E-05
         0.19998E-05
         0.19342E-05
         0.15196E-05
         0.95453E-06
         0.15739E-05
         0.20865E-05
         0.16819E-05
         0.14768E-05
         0.96727E-06
         0.16541E-05
         0.22488E-05
         0.23640E-05
         0.19096E-05
         0.11715E-05
         0.20293E-05
         0.74225E-06
         0.94859E-06
         0.88023E-06
         0.10474E-05
         0.10253E-05
         0.99535E-06
         0.10653E-05
         0.11303E-05
         0.10621E-05
         0.82456E-06
         0.67057E-06
         0.86441E-06
         0.11535E-05
         0.12694E-05
         0.12160E-05
         0.10942E-05
         0.99304E-06
         0.80633E-06
         0.67773E-06
         0.88671E-06
         0.11748E-05
         0.12140E-05
         0.97840E-06
         0.79415E-06
         0.97780E-06
         0.11542E-05
         0.24637E-05
         0.19466E-05
         0.20982E-05
         0.36315E-05
         0.19380E-05
         0.24786E-05
         0.13671E-05
         0.16407E-05
         0.27475E-05
         0.19849E-05
         0.80110E-06
         0.15336E-05
         0.16905E-05
         0.13457E-05
         0.17455E-05
         0.32669E-05
         0.25598E-05
         0.32567E-05
         0.18994E-05
         0.21729E-05
         0.20464E-05
         0.22703E-05
         0.17390E-05
         0.10799E-05
         0.20412E-05
         0.17073E-05
         0.17416E-05
         0.17985E-05
         0.15770E-05
         0.19277E-05
         0.24604E-05
         0.17317E-05
         0.27714E-05
         0.24248E-05
         0.10819E-05
         0.16638E-05
         0.18903E-05
         0.19996E-05
         0.19343E-05
         0.15196E-05
         0.95451E-06
         0.15737E-05
         0.20864E-05
         0.16816E-05
         0.14765E-05
         0.96700E-06
         0.16539E-05
         0.22488E-05
         0.23644E-05
         0.19100E-05
         0.11715E-05
         0.20303E-05
         0.74200E-06
         0.94855E-06
         0.87978E-06
         0.10474E-05
         0.10255E-05
         0.99555E-06
         0.10657E-05
         0.11311E-05
         0.10627E-05
         0.82472E-06
         0.67061E-06
         0.86442E-06
         0.11536E-05
         0.12697E-05
         0.12161E-05
         0.10941E-05
         0.99295E-06
         0.80625E-06
         0.67761E-06
         0.88662E-06
         0.11748E-05
         0.12140E-05
         0.97818E-06
         0.79396E-06
         0.97790E-06
         0.11542E-05
         0.24639E-05
         0.19463E-05
         0.20984E-05
         0.36333E-05
         0.19383E-05
         0.24794E-05
         0.13664E-05
         0.16398E-05
         0.27485E-05
         0.19836E-05
         0.80034E-06
         0.15334E-05
         0.16904E-05
         0.13439E-05
         0.17452E-05
         0.32679E-05
         0.25610E-05
         0.32583E-05
         0.18995E-05
         0.21732E-05
         0.20463E-05
         0.22704E-05
         0.17388E-05
         0.10798E-05
         0.20404E-05
         0.17072E-05
         0.17389E-05
         0.17967E-05
         0.15763E-05
         0.19272E-05
         0.24607E-05
         0.17315E-05
         0.27729E-05
         0.24270E-05
         0.10819E-05
         0.16635E-05
         0.18901E-05
         0.19995E-05
         0.19345E-05
         0.15197E-05
         0.95453E-06
         0.15735E-05
         0.20863E-05
         0.16814E-05
         0.14761E-05
         0.96677E-06
         0.16538E-05
         0.22488E-05
         0.23647E-05
         0.19104E-05
         0.11716E-05
         0.20313E-05
         0.74179E-06
         0.94855E-06
         0.87936E-06
         0.10475E-05
         0.10257E-05
         0.99577E-06
         0.10662E-05
         0.11319E-05
         0.10633E-05
         0.82492E-06
         0.67068E-06
         0.86446E-06
         0.11538E-05
         0.12700E-05
         0.12163E-05
         0.10941E-05
         0.99291E-06
         0.80620E-06
         0.67752E-06
         0.88657E-06
         0.11748E-05
         0.12140E-05
         0.97800E-06
         0.79380E-06
         0.97803E-06
         0.11542E-05
         0.12320E-05
         0.97306E-06
         0.10493E-05
         0.18171E-05
         0.96926E-06
         0.12399E-05
         0.68306E-06
         0.81967E-06
         0.13745E-05
         0.99152E-06
         0.39999E-06
         0.76665E-06
         0.84519E-06
         0.67148E-06
         0.87252E-06
         0.16343E-05
         0.12808E-05
         0.16296E-05
         0.94981E-06
         0.10867E-05
         0.10232E-05
         0.11353E-05
         0.86940E-06
         0.53990E-06
         0.10200E-05
         0.85360E-06
         0.86884E-06
         0.89793E-06
         0.78802E-06
         0.96354E-06
         0.12305E-05
         0.86572E-06
         0.13869E-05
         0.12141E-05
         0.54095E-06
         0.83170E-06
         0.94503E-06
         0.99975E-06
         0.96729E-06
         0.75992E-06
         0.47728E-06
         0.78670E-06
         0.10432E-05
         0.84065E-06
         0.73800E-06
         0.48334E-06
         0.82688E-06
         0.11245E-05
         0.11825E-05
         0.95534E-06
         0.58581E-06
         0.10159E-05
         0.37085E-06
         0.47429E-06
         0.43959E-06
         0.52375E-06
         0.51294E-06
         0.49796E-06
         0.53322E-06
         0.56619E-06
         0.53185E-06
         0.41252E-06
         0.33536E-06
         0.43225E-06
         0.57696E-06
         0.63509E-06
         0.60820E-06
         0.54708E-06
         0.49646E-06
         0.40310E-06
         0.33875E-06
         0.44329E-06
         0.58740E-06
         0.60700E-06
         0.48897E-06
         0.39687E-06
         0.48906E-06
         0.57710E-06
  
SCALARS                 Poissons_ratio  double 1
LOOKUP_TABLE default
         0.30000E+00
         0.30000E+00
         0.30000E+00
         0.30000E+00
         0.30000E+00
         0.30000E+00
         0.30000E+00
         0.30000E+00
         0.30000E+00
         0.30000E+00
         0.30000E+00
         0.30000E+00
         0.30000E+00
         0.30000E+00
         0.30000E+00
         0.30000E+00
         0.30000E+00
         0.30000E+00
         0.30000E+00
         0.30000E+00
         0.30000E+00
         0.30000E+00
         0.30000E+00
         0.30000E+00
         0.30000E+00
         0.30000E+00
         0.30000E+00
         0.30000E+00
         0.30000E+00
         0.30000E+00
         0.30000E+00
         0.30000E+00
         0.30000E+00
         0.30000E+00
         0.30000E+00
         0.30000E+00
         0.30000E+00
         0.30000E+00
         0.30000E+00
         0.30000E+00
         0.30000E+00
         0.30000E+00
         0.30000E+00
         0.30000E+00
         0.30000E+00
         0.30000E+00
         0.30000E+00
         0.30000E+00
         0.30000E+00
         0.30000E+00
         0.30000E+00
         0.30000E+00
         0.30000E+00
         0.30000E+00
         0.30000E+00
         0.30000E+00
         0.30000E+00
         0.30000E+00
         0.30000E+00
         0.30000E+00
         0.30000E+00
         0.30000E+00
         0.30000E+00
         0.30000E+00
         0.30000E+00
         0.30000E+00
         0.30000E+00
         0.30000E+00
         0.30000E+00
         0.30000E+00
         0.30000E+00
         0.30000E+00
         0.30000E+00
         0.30000E+00
         0.30000E+00
         0.30000E+00
         0.30000E+00
         0.30000E+00
         0.30000E+00
         0.30000E+00
         0.30000E+00
         0.30000E+00
         0.30000E+00
         0.30000E+00
         0.30000E+00
         0.30000E+00
         0.30000E+00
         0.30000E+00
         0.30000E+00
         0.30000E+00
         0.30000E+00
         0.30000E+00
         0.30000E+00
         0.30000E+00
         0.30000E+00
         0.30000E+00
         0.30000E+00
         0.30000E+00
         0.30000E+00
         0.30000E+00
         0.30000E+00
         0.30000E+00
         0.30000E+00
         0.30000E+00
         0.30000E+00
         0.30000E+00
         0.30000E+00
         0.30000E+00
         0.30000E+00
         0.30000E+00
         0.30000E+00
         0.30000E+00
         0.30000E+00
         0.30000E+00
         0.30000E+00
         0.30000E+00
         0.30000E+00
         0.30000E+00
         0.30000E+00
         0.30000E+00
         0.30000E+00
         0.30000E+00
         0.30000E+00
         0.30000E+00
         0.30000E+00
         0.30000E+00
         0.30000E+00
         0.30000E+00
         0.30000E+00
         0.30000E+00
         0.30000E+00
         0.30000E+00
         0.30000E+00
         0.30000E+00
         0.30000E+00
         0.30000E+00
         0.30000E+00
         0.30000E+00
         0.30000E+00
         0.30000E+00
         0.30000E+00
         0.30000E+00
         0.30000E+00
         0.30000E+00
         0.30000E+00
         0.30000E+00
         0.30000E+00
         0.30000E+00
         0.30000E+00
         0.30000E+00
         0.30000E+00
         0.30000E+00
         0.30000E+00
         0.30000E+00
         0.30000E+00
         0.30000E+00
         0.30000E+00
         0.30000E+00
         0.30000E+00
         0.30000E+00
         0.30000E+00
         0.30000E+00
         0.30000E+00
         0.30000E+00
         0.30000E+00
         0.30000E+00
         0.30000E+00
         0.30000E+00
         0.30000E+00
         0.30000E+00
         0.30000E+00
         0.30000E+00
         0.30000E+00
         0.30000E+00
         0.30000E+00
         0.30000E+00
         0.30000E+00
         0.30000E+00
         0.30000E+00
         0.30000E+00
         0.30000E+00
         0.30000E+00
         0.30000E+00
         0.30000E+00
         0.30000E+00
         0.30000E+00
         0.30000E+00
         0.30000E+00
         0.30000E+00
         0.30000E+00
         0.30000E+00
         0.30000E+00
         0.30000E+00
         0.30000E+00
         0.30000E+00
         0.30000E+00
         0.30000E+00
         0.30000E+00
         0.30000E+00
         0.30000E+00
         0.30000E+00
         0.30000E+00
         0.30000E+00
         0.30000E+00
         0.30000E+00
         0.30000E+00
         0.30000E+00
         0.30000E+00
         0.30000E+00
         0.30000E+00
         0.30000E+00
         0.30000E+00
         0.30000E+00
         0.30000E+00
         0.30000E+00
         0.30000E+00
         0.30000E+00
         0.30000E+00
         0.30000E+00
         0.30000E+00
         0.30000E+00
         0.30000E+00
         0.30000E+00
         0.30000E+00
         0.30000E+00
         0.30000E+00
         0.30000E+00
         0.30000E+00
         0.30000E+00
         0.30000E+00
         0.30000E+00
         0.30000E+00
         0.30000E+00
         0.30000E+00
         0.30000E+00
         0.30000E+00
         0.30000E+00
         0.30000E+00
         0.30000E+00
         0.30000E+00
         0.30000E+00
         0.30000E+00
         0.30000E+00
         0.30000E+00
         0.30000E+00
         0.30000E+00
         0.30000E+00
         0.30000E+00
         0.30000E+00
         0.30000E+00
         0.30000E+00
         0.30000E+00
         0.30000E+00
         0.30000E+00
         0.30000E+00
         0.30000E+00
         0.30000E+00
         0.30000E+00
         0.30000E+00
         0.30000E+00
         0.30000E+00
         0.30000E+00
         0.30000E+00
         0.30000E+00
         0.30000E+00
         0.30000E+00
         0.30000E+00
         0.30000E+00
         0.30000E+00
         0.30000E+00
         0.30000E+00
         0.30000E+00
         0.30000E+00
         0.30000E+00
         0.30000E+00
         0.30000E+00
         0.30000E+00
         0.30000E+00
         0.30000E+00
         0.30000E+00
         0.30000E+00
         0.30000E+00
         0.30000E+00
         0.30000E+00
         0.30000E+00
         0.30000E+00
         0.30000E+00
         0.30000E+00
         0.30000E+00
         0.30000E+00
         0.30000E+00
         0.30000E+00
         0.30000E+00
         0.30000E+00
         0.30000E+00
         0.30000E+00
         0.30000E+00
         0.30000E+00
         0.30000E+00
         0.30000E+00
         0.30000E+00
         0.30000E+00
         0.30000E+00
         0.30000E+00
         0.30000E+00
         0.30000E+00
         0.30000E+00
         0.30000E+00
         0.30000E+00
         0.30000E+00
         0.30000E+00
         0.30000E+00
         0.30000E+00
         0.30000E+00
         0.30000E+00
         0.30000E+00
         0.30000E+00
         0.30000E+00
         0.30000E+00
         0.30000E+00
         0.30000E+00
         0.30000E+00
         0.30000E+00
         0.30000E+00
         0.30000E+00
         0.30000E+00
         0.30000E+00
         0.30000E+00
         0.30000E+00
         0.30000E+00
         0.30000E+00
         0.30000E+00
         0.30000E+00
         0.30000E+00
         0.30000E+00
         0.30000E+00
         0.30000E+00
         0.30000E+00
         0.30000E+00
         0.30000E+00
         0.30000E+00
         0.30000E+00
         0.30000E+00
         0.30000E+00
         0.30000E+00
         0.30000E+00
         0.30000E+00
         0.30000E+00
         0.30000E+00
         0.30000E+00
         0.30000E+00
         0.30000E+00
         0.30000E+00
         0.30000E+00
         0.30000E+00
         0.30000E+00
         0.30000E+00
         0.30000E+00
         0.30000E+00
         0.30000E+00
         0.30000E+00
         0.30000E+00
         0.30000E+00
         0.30000E+00
         0.30000E+00
         0.30000E+00
         0.30000E+00
         0.30000E+00
         0.30000E+00
         0.30000E+00
         0.30000E+00
         0.30000E+00
         0.30000E+00
         0.30000E+00
         0.30000E+00
         0.30000E+00
         0.30000E+00
         0.30000E+00
         0.30000E+00
         0.30000E+00
         0.30000E+00
         0.30000E+00
         0.30000E+00
         0.30000E+00
         0.30000E+00
         0.30000E+00
         0.30000E+00
         0.30000E+00
         0.30000E+00
         0.30000E+00
         0.30000E+00
         0.30000E+00
         0.30000E+00
         0.30000E+00
         0.30000E+00
         0.30000E+00
         0.30000E+00
         0.30000E+00
         0.30000E+00
         0.30000E+00
         0.30000E+00
         0.30000E+00
         0.30000E+00
         0.30000E+00
         0.30000E+00
         0.30000E+00
         0.30000E+00
         0.30000E+00
         0.30000E+00
         0.30000E+00
         0.30000E+00
         0.30000E+00
         0.30000E+00
         0.30000E+00
         0.30000E+00
         0.30000E+00
         0.30000E+00
         0.30000E+00
         0.30000E+00
         0.30000E+00
         0.30000E+00
         0.30000E+00
         0.30000E+00
         0.30000E+00
         0.30000E+00
         0.30000E+00
         0.30000E+00
         0.30000E+00
         0.30000E+00
         0.30000E+00
         0.30000E+00
         0.30000E+00
         0.30000E+00
         0.30000E+00
         0.30000E+00
         0.30000E+00
         0.30000E+00
         0.30000E+00
         0.30000E+00
         0.30000E+00
         0.30000E+00
         0.30000E+00
         0.30000E+00
         0.30000E+00
         0.30000E+00
         0.30000E+00
         0.30000E+00
         0.30000E+00
         0.30000E+00
         0.30000E+00
         0.30000E+00
         0.30000E+00
         0.30000E+00
         0.30000E+00
         0.30000E+00
         0.30000E+00
         0.30000E+00
         0.30000E+00
         0.30000E+00
         0.30000E+00
         0.30000E+00
         0.30000E+00
         0.30000E+00
         0.30000E+00
         0.30000E+00
         0.30000E+00
         0.30000E+00
         0.30000E+00
         0.30000E+00
         0.30000E+00
         0.30000E+00
         0.30000E+00
         0.30000E+00
         0.30000E+00
         0.30000E+00
         0.30000E+00
         0.30000E+00
         0.30000E+00
         0.30000E+00
         0.30000E+00
         0.30000E+00
         0.30000E+00
         0.30000E+00
         0.30000E+00
         0.30000E+00
         0.30000E+00
         0.30000E+00
         0.30000E+00
         0.30000E+00
         0.30000E+00
         0.30000E+00
         0.30000E+00
         0.30000E+00
         0.30000E+00
         0.30000E+00
         0.30000E+00
         0.30000E+00
         0.30000E+00
         0.30000E+00
         0.30000E+00
         0.30000E+00
         0.30000E+00
         0.30000E+00
         0.30000E+00
         0.30000E+00
         0.30000E+00
         0.30000E+00
         0.30000E+00
         0.30000E+00
         0.30000E+00
         0.30000E+00
         0.30000E+00
         0.30000E+00
         0.30000E+00
         0.30000E+00
         0.30000E+00
         0.30000E+00
         0.30000E+00
         0.30000E+00
         0.30000E+00
         0.30000E+00
         0.30000E+00
         0.30000E+00
         0.30000E+00
         0.30000E+00
         0.30000E+00
         0.30000E+00
         0.30000E+00
         0.30000E+00
         0.30000E+00
         0.30000E+00
         0.30000E+00
         0.30000E+00
         0.30000E+00
         0.30000E+00
         0.30000E+00
         0.30000E+00
         0.30000E+00
         0.30000E+00
         0.30000E+00
         0.30000E+00
         0.30000E+00
         0.30000E+00
         0.30000E+00
         0.30000E+00
         0.30000E+00
         0.30000E+00
         0.30000E+00
         0.30000E+00
         0.30000E+00
         0.30000E+00
         0.30000E+00
         0.30000E+00
         0.30000E+00
         0.30000E+00
         0.30000E+00
         0.30000E+00
         0.30000E+00
         0.30000E+00
         0.30000E+00
         0.30000E+00
         0.30000E+00
         0.30000E+00
         0.30000E+00
         0.30000E+00
         0.30000E+00
         0.30000E+00
         0.30000E+00
         0.30000E+00
         0.30000E+00
         0.30000E+00
         0.30000E+00
         0.30000E+00
         0.30000E+00
         0.30000E+00
         0.30000E+00
         0.30000E+00
         0.30000E+00
         0.30000E+00
         0.30000E+00
         0.30000E+00
         0.30000E+00
         0.30000E+00
         0.30000E+00
         0.30000E+00
         0.30000E+00
         0.30000E+00
         0.30000E+00
         0.30000E+00
         0.30000E+00
         0.30000E+00
         0.30000E+00
         0.30000E+00
         0.30000E+00
         0.30000E+00
         0.30000E+00
         0.30000E+00
         0.30000E+00
         0.30000E+00
         0.30000E+00
         0.30000E+00
         0.30000E+00
         0.30000E+00
         0.30000E+00
         0.30000E+00
         0.30000E+00
         0.30000E+00
         0.30000E+00
         0.30000E+00
         0.30000E+00
         0.30000E+00
         0.30000E+00
         0.30000E+00
         0.30000E+00
         0.30000E+00
         0.30000E+00
         0.30000E+00
         0.30000E+00
         0.30000E+00
         0.30000E+00
         0.30000E+00
         0.30000E+00
         0.30000E+00
         0.30000E+00
         0.30000E+00
         0.30000E+00
         0.30000E+00
         0.30000E+00
         0.30000E+00
         0.30000E+00
         0.30000E+00
         0.30000E+00
         0.30000E+00
         0.30000E+00
         0.30000E+00
         0.30000E+00
         0.30000E+00
         0.30000E+00
         0.30000E+00
         0.30000E+00
         0.30000E+00
         0.30000E+00
         0.30000E+00
         0.30000E+00
         0.30000E+00
         0.30000E+00
         0.30000E+00
         0.30000E+00
         0.30000E+00
         0.30000E+00
         0.30000E+00
         0.30000E+00
         0.30000E+00
         0.30000E+00
         0.30000E+00
         0.30000E+00
         0.30000E+00
         0.30000E+00
         0.30000E+00
         0.30000E+00
         0.30000E+00
         0.30000E+00
         0.30000E+00
         0.30000E+00
         0.30000E+00
         0.30000E+00
         0.30000E+00
         0.30000E+00
         0.30000E+00
         0.30000E+00
         0.30000E+00
         0.30000E+00
         0.30000E+00
         0.30000E+00
         0.30000E+00
         0.30000E+00
         0.30000E+00
         0.30000E+00
         0.30000E+00
         0.30000E+00
         0.30000E+00
         0.30000E+00
         0.30000E+00
         0.30000E+00
         0.30000E+00
         0.30000E+00
         0.30000E+00
         0.30000E+00
         0.30000E+00
         0.30000E+00
         0.30000E+00
         0.30000E+00
         0.30000E+00
         0.30000E+00
         0.30000E+00
         0.30000E+00
         0.30000E+00
         0.30000E+00
         0.30000E+00
         0.30000E+00
         0.30000E+00
         0.30000E+00
         0.30000E+00
         0.30000E+00
         0.30000E+00
         0.30000E+00
         0.30000E+00
         0.30000E+00
         0.30000E+00
         0.30000E+00
         0.30000E+00
         0.30000E+00
         0.30000E+00
         0.30000E+00
         0.30000E+00
         0.30000E+00
         0.30000E+00
         0.30000E+00
         0.30000E+00
         0.30000E+00
         0.30000E+00
         0.30000E+00
         0.30000E+00
         0.30000E+00
         0.30000E+00
         0.30000E+00
         0.30000E+00
         0.30000E+00
         0.30000E+00
         0.30000E+00
         0.30000E+00
         0.30000E+00
         0.30000E+00
         0.30000E+00
         0.30000E+00
         0.30000E+00
         0.30000E+00
         0.30000E+00
         0.30000E+00
         0.30000E+00
         0.30000E+00
         0.30000E+00
         0.30000E+00
         0.30000E+00
         0.30000E+00
         0.30000E+00
         0.30000E+00
         0.30000E+00
         0.30000E+00
         0.30000E+00
         0.30000E+00
         0.30000E+00
         0.30000E+00
         0.30000E+00
         0.30000E+00
         0.30000E+00
         0.30000E+00
         0.30000E+00
         0.30000E+00
         0.30000E+00
         0.30000E+00
         0.30000E+00
         0.30000E+00
         0.30000E+00
         0.30000E+00
         0.30000E+00
         0.30000E+00
         0.30000E+00
         0.30000E+00
         0.30000E+00
         0.30000E+00
         0.30000E+00
         0.30000E+00
         0.30000E+00
         0.30000E+00
         0.30000E+00
         0.30000E+00
         0.30000E+00
         0.30000E+00
         0.30000E+00
         0.30000E+00
         0.30000E+00
         0.30000E+00
         0.30000E+00
         0.30000E+00
         0.30000E+00
         0.30000E+00
         0.30000E+00
         0.30000E+00
         0.30000E+00
         0.30000E+00
         0.30000E+00
         0.30000E+00
         0.30000E+00
         0.30000E+00
         0.30000E+00
         0.30000E+00
         0.30000E+00
         0.30000E+00
         0.30000E+00
         0.30000E+00
         0.30000E+00
         0.30000E+00
         0.30000E+00
         0.30000E+00
         0.30000E+00
         0.30000E+00
         0.30000E+00
         0.30000E+00
         0.30000E+00
         0.30000E+00
         0.30000E+00
         0.30000E+00
         0.30000E+00
         0.30000E+00
         0.30000E+00
         0.30000E+00
         0.30000E+00
         0.30000E+00
         0.30000E+00
         0.30000E+00
         0.30000E+00
         0.30000E+00
         0.30000E+00
         0.30000E+00
         0.30000E+00
         0.30000E+00
         0.30000E+00
         0.30000E+00
         0.30000E+00
         0.30000E+00
         0.30000E+00
         0.30000E+00
         0.30000E+00
         0.30000E+00
         0.30000E+00
         0.30000E+00
         0.30000E+00
         0.30000E+00
         0.30000E+00
         0.30000E+00
         0.30000E+00
         0.30000E+00
         0.30000E+00
         0.30000E+00
         0.30000E+00
         0.30000E+00
         0.30000E+00
         0.30000E+00
         0.30000E+00
         0.30000E+00
         0.30000E+00
         0.30000E+00
         0.30000E+00
         0.30000E+00
         0.30000E+00
         0.30000E+00
         0.30000E+00
         0.30000E+00
         0.30000E+00
         0.30000E+00
         0.30000E+00
         0.30000E+00
         0.30000E+00
         0.30000E+00
         0.30000E+00
         0.30000E+00
         0.30000E+00
         0.30000E+00
         0.30000E+00
         0.30000E+00
         0.30000E+00
         0.30000E+00
         0.30000E+00
         0.30000E+00
         0.30000E+00
         0.30000E+00
         0.30000E+00
         0.30000E+00
         0.30000E+00
         0.30000E+00
         0.30000E+00
         0.30000E+00
         0.30000E+00
         0.30000E+00
         0.30000E+00
         0.30000E+00
         0.30000E+00
         0.30000E+00
         0.30000E+00
         0.30000E+00
         0.30000E+00
         0.30000E+00
         0.30000E+00
         0.30000E+00
         0.30000E+00
         0.30000E+00
         0.30000E+00
         0.30000E+00
         0.30000E+00
         0.30000E+00
         0.30000E+00
         0.30000E+00
         0.30000E+00
         0.30000E+00
         0.30000E+00
         0.30000E+00
         0.30000E+00
         0.30000E+00
         0.30000E+00
         0.30000E+00
         0.30000E+00
         0.30000E+00
         0.30000E+00
         0.30000E+00
         0.30000E+00
         0.30000E+00
         0.30000E+00
         0.30000E+00
         0.30000E+00
         0.30000E+00
         0.30000E+00
         0.30000E+00
         0.30000E+00
         0.30000E+00
         0.30000E+00
         0.30000E+00
         0.30000E+00
         0.30000E+00
         0.30000E+00
         0.30000E+00
         0.30000E+00
         0.30000E+00
         0.30000E+00
         0.30000E+00
         0.30000E+00
         0.30000E+00
         0.30000E+00
         0.30000E+00
         0.30000E+00
         0.30000E+00
         0.30000E+00
         0.30000E+00
         0.30000E+00
         0.30000E+00
         0.30000E+00
         0.30000E+00
         0.30000E+00
         0.30000E+00
         0.30000E+00
         0.30000E+00
         0.30000E+00
         0.30000E+00
         0.30000E+00
         0.30000E+00
         0.30000E+00
         0.30000E+00
         0.30000E+00
         0.30000E+00
         0.30000E+00
         0.30000E+00
         0.30000E+00
         0.30000E+00
         0.30000E+00
         0.30000E+00
         0.30000E+00
         0.30000E+00
         0.30000E+00
         0.30000E+00
         0.30000E+00
         0.30000E+00
         0.30000E+00
         0.30000E+00
         0.30000E+00
         0.30000E+00
         0.30000E+00
         0.30000E+00
         0.30000E+00
         0.30000E+00
         0.30000E+00
         0.30000E+00
         0.30000E+00
         0.30000E+00
         0.30000E+00
         0.30000E+00
         0.30000E+00
         0.30000E+00
         0.30000E+00
         0.30000E+00
         0.30000E+00
         0.30000E+00
         0.30000E+00
         0.30000E+00
         0.30000E+00
         0.30000E+00
         0.30000E+00
         0.30000E+00
         0.30000E+00
         0.30000E+00
         0.30000E+00
         0.30000E+00
         0.30000E+00
         0.30000E+00
         0.30000E+00
         0.30000E+00
         0.30000E+00
         0.30000E+00
         0.30000E+00
         0.30000E+00
         0.30000E+00
         0.30000E+00
         0.30000E+00
         0.30000E+00
         0.30000E+00
         0.30000E+00
         0.30000E+00
         0.30000E+00
         0.30000E+00
         0.30000E+00
         0.30000E+00
         0.30000E+00
         0.30000E+00
         0.30000E+00
         0.30000E+00
         0.30000E+00
         0.30000E+00
         0.30000E+00
         0.30000E+00
         0.30000E+00
         0.30000E+00
         0.30000E+00
         0.30000E+00
         0.30000E+00
         0.30000E+00
         0.30000E+00
         0.30000E+00
         0.30000E+00
         0.30000E+00
         0.30000E+00
         0.30000E+00
         0.30000E+00
         0.30000E+00
         0.30000E+00
         0.30000E+00
         0.30000E+00
         0.30000E+00
         0.30000E+00
         0.30000E+00
         0.30000E+00
         0.30000E+00
         0.30000E+00
         0.30000E+00
         0.30000E+00
         0.30000E+00
         0.30000E+00
         0.30000E+00
         0.30000E+00
         0.30000E+00
         0.30000E+00
         0.30000E+00
         0.30000E+00
         0.30000E+00
         0.30000E+00
         0.30000E+00
         0.30000E+00
         0.30000E+00
         0.30000E+00
         0.30000E+00
         0.30000E+00
         0.30000E+00
         0.30000E+00
         0.30000E+00
         0.30000E+00
         0.30000E+00
         0.30000E+00
         0.30000E+00
         0.30000E+00
         0.30000E+00
         0.30000E+00
         0.30000E+00
         0.30000E+00
         0.30000E+00
         0.30000E+00
         0.30000E+00
         0.30000E+00
         0.30000E+00
         0.30000E+00
         0.30000E+00
         0.30000E+00
         0.30000E+00
         0.30000E+00
         0.30000E+00
         0.30000E+00
         0.30000E+00
         0.30000E+00
         0.30000E+00
         0.30000E+00
         0.30000E+00
         0.30000E+00
         0.30000E+00
         0.30000E+00
         0.30000E+00
         0.30000E+00
         0.30000E+00
         0.30000E+00
         0.30000E+00
         0.30000E+00
         0.30000E+00
         0.30000E+00
         0.30000E+00
         0.30000E+00
         0.30000E+00
         0.30000E+00
         0.30000E+00
         0.30000E+00
         0.30000E+00
         0.30000E+00
         0.30000E+00
         0.30000E+00
         0.30000E+00
         0.30000E+00
         0.30000E+00
         0.30000E+00
         0.30000E+00
         0.30000E+00
         0.30000E+00
         0.30000E+00
         0.30000E+00
         0.30000E+00
         0.30000E+00
         0.30000E+00
         0.30000E+00
         0.30000E+00
         0.30000E+00
         0.30000E+00
         0.30000E+00
         0.30000E+00
         0.30000E+00
         0.30000E+00
         0.30000E+00
         0.30000E+00
         0.30000E+00
         0.30000E+00
         0.30000E+00
         0.30000E+00
         0.30000E+00
         0.30000E+00
         0.30000E+00
         0.30000E+00
         0.30000E+00
         0.30000E+00
         0.30000E+00
         0.30000E+00
         0.30000E+00
         0.30000E+00
         0.30000E+00
         0.30000E+00
         0.30000E+00
         0.30000E+00
         0.30000E+00
         0.30000E+00
         0.30000E+00
         0.30000E+00
         0.30000E+00
         0.30000E+00
         0.30000E+00
         0.30000E+00
         0.30000E+00
         0.30000E+00
         0.30000E+00
         0.30000E+00
         0.30000E+00
         0.30000E+00
         0.30000E+00
         0.30000E+00
         0.30000E+00
         0.30000E+00
         0.30000E+00
         0.30000E+00
         0.30000E+00
         0.30000E+00
         0.30000E+00
         0.30000E+00
         0.30000E+00
         0.30000E+00
         0.30000E+00
         0.30000E+00
         0.30000E+00
         0.30000E+00
         0.30000E+00
         0.30000E+00
         0.30000E+00
         0.30000E+00
         0.30000E+00
         0.30000E+00
         0.30000E+00
         0.30000E+00
         0.30000E+00
         0.30000E+00
         0.30000E+00
         0.30000E+00
         0.30000E+00
         0.30000E+00
         0.30000E+00
         0.30000E+00
         0.30000E+00
         0.30000E+00
         0.30000E+00
         0.30000E+00
         0.30000E+00
         0.30000E+00
         0.30000E+00
         0.30000E+00
         0.30000E+00
         0.30000E+00
         0.30000E+00
         0.30000E+00
         0.30000E+00
         0.30000E+00
         0.30000E+00
         0.30000E+00
         0.30000E+00
         0.30000E+00
         0.30000E+00
         0.30000E+00
         0.30000E+00
         0.30000E+00
         0.30000E+00
         0.30000E+00
         0.30000E+00
         0.30000E+00
         0.30000E+00
         0.30000E+00
         0.30000E+00
         0.30000E+00
         0.30000E+00
         0.30000E+00
         0.30000E+00
         0.30000E+00
         0.30000E+00
         0.30000E+00
         0.30000E+00
         0.30000E+00
         0.30000E+00
         0.30000E+00
         0.30000E+00
         0.30000E+00
         0.30000E+00
         0.30000E+00
         0.30000E+00
         0.30000E+00
         0.30000E+00
         0.30000E+00
         0.30000E+00
         0.30000E+00
         0.30000E+00
         0.30000E+00
         0.30000E+00
         0.30000E+00
         0.30000E+00
         0.30000E+00
         0.30000E+00
         0.30000E+00
         0.30000E+00
         0.30000E+00
         0.30000E+00
         0.30000E+00
         0.30000E+00
         0.30000E+00
         0.30000E+00
         0.30000E+00
         0.30000E+00
         0.30000E+00
         0.30000E+00
         0.30000E+00
         0.30000E+00
         0.30000E+00
         0.30000E+00
         0.30000E+00
         0.30000E+00
         0.30000E+00
         0.30000E+00
         0.30000E+00
         0.30000E+00
         0.30000E+00
         0.30000E+00
         0.30000E+00
         0.30000E+00
         0.30000E+00
         0.30000E+00
         0.30000E+00
         0.30000E+00
         0.30000E+00
         0.30000E+00
         0.30000E+00
         0.30000E+00
         0.30000E+00
         0.30000E+00
         0.30000E+00
         0.30000E+00
         0.30000E+00
         0.30000E+00
         0.30000E+00
         0.30000E+00
         0.30000E+00
         0.30000E+00
         0.30000E+00
         0.30000E+00
         0.30000E+00
         0.30000E+00
         0.30000E+00
         0.30000E+00
         0.30000E+00
         0.30000E+00
         0.30000E+00
         0.30000E+00
         0.30000E+00
         0.30000E+00
         0.30000E+00
         0.30000E+00
         0.30000E+00
         0.30000E+00
         0.30000E+00
         0.30000E+00
         0.30000E+00
         0.30000E+00
         0.30000E+00
         0.30000E+00
         0.30000E+00
         0.30000E+00
         0.30000E+00
         0.30000E+00
         0.30000E+00
         0.30000E+00
         0.30000E+00
         0.30000E+00
         0.30000E+00
         0.30000E+00
         0.30000E+00
         0.30000E+00
         0.30000E+00
         0.30000E+00
         0.30000E+00
         0.30000E+00
         0.30000E+00
         0.30000E+00
         0.30000E+00
         0.30000E+00
         0.30000E+00
         0.30000E+00
         0.30000E+00
         0.30000E+00
         0.30000E+00
         0.30000E+00
         0.30000E+00
         0.30000E+00
         0.30000E+00
         0.30000E+00
         0.30000E+00
         0.30000E+00
         0.30000E+00
         0.30000E+00
         0.30000E+00
         0.30000E+00
         0.30000E+00
         0.30000E+00
         0.30000E+00
         0.30000E+00
         0.30000E+00
         0.30000E+00
         0.30000E+00
         0.30000E+00
         0.30000E+00
         0.30000E+00
         0.30000E+00
         0.30000E+00
         0.30000E+00
         0.30000E+00
         0.30000E+00
         0.30000E+00
         0.30000E+00
         0.30000E+00
         0.30000E+00
         0.30000E+00
         0.30000E+00
         0.30000E+00
         0.30000E+00
         0.30000E+00
         0.30000E+00
         0.30000E+00
         0.30000E+00
         0.30000E+00
         0.30000E+00
         0.30000E+00
         0.30000E+00
         0.30000E+00
         0.30000E+00
         0.30000E+00
         0.30000E+00
         0.30000E+00
         0.30000E+00
         0.30000E+00
         0.30000E+00
         0.30000E+00
         0.30000E+00
         0.30000E+00
         0.30000E+00
         0.30000E+00
         0.30000E+00
         0.30000E+00
         0.30000E+00
         0.30000E+00
         0.30000E+00
         0.30000E+00
         0.30000E+00
         0.30000E+00
         0.30000E+00
         0.30000E+00
         0.30000E+00
         0.30000E+00
         0.30000E+00
         0.30000E+00
         0.30000E+00
         0.30000E+00
         0.30000E+00
         0.30000E+00
         0.30000E+00
         0.30000E+00
         0.30000E+00
         0.30000E+00
         0.30000E+00
         0.30000E+00
         0.30000E+00
         0.30000E+00
         0.30000E+00
         0.30000E+00
         0.30000E+00
         0.30000E+00
         0.30000E+00
         0.30000E+00
         0.30000E+00
         0.30000E+00
         0.30000E+00
         0.30000E+00
         0.30000E+00
         0.30000E+00
         0.30000E+00
         0.30000E+00
         0.30000E+00
         0.30000E+00
         0.30000E+00
         0.30000E+00
         0.30000E+00
         0.30000E+00
         0.30000E+00
         0.30000E+00
         0.30000E+00
         0.30000E+00
         0.30000E+00
         0.30000E+00
         0.30000E+00
         0.30000E+00
         0.30000E+00
         0.30000E+00
         0.30000E+00
         0.30000E+00
         0.30000E+00
         0.30000E+00
         0.30000E+00
         0.30000E+00
         0.30000E+00
         0.30000E+00
         0.30000E+00
         0.30000E+00
         0.30000E+00
         0.30000E+00
         0.30000E+00
         0.30000E+00
         0.30000E+00
         0.30000E+00
         0.30000E+00
         0.30000E+00
         0.30000E+00
         0.30000E+00
         0.30000E+00
         0.30000E+00
         0.30000E+00
         0.30000E+00
         0.30000E+00
         0.30000E+00
         0.30000E+00
         0.30000E+00
         0.30000E+00
         0.30000E+00
         0.30000E+00
         0.30000E+00
         0.30000E+00
         0.30000E+00
         0.30000E+00
         0.30000E+00
         0.30000E+00
         0.30000E+00
         0.30000E+00
         0.30000E+00
         0.30000E+00
         0.30000E+00
         0.30000E+00
         0.30000E+00
         0.30000E+00
         0.30000E+00
         0.30000E+00
         0.30000E+00
         0.30000E+00
         0.30000E+00
         0.30000E+00
         0.30000E+00
         0.30000E+00
         0.30000E+00
         0.30000E+00
         0.30000E+00
         0.30000E+00
         0.30000E+00
         0.30000E+00
         0.30000E+00
         0.30000E+00
         0.30000E+00
         0.30000E+00
         0.30000E+00
         0.30000E+00
         0.30000E+00
         0.30000E+00
         0.30000E+00
         0.30000E+00
         0.30000E+00
         0.30000E+00
         0.30000E+00
         0.30000E+00
         0.30000E+00
         0.30000E+00
         0.30000E+00
         0.30000E+00
         0.30000E+00
         0.30000E+00
         0.30000E+00
         0.30000E+00
         0.30000E+00
         0.30000E+00
         0.30000E+00
         0.30000E+00
         0.30000E+00
         0.30000E+00
         0.30000E+00
         0.30000E+00
         0.30000E+00
         0.30000E+00
         0.30000E+00
         0.30000E+00
         0.30000E+00
         0.30000E+00
         0.30000E+00
         0.30000E+00
         0.30000E+00
         0.30000E+00
         0.30000E+00
         0.30000E+00
         0.30000E+00
         0.30000E+00
         0.30000E+00
         0.30000E+00
         0.30000E+00
         0.30000E+00
         0.30000E+00
         0.30000E+00
         0.30000E+00
         0.30000E+00
         0.30000E+00
         0.30000E+00
         0.30000E+00
         0.30000E+00
         0.30000E+00
         0.30000E+00
         0.30000E+00
         0.30000E+00
         0.30000E+00
         0.30000E+00
         0.30000E+00
         0.30000E+00
         0.30000E+00
         0.30000E+00
         0.30000E+00
         0.30000E+00
         0.30000E+00
         0.30000E+00
         0.30000E+00
         0.30000E+00
         0.30000E+00
         0.30000E+00
         0.30000E+00
         0.30000E+00
         0.30000E+00
         0.30000E+00
         0.30000E+00
         0.30000E+00
         0.30000E+00
         0.30000E+00
         0.30000E+00
         0.30000E+00
         0.30000E+00
         0.30000E+00
         0.30000E+00
         0.30000E+00
         0.30000E+00
         0.30000E+00
         0.30000E+00
         0.30000E+00
         0.30000E+00
         0.30000E+00
         0.30000E+00
         0.30000E+00
         0.30000E+00
         0.30000E+00
         0.30000E+00
         0.30000E+00
         0.30000E+00
         0.30000E+00
         0.30000E+00
         0.30000E+00
         0.30000E+00
         0.30000E+00
         0.30000E+00
         0.30000E+00
         0.30000E+00
         0.30000E+00
         0.30000E+00
         0.30000E+00
         0.30000E+00
         0.30000E+00
         0.30000E+00
         0.30000E+00
         0.30000E+00
         0.30000E+00
         0.30000E+00
         0.30000E+00
         0.30000E+00
         0.30000E+00
         0.30000E+00
         0.30000E+00
         0.30000E+00
         0.30000E+00
         0.30000E+00
         0.30000E+00
         0.30000E+00
         0.30000E+00
         0.30000E+00
         0.30000E+00
         0.30000E+00
         0.30000E+00
         0.30000E+00
         0.30000E+00
         0.30000E+00
         0.30000E+00
         0.30000E+00
         0.30000E+00
         0.30000E+00
         0.30000E+00
         0.30000E+00
         0.30000E+00
         0.30000E+00
         0.30000E+00
         0.30000E+00
         0.30000E+00
         0.30000E+00
         0.30000E+00
         0.30000E+00
         0.30000E+00
         0.30000E+00
         0.30000E+00
         0.30000E+00
         0.30000E+00
         0.30000E+00
         0.30000E+00
         0.30000E+00
         0.30000E+00
         0.30000E+00
         0.30000E+00
         0.30000E+00
         0.30000E+00
         0.30000E+00
         0.30000E+00
         0.30000E+00
         0.30000E+00
         0.30000E+00
         0.30000E+00
         0.30000E+00
         0.30000E+00
         0.30000E+00
         0.30000E+00
         0.30000E+00
         0.30000E+00
         0.30000E+00
         0.30000E+00
         0.30000E+00
         0.30000E+00
         0.30000E+00
         0.30000E+00
         0.30000E+00
         0.30000E+00
         0.30000E+00
         0.30000E+00
         0.30000E+00
         0.30000E+00
         0.30000E+00
         0.30000E+00
         0.30000E+00
         0.30000E+00
         0.30000E+00
         0.30000E+00
         0.30000E+00
         0.30000E+00
         0.30000E+00
         0.30000E+00
         0.30000E+00
         0.30000E+00
         0.30000E+00
         0.30000E+00
         0.30000E+00
         0.30000E+00
         0.30000E+00
         0.30000E+00
         0.30000E+00
         0.30000E+00
         0.30000E+00
         0.30000E+00
         0.30000E+00
         0.30000E+00
         0.30000E+00
         0.30000E+00
         0.30000E+00
         0.30000E+00
         0.30000E+00
         0.30000E+00
         0.30000E+00
         0.30000E+00
         0.30000E+00
         0.30000E+00
         0.30000E+00
         0.30000E+00
         0.30000E+00
         0.30000E+00
         0.30000E+00
         0.30000E+00
         0.30000E+00
         0.30000E+00
         0.30000E+00
         0.30000E+00
         0.30000E+00
         0.30000E+00
         0.30000E+00
         0.30000E+00
         0.30000E+00
         0.30000E+00
         0.30000E+00
         0.30000E+00
         0.30000E+00
         0.30000E+00
         0.30000E+00
         0.30000E+00
         0.30000E+00
         0.30000E+00
         0.30000E+00
         0.30000E+00
         0.30000E+00
         0.30000E+00
         0.30000E+00
         0.30000E+00
         0.30000E+00
         0.30000E+00
         0.30000E+00
         0.30000E+00
         0.30000E+00
         0.30000E+00
         0.30000E+00
         0.30000E+00
         0.30000E+00
         0.30000E+00
         0.30000E+00
         0.30000E+00
         0.30000E+00
         0.30000E+00
         0.30000E+00
         0.30000E+00
         0.30000E+00
         0.30000E+00
         0.30000E+00
         0.30000E+00
         0.30000E+00
         0.30000E+00
         0.30000E+00
         0.30000E+00
         0.30000E+00
         0.30000E+00
         0.30000E+00
         0.30000E+00
         0.30000E+00
         0.30000E+00
         0.30000E+00
         0.30000E+00
         0.30000E+00
         0.30000E+00
         0.30000E+00
         0.30000E+00
         0.30000E+00
         0.30000E+00
         0.30000E+00
         0.30000E+00
         0.30000E+00
         0.30000E+00
         0.30000E+00
         0.30000E+00
         0.30000E+00
         0.30000E+00
         0.30000E+00
         0.30000E+00
         0.30000E+00
         0.30000E+00
         0.30000E+00
         0.30000E+00
         0.30000E+00
         0.30000E+00
         0.30000E+00
         0.30000E+00
         0.30000E+00
         0.30000E+00
         0.30000E+00
         0.30000E+00
         0.30000E+00
         0.30000E+00
         0.30000E+00
         0.30000E+00
         0.30000E+00
         0.30000E+00
         0.30000E+00
         0.30000E+00
         0.30000E+00
         0.30000E+00
         0.30000E+00
         0.30000E+00
         0.30000E+00
         0.30000E+00
         0.30000E+00
         0.30000E+00
         0.30000E+00
         0.30000E+00
         0.30000E+00
         0.30000E+00
         0.30000E+00
         0.30000E+00
         0.30000E+00
         0.30000E+00
         0.30000E+00
         0.30000E+00
         0.30000E+00
         0.30000E+00
         0.30000E+00
         0.30000E+00
         0.30000E+00
         0.30000E+00
         0.30000E+00
         0.30000E+00
         0.30000E+00
         0.30000E+00
         0.30000E+00
         0.30000E+00
         0.30000E+00
         0.30000E+00
         0.30000E+00
         0.30000E+00
         0.30000E+00
         0.30000E+00
         0.30000E+00
         0.30000E+00
         0.30000E+00
         0.30000E+00
         0.30000E+00
         0.30000E+00
         0.30000E+00
         0.30000E+00
         0.30000E+00
         0.30000E+00
         0.30000E+00
         0.30000E+00
         0.30000E+00
         0.30000E+00
         0.30000E+00
         0.30000E+00
         0.30000E+00
         0.30000E+00
         0.30000E+00
         0.30000E+00
         0.30000E+00
         0.30000E+00
         0.30000E+00
         0.30000E+00
         0.30000E+00
         0.30000E+00
         0.30000E+00
         0.30000E+00
         0.30000E+00
         0.30000E+00
         0.30000E+00
         0.30000E+00
         0.30000E+00
         0.30000E+00
         0.30000E+00
         0.30000E+00
         0.30000E+00
         0.30000E+00
         0.30000E+00
         0.30000E+00
         0.30000E+00
         0.30000E+00
         0.30000E+00
         0.30000E+00
         0.30000E+00
         0.30000E+00
         0.30000E+00
         0.30000E+00
         0.30000E+00
         0.30000E+00
         0.30000E+00
         0.30000E+00
         0.30000E+00
         0.30000E+00
         0.30000E+00
         0.30000E+00
         0.30000E+00
         0.30000E+00
         0.30000E+00
         0.30000E+00
         0.30000E+00
         0.30000E+00
         0.30000E+00
         0.30000E+00
         0.30000E+00
         0.30000E+00
         0.30000E+00
         0.30000E+00
         0.30000E+00
         0.30000E+00
         0.30000E+00
  
SCALARS                 Youngs_modulus  double 1
LOOKUP_TABLE default
         0.78200E+11
         0.78200E+11
         0.78200E+11
         0.78200E+11
         0.78200E+11
         0.78200E+11
         0.78200E+11
         0.78200E+11
         0.78200E+11
         0.78200E+11
         0.78200E+11
         0.78200E+11
         0.78200E+11
         0.78200E+11
         0.78200E+11
         0.78200E+11
         0.78200E+11
         0.78200E+11
         0.78200E+11
         0.78200E+11
         0.78200E+11
         0.78200E+11
         0.78200E+11
         0.78200E+11
         0.78200E+11
         0.78200E+11
         0.78200E+11
         0.78200E+11
         0.78200E+11
         0.78200E+11
         0.78200E+11
         0.78200E+11
         0.78200E+11
         0.78200E+11
         0.78200E+11
         0.78200E+11
         0.78200E+11
         0.78200E+11
         0.78200E+11
         0.78200E+11
         0.78200E+11
         0.78200E+11
         0.78200E+11
         0.78200E+11
         0.78200E+11
         0.78200E+11
         0.78200E+11
         0.78200E+11
         0.78200E+11
         0.78200E+11
         0.78200E+11
         0.78200E+11
         0.78200E+11
         0.78200E+11
         0.78200E+11
         0.78200E+11
         0.78200E+11
         0.78200E+11
         0.78200E+11
         0.78200E+11
         0.78200E+11
         0.78200E+11
         0.78200E+11
         0.78200E+11
         0.78200E+11
         0.78200E+11
         0.78200E+11
         0.78200E+11
         0.78200E+11
         0.78200E+11
         0.78200E+11
         0.78200E+11
         0.78200E+11
         0.78200E+11
         0.78200E+11
         0.78200E+11
         0.78200E+11
         0.78200E+11
         0.78200E+11
         0.78200E+11
         0.78200E+11
         0.78200E+11
         0.78200E+11
         0.78200E+11
         0.78200E+11
         0.78200E+11
         0.78200E+11
         0.78200E+11
         0.78200E+11
         0.78200E+11
         0.78200E+11
         0.78200E+11
         0.78200E+11
         0.78200E+11
         0.78200E+11
         0.78200E+11
         0.78200E+11
         0.78200E+11
         0.78200E+11
         0.78200E+11
         0.78200E+11
         0.78200E+11
         0.78200E+11
         0.78200E+11
         0.78200E+11
         0.78200E+11
         0.78200E+11
         0.78200E+11
         0.78200E+11
         0.78200E+11
         0.78200E+11
         0.78200E+11
         0.78200E+11
         0.78200E+11
         0.78200E+11
         0.78200E+11
         0.78200E+11
         0.78200E+11
         0.78200E+11
         0.78200E+11
         0.78200E+11
         0.78200E+11
         0.78200E+11
         0.78200E+11
         0.78200E+11
         0.78200E+11
         0.78200E+11
         0.78200E+11
         0.78200E+11
         0.78200E+11
         0.78200E+11
         0.78200E+11
         0.78200E+11
         0.78200E+11
         0.78200E+11
         0.78200E+11
         0.78200E+11
         0.78200E+11
         0.78200E+11
         0.78200E+11
         0.78200E+11
         0.78200E+11
         0.78200E+11
         0.78200E+11
         0.78200E+11
         0.78200E+11
         0.78200E+11
         0.78200E+11
         0.78200E+11
         0.78200E+11
         0.78200E+11
         0.78200E+11
         0.78200E+11
         0.78200E+11
         0.78200E+11
         0.78200E+11
         0.78200E+11
         0.78200E+11
         0.78200E+11
         0.78200E+11
         0.78200E+11
         0.78200E+11
         0.78200E+11
         0.78200E+11
         0.78200E+11
         0.78200E+11
         0.78200E+11
         0.78200E+11
         0.78200E+11
         0.78200E+11
         0.78200E+11
         0.78200E+11
         0.78200E+11
         0.78200E+11
         0.78200E+11
         0.78200E+11
         0.78200E+11
         0.78200E+11
         0.78200E+11
         0.78200E+11
         0.78200E+11
         0.78200E+11
         0.78200E+11
         0.78200E+11
         0.78200E+11
         0.78200E+11
         0.78200E+11
         0.78200E+11
         0.78200E+11
         0.78200E+11
         0.78200E+11
         0.78200E+11
         0.78200E+11
         0.78200E+11
         0.78200E+11
         0.78200E+11
         0.78200E+11
         0.78200E+11
         0.78200E+11
         0.78200E+11
         0.78200E+11
         0.78200E+11
         0.78200E+11
         0.78200E+11
         0.78200E+11
         0.78200E+11
         0.78200E+11
         0.78200E+11
         0.78200E+11
         0.78200E+11
         0.78200E+11
         0.78200E+11
         0.78200E+11
         0.78200E+11
         0.78200E+11
         0.78200E+11
         0.78200E+11
         0.78200E+11
         0.78200E+11
         0.78200E+11
         0.78200E+11
         0.78200E+11
         0.78200E+11
         0.78200E+11
         0.78200E+11
         0.78200E+11
         0.78200E+11
         0.78200E+11
         0.78200E+11
         0.78200E+11
         0.78200E+11
         0.78200E+11
         0.78200E+11
         0.78200E+11
         0.78200E+11
         0.78200E+11
         0.78200E+11
         0.78200E+11
         0.78200E+11
         0.78200E+11
         0.78200E+11
         0.78200E+11
         0.78200E+11
         0.78200E+11
         0.78200E+11
         0.78200E+11
         0.78200E+11
         0.78200E+11
         0.78200E+11
         0.78200E+11
         0.78200E+11
         0.78200E+11
         0.78200E+11
         0.78200E+11
         0.78200E+11
         0.78200E+11
         0.78200E+11
         0.78200E+11
         0.78200E+11
         0.78200E+11
         0.78200E+11
         0.78200E+11
         0.78200E+11
         0.78200E+11
         0.78200E+11
         0.78200E+11
         0.78200E+11
         0.78200E+11
         0.78200E+11
         0.78200E+11
         0.78200E+11
         0.78200E+11
         0.78200E+11
         0.78200E+11
         0.78200E+11
         0.78200E+11
         0.78200E+11
         0.78200E+11
         0.78200E+11
         0.78200E+11
         0.78200E+11
         0.78200E+11
         0.78200E+11
         0.78200E+11
         0.78200E+11
         0.78200E+11
         0.78200E+11
         0.78200E+11
         0.78200E+11
         0.78200E+11
         0.78200E+11
         0.78200E+11
         0.78200E+11
         0.78200E+11
         0.78200E+11
         0.78200E+11
         0.78200E+11
         0.78200E+11
         0.78200E+11
         0.78200E+11
         0.78200E+11
         0.78200E+11
         0.78200E+11
         0.78200E+11
         0.78200E+11
         0.78200E+11
         0.78200E+11
         0.78200E+11
         0.78200E+11
         0.78200E+11
         0.78200E+11
         0.78200E+11
         0.78200E+11
         0.78200E+11
         0.78200E+11
         0.78200E+11
         0.78200E+11
         0.78200E+11
         0.78200E+11
         0.78200E+11
         0.78200E+11
         0.78200E+11
         0.78200E+11
         0.78200E+11
         0.78200E+11
         0.78200E+11
         0.78200E+11
         0.78200E+11
         0.78200E+11
         0.78200E+11
         0.78200E+11
         0.78200E+11
         0.78200E+11
         0.78200E+11
         0.78200E+11
         0.78200E+11
         0.78200E+11
         0.78200E+11
         0.78200E+11
         0.78200E+11
         0.78200E+11
         0.78200E+11
         0.78200E+11
         0.78200E+11
         0.78200E+11
         0.78200E+11
         0.78200E+11
         0.78200E+11
         0.78200E+11
         0.78200E+11
         0.78200E+11
         0.78200E+11
         0.78200E+11
         0.78200E+11
         0.78200E+11
         0.78200E+11
         0.78200E+11
         0.78200E+11
         0.78200E+11
         0.78200E+11
         0.78200E+11
         0.78200E+11
         0.78200E+11
         0.78200E+11
         0.78200E+11
         0.78200E+11
         0.78200E+11
         0.78200E+11
         0.78200E+11
         0.78200E+11
         0.78200E+11
         0.78200E+11
         0.78200E+11
         0.78200E+11
         0.78200E+11
         0.78200E+11
         0.78200E+11
         0.78200E+11
         0.78200E+11
         0.78200E+11
         0.78200E+11
         0.78200E+11
         0.78200E+11
         0.78200E+11
         0.78200E+11
         0.78200E+11
         0.78200E+11
         0.78200E+11
         0.78200E+11
         0.78200E+11
         0.78200E+11
         0.78200E+11
         0.78200E+11
         0.78200E+11
         0.78200E+11
         0.78200E+11
         0.78200E+11
         0.78200E+11
         0.78200E+11
         0.78200E+11
         0.78200E+11
         0.78200E+11
         0.78200E+11
         0.78200E+11
         0.78200E+11
         0.78200E+11
         0.78200E+11
         0.78200E+11
         0.78200E+11
         0.78200E+11
         0.78200E+11
         0.78200E+11
         0.78200E+11
         0.78200E+11
         0.78200E+11
         0.78200E+11
         0.78200E+11
         0.78200E+11
         0.78200E+11
         0.78200E+11
         0.78200E+11
         0.78200E+11
         0.78200E+11
         0.78200E+11
         0.78200E+11
         0.78200E+11
         0.78200E+11
         0.78200E+11
         0.78200E+11
         0.78200E+11
         0.78200E+11
         0.78200E+11
         0.78200E+11
         0.78200E+11
         0.78200E+11
         0.78200E+11
         0.78200E+11
         0.78200E+11
         0.78200E+11
         0.78200E+11
         0.78200E+11
         0.78200E+11
         0.78200E+11
         0.78200E+11
         0.78200E+11
         0.78200E+11
         0.78200E+11
         0.78200E+11
         0.78200E+11
         0.78200E+11
         0.78200E+11
         0.78200E+11
         0.78200E+11
         0.78200E+11
         0.78200E+11
         0.78200E+11
         0.78200E+11
         0.78200E+11
         0.78200E+11
         0.78200E+11
         0.78200E+11
         0.78200E+11
         0.78200E+11
         0.78200E+11
         0.78200E+11
         0.78200E+11
         0.78200E+11
         0.78200E+11
         0.78200E+11
         0.78200E+11
         0.78200E+11
         0.78200E+11
         0.78200E+11
         0.78200E+11
         0.78200E+11
         0.78200E+11
         0.78200E+11
         0.78200E+11
         0.78200E+11
         0.78200E+11
         0.78200E+11
         0.78200E+11
         0.78200E+11
         0.78200E+11
         0.78200E+11
         0.78200E+11
         0.78200E+11
         0.78200E+11
         0.78200E+11
         0.78200E+11
         0.78200E+11
         0.78200E+11
         0.78200E+11
         0.78200E+11
         0.78200E+11
         0.78200E+11
         0.78200E+11
         0.78200E+11
         0.78200E+11
         0.78200E+11
         0.78200E+11
         0.78200E+11
         0.78200E+11
         0.78200E+11
         0.78200E+11
         0.78200E+11
         0.78200E+11
         0.78200E+11
         0.78200E+11
         0.78200E+11
         0.78200E+11
         0.78200E+11
         0.78200E+11
         0.78200E+11
         0.78200E+11
         0.78200E+11
         0.78200E+11
         0.78200E+11
         0.78200E+11
         0.78200E+11
         0.78200E+11
         0.78200E+11
         0.78200E+11
         0.78200E+11
         0.78200E+11
         0.78200E+11
         0.78200E+11
         0.78200E+11
         0.78200E+11
         0.78200E+11
         0.78200E+11
         0.78200E+11
         0.78200E+11
         0.78200E+11
         0.78200E+11
         0.78200E+11
         0.78200E+11
         0.78200E+11
         0.78200E+11
         0.78200E+11
         0.78200E+11
         0.78200E+11
         0.78200E+11
         0.78200E+11
         0.78200E+11
         0.78200E+11
         0.78200E+11
         0.78200E+11
         0.78200E+11
         0.78200E+11
         0.78200E+11
         0.78200E+11
         0.78200E+11
         0.78200E+11
         0.78200E+11
         0.78200E+11
         0.78200E+11
         0.78200E+11
         0.78200E+11
         0.78200E+11
         0.78200E+11
         0.78200E+11
         0.78200E+11
         0.78200E+11
         0.78200E+11
         0.78200E+11
         0.78200E+11
         0.78200E+11
         0.78200E+11
         0.78200E+11
         0.78200E+11
         0.78200E+11
         0.78200E+11
         0.78200E+11
         0.78200E+11
         0.78200E+11
         0.78200E+11
         0.78200E+11
         0.78200E+11
         0.78200E+11
         0.78200E+11
         0.78200E+11
         0.78200E+11
         0.78200E+11
         0.78200E+11
         0.78200E+11
         0.78200E+11
         0.78200E+11
         0.78200E+11
         0.78200E+11
         0.78200E+11
         0.78200E+11
         0.78200E+11
         0.78200E+11
         0.78200E+11
         0.78200E+11
         0.78200E+11
         0.78200E+11
         0.78200E+11
         0.78200E+11
         0.78200E+11
         0.78200E+11
         0.78200E+11
         0.78200E+11
         0.78200E+11
         0.78200E+11
         0.78200E+11
         0.78200E+11
         0.78200E+11
         0.78200E+11
         0.78200E+11
         0.78200E+11
         0.78200E+11
         0.78200E+11
         0.78200E+11
         0.78200E+11
         0.78200E+11
         0.78200E+11
         0.78200E+11
         0.78200E+11
         0.78200E+11
         0.78200E+11
         0.78200E+11
         0.78200E+11
         0.78200E+11
         0.78200E+11
         0.78200E+11
         0.78200E+11
         0.78200E+11
         0.78200E+11
         0.78200E+11
         0.78200E+11
         0.78200E+11
         0.78200E+11
         0.78200E+11
         0.78200E+11
         0.78200E+11
         0.78200E+11
         0.78200E+11
         0.78200E+11
         0.78200E+11
         0.78200E+11
         0.78200E+11
         0.78200E+11
         0.78200E+11
         0.78200E+11
         0.78200E+11
         0.78200E+11
         0.78200E+11
         0.78200E+11
         0.78200E+11
         0.78200E+11
         0.78200E+11
         0.78200E+11
         0.78200E+11
         0.78200E+11
         0.78200E+11
         0.78200E+11
         0.78200E+11
         0.78200E+11
         0.78200E+11
         0.78200E+11
         0.78200E+11
         0.78200E+11
         0.78200E+11
         0.78200E+11
         0.78200E+11
         0.78200E+11
         0.78200E+11
         0.78200E+11
         0.78200E+11
         0.78200E+11
         0.78200E+11
         0.78200E+11
         0.78200E+11
         0.78200E+11
         0.78200E+11
         0.78200E+11
         0.78200E+11
         0.78200E+11
         0.78200E+11
         0.78200E+11
         0.78200E+11
         0.78200E+11
         0.78200E+11
         0.78200E+11
         0.78200E+11
         0.78200E+11
         0.78200E+11
         0.78200E+11
         0.78200E+11
         0.78200E+11
         0.78200E+11
         0.78200E+11
         0.78200E+11
         0.78200E+11
         0.78200E+11
         0.78200E+11
         0.78200E+11
         0.78200E+11
         0.78200E+11
         0.78200E+11
         0.78200E+11
         0.78200E+11
         0.78200E+11
         0.78200E+11
         0.78200E+11
         0.78200E+11
         0.78200E+11
         0.78200E+11
         0.78200E+11
         0.78200E+11
         0.78200E+11
         0.78200E+11
         0.78200E+11
         0.78200E+11
         0.78200E+11
         0.78200E+11
         0.78200E+11
         0.78200E+11
         0.78200E+11
         0.78200E+11
         0.78200E+11
         0.78200E+11
         0.78200E+11
         0.78200E+11
         0.78200E+11
         0.78200E+11
         0.78200E+11
         0.78200E+11
         0.78200E+11
         0.78200E+11
         0.78200E+11
         0.78200E+11
         0.78200E+11
         0.78200E+11
         0.78200E+11
         0.78200E+11
         0.78200E+11
         0.78200E+11
         0.78200E+11
         0.78200E+11
         0.78200E+11
         0.78200E+11
         0.78200E+11
         0.78200E+11
         0.78200E+11
         0.78200E+11
         0.78200E+11
         0.78200E+11
         0.78200E+11
         0.78200E+11
         0.78200E+11
         0.78200E+11
         0.78200E+11
         0.78200E+11
         0.78200E+11
         0.78200E+11
         0.78200E+11
         0.78200E+11
         0.78200E+11
         0.78200E+11
         0.78200E+11
         0.78200E+11
         0.78200E+11
         0.78200E+11
         0.78200E+11
         0.78200E+11
         0.78200E+11
         0.78200E+11
         0.78200E+11
         0.78200E+11
         0.78200E+11
         0.78200E+11
         0.78200E+11
         0.78200E+11
         0.78200E+11
         0.78200E+11
         0.78200E+11
         0.78200E+11
         0.78200E+11
         0.78200E+11
         0.78200E+11
         0.78200E+11
         0.78200E+11
         0.78200E+11
         0.78200E+11
         0.78200E+11
         0.78200E+11
         0.78200E+11
         0.78200E+11
         0.78200E+11
         0.78200E+11
         0.78200E+11
         0.78200E+11
         0.78200E+11
         0.78200E+11
         0.78200E+11
         0.78200E+11
         0.78200E+11
         0.78200E+11
         0.78200E+11
         0.78200E+11
         0.78200E+11
         0.78200E+11
         0.78200E+11
         0.78200E+11
         0.78200E+11
         0.78200E+11
         0.78200E+11
         0.78200E+11
         0.78200E+11
         0.78200E+11
         0.78200E+11
         0.78200E+11
         0.78200E+11
         0.78200E+11
         0.78200E+11
         0.78200E+11
         0.78200E+11
         0.78200E+11
         0.78200E+11
         0.78200E+11
         0.78200E+11
         0.78200E+11
         0.78200E+11
         0.78200E+11
         0.78200E+11
         0.78200E+11
         0.78200E+11
         0.78200E+11
         0.78200E+11
         0.78200E+11
         0.78200E+11
         0.78200E+11
         0.78200E+11
         0.78200E+11
         0.78200E+11
         0.78200E+11
         0.78200E+11
         0.78200E+11
         0.78200E+11
         0.78200E+11
         0.78200E+11
         0.78200E+11
         0.78200E+11
         0.78200E+11
         0.78200E+11
         0.78200E+11
         0.78200E+11
         0.78200E+11
         0.78200E+11
         0.78200E+11
         0.78200E+11
         0.78200E+11
         0.78200E+11
         0.78200E+11
         0.78200E+11
         0.78200E+11
         0.78200E+11
         0.78200E+11
         0.78200E+11
         0.78200E+11
         0.78200E+11
         0.78200E+11
         0.78200E+11
         0.78200E+11
         0.78200E+11
         0.78200E+11
         0.78200E+11
         0.78200E+11
         0.78200E+11
         0.78200E+11
         0.78200E+11
         0.78200E+11
         0.78200E+11
         0.78200E+11
         0.78200E+11
         0.78200E+11
         0.78200E+11
         0.78200E+11
         0.78200E+11
         0.78200E+11
         0.78200E+11
         0.78200E+11
         0.78200E+11
         0.78200E+11
         0.78200E+11
         0.78200E+11
         0.78200E+11
         0.78200E+11
         0.78200E+11
         0.78200E+11
         0.78200E+11
         0.78200E+11
         0.78200E+11
         0.78200E+11
         0.78200E+11
         0.78200E+11
         0.78200E+11
         0.78200E+11
         0.78200E+11
         0.78200E+11
         0.78200E+11
         0.78200E+11
         0.78200E+11
         0.78200E+11
         0.78200E+11
         0.78200E+11
         0.78200E+11
         0.78200E+11
         0.78200E+11
         0.78200E+11
         0.78200E+11
         0.78200E+11
         0.78200E+11
         0.78200E+11
         0.78200E+11
         0.78200E+11
         0.78200E+11
         0.78200E+11
         0.78200E+11
         0.78200E+11
         0.78200E+11
         0.78200E+11
         0.78200E+11
         0.78200E+11
         0.78200E+11
         0.78200E+11
         0.78200E+11
         0.78200E+11
         0.78200E+11
         0.78200E+11
         0.78200E+11
         0.78200E+11
         0.78200E+11
         0.78200E+11
         0.78200E+11
         0.78200E+11
         0.78200E+11
         0.78200E+11
         0.78200E+11
         0.78200E+11
         0.78200E+11
         0.78200E+11
         0.78200E+11
         0.78200E+11
         0.78200E+11
         0.78200E+11
         0.78200E+11
         0.78200E+11
         0.78200E+11
         0.78200E+11
         0.78200E+11
         0.78200E+11
         0.78200E+11
         0.78200E+11
         0.78200E+11
         0.78200E+11
         0.78200E+11
         0.78200E+11
         0.78200E+11
         0.78200E+11
         0.78200E+11
         0.78200E+11
         0.78200E+11
         0.78200E+11
         0.78200E+11
         0.78200E+11
         0.78200E+11
         0.78200E+11
         0.78200E+11
         0.78200E+11
         0.78200E+11
         0.78200E+11
         0.78200E+11
         0.78200E+11
         0.78200E+11
         0.78200E+11
         0.78200E+11
         0.78200E+11
         0.78200E+11
         0.78200E+11
         0.78200E+11
         0.78200E+11
         0.78200E+11
         0.78200E+11
         0.78200E+11
         0.78200E+11
         0.78200E+11
         0.78200E+11
         0.78200E+11
         0.78200E+11
         0.78200E+11
         0.78200E+11
         0.78200E+11
         0.78200E+11
         0.78200E+11
         0.78200E+11
         0.78200E+11
         0.78200E+11
         0.78200E+11
         0.78200E+11
         0.78200E+11
         0.78200E+11
         0.78200E+11
         0.78200E+11
         0.78200E+11
         0.78200E+11
         0.78200E+11
         0.78200E+11
         0.78200E+11
         0.78200E+11
         0.78200E+11
         0.78200E+11
         0.78200E+11
         0.78200E+11
         0.78200E+11
         0.78200E+11
         0.78200E+11
         0.78200E+11
         0.78200E+11
         0.78200E+11
         0.78200E+11
         0.78200E+11
         0.78200E+11
         0.78200E+11
         0.78200E+11
         0.78200E+11
         0.78200E+11
         0.78200E+11
         0.78200E+11
         0.78200E+11
         0.78200E+11
         0.78200E+11
         0.78200E+11
         0.78200E+11
         0.78200E+11
         0.78200E+11
         0.78200E+11
         0.78200E+11
         0.78200E+11
         0.78200E+11
         0.78200E+11
         0.78200E+11
         0.78200E+11
         0.78200E+11
         0.78200E+11
         0.78200E+11
         0.78200E+11
         0.78200E+11
         0.78200E+11
         0.78200E+11
         0.78200E+11
         0.78200E+11
         0.78200E+11
         0.78200E+11
         0.78200E+11
         0.78200E+11
         0.78200E+11
         0.78200E+11
         0.78200E+11
         0.78200E+11
         0.78200E+11
         0.78200E+11
         0.78200E+11
         0.78200E+11
         0.78200E+11
         0.78200E+11
         0.78200E+11
         0.78200E+11
         0.78200E+11
         0.78200E+11
         0.78200E+11
         0.78200E+11
         0.78200E+11
         0.78200E+11
         0.78200E+11
         0.78200E+11
         0.78200E+11
         0.78200E+11
         0.78200E+11
         0.78200E+11
         0.78200E+11
         0.78200E+11
         0.78200E+11
         0.78200E+11
         0.78200E+11
         0.78200E+11
         0.78200E+11
         0.78200E+11
         0.78200E+11
         0.78200E+11
         0.78200E+11
         0.78200E+11
         0.78200E+11
         0.78200E+11
         0.78200E+11
         0.78200E+11
         0.78200E+11
         0.78200E+11
         0.78200E+11
         0.78200E+11
         0.78200E+11
         0.78200E+11
         0.78200E+11
         0.78200E+11
         0.78200E+11
         0.78200E+11
         0.78200E+11
         0.78200E+11
         0.78200E+11
         0.78200E+11
         0.78200E+11
         0.78200E+11
         0.78200E+11
         0.78200E+11
         0.78200E+11
         0.78200E+11
         0.78200E+11
         0.78200E+11
         0.78200E+11
         0.78200E+11
         0.78200E+11
         0.78200E+11
         0.78200E+11
         0.78200E+11
         0.78200E+11
         0.78200E+11
         0.78200E+11
         0.78200E+11
         0.78200E+11
         0.78200E+11
         0.78200E+11
         0.78200E+11
         0.78200E+11
         0.78200E+11
         0.78200E+11
         0.78200E+11
         0.78200E+11
         0.78200E+11
         0.78200E+11
         0.78200E+11
         0.78200E+11
         0.78200E+11
         0.78200E+11
         0.78200E+11
         0.78200E+11
         0.78200E+11
         0.78200E+11
         0.78200E+11
         0.78200E+11
         0.78200E+11
         0.78200E+11
         0.78200E+11
         0.78200E+11
         0.78200E+11
         0.78200E+11
         0.78200E+11
         0.78200E+11
         0.78200E+11
         0.78200E+11
         0.78200E+11
         0.78200E+11
         0.78200E+11
         0.78200E+11
         0.78200E+11
         0.78200E+11
         0.78200E+11
         0.78200E+11
         0.78200E+11
         0.78200E+11
         0.78200E+11
         0.78200E+11
         0.78200E+11
         0.78200E+11
         0.78200E+11
         0.78200E+11
         0.78200E+11
         0.78200E+11
         0.78200E+11
         0.78200E+11
         0.78200E+11
         0.78200E+11
         0.78200E+11
         0.78200E+11
         0.78200E+11
         0.78200E+11
         0.78200E+11
         0.78200E+11
         0.78200E+11
         0.78200E+11
         0.78200E+11
         0.78200E+11
         0.78200E+11
         0.78200E+11
         0.78200E+11
         0.78200E+11
         0.78200E+11
         0.78200E+11
         0.78200E+11
         0.78200E+11
         0.78200E+11
         0.78200E+11
         0.78200E+11
         0.78200E+11
         0.78200E+11
         0.78200E+11
         0.78200E+11
         0.78200E+11
         0.78200E+11
         0.78200E+11
         0.78200E+11
         0.78200E+11
         0.78200E+11
         0.78200E+11
         0.78200E+11
         0.78200E+11
         0.78200E+11
         0.78200E+11
         0.78200E+11
         0.78200E+11
         0.78200E+11
         0.78200E+11
         0.78200E+11
         0.78200E+11
         0.78200E+11
         0.78200E+11
         0.78200E+11
         0.78200E+11
         0.78200E+11
         0.78200E+11
         0.78200E+11
         0.78200E+11
         0.78200E+11
         0.78200E+11
         0.78200E+11
         0.78200E+11
         0.78200E+11
         0.78200E+11
         0.78200E+11
         0.78200E+11
         0.78200E+11
         0.78200E+11
         0.78200E+11
         0.78200E+11
         0.78200E+11
         0.78200E+11
         0.78200E+11
         0.78200E+11
         0.78200E+11
         0.78200E+11
         0.78200E+11
         0.78200E+11
         0.78200E+11
         0.78200E+11
         0.78200E+11
         0.78200E+11
         0.78200E+11
         0.78200E+11
         0.78200E+11
         0.78200E+11
         0.78200E+11
         0.78200E+11
         0.78200E+11
         0.78200E+11
         0.78200E+11
         0.78200E+11
         0.78200E+11
         0.78200E+11
         0.78200E+11
         0.78200E+11
         0.78200E+11
         0.78200E+11
         0.78200E+11
         0.78200E+11
         0.78200E+11
         0.78200E+11
         0.78200E+11
         0.78200E+11
         0.78200E+11
         0.78200E+11
         0.78200E+11
         0.78200E+11
         0.78200E+11
         0.78200E+11
         0.78200E+11
         0.78200E+11
         0.78200E+11
         0.78200E+11
         0.78200E+11
         0.78200E+11
         0.78200E+11
         0.78200E+11
         0.78200E+11
         0.78200E+11
         0.78200E+11
         0.78200E+11
         0.78200E+11
         0.78200E+11
         0.78200E+11
         0.78200E+11
         0.78200E+11
         0.78200E+11
         0.78200E+11
         0.78200E+11
         0.78200E+11
         0.78200E+11
         0.78200E+11
         0.78200E+11
         0.78200E+11
         0.78200E+11
         0.78200E+11
         0.78200E+11
         0.78200E+11
         0.78200E+11
         0.78200E+11
         0.78200E+11
         0.78200E+11
         0.78200E+11
         0.78200E+11
         0.78200E+11
         0.78200E+11
         0.78200E+11
         0.78200E+11
         0.78200E+11
         0.78200E+11
         0.78200E+11
         0.78200E+11
         0.78200E+11
         0.78200E+11
         0.78200E+11
         0.78200E+11
         0.78200E+11
         0.78200E+11
         0.78200E+11
         0.78200E+11
         0.78200E+11
         0.78200E+11
         0.78200E+11
         0.78200E+11
         0.78200E+11
         0.78200E+11
         0.78200E+11
         0.78200E+11
         0.78200E+11
         0.78200E+11
         0.78200E+11
         0.78200E+11
         0.78200E+11
         0.78200E+11
         0.78200E+11
         0.78200E+11
         0.78200E+11
         0.78200E+11
         0.78200E+11
         0.78200E+11
         0.78200E+11
         0.78200E+11
         0.78200E+11
         0.78200E+11
         0.78200E+11
         0.78200E+11
         0.78200E+11
         0.78200E+11
         0.78200E+11
         0.78200E+11
         0.78200E+11
         0.78200E+11
         0.78200E+11
         0.78200E+11
         0.78200E+11
         0.78200E+11
         0.78200E+11
         0.78200E+11
         0.78200E+11
         0.78200E+11
         0.78200E+11
         0.78200E+11
         0.78200E+11
         0.78200E+11
         0.78200E+11
         0.78200E+11
         0.78200E+11
         0.78200E+11
         0.78200E+11
         0.78200E+11
         0.78200E+11
         0.78200E+11
         0.78200E+11
         0.78200E+11
         0.78200E+11
         0.78200E+11
         0.78200E+11
         0.78200E+11
         0.78200E+11
         0.78200E+11
         0.78200E+11
         0.78200E+11
         0.78200E+11
         0.78200E+11
         0.78200E+11
         0.78200E+11
         0.78200E+11
         0.78200E+11
         0.78200E+11
         0.78200E+11
         0.78200E+11
         0.78200E+11
         0.78200E+11
         0.78200E+11
         0.78200E+11
         0.78200E+11
         0.78200E+11
         0.78200E+11
         0.78200E+11
         0.78200E+11
         0.78200E+11
         0.78200E+11
         0.78200E+11
         0.78200E+11
         0.78200E+11
         0.78200E+11
         0.78200E+11
         0.78200E+11
         0.78200E+11
         0.78200E+11
         0.78200E+11
         0.78200E+11
         0.78200E+11
         0.78200E+11
         0.78200E+11
         0.78200E+11
         0.78200E+11
         0.78200E+11
         0.78200E+11
         0.78200E+11
         0.78200E+11
         0.78200E+11
         0.78200E+11
         0.78200E+11
         0.78200E+11
         0.78200E+11
         0.78200E+11
         0.78200E+11
         0.78200E+11
         0.78200E+11
         0.78200E+11
         0.78200E+11
         0.78200E+11
         0.78200E+11
         0.78200E+11
         0.78200E+11
         0.78200E+11
         0.78200E+11
         0.78200E+11
         0.78200E+11
         0.78200E+11
         0.78200E+11
         0.78200E+11
         0.78200E+11
         0.78200E+11
         0.78200E+11
         0.78200E+11
         0.78200E+11
         0.78200E+11
         0.78200E+11
         0.78200E+11
         0.78200E+11
         0.78200E+11
         0.78200E+11
         0.78200E+11
         0.78200E+11
         0.78200E+11
         0.78200E+11
         0.78200E+11
         0.78200E+11
         0.78200E+11
         0.78200E+11
         0.78200E+11
         0.78200E+11
         0.78200E+11
         0.78200E+11
         0.78200E+11
         0.78200E+11
         0.78200E+11
         0.78200E+11
         0.78200E+11
         0.78200E+11
         0.78200E+11
         0.78200E+11
         0.78200E+11
         0.78200E+11
         0.78200E+11
         0.78200E+11
         0.78200E+11
         0.78200E+11
         0.78200E+11
         0.78200E+11
         0.78200E+11
         0.78200E+11
         0.78200E+11
         0.78200E+11
         0.78200E+11
         0.78200E+11
         0.78200E+11
         0.78200E+11
         0.78200E+11
         0.78200E+11
         0.78200E+11
         0.78200E+11
         0.78200E+11
         0.78200E+11
         0.78200E+11
         0.78200E+11
         0.78200E+11
         0.78200E+11
         0.78200E+11
         0.78200E+11
         0.78200E+11
         0.78200E+11
         0.78200E+11
         0.78200E+11
         0.78200E+11
         0.78200E+11
         0.78200E+11
         0.78200E+11
         0.78200E+11
         0.78200E+11
         0.78200E+11
         0.78200E+11
         0.78200E+11
         0.78200E+11
         0.78200E+11
         0.78200E+11
         0.78200E+11
         0.78200E+11
         0.78200E+11
         0.78200E+11
         0.78200E+11
         0.78200E+11
         0.78200E+11
         0.78200E+11
         0.78200E+11
         0.78200E+11
         0.78200E+11
         0.78200E+11
         0.78200E+11
         0.78200E+11
         0.78200E+11
         0.78200E+11
         0.78200E+11
         0.78200E+11
         0.78200E+11
         0.78200E+11
         0.78200E+11
         0.78200E+11
         0.78200E+11
         0.78200E+11
         0.78200E+11
         0.78200E+11
         0.78200E+11
         0.78200E+11
         0.78200E+11
         0.78200E+11
         0.78200E+11
         0.78200E+11
         0.78200E+11
         0.78200E+11
         0.78200E+11
         0.78200E+11
         0.78200E+11
         0.78200E+11
         0.78200E+11
         0.78200E+11
         0.78200E+11
         0.78200E+11
         0.78200E+11
         0.78200E+11
         0.78200E+11
         0.78200E+11
         0.78200E+11
         0.78200E+11
         0.78200E+11
         0.78200E+11
         0.78200E+11
         0.78200E+11
         0.78200E+11
         0.78200E+11
         0.78200E+11
         0.78200E+11
         0.78200E+11
         0.78200E+11
         0.78200E+11
         0.78200E+11
         0.78200E+11
         0.78200E+11
         0.78200E+11
         0.78200E+11
         0.78200E+11
         0.78200E+11
         0.78200E+11
         0.78200E+11
         0.78200E+11
         0.78200E+11
         0.78200E+11
         0.78200E+11
         0.78200E+11
         0.78200E+11
         0.78200E+11
         0.78200E+11
         0.78200E+11
         0.78200E+11
         0.78200E+11
         0.78200E+11
         0.78200E+11
         0.78200E+11
         0.78200E+11
         0.78200E+11
         0.78200E+11
         0.78200E+11
         0.78200E+11
         0.78200E+11
         0.78200E+11
         0.78200E+11
         0.78200E+11
         0.78200E+11
         0.78200E+11
         0.78200E+11
         0.78200E+11
         0.78200E+11
         0.78200E+11
         0.78200E+11
         0.78200E+11
         0.78200E+11
         0.78200E+11
         0.78200E+11
         0.78200E+11
         0.78200E+11
         0.78200E+11
         0.78200E+11
         0.78200E+11
         0.78200E+11
         0.78200E+11
         0.78200E+11
         0.78200E+11
         0.78200E+11
         0.78200E+11
         0.78200E+11
         0.78200E+11
         0.78200E+11
         0.78200E+11
         0.78200E+11
         0.78200E+11
         0.78200E+11
         0.78200E+11
         0.78200E+11
         0.78200E+11
         0.78200E+11
         0.78200E+11
         0.78200E+11
         0.78200E+11
         0.78200E+11
         0.78200E+11
         0.78200E+11
         0.78200E+11
         0.78200E+11
         0.78200E+11
         0.78200E+11
         0.78200E+11
         0.78200E+11
         0.78200E+11
         0.78200E+11
         0.78200E+11
         0.78200E+11
         0.78200E+11
         0.78200E+11
         0.78200E+11
         0.78200E+11
         0.78200E+11
         0.78200E+11
         0.78200E+11
         0.78200E+11
         0.78200E+11
         0.78200E+11
         0.78200E+11
         0.78200E+11
         0.78200E+11
         0.78200E+11
         0.78200E+11
         0.78200E+11
         0.78200E+11
         0.78200E+11
         0.78200E+11
         0.78200E+11
         0.78200E+11
         0.78200E+11
         0.78200E+11
         0.78200E+11
         0.78200E+11
         0.78200E+11
         0.78200E+11
         0.78200E+11
         0.78200E+11
         0.78200E+11
         0.78200E+11
         0.78200E+11
         0.78200E+11
         0.78200E+11
         0.78200E+11
         0.78200E+11
         0.78200E+11
         0.78200E+11
         0.78200E+11
         0.78200E+11
         0.78200E+11
         0.78200E+11
         0.78200E+11
         0.78200E+11
         0.78200E+11
         0.78200E+11
         0.78200E+11
         0.78200E+11
         0.78200E+11
         0.78200E+11
         0.78200E+11
         0.78200E+11
         0.78200E+11
         0.78200E+11
         0.78200E+11
         0.78200E+11
         0.78200E+11
         0.78200E+11
         0.78200E+11
         0.78200E+11
         0.78200E+11
         0.78200E+11
         0.78200E+11
         0.78200E+11
         0.78200E+11
         0.78200E+11
         0.78200E+11
         0.78200E+11
         0.78200E+11
         0.78200E+11
         0.78200E+11
         0.78200E+11
         0.78200E+11
         0.78200E+11
         0.78200E+11
         0.78200E+11
         0.78200E+11
         0.78200E+11
         0.78200E+11
         0.78200E+11
         0.78200E+11
         0.78200E+11
         0.78200E+11
         0.78200E+11
         0.78200E+11
         0.78200E+11
         0.78200E+11
         0.78200E+11
         0.78200E+11
         0.78200E+11
         0.78200E+11
         0.78200E+11
         0.78200E+11
         0.78200E+11
         0.78200E+11
         0.78200E+11
         0.78200E+11
         0.78200E+11
         0.78200E+11
         0.78200E+11
         0.78200E+11
         0.78200E+11
         0.78200E+11
         0.78200E+11
         0.78200E+11
         0.78200E+11
         0.78200E+11
         0.78200E+11
         0.78200E+11
         0.78200E+11
         0.78200E+11
         0.78200E+11
         0.78200E+11
         0.78200E+11
         0.78200E+11
         0.78200E+11
         0.78200E+11
         0.78200E+11
         0.78200E+11
         0.78200E+11
         0.78200E+11
         0.78200E+11
         0.78200E+11
         0.78200E+11
         0.78200E+11
         0.78200E+11
         0.78200E+11
         0.78200E+11
         0.78200E+11
         0.78200E+11
         0.78200E+11
         0.78200E+11
         0.78200E+11
         0.78200E+11
         0.78200E+11
         0.78200E+11
         0.78200E+11
         0.78200E+11
         0.78200E+11
         0.78200E+11
         0.78200E+11
         0.78200E+11
         0.78200E+11
         0.78200E+11
         0.78200E+11
         0.78200E+11
         0.78200E+11
         0.78200E+11
         0.78200E+11
         0.78200E+11
         0.78200E+11
         0.78200E+11
         0.78200E+11
         0.78200E+11
         0.78200E+11
         0.78200E+11
         0.78200E+11
         0.78200E+11
         0.78200E+11
         0.78200E+11
         0.78200E+11
         0.78200E+11
         0.78200E+11
         0.78200E+11
         0.78200E+11
         0.78200E+11
         0.78200E+11
         0.78200E+11
         0.78200E+11
         0.78200E+11
         0.78200E+11
         0.78200E+11
         0.78200E+11
         0.78200E+11
         0.78200E+11
         0.78200E+11
         0.78200E+11
         0.78200E+11
         0.78200E+11
         0.78200E+11
         0.78200E+11
         0.78200E+11
         0.78200E+11
         0.78200E+11
         0.78200E+11
         0.78200E+11
         0.78200E+11
         0.78200E+11
         0.78200E+11
         0.78200E+11
         0.78200E+11
         0.78200E+11
         0.78200E+11
         0.78200E+11
         0.78200E+11
         0.78200E+11
         0.78200E+11
         0.78200E+11
         0.78200E+11
         0.78200E+11
         0.78200E+11
         0.78200E+11
         0.78200E+11
         0.78200E+11
         0.78200E+11
         0.78200E+11
         0.78200E+11
         0.78200E+11
         0.78200E+11
         0.78200E+11
         0.78200E+11
         0.78200E+11
         0.78200E+11
         0.78200E+11
         0.78200E+11
         0.78200E+11
         0.78200E+11
         0.78200E+11
         0.78200E+11
         0.78200E+11
         0.78200E+11
         0.78200E+11
         0.78200E+11
         0.78200E+11
         0.78200E+11
         0.78200E+11
         0.78200E+11
         0.78200E+11
         0.78200E+11
         0.78200E+11
         0.78200E+11
         0.78200E+11
         0.78200E+11
         0.78200E+11
         0.78200E+11
         0.78200E+11
         0.78200E+11
         0.78200E+11
         0.78200E+11
         0.78200E+11
         0.78200E+11
         0.78200E+11
         0.78200E+11
         0.78200E+11
         0.78200E+11
         0.78200E+11
         0.78200E+11
         0.78200E+11
         0.78200E+11
         0.78200E+11
         0.78200E+11
         0.78200E+11
         0.78200E+11
         0.78200E+11
         0.78200E+11
         0.78200E+11
         0.78200E+11
         0.78200E+11
         0.78200E+11
         0.78200E+11
         0.78200E+11
         0.78200E+11
         0.78200E+11
         0.78200E+11
         0.78200E+11
         0.78200E+11
         0.78200E+11
         0.78200E+11
         0.78200E+11
         0.78200E+11
         0.78200E+11
         0.78200E+11
         0.78200E+11
         0.78200E+11
         0.78200E+11
  
SCALARS                        density  double 1
LOOKUP_TABLE default
         0.27000E+04
         0.27000E+04
         0.27000E+04
         0.27000E+04
         0.27000E+04
         0.27000E+04
         0.27000E+04
         0.27000E+04
         0.27000E+04
         0.27000E+04
         0.27000E+04
         0.27000E+04
         0.27000E+04
         0.27000E+04
         0.27000E+04
         0.27000E+04
         0.27000E+04
         0.27000E+04
         0.27000E+04
         0.27000E+04
         0.27000E+04
         0.27000E+04
         0.27000E+04
         0.27000E+04
         0.27000E+04
         0.27000E+04
         0.27000E+04
         0.27000E+04
         0.27000E+04
         0.27000E+04
         0.27000E+04
         0.27000E+04
         0.27000E+04
         0.27000E+04
         0.27000E+04
         0.27000E+04
         0.27000E+04
         0.27000E+04
         0.27000E+04
         0.27000E+04
         0.27000E+04
         0.27000E+04
         0.27000E+04
         0.27000E+04
         0.27000E+04
         0.27000E+04
         0.27000E+04
         0.27000E+04
         0.27000E+04
         0.27000E+04
         0.27000E+04
         0.27000E+04
         0.27000E+04
         0.27000E+04
         0.27000E+04
         0.27000E+04
         0.27000E+04
         0.27000E+04
         0.27000E+04
         0.27000E+04
         0.27000E+04
         0.27000E+04
         0.27000E+04
         0.27000E+04
         0.27000E+04
         0.27000E+04
         0.27000E+04
         0.27000E+04
         0.27000E+04
         0.27000E+04
         0.27000E+04
         0.27000E+04
         0.27000E+04
         0.27000E+04
         0.27000E+04
         0.27000E+04
         0.27000E+04
         0.27000E+04
         0.27000E+04
         0.27000E+04
         0.27000E+04
         0.27000E+04
         0.27000E+04
         0.27000E+04
         0.27000E+04
         0.27000E+04
         0.27000E+04
         0.27000E+04
         0.27000E+04
         0.27000E+04
         0.27000E+04
         0.27000E+04
         0.27000E+04
         0.27000E+04
         0.27000E+04
         0.27000E+04
         0.27000E+04
         0.27000E+04
         0.27000E+04
         0.27000E+04
         0.27000E+04
         0.27000E+04
         0.27000E+04
         0.27000E+04
         0.27000E+04
         0.27000E+04
         0.27000E+04
         0.27000E+04
         0.27000E+04
         0.27000E+04
         0.27000E+04
         0.27000E+04
         0.27000E+04
         0.27000E+04
         0.27000E+04
         0.27000E+04
         0.27000E+04
         0.27000E+04
         0.27000E+04
         0.27000E+04
         0.27000E+04
         0.27000E+04
         0.27000E+04
         0.27000E+04
         0.27000E+04
         0.27000E+04
         0.27000E+04
         0.27000E+04
         0.27000E+04
         0.27000E+04
         0.27000E+04
         0.27000E+04
         0.27000E+04
         0.27000E+04
         0.27000E+04
         0.27000E+04
         0.27000E+04
         0.27000E+04
         0.27000E+04
         0.27000E+04
         0.27000E+04
         0.27000E+04
         0.27000E+04
         0.27000E+04
         0.27000E+04
         0.27000E+04
         0.27000E+04
         0.27000E+04
         0.27000E+04
         0.27000E+04
         0.27000E+04
         0.27000E+04
         0.27000E+04
         0.27000E+04
         0.27000E+04
         0.27000E+04
         0.27000E+04
         0.27000E+04
         0.27000E+04
         0.27000E+04
         0.27000E+04
         0.27000E+04
         0.27000E+04
         0.27000E+04
         0.27000E+04
         0.27000E+04
         0.27000E+04
         0.27000E+04
         0.27000E+04
         0.27000E+04
         0.27000E+04
         0.27000E+04
         0.27000E+04
         0.27000E+04
         0.27000E+04
         0.27000E+04
         0.27000E+04
         0.27000E+04
         0.27000E+04
         0.27000E+04
         0.27000E+04
         0.27000E+04
         0.27000E+04
         0.27000E+04
         0.27000E+04
         0.27000E+04
         0.27000E+04
         0.27000E+04
         0.27000E+04
         0.27000E+04
         0.27000E+04
         0.27000E+04
         0.27000E+04
         0.27000E+04
         0.27000E+04
         0.27000E+04
         0.27000E+04
         0.27000E+04
         0.27000E+04
         0.27000E+04
         0.27000E+04
         0.27000E+04
         0.27000E+04
         0.27000E+04
         0.27000E+04
         0.27000E+04
         0.27000E+04
         0.27000E+04
         0.27000E+04
         0.27000E+04
         0.27000E+04
         0.27000E+04
         0.27000E+04
         0.27000E+04
         0.27000E+04
         0.27000E+04
         0.27000E+04
         0.27000E+04
         0.27000E+04
         0.27000E+04
         0.27000E+04
         0.27000E+04
         0.27000E+04
         0.27000E+04
         0.27000E+04
         0.27000E+04
         0.27000E+04
         0.27000E+04
         0.27000E+04
         0.27000E+04
         0.27000E+04
         0.27000E+04
         0.27000E+04
         0.27000E+04
         0.27000E+04
         0.27000E+04
         0.27000E+04
         0.27000E+04
         0.27000E+04
         0.27000E+04
         0.27000E+04
         0.27000E+04
         0.27000E+04
         0.27000E+04
         0.27000E+04
         0.27000E+04
         0.27000E+04
         0.27000E+04
         0.27000E+04
         0.27000E+04
         0.27000E+04
         0.27000E+04
         0.27000E+04
         0.27000E+04
         0.27000E+04
         0.27000E+04
         0.27000E+04
         0.27000E+04
         0.27000E+04
         0.27000E+04
         0.27000E+04
         0.27000E+04
         0.27000E+04
         0.27000E+04
         0.27000E+04
         0.27000E+04
         0.27000E+04
         0.27000E+04
         0.27000E+04
         0.27000E+04
         0.27000E+04
         0.27000E+04
         0.27000E+04
         0.27000E+04
         0.27000E+04
         0.27000E+04
         0.27000E+04
         0.27000E+04
         0.27000E+04
         0.27000E+04
         0.27000E+04
         0.27000E+04
         0.27000E+04
         0.27000E+04
         0.27000E+04
         0.27000E+04
         0.27000E+04
         0.27000E+04
         0.27000E+04
         0.27000E+04
         0.27000E+04
         0.27000E+04
         0.27000E+04
         0.27000E+04
         0.27000E+04
         0.27000E+04
         0.27000E+04
         0.27000E+04
         0.27000E+04
         0.27000E+04
         0.27000E+04
         0.27000E+04
         0.27000E+04
         0.27000E+04
         0.27000E+04
         0.27000E+04
         0.27000E+04
         0.27000E+04
         0.27000E+04
         0.27000E+04
         0.27000E+04
         0.27000E+04
         0.27000E+04
         0.27000E+04
         0.27000E+04
         0.27000E+04
         0.27000E+04
         0.27000E+04
         0.27000E+04
         0.27000E+04
         0.27000E+04
         0.27000E+04
         0.27000E+04
         0.27000E+04
         0.27000E+04
         0.27000E+04
         0.27000E+04
         0.27000E+04
         0.27000E+04
         0.27000E+04
         0.27000E+04
         0.27000E+04
         0.27000E+04
         0.27000E+04
         0.27000E+04
         0.27000E+04
         0.27000E+04
         0.27000E+04
         0.27000E+04
         0.27000E+04
         0.27000E+04
         0.27000E+04
         0.27000E+04
         0.27000E+04
         0.27000E+04
         0.27000E+04
         0.27000E+04
         0.27000E+04
         0.27000E+04
         0.27000E+04
         0.27000E+04
         0.27000E+04
         0.27000E+04
         0.27000E+04
         0.27000E+04
         0.27000E+04
         0.27000E+04
         0.27000E+04
         0.27000E+04
         0.27000E+04
         0.27000E+04
         0.27000E+04
         0.27000E+04
         0.27000E+04
         0.27000E+04
         0.27000E+04
         0.27000E+04
         0.27000E+04
         0.27000E+04
         0.27000E+04
         0.27000E+04
         0.27000E+04
         0.27000E+04
         0.27000E+04
         0.27000E+04
         0.27000E+04
         0.27000E+04
         0.27000E+04
         0.27000E+04
         0.27000E+04
         0.27000E+04
         0.27000E+04
         0.27000E+04
         0.27000E+04
         0.27000E+04
         0.27000E+04
         0.27000E+04
         0.27000E+04
         0.27000E+04
         0.27000E+04
         0.27000E+04
         0.27000E+04
         0.27000E+04
         0.27000E+04
         0.27000E+04
         0.27000E+04
         0.27000E+04
         0.27000E+04
         0.27000E+04
         0.27000E+04
         0.27000E+04
         0.27000E+04
         0.27000E+04
         0.27000E+04
         0.27000E+04
         0.27000E+04
         0.27000E+04
         0.27000E+04
         0.27000E+04
         0.27000E+04
         0.27000E+04
         0.27000E+04
         0.27000E+04
         0.27000E+04
         0.27000E+04
         0.27000E+04
         0.27000E+04
         0.27000E+04
         0.27000E+04
         0.27000E+04
         0.27000E+04
         0.27000E+04
         0.27000E+04
         0.27000E+04
         0.27000E+04
         0.27000E+04
         0.27000E+04
         0.27000E+04
         0.27000E+04
         0.27000E+04
         0.27000E+04
         0.27000E+04
         0.27000E+04
         0.27000E+04
         0.27000E+04
         0.27000E+04
         0.27000E+04
         0.27000E+04
         0.27000E+04
         0.27000E+04
         0.27000E+04
         0.27000E+04
         0.27000E+04
         0.27000E+04
         0.27000E+04
         0.27000E+04
         0.27000E+04
         0.27000E+04
         0.27000E+04
         0.27000E+04
         0.27000E+04
         0.27000E+04
         0.27000E+04
         0.27000E+04
         0.27000E+04
         0.27000E+04
         0.27000E+04
         0.27000E+04
         0.27000E+04
         0.27000E+04
         0.27000E+04
         0.27000E+04
         0.27000E+04
         0.27000E+04
         0.27000E+04
         0.27000E+04
         0.27000E+04
         0.27000E+04
         0.27000E+04
         0.27000E+04
         0.27000E+04
         0.27000E+04
         0.27000E+04
         0.27000E+04
         0.27000E+04
         0.27000E+04
         0.27000E+04
         0.27000E+04
         0.27000E+04
         0.27000E+04
         0.27000E+04
         0.27000E+04
         0.27000E+04
         0.27000E+04
         0.27000E+04
         0.27000E+04
         0.27000E+04
         0.27000E+04
         0.27000E+04
         0.27000E+04
         0.27000E+04
         0.27000E+04
         0.27000E+04
         0.27000E+04
         0.27000E+04
         0.27000E+04
         0.27000E+04
         0.27000E+04
         0.27000E+04
         0.27000E+04
         0.27000E+04
         0.27000E+04
         0.27000E+04
         0.27000E+04
         0.27000E+04
         0.27000E+04
         0.27000E+04
         0.27000E+04
         0.27000E+04
         0.27000E+04
         0.27000E+04
         0.27000E+04
         0.27000E+04
         0.27000E+04
         0.27000E+04
         0.27000E+04
         0.27000E+04
         0.27000E+04
         0.27000E+04
         0.27000E+04
         0.27000E+04
         0.27000E+04
         0.27000E+04
         0.27000E+04
         0.27000E+04
         0.27000E+04
         0.27000E+04
         0.27000E+04
         0.27000E+04
         0.27000E+04
         0.27000E+04
         0.27000E+04
         0.27000E+04
         0.27000E+04
         0.27000E+04
         0.27000E+04
         0.27000E+04
         0.27000E+04
         0.27000E+04
         0.27000E+04
         0.27000E+04
         0.27000E+04
         0.27000E+04
         0.27000E+04
         0.27000E+04
         0.27000E+04
         0.27000E+04
         0.27000E+04
         0.27000E+04
         0.27000E+04
         0.27000E+04
         0.27000E+04
         0.27000E+04
         0.27000E+04
         0.27000E+04
         0.27000E+04
         0.27000E+04
         0.27000E+04
         0.27000E+04
         0.27000E+04
         0.27000E+04
         0.27000E+04
         0.27000E+04
         0.27000E+04
         0.27000E+04
         0.27000E+04
         0.27000E+04
         0.27000E+04
         0.27000E+04
         0.27000E+04
         0.27000E+04
         0.27000E+04
         0.27000E+04
         0.27000E+04
         0.27000E+04
         0.27000E+04
         0.27000E+04
         0.27000E+04
         0.27000E+04
         0.27000E+04
         0.27000E+04
         0.27000E+04
         0.27000E+04
         0.27000E+04
         0.27000E+04
         0.27000E+04
         0.27000E+04
         0.27000E+04
         0.27000E+04
         0.27000E+04
         0.27000E+04
         0.27000E+04
         0.27000E+04
         0.27000E+04
         0.27000E+04
         0.27000E+04
         0.27000E+04
         0.27000E+04
         0.27000E+04
         0.27000E+04
         0.27000E+04
         0.27000E+04
         0.27000E+04
         0.27000E+04
         0.27000E+04
         0.27000E+04
         0.27000E+04
         0.27000E+04
         0.27000E+04
         0.27000E+04
         0.27000E+04
         0.27000E+04
         0.27000E+04
         0.27000E+04
         0.27000E+04
         0.27000E+04
         0.27000E+04
         0.27000E+04
         0.27000E+04
         0.27000E+04
         0.27000E+04
         0.27000E+04
         0.27000E+04
         0.27000E+04
         0.27000E+04
         0.27000E+04
         0.27000E+04
         0.27000E+04
         0.27000E+04
         0.27000E+04
         0.27000E+04
         0.27000E+04
         0.27000E+04
         0.27000E+04
         0.27000E+04
         0.27000E+04
         0.27000E+04
         0.27000E+04
         0.27000E+04
         0.27000E+04
         0.27000E+04
         0.27000E+04
         0.27000E+04
         0.27000E+04
         0.27000E+04
         0.27000E+04
         0.27000E+04
         0.27000E+04
         0.27000E+04
         0.27000E+04
         0.27000E+04
         0.27000E+04
         0.27000E+04
         0.27000E+04
         0.27000E+04
         0.27000E+04
         0.27000E+04
         0.27000E+04
         0.27000E+04
         0.27000E+04
         0.27000E+04
         0.27000E+04
         0.27000E+04
         0.27000E+04
         0.27000E+04
         0.27000E+04
         0.27000E+04
         0.27000E+04
         0.27000E+04
         0.27000E+04
         0.27000E+04
         0.27000E+04
         0.27000E+04
         0.27000E+04
         0.27000E+04
         0.27000E+04
         0.27000E+04
         0.27000E+04
         0.27000E+04
         0.27000E+04
         0.27000E+04
         0.27000E+04
         0.27000E+04
         0.27000E+04
         0.27000E+04
         0.27000E+04
         0.27000E+04
         0.27000E+04
         0.27000E+04
         0.27000E+04
         0.27000E+04
         0.27000E+04
         0.27000E+04
         0.27000E+04
         0.27000E+04
         0.27000E+04
         0.27000E+04
         0.27000E+04
         0.27000E+04
         0.27000E+04
         0.27000E+04
         0.27000E+04
         0.27000E+04
         0.27000E+04
         0.27000E+04
         0.27000E+04
         0.27000E+04
         0.27000E+04
         0.27000E+04
         0.27000E+04
         0.27000E+04
         0.27000E+04
         0.27000E+04
         0.27000E+04
         0.27000E+04
         0.27000E+04
         0.27000E+04
         0.27000E+04
         0.27000E+04
         0.27000E+04
         0.27000E+04
         0.27000E+04
         0.27000E+04
         0.27000E+04
         0.27000E+04
         0.27000E+04
         0.27000E+04
         0.27000E+04
         0.27000E+04
         0.27000E+04
         0.27000E+04
         0.27000E+04
         0.27000E+04
         0.27000E+04
         0.27000E+04
         0.27000E+04
         0.27000E+04
         0.27000E+04
         0.27000E+04
         0.27000E+04
         0.27000E+04
         0.27000E+04
         0.27000E+04
         0.27000E+04
         0.27000E+04
         0.27000E+04
         0.27000E+04
         0.27000E+04
         0.27000E+04
         0.27000E+04
         0.27000E+04
         0.27000E+04
         0.27000E+04
         0.27000E+04
         0.27000E+04
         0.27000E+04
         0.27000E+04
         0.27000E+04
         0.27000E+04
         0.27000E+04
         0.27000E+04
         0.27000E+04
         0.27000E+04
         0.27000E+04
         0.27000E+04
         0.27000E+04
         0.27000E+04
         0.27000E+04
         0.27000E+04
         0.27000E+04
         0.27000E+04
         0.27000E+04
         0.27000E+04
         0.27000E+04
         0.27000E+04
         0.27000E+04
         0.27000E+04
         0.27000E+04
         0.27000E+04
         0.27000E+04
         0.27000E+04
         0.27000E+04
         0.27000E+04
         0.27000E+04
         0.27000E+04
         0.27000E+04
         0.27000E+04
         0.27000E+04
         0.27000E+04
         0.27000E+04
         0.27000E+04
         0.27000E+04
         0.27000E+04
         0.27000E+04
         0.27000E+04
         0.27000E+04
         0.27000E+04
         0.27000E+04
         0.27000E+04
         0.27000E+04
         0.27000E+04
         0.27000E+04
         0.27000E+04
         0.27000E+04
         0.27000E+04
         0.27000E+04
         0.27000E+04
         0.27000E+04
         0.27000E+04
         0.27000E+04
         0.27000E+04
         0.27000E+04
         0.27000E+04
         0.27000E+04
         0.27000E+04
         0.27000E+04
         0.27000E+04
         0.27000E+04
         0.27000E+04
         0.27000E+04
         0.27000E+04
         0.27000E+04
         0.27000E+04
         0.27000E+04
         0.27000E+04
         0.27000E+04
         0.27000E+04
         0.27000E+04
         0.27000E+04
         0.27000E+04
         0.27000E+04
         0.27000E+04
         0.27000E+04
         0.27000E+04
         0.27000E+04
         0.27000E+04
         0.27000E+04
         0.27000E+04
         0.27000E+04
         0.27000E+04
         0.27000E+04
         0.27000E+04
         0.27000E+04
         0.27000E+04
         0.27000E+04
         0.27000E+04
         0.27000E+04
         0.27000E+04
         0.27000E+04
         0.27000E+04
         0.27000E+04
         0.27000E+04
         0.27000E+04
         0.27000E+04
         0.27000E+04
         0.27000E+04
         0.27000E+04
         0.27000E+04
         0.27000E+04
         0.27000E+04
         0.27000E+04
         0.27000E+04
         0.27000E+04
         0.27000E+04
         0.27000E+04
         0.27000E+04
         0.27000E+04
         0.27000E+04
         0.27000E+04
         0.27000E+04
         0.27000E+04
         0.27000E+04
         0.27000E+04
         0.27000E+04
         0.27000E+04
         0.27000E+04
         0.27000E+04
         0.27000E+04
         0.27000E+04
         0.27000E+04
         0.27000E+04
         0.27000E+04
         0.27000E+04
         0.27000E+04
         0.27000E+04
         0.27000E+04
         0.27000E+04
         0.27000E+04
         0.27000E+04
         0.27000E+04
         0.27000E+04
         0.27000E+04
         0.27000E+04
         0.27000E+04
         0.27000E+04
         0.27000E+04
         0.27000E+04
         0.27000E+04
         0.27000E+04
         0.27000E+04
         0.27000E+04
         0.27000E+04
         0.27000E+04
         0.27000E+04
         0.27000E+04
         0.27000E+04
         0.27000E+04
         0.27000E+04
         0.27000E+04
         0.27000E+04
         0.27000E+04
         0.27000E+04
         0.27000E+04
         0.27000E+04
         0.27000E+04
         0.27000E+04
         0.27000E+04
         0.27000E+04
         0.27000E+04
         0.27000E+04
         0.27000E+04
         0.27000E+04
         0.27000E+04
         0.27000E+04
         0.27000E+04
         0.27000E+04
         0.27000E+04
         0.27000E+04
         0.27000E+04
         0.27000E+04
         0.27000E+04
         0.27000E+04
         0.27000E+04
         0.27000E+04
         0.27000E+04
         0.27000E+04
         0.27000E+04
         0.27000E+04
         0.27000E+04
         0.27000E+04
         0.27000E+04
         0.27000E+04
         0.27000E+04
         0.27000E+04
         0.27000E+04
         0.27000E+04
         0.27000E+04
         0.27000E+04
         0.27000E+04
         0.27000E+04
         0.27000E+04
         0.27000E+04
         0.27000E+04
         0.27000E+04
         0.27000E+04
         0.27000E+04
         0.27000E+04
         0.27000E+04
         0.27000E+04
         0.27000E+04
         0.27000E+04
         0.27000E+04
         0.27000E+04
         0.27000E+04
         0.27000E+04
         0.27000E+04
         0.27000E+04
         0.27000E+04
         0.27000E+04
         0.27000E+04
         0.27000E+04
         0.27000E+04
         0.27000E+04
         0.27000E+04
         0.27000E+04
         0.27000E+04
         0.27000E+04
         0.27000E+04
         0.27000E+04
         0.27000E+04
         0.27000E+04
         0.27000E+04
         0.27000E+04
         0.27000E+04
         0.27000E+04
         0.27000E+04
         0.27000E+04
         0.27000E+04
         0.27000E+04
         0.27000E+04
         0.27000E+04
         0.27000E+04
         0.27000E+04
         0.27000E+04
         0.27000E+04
         0.27000E+04
         0.27000E+04
         0.27000E+04
         0.27000E+04
         0.27000E+04
         0.27000E+04
         0.27000E+04
         0.27000E+04
         0.27000E+04
         0.27000E+04
         0.27000E+04
         0.27000E+04
         0.27000E+04
         0.27000E+04
         0.27000E+04
         0.27000E+04
         0.27000E+04
         0.27000E+04
         0.27000E+04
         0.27000E+04
         0.27000E+04
         0.27000E+04
         0.27000E+04
         0.27000E+04
         0.27000E+04
         0.27000E+04
         0.27000E+04
         0.27000E+04
         0.27000E+04
         0.27000E+04
         0.27000E+04
         0.27000E+04
         0.27000E+04
         0.27000E+04
         0.27000E+04
         0.27000E+04
         0.27000E+04
         0.27000E+04
         0.27000E+04
         0.27000E+04
         0.27000E+04
         0.27000E+04
         0.27000E+04
         0.27000E+04
         0.27000E+04
         0.27000E+04
         0.27000E+04
         0.27000E+04
         0.27000E+04
         0.27000E+04
         0.27000E+04
         0.27000E+04
         0.27000E+04
         0.27000E+04
         0.27000E+04
         0.27000E+04
         0.27000E+04
         0.27000E+04
         0.27000E+04
         0.27000E+04
         0.27000E+04
         0.27000E+04
         0.27000E+04
         0.27000E+04
         0.27000E+04
         0.27000E+04
         0.27000E+04
         0.27000E+04
         0.27000E+04
         0.27000E+04
         0.27000E+04
         0.27000E+04
         0.27000E+04
         0.27000E+04
         0.27000E+04
         0.27000E+04
         0.27000E+04
         0.27000E+04
         0.27000E+04
         0.27000E+04
         0.27000E+04
         0.27000E+04
         0.27000E+04
         0.27000E+04
         0.27000E+04
         0.27000E+04
         0.27000E+04
         0.27000E+04
         0.27000E+04
         0.27000E+04
         0.27000E+04
         0.27000E+04
         0.27000E+04
         0.27000E+04
         0.27000E+04
         0.27000E+04
         0.27000E+04
         0.27000E+04
         0.27000E+04
         0.27000E+04
         0.27000E+04
         0.27000E+04
         0.27000E+04
         0.27000E+04
         0.27000E+04
         0.27000E+04
         0.27000E+04
         0.27000E+04
         0.27000E+04
         0.27000E+04
         0.27000E+04
         0.27000E+04
         0.27000E+04
         0.27000E+04
         0.27000E+04
         0.27000E+04
         0.27000E+04
         0.27000E+04
         0.27000E+04
         0.27000E+04
         0.27000E+04
         0.27000E+04
         0.27000E+04
         0.27000E+04
         0.27000E+04
         0.27000E+04
         0.27000E+04
         0.27000E+04
         0.27000E+04
         0.27000E+04
         0.27000E+04
         0.27000E+04
         0.27000E+04
         0.27000E+04
         0.27000E+04
         0.27000E+04
         0.27000E+04
         0.27000E+04
         0.27000E+04
         0.27000E+04
         0.27000E+04
         0.27000E+04
         0.27000E+04
         0.27000E+04
         0.27000E+04
         0.27000E+04
         0.27000E+04
         0.27000E+04
         0.27000E+04
         0.27000E+04
         0.27000E+04
         0.27000E+04
         0.27000E+04
         0.27000E+04
         0.27000E+04
         0.27000E+04
         0.27000E+04
         0.27000E+04
         0.27000E+04
         0.27000E+04
         0.27000E+04
         0.27000E+04
         0.27000E+04
         0.27000E+04
         0.27000E+04
         0.27000E+04
         0.27000E+04
         0.27000E+04
         0.27000E+04
         0.27000E+04
         0.27000E+04
         0.27000E+04
         0.27000E+04
         0.27000E+04
         0.27000E+04
         0.27000E+04
         0.27000E+04
         0.27000E+04
         0.27000E+04
         0.27000E+04
         0.27000E+04
         0.27000E+04
         0.27000E+04
         0.27000E+04
         0.27000E+04
         0.27000E+04
         0.27000E+04
         0.27000E+04
         0.27000E+04
         0.27000E+04
         0.27000E+04
         0.27000E+04
         0.27000E+04
         0.27000E+04
         0.27000E+04
         0.27000E+04
         0.27000E+04
         0.27000E+04
         0.27000E+04
         0.27000E+04
         0.27000E+04
         0.27000E+04
         0.27000E+04
         0.27000E+04
         0.27000E+04
         0.27000E+04
         0.27000E+04
         0.27000E+04
         0.27000E+04
         0.27000E+04
         0.27000E+04
         0.27000E+04
         0.27000E+04
         0.27000E+04
         0.27000E+04
         0.27000E+04
         0.27000E+04
         0.27000E+04
         0.27000E+04
         0.27000E+04
         0.27000E+04
         0.27000E+04
         0.27000E+04
         0.27000E+04
         0.27000E+04
         0.27000E+04
         0.27000E+04
         0.27000E+04
         0.27000E+04
         0.27000E+04
         0.27000E+04
         0.27000E+04
         0.27000E+04
         0.27000E+04
         0.27000E+04
         0.27000E+04
         0.27000E+04
         0.27000E+04
         0.27000E+04
         0.27000E+04
         0.27000E+04
         0.27000E+04
         0.27000E+04
         0.27000E+04
         0.27000E+04
         0.27000E+04
         0.27000E+04
         0.27000E+04
         0.27000E+04
         0.27000E+04
         0.27000E+04
         0.27000E+04
         0.27000E+04
         0.27000E+04
         0.27000E+04
         0.27000E+04
         0.27000E+04
         0.27000E+04
         0.27000E+04
         0.27000E+04
         0.27000E+04
         0.27000E+04
         0.27000E+04
         0.27000E+04
         0.27000E+04
         0.27000E+04
         0.27000E+04
         0.27000E+04
         0.27000E+04
         0.27000E+04
         0.27000E+04
         0.27000E+04
         0.27000E+04
         0.27000E+04
         0.27000E+04
         0.27000E+04
         0.27000E+04
         0.27000E+04
         0.27000E+04
         0.27000E+04
         0.27000E+04
         0.27000E+04
         0.27000E+04
         0.27000E+04
         0.27000E+04
         0.27000E+04
         0.27000E+04
         0.27000E+04
         0.27000E+04
         0.27000E+04
         0.27000E+04
         0.27000E+04
         0.27000E+04
         0.27000E+04
         0.27000E+04
         0.27000E+04
         0.27000E+04
         0.27000E+04
         0.27000E+04
         0.27000E+04
         0.27000E+04
         0.27000E+04
         0.27000E+04
         0.27000E+04
         0.27000E+04
         0.27000E+04
         0.27000E+04
         0.27000E+04
         0.27000E+04
         0.27000E+04
         0.27000E+04
         0.27000E+04
         0.27000E+04
         0.27000E+04
         0.27000E+04
         0.27000E+04
         0.27000E+04
         0.27000E+04
         0.27000E+04
         0.27000E+04
         0.27000E+04
         0.27000E+04
         0.27000E+04
         0.27000E+04
         0.27000E+04
         0.27000E+04
         0.27000E+04
         0.27000E+04
         0.27000E+04
         0.27000E+04
         0.27000E+04
         0.27000E+04
         0.27000E+04
         0.27000E+04
         0.27000E+04
         0.27000E+04
         0.27000E+04
         0.27000E+04
         0.27000E+04
         0.27000E+04
         0.27000E+04
         0.27000E+04
         0.27000E+04
         0.27000E+04
         0.27000E+04
         0.27000E+04
         0.27000E+04
         0.27000E+04
         0.27000E+04
         0.27000E+04
         0.27000E+04
         0.27000E+04
         0.27000E+04
         0.27000E+04
         0.27000E+04
         0.27000E+04
         0.27000E+04
         0.27000E+04
         0.27000E+04
         0.27000E+04
         0.27000E+04
         0.27000E+04
         0.27000E+04
         0.27000E+04
         0.27000E+04
         0.27000E+04
         0.27000E+04
         0.27000E+04
         0.27000E+04
         0.27000E+04
         0.27000E+04
         0.27000E+04
         0.27000E+04
         0.27000E+04
         0.27000E+04
         0.27000E+04
         0.27000E+04
         0.27000E+04
         0.27000E+04
         0.27000E+04
         0.27000E+04
         0.27000E+04
         0.27000E+04
         0.27000E+04
         0.27000E+04
         0.27000E+04
         0.27000E+04
         0.27000E+04
         0.27000E+04
         0.27000E+04
         0.27000E+04
         0.27000E+04
         0.27000E+04
         0.27000E+04
         0.27000E+04
         0.27000E+04
         0.27000E+04
         0.27000E+04
         0.27000E+04
         0.27000E+04
         0.27000E+04
         0.27000E+04
         0.27000E+04
         0.27000E+04
         0.27000E+04
         0.27000E+04
         0.27000E+04
         0.27000E+04
         0.27000E+04
         0.27000E+04
         0.27000E+04
         0.27000E+04
         0.27000E+04
         0.27000E+04
         0.27000E+04
         0.27000E+04
         0.27000E+04
         0.27000E+04
         0.27000E+04
         0.27000E+04
         0.27000E+04
         0.27000E+04
         0.27000E+04
         0.27000E+04
         0.27000E+04
         0.27000E+04
         0.27000E+04
         0.27000E+04
         0.27000E+04
         0.27000E+04
         0.27000E+04
         0.27000E+04
         0.27000E+04
         0.27000E+04
         0.27000E+04
         0.27000E+04
         0.27000E+04
         0.27000E+04
         0.27000E+04
         0.27000E+04
         0.27000E+04
         0.27000E+04
         0.27000E+04
         0.27000E+04
         0.27000E+04
         0.27000E+04
         0.27000E+04
         0.27000E+04
         0.27000E+04
         0.27000E+04
         0.27000E+04
         0.27000E+04
         0.27000E+04
         0.27000E+04
         0.27000E+04
         0.27000E+04
         0.27000E+04
         0.27000E+04
         0.27000E+04
         0.27000E+04
         0.27000E+04
         0.27000E+04
         0.27000E+04
         0.27000E+04
         0.27000E+04
         0.27000E+04
         0.27000E+04
         0.27000E+04
         0.27000E+04
         0.27000E+04
         0.27000E+04
         0.27000E+04
         0.27000E+04
         0.27000E+04
         0.27000E+04
         0.27000E+04
         0.27000E+04
         0.27000E+04
         0.27000E+04
         0.27000E+04
         0.27000E+04
         0.27000E+04
         0.27000E+04
         0.27000E+04
         0.27000E+04
         0.27000E+04
         0.27000E+04
         0.27000E+04
         0.27000E+04
         0.27000E+04
         0.27000E+04
         0.27000E+04
         0.27000E+04
         0.27000E+04
         0.27000E+04
         0.27000E+04
         0.27000E+04
         0.27000E+04
         0.27000E+04
         0.27000E+04
         0.27000E+04
         0.27000E+04
         0.27000E+04
         0.27000E+04
         0.27000E+04
         0.27000E+04
         0.27000E+04
         0.27000E+04
         0.27000E+04
         0.27000E+04
         0.27000E+04
         0.27000E+04
         0.27000E+04
         0.27000E+04
         0.27000E+04
         0.27000E+04
         0.27000E+04
         0.27000E+04
         0.27000E+04
         0.27000E+04
         0.27000E+04
         0.27000E+04
         0.27000E+04
         0.27000E+04
         0.27000E+04
         0.27000E+04
         0.27000E+04
         0.27000E+04
         0.27000E+04
         0.27000E+04
         0.27000E+04
         0.27000E+04
         0.27000E+04
         0.27000E+04
         0.27000E+04
         0.27000E+04
         0.27000E+04
         0.27000E+04
         0.27000E+04
         0.27000E+04
         0.27000E+04
         0.27000E+04
         0.27000E+04
         0.27000E+04
         0.27000E+04
         0.27000E+04
         0.27000E+04
         0.27000E+04
         0.27000E+04
         0.27000E+04
         0.27000E+04
         0.27000E+04
         0.27000E+04
         0.27000E+04
         0.27000E+04
         0.27000E+04
         0.27000E+04
         0.27000E+04
         0.27000E+04
         0.27000E+04
         0.27000E+04
         0.27000E+04
         0.27000E+04
         0.27000E+04
         0.27000E+04
         0.27000E+04
         0.27000E+04
         0.27000E+04
         0.27000E+04
         0.27000E+04
         0.27000E+04
         0.27000E+04
         0.27000E+04
         0.27000E+04
         0.27000E+04
         0.27000E+04
         0.27000E+04
         0.27000E+04
         0.27000E+04
         0.27000E+04
         0.27000E+04
         0.27000E+04
         0.27000E+04
         0.27000E+04
         0.27000E+04
         0.27000E+04
         0.27000E+04
         0.27000E+04
         0.27000E+04
         0.27000E+04
         0.27000E+04
         0.27000E+04
         0.27000E+04
         0.27000E+04
         0.27000E+04
         0.27000E+04
         0.27000E+04
         0.27000E+04
         0.27000E+04
         0.27000E+04
         0.27000E+04
         0.27000E+04
         0.27000E+04
         0.27000E+04
         0.27000E+04
         0.27000E+04
         0.27000E+04
         0.27000E+04
         0.27000E+04
         0.27000E+04
         0.27000E+04
         0.27000E+04
         0.27000E+04
         0.27000E+04
         0.27000E+04
         0.27000E+04
         0.27000E+04
         0.27000E+04
         0.27000E+04
         0.27000E+04
         0.27000E+04
         0.27000E+04
         0.27000E+04
         0.27000E+04
         0.27000E+04
         0.27000E+04
         0.27000E+04
         0.27000E+04
         0.27000E+04
         0.27000E+04
         0.27000E+04
         0.27000E+04
         0.27000E+04
         0.27000E+04
         0.27000E+04
         0.27000E+04
         0.27000E+04
         0.27000E+04
         0.27000E+04
         0.27000E+04
         0.27000E+04
         0.27000E+04
         0.27000E+04
         0.27000E+04
         0.27000E+04
         0.27000E+04
         0.27000E+04
         0.27000E+04
         0.27000E+04
         0.27000E+04
         0.27000E+04
         0.27000E+04
         0.27000E+04
         0.27000E+04
         0.27000E+04
         0.27000E+04
         0.27000E+04
         0.27000E+04
         0.27000E+04
         0.27000E+04
         0.27000E+04
         0.27000E+04
         0.27000E+04
         0.27000E+04
         0.27000E+04
         0.27000E+04
         0.27000E+04
         0.27000E+04
         0.27000E+04
         0.27000E+04
         0.27000E+04
         0.27000E+04
         0.27000E+04
         0.27000E+04
         0.27000E+04
         0.27000E+04
         0.27000E+04
         0.27000E+04
         0.27000E+04
         0.27000E+04
         0.27000E+04
         0.27000E+04
         0.27000E+04
         0.27000E+04
         0.27000E+04
         0.27000E+04
         0.27000E+04
         0.27000E+04
         0.27000E+04
         0.27000E+04
         0.27000E+04
         0.27000E+04
         0.27000E+04
         0.27000E+04
         0.27000E+04
         0.27000E+04
         0.27000E+04
         0.27000E+04
         0.27000E+04
         0.27000E+04
         0.27000E+04
         0.27000E+04
         0.27000E+04
         0.27000E+04
         0.27000E+04
         0.27000E+04
         0.27000E+04
         0.27000E+04
         0.27000E+04
         0.27000E+04
         0.27000E+04
         0.27000E+04
         0.27000E+04
         0.27000E+04
         0.27000E+04
         0.27000E+04
         0.27000E+04
         0.27000E+04
         0.27000E+04
         0.27000E+04
         0.27000E+04
         0.27000E+04
         0.27000E+04
         0.27000E+04
         0.27000E+04
         0.27000E+04
         0.27000E+04
         0.27000E+04
         0.27000E+04
         0.27000E+04
         0.27000E+04
         0.27000E+04
         0.27000E+04
         0.27000E+04
         0.27000E+04
         0.27000E+04
         0.27000E+04
         0.27000E+04
         0.27000E+04
         0.27000E+04
         0.27000E+04
         0.27000E+04
         0.27000E+04
         0.27000E+04
         0.27000E+04
         0.27000E+04
         0.27000E+04
         0.27000E+04
         0.27000E+04
         0.27000E+04
         0.27000E+04
         0.27000E+04
         0.27000E+04
         0.27000E+04
         0.27000E+04
         0.27000E+04
         0.27000E+04
         0.27000E+04
         0.27000E+04
         0.27000E+04
         0.27000E+04
         0.27000E+04
         0.27000E+04
         0.27000E+04
         0.27000E+04
         0.27000E+04
         0.27000E+04
         0.27000E+04
         0.27000E+04
         0.27000E+04
         0.27000E+04
         0.27000E+04
         0.27000E+04
         0.27000E+04
         0.27000E+04
         0.27000E+04
         0.27000E+04
         0.27000E+04
         0.27000E+04
         0.27000E+04
         0.27000E+04
         0.27000E+04
         0.27000E+04
         0.27000E+04
         0.27000E+04
         0.27000E+04
         0.27000E+04
         0.27000E+04
         0.27000E+04
         0.27000E+04
         0.27000E+04
         0.27000E+04
         0.27000E+04
         0.27000E+04
         0.27000E+04
         0.27000E+04
         0.27000E+04
         0.27000E+04
         0.27000E+04
         0.27000E+04
         0.27000E+04
         0.27000E+04
         0.27000E+04
         0.27000E+04
         0.27000E+04
         0.27000E+04
         0.27000E+04
         0.27000E+04
         0.27000E+04
         0.27000E+04
         0.27000E+04
         0.27000E+04
         0.27000E+04
         0.27000E+04
         0.27000E+04
         0.27000E+04
         0.27000E+04
         0.27000E+04
         0.27000E+04
         0.27000E+04
         0.27000E+04
         0.27000E+04
         0.27000E+04
         0.27000E+04
         0.27000E+04
         0.27000E+04
         0.27000E+04
         0.27000E+04
         0.27000E+04
         0.27000E+04
         0.27000E+04
         0.27000E+04
         0.27000E+04
         0.27000E+04
         0.27000E+04
         0.27000E+04
         0.27000E+04
         0.27000E+04
         0.27000E+04
         0.27000E+04
         0.27000E+04
         0.27000E+04
         0.27000E+04
         0.27000E+04
         0.27000E+04
         0.27000E+04
         0.27000E+04
         0.27000E+04
         0.27000E+04
         0.27000E+04
         0.27000E+04
         0.27000E+04
         0.27000E+04
         0.27000E+04
         0.27000E+04
         0.27000E+04
         0.27000E+04
         0.27000E+04
         0.27000E+04
         0.27000E+04
         0.27000E+04
         0.27000E+04
         0.27000E+04
         0.27000E+04
         0.27000E+04
         0.27000E+04
         0.27000E+04
         0.27000E+04
         0.27000E+04
         0.27000E+04
         0.27000E+04
         0.27000E+04
         0.27000E+04
         0.27000E+04
         0.27000E+04
         0.27000E+04
         0.27000E+04
         0.27000E+04
         0.27000E+04
         0.27000E+04
         0.27000E+04
         0.27000E+04
         0.27000E+04
         0.27000E+04
         0.27000E+04
         0.27000E+04
         0.27000E+04
         0.27000E+04
         0.27000E+04
         0.27000E+04
         0.27000E+04
         0.27000E+04
         0.27000E+04
         0.27000E+04
         0.27000E+04
         0.27000E+04
         0.27000E+04
         0.27000E+04
         0.27000E+04
         0.27000E+04
         0.27000E+04
         0.27000E+04
         0.27000E+04
         0.27000E+04
         0.27000E+04
         0.27000E+04
         0.27000E+04
         0.27000E+04
         0.27000E+04
         0.27000E+04
         0.27000E+04
         0.27000E+04
         0.27000E+04
         0.27000E+04
         0.27000E+04
         0.27000E+04
         0.27000E+04
         0.27000E+04
         0.27000E+04
         0.27000E+04
         0.27000E+04
         0.27000E+04
         0.27000E+04
         0.27000E+04
         0.27000E+04
         0.27000E+04
         0.27000E+04
         0.27000E+04
         0.27000E+04
         0.27000E+04
         0.27000E+04
         0.27000E+04
         0.27000E+04
         0.27000E+04
         0.27000E+04
         0.27000E+04
         0.27000E+04
         0.27000E+04
         0.27000E+04
         0.27000E+04
         0.27000E+04
         0.27000E+04
         0.27000E+04
         0.27000E+04
         0.27000E+04
         0.27000E+04
         0.27000E+04
         0.27000E+04
         0.27000E+04
         0.27000E+04
         0.27000E+04
         0.27000E+04
         0.27000E+04
         0.27000E+04
         0.27000E+04
