# vtk DataFile Version 2.0
               (MEGA VTK FILE)
ASCII
DATASET UNSTRUCTURED_GRID
POINTS       1950    double
  0.10378E-02  0.67292E-03 -0.15652E-01
  0.17452E-02  0.12308E-02 -0.15645E-01
  0.23177E-02  0.59151E-03 -0.15643E-01
  0.16698E-02 -0.33775E-03 -0.15658E-01
  0.10379E-02  0.67237E-03 -0.11750E-01
  0.17453E-02  0.12301E-02 -0.11750E-01
  0.23178E-02  0.59098E-03 -0.11750E-01
  0.16700E-02 -0.33851E-03 -0.11750E-01
  0.30377E-02  0.14882E-03 -0.15629E-01
  0.27791E-02 -0.67643E-03 -0.15646E-01
  0.30377E-02  0.14846E-03 -0.11750E-01
  0.27788E-02 -0.67692E-03 -0.11750E-01
  0.12850E-02  0.18412E-02 -0.15636E-01
  0.65139E-03  0.14576E-02 -0.15647E-01
  0.12851E-02  0.18410E-02 -0.11750E-01
  0.65164E-03  0.14566E-02 -0.11750E-01
  0.12757E-03  0.29933E-03 -0.15653E-01
 -0.12822E-03  0.11672E-02 -0.15655E-01
  0.12783E-03  0.29819E-03 -0.11750E-01
 -0.12804E-03  0.11655E-02 -0.11750E-01
  0.94500E-03  0.22748E-02 -0.15630E-01
  0.11327E-02  0.28286E-02 -0.15624E-01
  0.17490E-02  0.24238E-02 -0.15627E-01
  0.94533E-03  0.22746E-02 -0.11750E-01
  0.11330E-02  0.28291E-02 -0.11750E-01
  0.17494E-02  0.24236E-02 -0.11750E-01
  0.40588E-03  0.21685E-02 -0.15644E-01
  0.39779E-03  0.29366E-02 -0.15640E-01
  0.40594E-03  0.21684E-02 -0.11750E-01
  0.39781E-03  0.29369E-02 -0.11750E-01
 -0.76303E-03 -0.10033E-02 -0.15659E-01
 -0.86604E-03  0.78969E-04 -0.15663E-01
  0.46119E-03 -0.70318E-03 -0.15657E-01
 -0.76268E-03 -0.10032E-02 -0.11750E-01
 -0.86593E-03  0.78160E-04 -0.11750E-01
  0.46164E-03 -0.70391E-03 -0.11750E-01
 -0.18300E-02 -0.71196E-03 -0.15644E-01
 -0.18440E-02  0.82749E-04 -0.15660E-01
 -0.18297E-02 -0.71210E-03 -0.11750E-01
 -0.18441E-02  0.82626E-04 -0.11750E-01
 -0.27238E-02 -0.77865E-03 -0.15639E-01
 -0.28028E-02  0.40713E-04 -0.15652E-01
 -0.27238E-02 -0.77882E-03 -0.11750E-01
 -0.28031E-02  0.40439E-04 -0.11750E-01
 -0.25365E-02 -0.15195E-02 -0.15627E-01
 -0.19287E-02 -0.13230E-02 -0.15633E-01
 -0.25363E-02 -0.15195E-02 -0.11750E-01
 -0.19283E-02 -0.13231E-02 -0.11750E-01
 -0.99363E-03  0.98847E-03 -0.15664E-01
 -0.99377E-03  0.98712E-03 -0.11750E-01
 -0.14380E-02 -0.17325E-02 -0.15642E-01
 -0.14377E-02 -0.17325E-02 -0.11750E-01
 -0.31574E-03  0.20220E-02 -0.15658E-01
 -0.31594E-03  0.20217E-02 -0.11750E-01
 -0.11068E-02  0.18615E-02 -0.15663E-01
 -0.11071E-02  0.18616E-02 -0.11750E-01
 -0.18845E-02  0.17175E-02 -0.15650E-01
 -0.18713E-02  0.90940E-03 -0.15660E-01
 -0.18846E-02  0.17175E-02 -0.11750E-01
 -0.18714E-02  0.90916E-03 -0.11750E-01
 -0.15871E-03 -0.19800E-02 -0.15656E-01
 -0.94089E-03 -0.23489E-02 -0.15642E-01
 -0.15844E-03 -0.19800E-02 -0.11750E-01
 -0.94029E-03 -0.23489E-02 -0.11750E-01
  0.78856E-03 -0.17074E-02 -0.15655E-01
  0.78922E-03 -0.17074E-02 -0.11750E-01
  0.17211E-02 -0.14894E-02 -0.15649E-01
  0.17211E-02 -0.14892E-02 -0.11750E-01
  0.32050E-02  0.76036E-03 -0.15607E-01
  0.28046E-02  0.12477E-02 -0.15624E-01
  0.32047E-02  0.75936E-03 -0.11750E-01
  0.28047E-02  0.12473E-02 -0.11750E-01
  0.23059E-02  0.18665E-02 -0.15630E-01
  0.23060E-02  0.18664E-02 -0.11750E-01
 -0.40614E-03  0.29038E-02 -0.15649E-01
 -0.40627E-03  0.29049E-02 -0.11750E-01
 -0.12092E-02  0.27207E-02 -0.15647E-01
 -0.12092E-02  0.27212E-02 -0.11750E-01
 -0.19448E-02  0.24642E-02 -0.15631E-01
 -0.19448E-02  0.24645E-02 -0.11750E-01
 -0.25029E-02  0.22359E-02 -0.15613E-01
 -0.26371E-02  0.16503E-02 -0.15636E-01
 -0.25029E-02  0.22359E-02 -0.11750E-01
 -0.26372E-02  0.16503E-02 -0.11750E-01
 -0.27671E-02  0.87493E-03 -0.15654E-01
 -0.27674E-02  0.87466E-03 -0.11750E-01
 -0.21123E-02 -0.21373E-02 -0.15628E-01
 -0.21122E-02 -0.21373E-02 -0.11750E-01
 -0.16087E-02 -0.26931E-02 -0.15622E-01
 -0.16087E-02 -0.26931E-02 -0.11750E-01
 -0.11939E-02 -0.31291E-02 -0.15605E-01
 -0.58641E-03 -0.30382E-02 -0.15628E-01
 -0.11937E-02 -0.31291E-02 -0.11750E-01
 -0.58606E-03 -0.30382E-02 -0.11750E-01
  0.20912E-03 -0.28748E-02 -0.15643E-01
  0.20952E-03 -0.28748E-02 -0.11750E-01
  0.10586E-02 -0.26423E-02 -0.15641E-01
  0.10589E-02 -0.26420E-02 -0.11750E-01
  0.18413E-02 -0.23707E-02 -0.15629E-01
  0.18413E-02 -0.23705E-02 -0.11750E-01
  0.24544E-02 -0.21445E-02 -0.15611E-01
  0.26022E-02 -0.15105E-02 -0.15632E-01
  0.24543E-02 -0.21439E-02 -0.11750E-01
  0.26021E-02 -0.15106E-02 -0.11750E-01
  0.37964E-02  0.93572E-03 -0.15561E-01
  0.39100E-02  0.00000E+00 -0.15569E-01
  0.37964E-02  0.93572E-03 -0.11750E-01
  0.39100E-02  0.00000E+00 -0.11750E-01
  0.34621E-02  0.18171E-02 -0.15568E-01
  0.34621E-02  0.18171E-02 -0.11750E-01
  0.29267E-02  0.25928E-02 -0.15562E-01
  0.29267E-02  0.25928E-02 -0.11750E-01
  0.22211E-02  0.32179E-02 -0.15562E-01
  0.22211E-02  0.32179E-02 -0.11750E-01
  0.13865E-02  0.36559E-02 -0.15562E-01
  0.13865E-02  0.36559E-02 -0.11750E-01
  0.47130E-03  0.38815E-02 -0.15566E-01
  0.47130E-03  0.38815E-02 -0.11750E-01
 -0.47130E-03  0.38815E-02 -0.15568E-01
 -0.47130E-03  0.38815E-02 -0.11750E-01
 -0.13865E-02  0.36559E-02 -0.15567E-01
 -0.13865E-02  0.36559E-02 -0.11750E-01
 -0.22211E-02  0.32179E-02 -0.15566E-01
 -0.22211E-02  0.32179E-02 -0.11750E-01
 -0.29267E-02  0.25928E-02 -0.15559E-01
 -0.29267E-02  0.25928E-02 -0.11750E-01
 -0.34621E-02  0.18171E-02 -0.15568E-01
 -0.34621E-02  0.18171E-02 -0.11750E-01
 -0.37964E-02  0.93572E-03 -0.15571E-01
 -0.37964E-02  0.93572E-03 -0.11750E-01
 -0.39100E-02  0.22152E-17 -0.15571E-01
 -0.39100E-02 -0.47884E-18 -0.11750E-01
 -0.37964E-02 -0.93572E-03 -0.15567E-01
 -0.37964E-02 -0.93572E-03 -0.11750E-01
 -0.34621E-02 -0.18171E-02 -0.15563E-01
 -0.34621E-02 -0.18171E-02 -0.11750E-01
 -0.29267E-02 -0.25928E-02 -0.15561E-01
 -0.29267E-02 -0.25928E-02 -0.11750E-01
 -0.22211E-02 -0.32179E-02 -0.15567E-01
 -0.22211E-02 -0.32179E-02 -0.11750E-01
 -0.13865E-02 -0.36559E-02 -0.15562E-01
 -0.13865E-02 -0.36559E-02 -0.11750E-01
 -0.47130E-03 -0.38815E-02 -0.15570E-01
 -0.47130E-03 -0.38815E-02 -0.11750E-01
  0.47130E-03 -0.38815E-02 -0.15567E-01
  0.47130E-03 -0.38815E-02 -0.11750E-01
  0.13865E-02 -0.36559E-02 -0.15564E-01
  0.13865E-02 -0.36559E-02 -0.11750E-01
  0.22211E-02 -0.32179E-02 -0.15569E-01
  0.22211E-02 -0.32179E-02 -0.11750E-01
  0.29267E-02 -0.25928E-02 -0.15563E-01
  0.29267E-02 -0.25928E-02 -0.11750E-01
  0.34621E-02 -0.18171E-02 -0.15569E-01
  0.34621E-02 -0.18171E-02 -0.11750E-01
  0.37964E-02 -0.93572E-03 -0.15569E-01
  0.37964E-02 -0.93572E-03 -0.11750E-01
  0.10376E-02  0.67348E-03 -0.16672E-01
  0.17450E-02  0.12314E-02 -0.16671E-01
  0.23175E-02  0.59203E-03 -0.16671E-01
  0.16696E-02 -0.33700E-03 -0.16673E-01
  0.30377E-02  0.14918E-03 -0.16669E-01
  0.27795E-02 -0.67594E-03 -0.16671E-01
  0.12849E-02  0.18414E-02 -0.16669E-01
  0.65115E-03  0.14586E-02 -0.16671E-01
  0.12731E-03  0.30048E-03 -0.16673E-01
 -0.12841E-03  0.11690E-02 -0.16673E-01
  0.94467E-03  0.22749E-02 -0.16669E-01
  0.11323E-02  0.28282E-02 -0.16668E-01
  0.17487E-02  0.24239E-02 -0.16668E-01
  0.40583E-03  0.21685E-02 -0.16671E-01
  0.39777E-03  0.29364E-02 -0.16670E-01
 -0.76338E-03 -0.10035E-02 -0.16673E-01
 -0.86615E-03  0.79778E-04 -0.16674E-01
  0.46074E-03 -0.70245E-03 -0.16673E-01
 -0.18303E-02 -0.71182E-03 -0.16671E-01
 -0.18439E-02  0.82873E-04 -0.16673E-01
 -0.27238E-02 -0.77848E-03 -0.16670E-01
 -0.28025E-02  0.40986E-04 -0.16672E-01
 -0.25366E-02 -0.15194E-02 -0.16668E-01
 -0.19292E-02 -0.13228E-02 -0.16669E-01
 -0.99349E-03  0.98983E-03 -0.16674E-01
 -0.14384E-02 -0.17324E-02 -0.16670E-01
 -0.31554E-03  0.20223E-02 -0.16673E-01
 -0.11064E-02  0.18614E-02 -0.16674E-01
 -0.18845E-02  0.17175E-02 -0.16672E-01
 -0.18712E-02  0.90964E-03 -0.16673E-01
 -0.15899E-03 -0.19800E-02 -0.16673E-01
 -0.94149E-03 -0.23489E-02 -0.16670E-01
  0.78790E-03 -0.17074E-02 -0.16673E-01
  0.17210E-02 -0.14896E-02 -0.16671E-01
  0.32053E-02  0.76137E-03 -0.16666E-01
  0.28046E-02  0.12481E-02 -0.16668E-01
  0.23058E-02  0.18665E-02 -0.16669E-01
 -0.40600E-03  0.29027E-02 -0.16672E-01
 -0.12092E-02  0.27202E-02 -0.16671E-01
 -0.19447E-02  0.24640E-02 -0.16669E-01
 -0.25028E-02  0.22359E-02 -0.16666E-01
 -0.26370E-02  0.16503E-02 -0.16669E-01
 -0.27668E-02  0.87519E-03 -0.16672E-01
 -0.21125E-02 -0.21373E-02 -0.16668E-01
 -0.16088E-02 -0.26932E-02 -0.16667E-01
 -0.11940E-02 -0.31291E-02 -0.16665E-01
 -0.58676E-03 -0.30382E-02 -0.16668E-01
  0.20871E-03 -0.28748E-02 -0.16671E-01
  0.10583E-02 -0.26426E-02 -0.16670E-01
  0.18413E-02 -0.23709E-02 -0.16668E-01
  0.24545E-02 -0.21450E-02 -0.16666E-01
  0.26022E-02 -0.15104E-02 -0.16669E-01
  0.37964E-02  0.93572E-03 -0.16661E-01
  0.39100E-02  0.00000E+00 -0.16662E-01
  0.34621E-02  0.18171E-02 -0.16662E-01
  0.29267E-02  0.25928E-02 -0.16661E-01
  0.22211E-02  0.32179E-02 -0.16661E-01
  0.13865E-02  0.36559E-02 -0.16661E-01
  0.47130E-03  0.38815E-02 -0.16662E-01
 -0.47130E-03  0.38815E-02 -0.16662E-01
 -0.13865E-02  0.36559E-02 -0.16662E-01
 -0.22211E-02  0.32179E-02 -0.16661E-01
 -0.29267E-02  0.25928E-02 -0.16660E-01
 -0.34621E-02  0.18171E-02 -0.16662E-01
 -0.37964E-02  0.93572E-03 -0.16662E-01
 -0.39100E-02 -0.47884E-18 -0.16662E-01
 -0.37964E-02 -0.93572E-03 -0.16662E-01
 -0.34621E-02 -0.18171E-02 -0.16661E-01
 -0.29267E-02 -0.25928E-02 -0.16661E-01
 -0.22211E-02 -0.32179E-02 -0.16662E-01
 -0.13865E-02 -0.36559E-02 -0.16661E-01
 -0.47130E-03 -0.38815E-02 -0.16662E-01
  0.47130E-03 -0.38815E-02 -0.16662E-01
  0.13865E-02 -0.36559E-02 -0.16661E-01
  0.22211E-02 -0.32179E-02 -0.16662E-01
  0.29267E-02 -0.25928E-02 -0.16661E-01
  0.34621E-02 -0.18171E-02 -0.16662E-01
  0.37964E-02 -0.93572E-03 -0.16662E-01
  0.10375E-02  0.67403E-03 -0.15857E-01
  0.17448E-02  0.12321E-02 -0.15857E-01
  0.23174E-02  0.59255E-03 -0.15857E-01
  0.16694E-02 -0.33624E-03 -0.15857E-01
  0.30377E-02  0.14955E-03 -0.15857E-01
  0.27798E-02 -0.67544E-03 -0.15857E-01
  0.12848E-02  0.18415E-02 -0.15857E-01
  0.65090E-03  0.14596E-02 -0.15857E-01
  0.12705E-03  0.30163E-03 -0.15857E-01
 -0.12859E-03  0.11707E-02 -0.15857E-01
  0.94434E-03  0.22750E-02 -0.15857E-01
  0.11320E-02  0.28277E-02 -0.15857E-01
  0.17483E-02  0.24241E-02 -0.15857E-01
  0.40577E-03  0.21685E-02 -0.15857E-01
  0.39776E-03  0.29361E-02 -0.15857E-01
 -0.76374E-03 -0.10036E-02 -0.15857E-01
 -0.86626E-03  0.80588E-04 -0.15857E-01
  0.46029E-03 -0.70173E-03 -0.15857E-01
 -0.18306E-02 -0.71168E-03 -0.15857E-01
 -0.18438E-02  0.82996E-04 -0.15857E-01
 -0.27238E-02 -0.77831E-03 -0.15857E-01
 -0.28022E-02  0.41259E-04 -0.15857E-01
 -0.25368E-02 -0.15194E-02 -0.15857E-01
 -0.19296E-02 -0.13227E-02 -0.15857E-01
 -0.99334E-03  0.99119E-03 -0.15857E-01
 -0.14387E-02 -0.17324E-02 -0.15857E-01
 -0.31534E-03  0.20226E-02 -0.15857E-01
 -0.11061E-02  0.18613E-02 -0.15857E-01
 -0.18844E-02  0.17175E-02 -0.15857E-01
 -0.18710E-02  0.90988E-03 -0.15857E-01
 -0.15926E-03 -0.19801E-02 -0.15857E-01
 -0.94209E-03 -0.23490E-02 -0.15857E-01
  0.78724E-03 -0.17074E-02 -0.15857E-01
  0.17210E-02 -0.14899E-02 -0.15857E-01
  0.32056E-02  0.76237E-03 -0.15857E-01
  0.28046E-02  0.12485E-02 -0.15857E-01
  0.23057E-02  0.18666E-02 -0.15857E-01
 -0.40586E-03  0.29017E-02 -0.15857E-01
 -0.12092E-02  0.27198E-02 -0.15857E-01
 -0.19447E-02  0.24638E-02 -0.15857E-01
 -0.25028E-02  0.22359E-02 -0.15857E-01
 -0.26369E-02  0.16503E-02 -0.15857E-01
 -0.27665E-02  0.87545E-03 -0.15857E-01
 -0.21126E-02 -0.21374E-02 -0.15857E-01
 -0.16088E-02 -0.26932E-02 -0.15857E-01
 -0.11941E-02 -0.31291E-02 -0.15857E-01
 -0.58711E-03 -0.30382E-02 -0.15857E-01
  0.20830E-03 -0.28748E-02 -0.15857E-01
  0.10580E-02 -0.26428E-02 -0.15857E-01
  0.18414E-02 -0.23711E-02 -0.15857E-01
  0.24546E-02 -0.21456E-02 -0.15857E-01
  0.26023E-02 -0.15103E-02 -0.15857E-01
  0.37964E-02  0.93572E-03 -0.15857E-01
  0.39100E-02  0.00000E+00 -0.15857E-01
  0.34621E-02  0.18171E-02 -0.15857E-01
  0.29267E-02  0.25928E-02 -0.15857E-01
  0.22211E-02  0.32179E-02 -0.15857E-01
  0.13865E-02  0.36559E-02 -0.15857E-01
  0.47130E-03  0.38815E-02 -0.15857E-01
 -0.47130E-03  0.38815E-02 -0.15857E-01
 -0.13865E-02  0.36559E-02 -0.15857E-01
 -0.22211E-02  0.32179E-02 -0.15857E-01
 -0.29267E-02  0.25928E-02 -0.15857E-01
 -0.34621E-02  0.18171E-02 -0.15857E-01
 -0.37964E-02  0.93572E-03 -0.15857E-01
 -0.39100E-02  0.39516E-17 -0.15857E-01
 -0.37964E-02 -0.93572E-03 -0.15857E-01
 -0.34621E-02 -0.18171E-02 -0.15857E-01
 -0.29267E-02 -0.25928E-02 -0.15857E-01
 -0.22211E-02 -0.32179E-02 -0.15857E-01
 -0.13865E-02 -0.36559E-02 -0.15857E-01
 -0.47130E-03 -0.38815E-02 -0.15857E-01
  0.47130E-03 -0.38815E-02 -0.15857E-01
  0.13865E-02 -0.36559E-02 -0.15857E-01
  0.22211E-02 -0.32179E-02 -0.15857E-01
  0.29267E-02 -0.25928E-02 -0.15857E-01
  0.34621E-02 -0.18171E-02 -0.15857E-01
  0.37964E-02 -0.93572E-03 -0.15857E-01
  0.10374E-02  0.67459E-03 -0.14878E-01
  0.17446E-02  0.12328E-02 -0.14878E-01
  0.23173E-02  0.59308E-03 -0.14878E-01
  0.16692E-02 -0.33549E-03 -0.14878E-01
  0.30376E-02  0.14991E-03 -0.14878E-01
  0.27801E-02 -0.67495E-03 -0.14878E-01
  0.12847E-02  0.18417E-02 -0.14878E-01
  0.65065E-03  0.14606E-02 -0.14878E-01
  0.12678E-03  0.30278E-03 -0.14878E-01
 -0.12878E-03  0.11725E-02 -0.14878E-01
  0.94401E-03  0.22752E-02 -0.14878E-01
  0.11316E-02  0.28273E-02 -0.14878E-01
  0.17479E-02  0.24242E-02 -0.14878E-01
  0.40572E-03  0.21686E-02 -0.14878E-01
  0.39774E-03  0.29359E-02 -0.14878E-01
 -0.76409E-03 -0.10038E-02 -0.14878E-01
 -0.86637E-03  0.81397E-04 -0.14878E-01
  0.45985E-03 -0.70100E-03 -0.14878E-01
 -0.18309E-02 -0.71154E-03 -0.14878E-01
 -0.18437E-02  0.83120E-04 -0.14878E-01
 -0.27237E-02 -0.77814E-03 -0.14878E-01
 -0.28020E-02  0.41533E-04 -0.14878E-01
 -0.25369E-02 -0.15193E-02 -0.14878E-01
 -0.19300E-02 -0.13227E-02 -0.14878E-01
 -0.99320E-03  0.99254E-03 -0.14878E-01
 -0.14391E-02 -0.17324E-02 -0.14878E-01
 -0.31514E-03  0.20228E-02 -0.14878E-01
 -0.11057E-02  0.18611E-02 -0.14878E-01
 -0.18844E-02  0.17175E-02 -0.14878E-01
 -0.18709E-02  0.91012E-03 -0.14878E-01
 -0.15954E-03 -0.19801E-02 -0.14878E-01
 -0.94269E-03 -0.23490E-02 -0.14878E-01
  0.78658E-03 -0.17074E-02 -0.14878E-01
  0.17209E-02 -0.14901E-02 -0.14878E-01
  0.32060E-02  0.76338E-03 -0.14878E-01
  0.28046E-02  0.12490E-02 -0.14878E-01
  0.23056E-02  0.18666E-02 -0.14878E-01
 -0.40572E-03  0.29006E-02 -0.14878E-01
 -0.12092E-02  0.27193E-02 -0.14878E-01
 -0.19446E-02  0.24636E-02 -0.14878E-01
 -0.25028E-02  0.22359E-02 -0.14878E-01
 -0.26368E-02  0.16503E-02 -0.14878E-01
 -0.27662E-02  0.87571E-03 -0.14878E-01
 -0.21128E-02 -0.21374E-02 -0.14878E-01
 -0.16088E-02 -0.26932E-02 -0.14878E-01
 -0.11942E-02 -0.31291E-02 -0.14878E-01
 -0.58746E-03 -0.30382E-02 -0.14878E-01
  0.20790E-03 -0.28748E-02 -0.14878E-01
  0.10577E-02 -0.26431E-02 -0.14878E-01
  0.18414E-02 -0.23713E-02 -0.14878E-01
  0.24548E-02 -0.21461E-02 -0.14878E-01
  0.26024E-02 -0.15102E-02 -0.14878E-01
  0.37964E-02  0.93572E-03 -0.14878E-01
  0.39100E-02  0.00000E+00 -0.14878E-01
  0.34621E-02  0.18171E-02 -0.14878E-01
  0.29267E-02  0.25928E-02 -0.14878E-01
  0.22211E-02  0.32179E-02 -0.14878E-01
  0.13865E-02  0.36559E-02 -0.14878E-01
  0.47130E-03  0.38815E-02 -0.14878E-01
 -0.47130E-03  0.38815E-02 -0.14878E-01
 -0.13865E-02  0.36559E-02 -0.14878E-01
 -0.22211E-02  0.32179E-02 -0.14878E-01
 -0.29267E-02  0.25928E-02 -0.14878E-01
 -0.34621E-02  0.18171E-02 -0.14878E-01
 -0.37964E-02  0.93572E-03 -0.14878E-01
 -0.39100E-02 -0.47884E-18 -0.14878E-01
 -0.37964E-02 -0.93572E-03 -0.14878E-01
 -0.34621E-02 -0.18171E-02 -0.14878E-01
 -0.29267E-02 -0.25928E-02 -0.14878E-01
 -0.22211E-02 -0.32179E-02 -0.14878E-01
 -0.13865E-02 -0.36559E-02 -0.14878E-01
 -0.47130E-03 -0.38815E-02 -0.14878E-01
  0.47130E-03 -0.38815E-02 -0.14878E-01
  0.13865E-02 -0.36559E-02 -0.14878E-01
  0.22211E-02 -0.32179E-02 -0.14878E-01
  0.29267E-02 -0.25928E-02 -0.14878E-01
  0.34621E-02 -0.18171E-02 -0.14878E-01
  0.37964E-02 -0.93572E-03 -0.14878E-01
  0.10373E-02  0.67514E-03 -0.13898E-01
  0.17445E-02  0.12334E-02 -0.13898E-01
  0.23172E-02  0.59360E-03 -0.13898E-01
  0.16689E-02 -0.33474E-03 -0.13898E-01
  0.30376E-02  0.15027E-03 -0.13898E-01
  0.27805E-02 -0.67446E-03 -0.13898E-01
  0.12846E-02  0.18419E-02 -0.13898E-01
  0.65041E-03  0.14616E-02 -0.13898E-01
  0.12652E-03  0.30393E-03 -0.13898E-01
 -0.12896E-03  0.11742E-02 -0.13898E-01
  0.94367E-03  0.22753E-02 -0.13898E-01
  0.11313E-02  0.28269E-02 -0.13898E-01
  0.17475E-02  0.24244E-02 -0.13898E-01
  0.40566E-03  0.21686E-02 -0.13898E-01
  0.39772E-03  0.29356E-02 -0.13898E-01
 -0.76444E-03 -0.10039E-02 -0.13898E-01
 -0.86648E-03  0.82206E-04 -0.13898E-01
  0.45940E-03 -0.70028E-03 -0.13898E-01
 -0.18312E-02 -0.71140E-03 -0.13898E-01
 -0.18436E-02  0.83243E-04 -0.13898E-01
 -0.27237E-02 -0.77797E-03 -0.13898E-01
 -0.28017E-02  0.41806E-04 -0.13898E-01
 -0.25371E-02 -0.15193E-02 -0.13898E-01
 -0.19305E-02 -0.13226E-02 -0.13898E-01
 -0.99305E-03  0.99390E-03 -0.13898E-01
 -0.14394E-02 -0.17323E-02 -0.13898E-01
 -0.31494E-03  0.20231E-02 -0.13898E-01
 -0.11054E-02  0.18610E-02 -0.13898E-01
 -0.18843E-02  0.17175E-02 -0.13898E-01
 -0.18708E-02  0.91036E-03 -0.13898E-01
 -0.15981E-03 -0.19801E-02 -0.13898E-01
 -0.94328E-03 -0.23490E-02 -0.13898E-01
  0.78592E-03 -0.17074E-02 -0.13898E-01
  0.17209E-02 -0.14904E-02 -0.13898E-01
  0.32063E-02  0.76439E-03 -0.13898E-01
  0.28045E-02  0.12494E-02 -0.13898E-01
  0.23055E-02  0.18666E-02 -0.13898E-01
 -0.40558E-03  0.28995E-02 -0.13898E-01
 -0.12092E-02  0.27188E-02 -0.13898E-01
 -0.19446E-02  0.24633E-02 -0.13898E-01
 -0.25027E-02  0.22359E-02 -0.13898E-01
 -0.26367E-02  0.16503E-02 -0.13898E-01
 -0.27658E-02  0.87597E-03 -0.13898E-01
 -0.21129E-02 -0.21374E-02 -0.13898E-01
 -0.16089E-02 -0.26932E-02 -0.13898E-01
 -0.11943E-02 -0.31291E-02 -0.13898E-01
 -0.58781E-03 -0.30382E-02 -0.13898E-01
  0.20749E-03 -0.28748E-02 -0.13898E-01
  0.10574E-02 -0.26434E-02 -0.13898E-01
  0.18415E-02 -0.23715E-02 -0.13898E-01
  0.24549E-02 -0.21467E-02 -0.13898E-01
  0.26025E-02 -0.15101E-02 -0.13898E-01
  0.37964E-02  0.93572E-03 -0.13898E-01
  0.39100E-02  0.00000E+00 -0.13898E-01
  0.34621E-02  0.18171E-02 -0.13898E-01
  0.29267E-02  0.25928E-02 -0.13898E-01
  0.22211E-02  0.32179E-02 -0.13898E-01
  0.13865E-02  0.36559E-02 -0.13898E-01
  0.47130E-03  0.38815E-02 -0.13898E-01
 -0.47130E-03  0.38815E-02 -0.13898E-01
 -0.13865E-02  0.36559E-02 -0.13898E-01
 -0.22211E-02  0.32179E-02 -0.13898E-01
 -0.29267E-02  0.25928E-02 -0.13898E-01
 -0.34621E-02  0.18171E-02 -0.13898E-01
 -0.37964E-02  0.93572E-03 -0.13898E-01
 -0.39100E-02 -0.47884E-18 -0.13898E-01
 -0.37964E-02 -0.93572E-03 -0.13898E-01
 -0.34621E-02 -0.18171E-02 -0.13898E-01
 -0.29267E-02 -0.25928E-02 -0.13898E-01
 -0.22211E-02 -0.32179E-02 -0.13898E-01
 -0.13865E-02 -0.36559E-02 -0.13898E-01
 -0.47130E-03 -0.38815E-02 -0.13898E-01
  0.47130E-03 -0.38815E-02 -0.13898E-01
  0.13865E-02 -0.36559E-02 -0.13898E-01
  0.22211E-02 -0.32179E-02 -0.13898E-01
  0.29267E-02 -0.25928E-02 -0.13898E-01
  0.34621E-02 -0.18171E-02 -0.13898E-01
  0.37964E-02 -0.93572E-03 -0.13898E-01
  0.10372E-02  0.67570E-03 -0.12919E-01
  0.17443E-02  0.12341E-02 -0.12919E-01
  0.23171E-02  0.59412E-03 -0.12919E-01
  0.16687E-02 -0.33398E-03 -0.12919E-01
  0.30376E-02  0.15064E-03 -0.12919E-01
  0.27808E-02 -0.67396E-03 -0.12919E-01
  0.12845E-02  0.18421E-02 -0.12919E-01
  0.65016E-03  0.14626E-02 -0.12919E-01
  0.12626E-03  0.30507E-03 -0.12919E-01
 -0.12915E-03  0.11760E-02 -0.12919E-01
  0.94334E-03  0.22754E-02 -0.12919E-01
  0.11310E-02  0.28264E-02 -0.12919E-01
  0.17471E-02  0.24245E-02 -0.12919E-01
  0.40561E-03  0.21686E-02 -0.12919E-01
  0.39770E-03  0.29353E-02 -0.12919E-01
 -0.76480E-03 -0.10040E-02 -0.12919E-01
 -0.86659E-03  0.83015E-04 -0.12919E-01
  0.45895E-03 -0.69955E-03 -0.12919E-01
 -0.18315E-02 -0.71126E-03 -0.12919E-01
 -0.18435E-02  0.83367E-04 -0.12919E-01
 -0.27237E-02 -0.77780E-03 -0.12919E-01
 -0.28014E-02  0.42080E-04 -0.12919E-01
 -0.25372E-02 -0.15192E-02 -0.12919E-01
 -0.19309E-02 -0.13224E-02 -0.12919E-01
 -0.99291E-03  0.99526E-03 -0.12919E-01
 -0.14398E-02 -0.17323E-02 -0.12919E-01
 -0.31474E-03  0.20234E-02 -0.12919E-01
 -0.11051E-02  0.18609E-02 -0.12919E-01
 -0.18843E-02  0.17175E-02 -0.12919E-01
 -0.18706E-02  0.91060E-03 -0.12919E-01
 -0.16009E-03 -0.19801E-02 -0.12919E-01
 -0.94388E-03 -0.23490E-02 -0.12919E-01
  0.78526E-03 -0.17074E-02 -0.12919E-01
  0.17208E-02 -0.14906E-02 -0.12919E-01
  0.32066E-02  0.76539E-03 -0.12919E-01
  0.28045E-02  0.12498E-02 -0.12919E-01
  0.23053E-02  0.18667E-02 -0.12919E-01
 -0.40545E-03  0.28984E-02 -0.12919E-01
 -0.12092E-02  0.27184E-02 -0.12919E-01
 -0.19446E-02  0.24631E-02 -0.12919E-01
 -0.25027E-02  0.22359E-02 -0.12919E-01
 -0.26366E-02  0.16503E-02 -0.12919E-01
 -0.27655E-02  0.87623E-03 -0.12919E-01
 -0.21130E-02 -0.21374E-02 -0.12919E-01
 -0.16089E-02 -0.26932E-02 -0.12919E-01
 -0.11944E-02 -0.31291E-02 -0.12919E-01
 -0.58816E-03 -0.30382E-02 -0.12919E-01
  0.20709E-03 -0.28748E-02 -0.12919E-01
  0.10571E-02 -0.26436E-02 -0.12919E-01
  0.18415E-02 -0.23717E-02 -0.12919E-01
  0.24550E-02 -0.21472E-02 -0.12919E-01
  0.26025E-02 -0.15100E-02 -0.12919E-01
  0.37964E-02  0.93572E-03 -0.12919E-01
  0.39100E-02  0.00000E+00 -0.12919E-01
  0.34621E-02  0.18171E-02 -0.12919E-01
  0.29267E-02  0.25928E-02 -0.12919E-01
  0.22211E-02  0.32179E-02 -0.12919E-01
  0.13865E-02  0.36559E-02 -0.12919E-01
  0.47130E-03  0.38815E-02 -0.12919E-01
 -0.47130E-03  0.38815E-02 -0.12919E-01
 -0.13865E-02  0.36559E-02 -0.12919E-01
 -0.22211E-02  0.32179E-02 -0.12919E-01
 -0.29267E-02  0.25928E-02 -0.12919E-01
 -0.34621E-02  0.18171E-02 -0.12919E-01
 -0.37964E-02  0.93572E-03 -0.12919E-01
 -0.39100E-02 -0.47884E-18 -0.12919E-01
 -0.37964E-02 -0.93572E-03 -0.12919E-01
 -0.34621E-02 -0.18171E-02 -0.12919E-01
 -0.29267E-02 -0.25928E-02 -0.12919E-01
 -0.22211E-02 -0.32179E-02 -0.12919E-01
 -0.13865E-02 -0.36559E-02 -0.12919E-01
 -0.47130E-03 -0.38815E-02 -0.12919E-01
  0.47130E-03 -0.38815E-02 -0.12919E-01
  0.13865E-02 -0.36559E-02 -0.12919E-01
  0.22211E-02 -0.32179E-02 -0.12919E-01
  0.29267E-02 -0.25928E-02 -0.12919E-01
  0.34621E-02 -0.18171E-02 -0.12919E-01
  0.37964E-02 -0.93572E-03 -0.12919E-01
  0.10371E-02  0.67625E-03 -0.11940E-01
  0.17441E-02  0.12348E-02 -0.11940E-01
  0.23169E-02  0.59465E-03 -0.11940E-01
  0.16685E-02 -0.33323E-03 -0.11940E-01
  0.30376E-02  0.15100E-03 -0.11940E-01
  0.27812E-02 -0.67347E-03 -0.11940E-01
  0.12844E-02  0.18423E-02 -0.11940E-01
  0.64992E-03  0.14636E-02 -0.11940E-01
  0.12600E-03  0.30622E-03 -0.11940E-01
 -0.12933E-03  0.11777E-02 -0.11940E-01
  0.94301E-03  0.22755E-02 -0.11940E-01
  0.11306E-02  0.28260E-02 -0.11940E-01
  0.17467E-02  0.24247E-02 -0.11940E-01
  0.40556E-03  0.21687E-02 -0.11940E-01
  0.39769E-03  0.29351E-02 -0.11940E-01
 -0.76515E-03 -0.10042E-02 -0.11940E-01
 -0.86670E-03  0.83825E-04 -0.11940E-01
  0.45850E-03 -0.69882E-03 -0.11940E-01
 -0.18318E-02 -0.71112E-03 -0.11940E-01
 -0.18434E-02  0.83490E-04 -0.11940E-01
 -0.27236E-02 -0.77763E-03 -0.11940E-01
 -0.28011E-02  0.42353E-04 -0.11940E-01
 -0.25374E-02 -0.15192E-02 -0.11940E-01
 -0.19313E-02 -0.13223E-02 -0.11940E-01
 -0.99277E-03  0.99661E-03 -0.11940E-01
 -0.14401E-02 -0.17322E-02 -0.11940E-01
 -0.31454E-03  0.20237E-02 -0.11940E-01
 -0.11047E-02  0.18607E-02 -0.11940E-01
 -0.18842E-02  0.17175E-02 -0.11940E-01
 -0.18705E-02  0.91084E-03 -0.11940E-01
 -0.16036E-03 -0.19801E-02 -0.11940E-01
 -0.94448E-03 -0.23491E-02 -0.11940E-01
  0.78460E-03 -0.17074E-02 -0.11940E-01
  0.17208E-02 -0.14909E-02 -0.11940E-01
  0.32070E-02  0.76640E-03 -0.11940E-01
  0.28045E-02  0.12503E-02 -0.11940E-01
  0.23052E-02  0.18667E-02 -0.11940E-01
 -0.40531E-03  0.28974E-02 -0.11940E-01
 -0.12092E-02  0.27179E-02 -0.11940E-01
 -0.19445E-02  0.24629E-02 -0.11940E-01
 -0.25027E-02  0.22359E-02 -0.11940E-01
 -0.26366E-02  0.16503E-02 -0.11940E-01
 -0.27652E-02  0.87650E-03 -0.11940E-01
 -0.21132E-02 -0.21374E-02 -0.11940E-01
 -0.16090E-02 -0.26933E-02 -0.11940E-01
 -0.11946E-02 -0.31291E-02 -0.11940E-01
 -0.58851E-03 -0.30382E-02 -0.11940E-01
  0.20668E-03 -0.28749E-02 -0.11940E-01
  0.10567E-02 -0.26439E-02 -0.11940E-01
  0.18416E-02 -0.23719E-02 -0.11940E-01
  0.24551E-02 -0.21478E-02 -0.11940E-01
  0.26026E-02 -0.15099E-02 -0.11940E-01
  0.37964E-02  0.93572E-03 -0.11940E-01
  0.39100E-02  0.00000E+00 -0.11940E-01
  0.34621E-02  0.18171E-02 -0.11940E-01
  0.29267E-02  0.25928E-02 -0.11940E-01
  0.22211E-02  0.32179E-02 -0.11940E-01
  0.13865E-02  0.36559E-02 -0.11940E-01
  0.47130E-03  0.38815E-02 -0.11940E-01
 -0.47130E-03  0.38815E-02 -0.11940E-01
 -0.13865E-02  0.36559E-02 -0.11940E-01
 -0.22211E-02  0.32179E-02 -0.11940E-01
 -0.29267E-02  0.25928E-02 -0.11940E-01
 -0.34621E-02  0.18171E-02 -0.11940E-01
 -0.37964E-02  0.93572E-03 -0.11940E-01
 -0.39100E-02 -0.47884E-18 -0.11940E-01
 -0.37964E-02 -0.93572E-03 -0.11940E-01
 -0.34621E-02 -0.18171E-02 -0.11940E-01
 -0.29267E-02 -0.25928E-02 -0.11940E-01
 -0.22211E-02 -0.32179E-02 -0.11940E-01
 -0.13865E-02 -0.36559E-02 -0.11940E-01
 -0.47130E-03 -0.38815E-02 -0.11940E-01
  0.47130E-03 -0.38815E-02 -0.11940E-01
  0.13865E-02 -0.36559E-02 -0.11940E-01
  0.22211E-02 -0.32179E-02 -0.11940E-01
  0.29267E-02 -0.25928E-02 -0.11940E-01
  0.34621E-02 -0.18171E-02 -0.11940E-01
  0.37964E-02 -0.93572E-03 -0.11940E-01
  0.10370E-02  0.67680E-03 -0.10961E-01
  0.17439E-02  0.12354E-02 -0.10961E-01
  0.23168E-02  0.59517E-03 -0.10961E-01
  0.16683E-02 -0.33247E-03 -0.10961E-01
  0.30375E-02  0.15136E-03 -0.10961E-01
  0.27815E-02 -0.67298E-03 -0.10961E-01
  0.12843E-02  0.18425E-02 -0.10961E-01
  0.64967E-03  0.14646E-02 -0.10961E-01
  0.12573E-03  0.30737E-03 -0.10961E-01
 -0.12952E-03  0.11795E-02 -0.10961E-01
  0.94268E-03  0.22757E-02 -0.10961E-01
  0.11303E-02  0.28255E-02 -0.10961E-01
  0.17463E-02  0.24248E-02 -0.10961E-01
  0.40550E-03  0.21687E-02 -0.10961E-01
  0.39767E-03  0.29348E-02 -0.10961E-01
 -0.76551E-03 -0.10043E-02 -0.10961E-01
 -0.86680E-03  0.84634E-04 -0.10961E-01
  0.45806E-03 -0.69810E-03 -0.10961E-01
 -0.18321E-02 -0.71098E-03 -0.10961E-01
 -0.18433E-02  0.83614E-04 -0.10961E-01
 -0.27236E-02 -0.77746E-03 -0.10961E-01
 -0.28009E-02  0.42626E-04 -0.10961E-01
 -0.25375E-02 -0.15191E-02 -0.10961E-01
 -0.19317E-02 -0.13223E-02 -0.10961E-01
 -0.99262E-03  0.99797E-03 -0.10961E-01
 -0.14405E-02 -0.17322E-02 -0.10961E-01
 -0.31434E-03  0.20240E-02 -0.10961E-01
 -0.11044E-02  0.18606E-02 -0.10961E-01
 -0.18842E-02  0.17175E-02 -0.10961E-01
 -0.18704E-02  0.91108E-03 -0.10961E-01
 -0.16064E-03 -0.19802E-02 -0.10961E-01
 -0.94508E-03 -0.23491E-02 -0.10961E-01
  0.78394E-03 -0.17074E-02 -0.10961E-01
  0.17208E-02 -0.14911E-02 -0.10961E-01
  0.32073E-02  0.76740E-03 -0.10961E-01
  0.28045E-02  0.12507E-02 -0.10961E-01
  0.23051E-02  0.18668E-02 -0.10961E-01
 -0.40517E-03  0.28963E-02 -0.10961E-01
 -0.12092E-02  0.27174E-02 -0.10961E-01
 -0.19445E-02  0.24627E-02 -0.10961E-01
 -0.25026E-02  0.22358E-02 -0.10961E-01
 -0.26365E-02  0.16503E-02 -0.10961E-01
 -0.27649E-02  0.87676E-03 -0.10961E-01
 -0.21133E-02 -0.21374E-02 -0.10961E-01
 -0.16090E-02 -0.26933E-02 -0.10961E-01
 -0.11947E-02 -0.31291E-02 -0.10961E-01
 -0.58886E-03 -0.30382E-02 -0.10961E-01
  0.20627E-03 -0.28749E-02 -0.10961E-01
  0.10564E-02 -0.26442E-02 -0.10961E-01
  0.18416E-02 -0.23721E-02 -0.10961E-01
  0.24553E-02 -0.21483E-02 -0.10961E-01
  0.26027E-02 -0.15097E-02 -0.10961E-01
  0.37964E-02  0.93572E-03 -0.10961E-01
  0.39100E-02  0.00000E+00 -0.10961E-01
  0.34621E-02  0.18171E-02 -0.10961E-01
  0.29267E-02  0.25928E-02 -0.10961E-01
  0.22211E-02  0.32179E-02 -0.10961E-01
  0.13865E-02  0.36559E-02 -0.10961E-01
  0.47130E-03  0.38815E-02 -0.10961E-01
 -0.47130E-03  0.38815E-02 -0.10961E-01
 -0.13865E-02  0.36559E-02 -0.10961E-01
 -0.22211E-02  0.32179E-02 -0.10961E-01
 -0.29267E-02  0.25928E-02 -0.10961E-01
 -0.34621E-02  0.18171E-02 -0.10961E-01
 -0.37964E-02  0.93572E-03 -0.10961E-01
 -0.39100E-02 -0.47884E-18 -0.10961E-01
 -0.37964E-02 -0.93572E-03 -0.10961E-01
 -0.34621E-02 -0.18171E-02 -0.10961E-01
 -0.29267E-02 -0.25928E-02 -0.10961E-01
 -0.22211E-02 -0.32179E-02 -0.10961E-01
 -0.13865E-02 -0.36559E-02 -0.10961E-01
 -0.47130E-03 -0.38815E-02 -0.10961E-01
  0.47130E-03 -0.38815E-02 -0.10961E-01
  0.13865E-02 -0.36559E-02 -0.10961E-01
  0.22211E-02 -0.32179E-02 -0.10961E-01
  0.29267E-02 -0.25928E-02 -0.10961E-01
  0.34621E-02 -0.18171E-02 -0.10961E-01
  0.37964E-02 -0.93572E-03 -0.10961E-01
  0.10368E-02  0.67736E-03 -0.99818E-02
  0.17438E-02  0.12361E-02 -0.99818E-02
  0.23167E-02  0.59570E-03 -0.99818E-02
  0.16681E-02 -0.33172E-03 -0.99818E-02
  0.30375E-02  0.15173E-03 -0.99818E-02
  0.27819E-02 -0.67248E-03 -0.99818E-02
  0.12842E-02  0.18427E-02 -0.99818E-02
  0.64943E-03  0.14656E-02 -0.99818E-02
  0.12547E-03  0.30852E-03 -0.99818E-02
 -0.12970E-03  0.11812E-02 -0.99818E-02
  0.94235E-03  0.22758E-02 -0.99818E-02
  0.11300E-02  0.28251E-02 -0.99818E-02
  0.17459E-02  0.24249E-02 -0.99818E-02
  0.40545E-03  0.21688E-02 -0.99818E-02
  0.39766E-03  0.29345E-02 -0.99818E-02
 -0.76586E-03 -0.10044E-02 -0.99818E-02
 -0.86691E-03  0.85443E-04 -0.99818E-02
  0.45761E-03 -0.69737E-03 -0.99818E-02
 -0.18324E-02 -0.71084E-03 -0.99818E-02
 -0.18432E-02  0.83737E-04 -0.99818E-02
 -0.27236E-02 -0.77729E-03 -0.99818E-02
 -0.28006E-02  0.42899E-04 -0.99818E-02
 -0.25377E-02 -0.15191E-02 -0.99818E-02
 -0.19322E-02 -0.13222E-02 -0.99818E-02
 -0.99248E-03  0.99932E-03 -0.99818E-02
 -0.14408E-02 -0.17322E-02 -0.99818E-02
 -0.31414E-03  0.20243E-02 -0.99818E-02
 -0.11040E-02  0.18605E-02 -0.99818E-02
 -0.18841E-02  0.17175E-02 -0.99818E-02
 -0.18703E-02  0.91132E-03 -0.99818E-02
 -0.16091E-03 -0.19802E-02 -0.99818E-02
 -0.94568E-03 -0.23491E-02 -0.99818E-02
  0.78328E-03 -0.17074E-02 -0.99818E-02
  0.17207E-02 -0.14914E-02 -0.99818E-02
  0.32076E-02  0.76841E-03 -0.99818E-02
  0.28044E-02  0.12511E-02 -0.99818E-02
  0.23050E-02  0.18668E-02 -0.99818E-02
 -0.40503E-03  0.28952E-02 -0.99818E-02
 -0.12092E-02  0.27170E-02 -0.99818E-02
 -0.19445E-02  0.24624E-02 -0.99818E-02
 -0.25026E-02  0.22358E-02 -0.99818E-02
 -0.26364E-02  0.16503E-02 -0.99818E-02
 -0.27646E-02  0.87702E-03 -0.99818E-02
 -0.21134E-02 -0.21374E-02 -0.99818E-02
 -0.16091E-02 -0.26933E-02 -0.99818E-02
 -0.11948E-02 -0.31291E-02 -0.99818E-02
 -0.58921E-03 -0.30382E-02 -0.99818E-02
  0.20587E-03 -0.28749E-02 -0.99818E-02
  0.10561E-02 -0.26444E-02 -0.99818E-02
  0.18416E-02 -0.23723E-02 -0.99818E-02
  0.24554E-02 -0.21489E-02 -0.99818E-02
  0.26027E-02 -0.15096E-02 -0.99818E-02
  0.37964E-02  0.93572E-03 -0.99818E-02
  0.39100E-02  0.00000E+00 -0.99818E-02
  0.34621E-02  0.18171E-02 -0.99818E-02
  0.29267E-02  0.25928E-02 -0.99818E-02
  0.22211E-02  0.32179E-02 -0.99818E-02
  0.13865E-02  0.36559E-02 -0.99818E-02
  0.47130E-03  0.38815E-02 -0.99818E-02
 -0.47130E-03  0.38815E-02 -0.99818E-02
 -0.13865E-02  0.36559E-02 -0.99818E-02
 -0.22211E-02  0.32179E-02 -0.99818E-02
 -0.29267E-02  0.25928E-02 -0.99818E-02
 -0.34621E-02  0.18171E-02 -0.99818E-02
 -0.37964E-02  0.93572E-03 -0.99818E-02
 -0.39100E-02 -0.47884E-18 -0.99818E-02
 -0.37964E-02 -0.93572E-03 -0.99818E-02
 -0.34621E-02 -0.18171E-02 -0.99818E-02
 -0.29267E-02 -0.25928E-02 -0.99818E-02
 -0.22211E-02 -0.32179E-02 -0.99818E-02
 -0.13865E-02 -0.36559E-02 -0.99818E-02
 -0.47130E-03 -0.38815E-02 -0.99818E-02
  0.47130E-03 -0.38815E-02 -0.99818E-02
  0.13865E-02 -0.36559E-02 -0.99818E-02
  0.22211E-02 -0.32179E-02 -0.99818E-02
  0.29267E-02 -0.25928E-02 -0.99818E-02
  0.34621E-02 -0.18171E-02 -0.99818E-02
  0.37964E-02 -0.93572E-03 -0.99818E-02
  0.10367E-02  0.67791E-03 -0.90026E-02
  0.17436E-02  0.12368E-02 -0.90026E-02
  0.23166E-02  0.59622E-03 -0.90026E-02
  0.16679E-02 -0.33096E-03 -0.90026E-02
  0.30375E-02  0.15209E-03 -0.90026E-02
  0.27822E-02 -0.67199E-03 -0.90026E-02
  0.12841E-02  0.18429E-02 -0.90026E-02
  0.64918E-03  0.14666E-02 -0.90026E-02
  0.12521E-03  0.30967E-03 -0.90026E-02
 -0.12989E-03  0.11830E-02 -0.90026E-02
  0.94202E-03  0.22759E-02 -0.90026E-02
  0.11296E-02  0.28247E-02 -0.90026E-02
  0.17455E-02  0.24251E-02 -0.90026E-02
  0.40539E-03  0.21688E-02 -0.90026E-02
  0.39764E-03  0.29343E-02 -0.90026E-02
 -0.76621E-03 -0.10046E-02 -0.90026E-02
 -0.86702E-03  0.86253E-04 -0.90026E-02
  0.45716E-03 -0.69665E-03 -0.90026E-02
 -0.18326E-02 -0.71070E-03 -0.90026E-02
 -0.18431E-02  0.83861E-04 -0.90026E-02
 -0.27235E-02 -0.77712E-03 -0.90026E-02
 -0.28003E-02  0.43173E-04 -0.90026E-02
 -0.25379E-02 -0.15190E-02 -0.90026E-02
 -0.19326E-02 -0.13220E-02 -0.90026E-02
 -0.99233E-03  0.10007E-02 -0.90026E-02
 -0.14412E-02 -0.17321E-02 -0.90026E-02
 -0.31394E-03  0.20245E-02 -0.90026E-02
 -0.11037E-02  0.18603E-02 -0.90026E-02
 -0.18841E-02  0.17175E-02 -0.90026E-02
 -0.18701E-02  0.91156E-03 -0.90026E-02
 -0.16119E-03 -0.19802E-02 -0.90026E-02
 -0.94628E-03 -0.23491E-02 -0.90026E-02
  0.78262E-03 -0.17074E-02 -0.90026E-02
  0.17207E-02 -0.14916E-02 -0.90026E-02
  0.32079E-02  0.76941E-03 -0.90026E-02
  0.28044E-02  0.12515E-02 -0.90026E-02
  0.23049E-02  0.18668E-02 -0.90026E-02
 -0.40490E-03  0.28942E-02 -0.90026E-02
 -0.12093E-02  0.27165E-02 -0.90026E-02
 -0.19444E-02  0.24622E-02 -0.90026E-02
 -0.25026E-02  0.22358E-02 -0.90026E-02
 -0.26363E-02  0.16503E-02 -0.90026E-02
 -0.27643E-02  0.87728E-03 -0.90026E-02
 -0.21136E-02 -0.21374E-02 -0.90026E-02
 -0.16091E-02 -0.26933E-02 -0.90026E-02
 -0.11949E-02 -0.31291E-02 -0.90026E-02
 -0.58956E-03 -0.30382E-02 -0.90026E-02
  0.20546E-03 -0.28749E-02 -0.90026E-02
  0.10558E-02 -0.26447E-02 -0.90026E-02
  0.18417E-02 -0.23725E-02 -0.90026E-02
  0.24555E-02 -0.21494E-02 -0.90026E-02
  0.26028E-02 -0.15095E-02 -0.90026E-02
  0.37964E-02  0.93572E-03 -0.90026E-02
  0.39100E-02  0.00000E+00 -0.90026E-02
  0.34621E-02  0.18171E-02 -0.90026E-02
  0.29267E-02  0.25928E-02 -0.90026E-02
  0.22211E-02  0.32179E-02 -0.90026E-02
  0.13865E-02  0.36559E-02 -0.90026E-02
  0.47130E-03  0.38815E-02 -0.90026E-02
 -0.47130E-03  0.38815E-02 -0.90026E-02
 -0.13865E-02  0.36559E-02 -0.90026E-02
 -0.22211E-02  0.32179E-02 -0.90026E-02
 -0.29267E-02  0.25928E-02 -0.90026E-02
 -0.34621E-02  0.18171E-02 -0.90026E-02
 -0.37964E-02  0.93572E-03 -0.90026E-02
 -0.39100E-02 -0.47884E-18 -0.90026E-02
 -0.37964E-02 -0.93572E-03 -0.90026E-02
 -0.34621E-02 -0.18171E-02 -0.90026E-02
 -0.29267E-02 -0.25928E-02 -0.90026E-02
 -0.22211E-02 -0.32179E-02 -0.90026E-02
 -0.13865E-02 -0.36559E-02 -0.90026E-02
 -0.47130E-03 -0.38815E-02 -0.90026E-02
  0.47130E-03 -0.38815E-02 -0.90026E-02
  0.13865E-02 -0.36559E-02 -0.90026E-02
  0.22211E-02 -0.32179E-02 -0.90026E-02
  0.29267E-02 -0.25928E-02 -0.90026E-02
  0.34621E-02 -0.18171E-02 -0.90026E-02
  0.37964E-02 -0.93572E-03 -0.90026E-02
  0.10366E-02  0.67847E-03 -0.80235E-02
  0.17434E-02  0.12374E-02 -0.80235E-02
  0.23164E-02  0.59674E-03 -0.80235E-02
  0.16677E-02 -0.33021E-03 -0.80235E-02
  0.30375E-02  0.15245E-03 -0.80235E-02
  0.27825E-02 -0.67150E-03 -0.80235E-02
  0.12840E-02  0.18430E-02 -0.80235E-02
  0.64894E-03  0.14676E-02 -0.80235E-02
  0.12495E-03  0.31081E-03 -0.80235E-02
 -0.13007E-03  0.11847E-02 -0.80235E-02
  0.94169E-03  0.22761E-02 -0.80235E-02
  0.11293E-02  0.28242E-02 -0.80235E-02
  0.17451E-02  0.24252E-02 -0.80235E-02
  0.40534E-03  0.21688E-02 -0.80235E-02
  0.39762E-03  0.29340E-02 -0.80235E-02
 -0.76657E-03 -0.10047E-02 -0.80235E-02
 -0.86713E-03  0.87062E-04 -0.80235E-02
  0.45671E-03 -0.69592E-03 -0.80235E-02
 -0.18329E-02 -0.71056E-03 -0.80235E-02
 -0.18430E-02  0.83985E-04 -0.80235E-02
 -0.27235E-02 -0.77695E-03 -0.80235E-02
 -0.28001E-02  0.43446E-04 -0.80235E-02
 -0.25380E-02 -0.15190E-02 -0.80235E-02
 -0.19330E-02 -0.13219E-02 -0.80235E-02
 -0.99219E-03  0.10020E-02 -0.80235E-02
 -0.14415E-02 -0.17321E-02 -0.80235E-02
 -0.31374E-03  0.20248E-02 -0.80235E-02
 -0.11033E-02  0.18602E-02 -0.80235E-02
 -0.18840E-02  0.17175E-02 -0.80235E-02
 -0.18700E-02  0.91180E-03 -0.80235E-02
 -0.16146E-03 -0.19803E-02 -0.80235E-02
 -0.94687E-03 -0.23491E-02 -0.80235E-02
  0.78195E-03 -0.17073E-02 -0.80235E-02
  0.17207E-02 -0.14919E-02 -0.80235E-02
  0.32083E-02  0.77042E-03 -0.80235E-02
  0.28044E-02  0.12520E-02 -0.80235E-02
  0.23048E-02  0.18669E-02 -0.80235E-02
 -0.40476E-03  0.28931E-02 -0.80235E-02
 -0.12093E-02  0.27160E-02 -0.80235E-02
 -0.19444E-02  0.24620E-02 -0.80235E-02
 -0.25026E-02  0.22358E-02 -0.80235E-02
 -0.26362E-02  0.16503E-02 -0.80235E-02
 -0.27640E-02  0.87754E-03 -0.80235E-02
 -0.21137E-02 -0.21374E-02 -0.80235E-02
 -0.16091E-02 -0.26933E-02 -0.80235E-02
 -0.11950E-02 -0.31291E-02 -0.80235E-02
 -0.58991E-03 -0.30382E-02 -0.80235E-02
  0.20505E-03 -0.28749E-02 -0.80235E-02
  0.10555E-02 -0.26450E-02 -0.80235E-02
  0.18417E-02 -0.23727E-02 -0.80235E-02
  0.24556E-02 -0.21500E-02 -0.80235E-02
  0.26029E-02 -0.15094E-02 -0.80235E-02
  0.37964E-02  0.93572E-03 -0.80235E-02
  0.39100E-02  0.00000E+00 -0.80235E-02
  0.34621E-02  0.18171E-02 -0.80235E-02
  0.29267E-02  0.25928E-02 -0.80235E-02
  0.22211E-02  0.32179E-02 -0.80235E-02
  0.13865E-02  0.36559E-02 -0.80235E-02
  0.47130E-03  0.38815E-02 -0.80235E-02
 -0.47130E-03  0.38815E-02 -0.80235E-02
 -0.13865E-02  0.36559E-02 -0.80235E-02
 -0.22211E-02  0.32179E-02 -0.80235E-02
 -0.29267E-02  0.25928E-02 -0.80235E-02
 -0.34621E-02  0.18171E-02 -0.80235E-02
 -0.37964E-02  0.93572E-03 -0.80235E-02
 -0.39100E-02  0.39516E-17 -0.80235E-02
 -0.37964E-02 -0.93572E-03 -0.80235E-02
 -0.34621E-02 -0.18171E-02 -0.80235E-02
 -0.29267E-02 -0.25928E-02 -0.80235E-02
 -0.22211E-02 -0.32179E-02 -0.80235E-02
 -0.13865E-02 -0.36559E-02 -0.80235E-02
 -0.47130E-03 -0.38815E-02 -0.80235E-02
  0.47130E-03 -0.38815E-02 -0.80235E-02
  0.13865E-02 -0.36559E-02 -0.80235E-02
  0.22211E-02 -0.32179E-02 -0.80235E-02
  0.29267E-02 -0.25928E-02 -0.80235E-02
  0.34621E-02 -0.18171E-02 -0.80235E-02
  0.37964E-02 -0.93572E-03 -0.80235E-02
  0.10365E-02  0.67902E-03 -0.70443E-02
  0.17432E-02  0.12381E-02 -0.70443E-02
  0.23163E-02  0.59727E-03 -0.70443E-02
  0.16675E-02 -0.32945E-03 -0.70443E-02
  0.30374E-02  0.15282E-03 -0.70443E-02
  0.27829E-02 -0.67100E-03 -0.70443E-02
  0.12839E-02  0.18432E-02 -0.70443E-02
  0.64869E-03  0.14686E-02 -0.70443E-02
  0.12468E-03  0.31196E-03 -0.70443E-02
 -0.13026E-03  0.11865E-02 -0.70443E-02
  0.94135E-03  0.22762E-02 -0.70443E-02
  0.11289E-02  0.28238E-02 -0.70443E-02
  0.17447E-02  0.24254E-02 -0.70443E-02
  0.40528E-03  0.21688E-02 -0.70443E-02
  0.39760E-03  0.29337E-02 -0.70443E-02
 -0.76692E-03 -0.10049E-02 -0.70443E-02
 -0.86724E-03  0.87871E-04 -0.70443E-02
  0.45626E-03 -0.69519E-03 -0.70443E-02
 -0.18332E-02 -0.71042E-03 -0.70443E-02
 -0.18430E-02  0.84108E-04 -0.70443E-02
 -0.27235E-02 -0.77678E-03 -0.70443E-02
 -0.27998E-02  0.43720E-04 -0.70443E-02
 -0.25382E-02 -0.15189E-02 -0.70443E-02
 -0.19334E-02 -0.13219E-02 -0.70443E-02
 -0.99205E-03  0.10034E-02 -0.70443E-02
 -0.14419E-02 -0.17320E-02 -0.70443E-02
 -0.31354E-03  0.20251E-02 -0.70443E-02
 -0.11030E-02  0.18601E-02 -0.70443E-02
 -0.18840E-02  0.17175E-02 -0.70443E-02
 -0.18699E-02  0.91204E-03 -0.70443E-02
 -0.16174E-03 -0.19803E-02 -0.70443E-02
 -0.94747E-03 -0.23492E-02 -0.70443E-02
  0.78129E-03 -0.17073E-02 -0.70443E-02
  0.17206E-02 -0.14921E-02 -0.70443E-02
  0.32086E-02  0.77142E-03 -0.70443E-02
  0.28044E-02  0.12524E-02 -0.70443E-02
  0.23047E-02  0.18669E-02 -0.70443E-02
 -0.40462E-03  0.28920E-02 -0.70443E-02
 -0.12093E-02  0.27155E-02 -0.70443E-02
 -0.19444E-02  0.24618E-02 -0.70443E-02
 -0.25025E-02  0.22358E-02 -0.70443E-02
 -0.26361E-02  0.16503E-02 -0.70443E-02
 -0.27637E-02  0.87781E-03 -0.70443E-02
 -0.21139E-02 -0.21374E-02 -0.70443E-02
 -0.16092E-02 -0.26934E-02 -0.70443E-02
 -0.11951E-02 -0.31291E-02 -0.70443E-02
 -0.59025E-03 -0.30382E-02 -0.70443E-02
  0.20465E-03 -0.28749E-02 -0.70443E-02
  0.10552E-02 -0.26452E-02 -0.70443E-02
  0.18418E-02 -0.23729E-02 -0.70443E-02
  0.24558E-02 -0.21505E-02 -0.70443E-02
  0.26030E-02 -0.15093E-02 -0.70443E-02
  0.37964E-02  0.93572E-03 -0.70443E-02
  0.39100E-02  0.00000E+00 -0.70443E-02
  0.34621E-02  0.18171E-02 -0.70443E-02
  0.29267E-02  0.25928E-02 -0.70443E-02
  0.22211E-02  0.32179E-02 -0.70443E-02
  0.13865E-02  0.36559E-02 -0.70443E-02
  0.47130E-03  0.38815E-02 -0.70443E-02
 -0.47130E-03  0.38815E-02 -0.70443E-02
 -0.13865E-02  0.36559E-02 -0.70443E-02
 -0.22211E-02  0.32179E-02 -0.70443E-02
 -0.29267E-02  0.25928E-02 -0.70443E-02
 -0.34621E-02  0.18171E-02 -0.70443E-02
 -0.37964E-02  0.93572E-03 -0.70443E-02
 -0.39100E-02 -0.47884E-18 -0.70443E-02
 -0.37964E-02 -0.93572E-03 -0.70443E-02
 -0.34621E-02 -0.18171E-02 -0.70443E-02
 -0.29267E-02 -0.25928E-02 -0.70443E-02
 -0.22211E-02 -0.32179E-02 -0.70443E-02
 -0.13865E-02 -0.36559E-02 -0.70443E-02
 -0.47130E-03 -0.38815E-02 -0.70443E-02
  0.47130E-03 -0.38815E-02 -0.70443E-02
  0.13865E-02 -0.36559E-02 -0.70443E-02
  0.22211E-02 -0.32179E-02 -0.70443E-02
  0.29267E-02 -0.25928E-02 -0.70443E-02
  0.34621E-02 -0.18171E-02 -0.70443E-02
  0.37964E-02 -0.93572E-03 -0.70443E-02
  0.10364E-02  0.67958E-03 -0.60651E-02
  0.17430E-02  0.12387E-02 -0.60651E-02
  0.23162E-02  0.59779E-03 -0.60651E-02
  0.16672E-02 -0.32870E-03 -0.60651E-02
  0.30374E-02  0.15318E-03 -0.60651E-02
  0.27832E-02 -0.67051E-03 -0.60651E-02
  0.12838E-02  0.18434E-02 -0.60651E-02
  0.64845E-03  0.14696E-02 -0.60651E-02
  0.12442E-03  0.31311E-03 -0.60651E-02
 -0.13044E-03  0.11882E-02 -0.60651E-02
  0.94102E-03  0.22763E-02 -0.60651E-02
  0.11286E-02  0.28233E-02 -0.60651E-02
  0.17443E-02  0.24255E-02 -0.60651E-02
  0.40523E-03  0.21689E-02 -0.60651E-02
  0.39759E-03  0.29335E-02 -0.60651E-02
 -0.76727E-03 -0.10050E-02 -0.60651E-02
 -0.86735E-03  0.88681E-04 -0.60651E-02
  0.45582E-03 -0.69447E-03 -0.60651E-02
 -0.18335E-02 -0.71028E-03 -0.60651E-02
 -0.18429E-02  0.84232E-04 -0.60651E-02
 -0.27235E-02 -0.77661E-03 -0.60651E-02
 -0.27995E-02  0.43993E-04 -0.60651E-02
 -0.25383E-02 -0.15189E-02 -0.60651E-02
 -0.19339E-02 -0.13218E-02 -0.60651E-02
 -0.99190E-03  0.10048E-02 -0.60651E-02
 -0.14422E-02 -0.17320E-02 -0.60651E-02
 -0.31334E-03  0.20254E-02 -0.60651E-02
 -0.11026E-02  0.18599E-02 -0.60651E-02
 -0.18839E-02  0.17175E-02 -0.60651E-02
 -0.18697E-02  0.91228E-03 -0.60651E-02
 -0.16201E-03 -0.19803E-02 -0.60651E-02
 -0.94807E-03 -0.23492E-02 -0.60651E-02
  0.78063E-03 -0.17073E-02 -0.60651E-02
  0.17206E-02 -0.14923E-02 -0.60651E-02
  0.32089E-02  0.77243E-03 -0.60651E-02
  0.28043E-02  0.12528E-02 -0.60651E-02
  0.23046E-02  0.18670E-02 -0.60651E-02
 -0.40448E-03  0.28910E-02 -0.60651E-02
 -0.12093E-02  0.27151E-02 -0.60651E-02
 -0.19443E-02  0.24615E-02 -0.60651E-02
 -0.25025E-02  0.22358E-02 -0.60651E-02
 -0.26360E-02  0.16503E-02 -0.60651E-02
 -0.27633E-02  0.87807E-03 -0.60651E-02
 -0.21140E-02 -0.21374E-02 -0.60651E-02
 -0.16092E-02 -0.26934E-02 -0.60651E-02
 -0.11953E-02 -0.31291E-02 -0.60651E-02
 -0.59060E-03 -0.30382E-02 -0.60651E-02
  0.20424E-03 -0.28749E-02 -0.60651E-02
  0.10549E-02 -0.26455E-02 -0.60651E-02
  0.18418E-02 -0.23732E-02 -0.60651E-02
  0.24559E-02 -0.21511E-02 -0.60651E-02
  0.26030E-02 -0.15092E-02 -0.60651E-02
  0.37964E-02  0.93572E-03 -0.60651E-02
  0.39100E-02  0.00000E+00 -0.60651E-02
  0.34621E-02  0.18171E-02 -0.60651E-02
  0.29267E-02  0.25928E-02 -0.60651E-02
  0.22211E-02  0.32179E-02 -0.60651E-02
  0.13865E-02  0.36559E-02 -0.60651E-02
  0.47130E-03  0.38815E-02 -0.60651E-02
 -0.47130E-03  0.38815E-02 -0.60651E-02
 -0.13865E-02  0.36559E-02 -0.60651E-02
 -0.22211E-02  0.32179E-02 -0.60651E-02
 -0.29267E-02  0.25928E-02 -0.60651E-02
 -0.34621E-02  0.18171E-02 -0.60651E-02
 -0.37964E-02  0.93572E-03 -0.60651E-02
 -0.39100E-02  0.22152E-17 -0.60651E-02
 -0.37964E-02 -0.93572E-03 -0.60651E-02
 -0.34621E-02 -0.18171E-02 -0.60651E-02
 -0.29267E-02 -0.25928E-02 -0.60651E-02
 -0.22211E-02 -0.32179E-02 -0.60651E-02
 -0.13865E-02 -0.36559E-02 -0.60651E-02
 -0.47130E-03 -0.38815E-02 -0.60651E-02
  0.47130E-03 -0.38815E-02 -0.60651E-02
  0.13865E-02 -0.36559E-02 -0.60651E-02
  0.22211E-02 -0.32179E-02 -0.60651E-02
  0.29267E-02 -0.25928E-02 -0.60651E-02
  0.34621E-02 -0.18171E-02 -0.60651E-02
  0.37964E-02 -0.93572E-03 -0.60651E-02
  0.10363E-02  0.68013E-03 -0.50860E-02
  0.17429E-02  0.12394E-02 -0.50860E-02
  0.23161E-02  0.59831E-03 -0.50860E-02
  0.16670E-02 -0.32794E-03 -0.50860E-02
  0.30374E-02  0.15354E-03 -0.50860E-02
  0.27836E-02 -0.67002E-03 -0.50860E-02
  0.12837E-02  0.18436E-02 -0.50860E-02
  0.64820E-03  0.14706E-02 -0.50860E-02
  0.12416E-03  0.31426E-03 -0.50860E-02
 -0.13063E-03  0.11900E-02 -0.50860E-02
  0.94069E-03  0.22765E-02 -0.50860E-02
  0.11282E-02  0.28229E-02 -0.50860E-02
  0.17439E-02  0.24257E-02 -0.50860E-02
  0.40518E-03  0.21689E-02 -0.50860E-02
  0.39757E-03  0.29332E-02 -0.50860E-02
 -0.76763E-03 -0.10051E-02 -0.50860E-02
 -0.86746E-03  0.89490E-04 -0.50860E-02
  0.45537E-03 -0.69374E-03 -0.50860E-02
 -0.18338E-02 -0.71013E-03 -0.50860E-02
 -0.18428E-02  0.84355E-04 -0.50860E-02
 -0.27234E-02 -0.77644E-03 -0.50860E-02
 -0.27992E-02  0.44266E-04 -0.50860E-02
 -0.25385E-02 -0.15188E-02 -0.50860E-02
 -0.19343E-02 -0.13216E-02 -0.50860E-02
 -0.99176E-03  0.10061E-02 -0.50860E-02
 -0.14425E-02 -0.17320E-02 -0.50860E-02
 -0.31314E-03  0.20257E-02 -0.50860E-02
 -0.11023E-02  0.18598E-02 -0.50860E-02
 -0.18839E-02  0.17175E-02 -0.50860E-02
 -0.18696E-02  0.91252E-03 -0.50860E-02
 -0.16229E-03 -0.19803E-02 -0.50860E-02
 -0.94867E-03 -0.23492E-02 -0.50860E-02
  0.77997E-03 -0.17073E-02 -0.50860E-02
  0.17205E-02 -0.14926E-02 -0.50860E-02
  0.32092E-02  0.77343E-03 -0.50860E-02
  0.28043E-02  0.12533E-02 -0.50860E-02
  0.23044E-02  0.18670E-02 -0.50860E-02
 -0.40434E-03  0.28899E-02 -0.50860E-02
 -0.12093E-02  0.27146E-02 -0.50860E-02
 -0.19443E-02  0.24613E-02 -0.50860E-02
 -0.25025E-02  0.22358E-02 -0.50860E-02
 -0.26359E-02  0.16503E-02 -0.50860E-02
 -0.27630E-02  0.87833E-03 -0.50860E-02
 -0.21141E-02 -0.21374E-02 -0.50860E-02
 -0.16093E-02 -0.26934E-02 -0.50860E-02
 -0.11954E-02 -0.31291E-02 -0.50860E-02
 -0.59095E-03 -0.30382E-02 -0.50860E-02
  0.20384E-03 -0.28750E-02 -0.50860E-02
  0.10546E-02 -0.26458E-02 -0.50860E-02
  0.18419E-02 -0.23734E-02 -0.50860E-02
  0.24560E-02 -0.21516E-02 -0.50860E-02
  0.26031E-02 -0.15091E-02 -0.50860E-02
  0.37964E-02  0.93572E-03 -0.50860E-02
  0.39100E-02  0.00000E+00 -0.50860E-02
  0.34621E-02  0.18171E-02 -0.50860E-02
  0.29267E-02  0.25928E-02 -0.50860E-02
  0.22211E-02  0.32179E-02 -0.50860E-02
  0.13865E-02  0.36559E-02 -0.50860E-02
  0.47130E-03  0.38815E-02 -0.50860E-02
 -0.47130E-03  0.38815E-02 -0.50860E-02
 -0.13865E-02  0.36559E-02 -0.50860E-02
 -0.22211E-02  0.32179E-02 -0.50860E-02
 -0.29267E-02  0.25928E-02 -0.50860E-02
 -0.34621E-02  0.18171E-02 -0.50860E-02
 -0.37964E-02  0.93572E-03 -0.50860E-02
 -0.39100E-02 -0.47884E-18 -0.50860E-02
 -0.37964E-02 -0.93572E-03 -0.50860E-02
 -0.34621E-02 -0.18171E-02 -0.50860E-02
 -0.29267E-02 -0.25928E-02 -0.50860E-02
 -0.22211E-02 -0.32179E-02 -0.50860E-02
 -0.13865E-02 -0.36559E-02 -0.50860E-02
 -0.47130E-03 -0.38815E-02 -0.50860E-02
  0.47130E-03 -0.38815E-02 -0.50860E-02
  0.13865E-02 -0.36559E-02 -0.50860E-02
  0.22211E-02 -0.32179E-02 -0.50860E-02
  0.29267E-02 -0.25928E-02 -0.50860E-02
  0.34621E-02 -0.18171E-02 -0.50860E-02
  0.37964E-02 -0.93572E-03 -0.50860E-02
  0.10362E-02  0.68068E-03 -0.41068E-02
  0.17427E-02  0.12401E-02 -0.41068E-02
  0.23160E-02  0.59884E-03 -0.41068E-02
  0.16668E-02 -0.32719E-03 -0.41068E-02
  0.30373E-02  0.15391E-03 -0.41068E-02
  0.27839E-02 -0.66953E-03 -0.41068E-02
  0.12836E-02  0.18438E-02 -0.41068E-02
  0.64796E-03  0.14716E-02 -0.41068E-02
  0.12390E-03  0.31541E-03 -0.41068E-02
 -0.13082E-03  0.11917E-02 -0.41068E-02
  0.94036E-03  0.22766E-02 -0.41068E-02
  0.11279E-02  0.28225E-02 -0.41068E-02
  0.17435E-02  0.24258E-02 -0.41068E-02
  0.40512E-03  0.21690E-02 -0.41068E-02
  0.39755E-03  0.29330E-02 -0.41068E-02
 -0.76798E-03 -0.10053E-02 -0.41068E-02
 -0.86756E-03  0.90299E-04 -0.41068E-02
  0.45492E-03 -0.69302E-03 -0.41068E-02
 -0.18341E-02 -0.70999E-03 -0.41068E-02
 -0.18427E-02  0.84479E-04 -0.41068E-02
 -0.27234E-02 -0.77627E-03 -0.41068E-02
 -0.27990E-02  0.44540E-04 -0.41068E-02
 -0.25386E-02 -0.15188E-02 -0.41068E-02
 -0.19347E-02 -0.13215E-02 -0.41068E-02
 -0.99161E-03  0.10075E-02 -0.41068E-02
 -0.14429E-02 -0.17319E-02 -0.41068E-02
 -0.31294E-03  0.20260E-02 -0.41068E-02
 -0.11019E-02  0.18597E-02 -0.41068E-02
 -0.18838E-02  0.17175E-02 -0.41068E-02
 -0.18695E-02  0.91276E-03 -0.41068E-02
 -0.16256E-03 -0.19804E-02 -0.41068E-02
 -0.94927E-03 -0.23493E-02 -0.41068E-02
  0.77931E-03 -0.17073E-02 -0.41068E-02
  0.17205E-02 -0.14928E-02 -0.41068E-02
  0.32096E-02  0.77444E-03 -0.41068E-02
  0.28043E-02  0.12537E-02 -0.41068E-02
  0.23043E-02  0.18670E-02 -0.41068E-02
 -0.40420E-03  0.28888E-02 -0.41068E-02
 -0.12093E-02  0.27141E-02 -0.41068E-02
 -0.19443E-02  0.24611E-02 -0.41068E-02
 -0.25024E-02  0.22358E-02 -0.41068E-02
 -0.26358E-02  0.16503E-02 -0.41068E-02
 -0.27627E-02  0.87859E-03 -0.41068E-02
 -0.21143E-02 -0.21374E-02 -0.41068E-02
 -0.16093E-02 -0.26934E-02 -0.41068E-02
 -0.11955E-02 -0.31291E-02 -0.41068E-02
 -0.59130E-03 -0.30382E-02 -0.41068E-02
  0.20343E-03 -0.28750E-02 -0.41068E-02
  0.10543E-02 -0.26460E-02 -0.41068E-02
  0.18419E-02 -0.23736E-02 -0.41068E-02
  0.24561E-02 -0.21521E-02 -0.41068E-02
  0.26032E-02 -0.15090E-02 -0.41068E-02
  0.37964E-02  0.93572E-03 -0.41068E-02
  0.39100E-02  0.00000E+00 -0.41068E-02
  0.34621E-02  0.18171E-02 -0.41068E-02
  0.29267E-02  0.25928E-02 -0.41068E-02
  0.22211E-02  0.32179E-02 -0.41068E-02
  0.13865E-02  0.36559E-02 -0.41068E-02
  0.47130E-03  0.38815E-02 -0.41068E-02
 -0.47130E-03  0.38815E-02 -0.41068E-02
 -0.13865E-02  0.36559E-02 -0.41068E-02
 -0.22211E-02  0.32179E-02 -0.41068E-02
 -0.29267E-02  0.25928E-02 -0.41068E-02
 -0.34621E-02  0.18171E-02 -0.41068E-02
 -0.37964E-02  0.93572E-03 -0.41068E-02
 -0.39100E-02  0.22152E-17 -0.41068E-02
 -0.37964E-02 -0.93572E-03 -0.41068E-02
 -0.34621E-02 -0.18171E-02 -0.41068E-02
 -0.29267E-02 -0.25928E-02 -0.41068E-02
 -0.22211E-02 -0.32179E-02 -0.41068E-02
 -0.13865E-02 -0.36559E-02 -0.41068E-02
 -0.47130E-03 -0.38815E-02 -0.41068E-02
  0.47130E-03 -0.38815E-02 -0.41068E-02
  0.13865E-02 -0.36559E-02 -0.41068E-02
  0.22211E-02 -0.32179E-02 -0.41068E-02
  0.29267E-02 -0.25928E-02 -0.41068E-02
  0.34621E-02 -0.18171E-02 -0.41068E-02
  0.37964E-02 -0.93572E-03 -0.41068E-02
  0.10360E-02  0.68124E-03 -0.31276E-02
  0.17425E-02  0.12407E-02 -0.31276E-02
  0.23158E-02  0.59936E-03 -0.31276E-02
  0.16666E-02 -0.32643E-03 -0.31276E-02
  0.30373E-02  0.15427E-03 -0.31276E-02
  0.27842E-02 -0.66903E-03 -0.31276E-02
  0.12835E-02  0.18440E-02 -0.31276E-02
  0.64771E-03  0.14727E-02 -0.31276E-02
  0.12363E-03  0.31656E-03 -0.31276E-02
 -0.13100E-03  0.11935E-02 -0.31276E-02
  0.94003E-03  0.22767E-02 -0.31276E-02
  0.11276E-02  0.28220E-02 -0.31276E-02
  0.17432E-02  0.24260E-02 -0.31276E-02
  0.40507E-03  0.21690E-02 -0.31276E-02
  0.39754E-03  0.29327E-02 -0.31276E-02
 -0.76834E-03 -0.10054E-02 -0.31276E-02
 -0.86767E-03  0.91108E-04 -0.31276E-02
  0.45447E-03 -0.69229E-03 -0.31276E-02
 -0.18344E-02 -0.70985E-03 -0.31276E-02
 -0.18426E-02  0.84602E-04 -0.31276E-02
 -0.27234E-02 -0.77610E-03 -0.31276E-02
 -0.27987E-02  0.44813E-04 -0.31276E-02
 -0.25388E-02 -0.15187E-02 -0.31276E-02
 -0.19352E-02 -0.13215E-02 -0.31276E-02
 -0.99147E-03  0.10088E-02 -0.31276E-02
 -0.14433E-02 -0.17319E-02 -0.31276E-02
 -0.31274E-03  0.20262E-02 -0.31276E-02
 -0.11016E-02  0.18595E-02 -0.31276E-02
 -0.18838E-02  0.17175E-02 -0.31276E-02
 -0.18694E-02  0.91300E-03 -0.31276E-02
 -0.16284E-03 -0.19804E-02 -0.31276E-02
 -0.94986E-03 -0.23493E-02 -0.31276E-02
  0.77865E-03 -0.17073E-02 -0.31276E-02
  0.17205E-02 -0.14931E-02 -0.31276E-02
  0.32099E-02  0.77544E-03 -0.31276E-02
  0.28042E-02  0.12541E-02 -0.31276E-02
  0.23042E-02  0.18671E-02 -0.31276E-02
 -0.40407E-03  0.28877E-02 -0.31276E-02
 -0.12093E-02  0.27137E-02 -0.31276E-02
 -0.19442E-02  0.24609E-02 -0.31276E-02
 -0.25024E-02  0.22358E-02 -0.31276E-02
 -0.26358E-02  0.16503E-02 -0.31276E-02
 -0.27624E-02  0.87885E-03 -0.31276E-02
 -0.21144E-02 -0.21374E-02 -0.31276E-02
 -0.16094E-02 -0.26934E-02 -0.31276E-02
 -0.11956E-02 -0.31291E-02 -0.31276E-02
 -0.59165E-03 -0.30382E-02 -0.31276E-02
  0.20302E-03 -0.28750E-02 -0.31276E-02
  0.10540E-02 -0.26463E-02 -0.31276E-02
  0.18419E-02 -0.23738E-02 -0.31276E-02
  0.24563E-02 -0.21527E-02 -0.31276E-02
  0.26033E-02 -0.15088E-02 -0.31276E-02
  0.37964E-02  0.93572E-03 -0.31276E-02
  0.39100E-02  0.00000E+00 -0.31276E-02
  0.34621E-02  0.18171E-02 -0.31276E-02
  0.29267E-02  0.25928E-02 -0.31276E-02
  0.22211E-02  0.32179E-02 -0.31276E-02
  0.13865E-02  0.36559E-02 -0.31276E-02
  0.47130E-03  0.38815E-02 -0.31276E-02
 -0.47130E-03  0.38815E-02 -0.31276E-02
 -0.13865E-02  0.36559E-02 -0.31276E-02
 -0.22211E-02  0.32179E-02 -0.31276E-02
 -0.29267E-02  0.25928E-02 -0.31276E-02
 -0.34621E-02  0.18171E-02 -0.31276E-02
 -0.37964E-02  0.93572E-03 -0.31276E-02
 -0.39100E-02 -0.47884E-18 -0.31276E-02
 -0.37964E-02 -0.93572E-03 -0.31276E-02
 -0.34621E-02 -0.18171E-02 -0.31276E-02
 -0.29267E-02 -0.25928E-02 -0.31276E-02
 -0.22211E-02 -0.32179E-02 -0.31276E-02
 -0.13865E-02 -0.36559E-02 -0.31276E-02
 -0.47130E-03 -0.38815E-02 -0.31276E-02
  0.47130E-03 -0.38815E-02 -0.31276E-02
  0.13865E-02 -0.36559E-02 -0.31276E-02
  0.22211E-02 -0.32179E-02 -0.31276E-02
  0.29267E-02 -0.25928E-02 -0.31276E-02
  0.34621E-02 -0.18171E-02 -0.31276E-02
  0.37964E-02 -0.93572E-03 -0.31276E-02
  0.10359E-02  0.68179E-03 -0.21485E-02
  0.17423E-02  0.12414E-02 -0.21485E-02
  0.23157E-02  0.59988E-03 -0.21485E-02
  0.16664E-02 -0.32568E-03 -0.21485E-02
  0.30373E-02  0.15463E-03 -0.21485E-02
  0.27846E-02 -0.66854E-03 -0.21485E-02
  0.12834E-02  0.18442E-02 -0.21485E-02
  0.64747E-03  0.14736E-02 -0.21485E-02
  0.12337E-03  0.31770E-03 -0.21485E-02
 -0.13118E-03  0.11952E-02 -0.21485E-02
  0.93970E-03  0.22768E-02 -0.21485E-02
  0.11272E-02  0.28216E-02 -0.21485E-02
  0.17428E-02  0.24261E-02 -0.21485E-02
  0.40501E-03  0.21690E-02 -0.21485E-02
  0.39752E-03  0.29324E-02 -0.21485E-02
 -0.76869E-03 -0.10056E-02 -0.21485E-02
 -0.86778E-03  0.91918E-04 -0.21485E-02
  0.45402E-03 -0.69156E-03 -0.21485E-02
 -0.18347E-02 -0.70971E-03 -0.21485E-02
 -0.18425E-02  0.84726E-04 -0.21485E-02
 -0.27234E-02 -0.77593E-03 -0.21485E-02
 -0.27984E-02  0.45086E-04 -0.21485E-02
 -0.25389E-02 -0.15187E-02 -0.21485E-02
 -0.19356E-02 -0.13213E-02 -0.21485E-02
 -0.99133E-03  0.10102E-02 -0.21485E-02
 -0.14436E-02 -0.17318E-02 -0.21485E-02
 -0.31254E-03  0.20265E-02 -0.21485E-02
 -0.11013E-02  0.18594E-02 -0.21485E-02
 -0.18837E-02  0.17175E-02 -0.21485E-02
 -0.18692E-02  0.91324E-03 -0.21485E-02
 -0.16311E-03 -0.19804E-02 -0.21485E-02
 -0.95046E-03 -0.23493E-02 -0.21485E-02
  0.77799E-03 -0.17073E-02 -0.21485E-02
  0.17204E-02 -0.14933E-02 -0.21485E-02
  0.32102E-02  0.77645E-03 -0.21485E-02
  0.28042E-02  0.12545E-02 -0.21485E-02
  0.23041E-02  0.18671E-02 -0.21485E-02
 -0.40393E-03  0.28867E-02 -0.21485E-02
 -0.12093E-02  0.27132E-02 -0.21485E-02
 -0.19442E-02  0.24606E-02 -0.21485E-02
 -0.25024E-02  0.22358E-02 -0.21485E-02
 -0.26357E-02  0.16503E-02 -0.21485E-02
 -0.27621E-02  0.87912E-03 -0.21485E-02
 -0.21146E-02 -0.21374E-02 -0.21485E-02
 -0.16094E-02 -0.26935E-02 -0.21485E-02
 -0.11957E-02 -0.31291E-02 -0.21485E-02
 -0.59200E-03 -0.30381E-02 -0.21485E-02
  0.20262E-03 -0.28750E-02 -0.21485E-02
  0.10536E-02 -0.26466E-02 -0.21485E-02
  0.18420E-02 -0.23740E-02 -0.21485E-02
  0.24564E-02 -0.21533E-02 -0.21485E-02
  0.26033E-02 -0.15087E-02 -0.21485E-02
  0.37964E-02  0.93572E-03 -0.21485E-02
  0.39100E-02  0.00000E+00 -0.21485E-02
  0.34621E-02  0.18171E-02 -0.21485E-02
  0.29267E-02  0.25928E-02 -0.21485E-02
  0.22211E-02  0.32179E-02 -0.21485E-02
  0.13865E-02  0.36559E-02 -0.21485E-02
  0.47130E-03  0.38815E-02 -0.21485E-02
 -0.47130E-03  0.38815E-02 -0.21485E-02
 -0.13865E-02  0.36559E-02 -0.21485E-02
 -0.22211E-02  0.32179E-02 -0.21485E-02
 -0.29267E-02  0.25928E-02 -0.21485E-02
 -0.34621E-02  0.18171E-02 -0.21485E-02
 -0.37964E-02  0.93572E-03 -0.21485E-02
 -0.39100E-02 -0.47884E-18 -0.21485E-02
 -0.37964E-02 -0.93572E-03 -0.21485E-02
 -0.34621E-02 -0.18171E-02 -0.21485E-02
 -0.29267E-02 -0.25928E-02 -0.21485E-02
 -0.22211E-02 -0.32179E-02 -0.21485E-02
 -0.13865E-02 -0.36559E-02 -0.21485E-02
 -0.47130E-03 -0.38815E-02 -0.21485E-02
  0.47130E-03 -0.38815E-02 -0.21485E-02
  0.13865E-02 -0.36559E-02 -0.21485E-02
  0.22211E-02 -0.32179E-02 -0.21485E-02
  0.29267E-02 -0.25928E-02 -0.21485E-02
  0.34621E-02 -0.18171E-02 -0.21485E-02
  0.37964E-02 -0.93572E-03 -0.21485E-02
  0.10358E-02  0.68235E-03 -0.11693E-02
  0.17422E-02  0.12421E-02 -0.11693E-02
  0.23156E-02  0.60041E-03 -0.11693E-02
  0.16662E-02 -0.32493E-03 -0.11693E-02
  0.30373E-02  0.15500E-03 -0.11693E-02
  0.27849E-02 -0.66805E-03 -0.11693E-02
  0.12833E-02  0.18444E-02 -0.11693E-02
  0.64722E-03  0.14747E-02 -0.11693E-02
  0.12311E-03  0.31885E-03 -0.11693E-02
 -0.13137E-03  0.11970E-02 -0.11693E-02
  0.93937E-03  0.22770E-02 -0.11693E-02
  0.11269E-02  0.28211E-02 -0.11693E-02
  0.17424E-02  0.24262E-02 -0.11693E-02
  0.40496E-03  0.21691E-02 -0.11693E-02
  0.39750E-03  0.29322E-02 -0.11693E-02
 -0.76904E-03 -0.10057E-02 -0.11693E-02
 -0.86789E-03  0.92727E-04 -0.11693E-02
  0.45358E-03 -0.69084E-03 -0.11693E-02
 -0.18350E-02 -0.70957E-03 -0.11693E-02
 -0.18424E-02  0.84849E-04 -0.11693E-02
 -0.27233E-02 -0.77576E-03 -0.11693E-02
 -0.27981E-02  0.45359E-04 -0.11693E-02
 -0.25391E-02 -0.15186E-02 -0.11693E-02
 -0.19360E-02 -0.13212E-02 -0.11693E-02
 -0.99118E-03  0.10115E-02 -0.11693E-02
 -0.14440E-02 -0.17318E-02 -0.11693E-02
 -0.31234E-03  0.20268E-02 -0.11693E-02
 -0.11009E-02  0.18593E-02 -0.11693E-02
 -0.18836E-02  0.17175E-02 -0.11693E-02
 -0.18691E-02  0.91347E-03 -0.11693E-02
 -0.16339E-03 -0.19804E-02 -0.11693E-02
 -0.95106E-03 -0.23493E-02 -0.11693E-02
  0.77733E-03 -0.17073E-02 -0.11693E-02
  0.17204E-02 -0.14936E-02 -0.11693E-02
  0.32105E-02  0.77745E-03 -0.11693E-02
  0.28042E-02  0.12550E-02 -0.11693E-02
  0.23040E-02  0.18671E-02 -0.11693E-02
 -0.40379E-03  0.28856E-02 -0.11693E-02
 -0.12093E-02  0.27127E-02 -0.11693E-02
 -0.19441E-02  0.24604E-02 -0.11693E-02
 -0.25023E-02  0.22358E-02 -0.11693E-02
 -0.26356E-02  0.16503E-02 -0.11693E-02
 -0.27618E-02  0.87938E-03 -0.11693E-02
 -0.21147E-02 -0.21374E-02 -0.11693E-02
 -0.16094E-02 -0.26935E-02 -0.11693E-02
 -0.11958E-02 -0.31291E-02 -0.11693E-02
 -0.59235E-03 -0.30381E-02 -0.11693E-02
  0.20221E-03 -0.28750E-02 -0.11693E-02
  0.10533E-02 -0.26468E-02 -0.11693E-02
  0.18420E-02 -0.23742E-02 -0.11693E-02
  0.24565E-02 -0.21538E-02 -0.11693E-02
  0.26034E-02 -0.15086E-02 -0.11693E-02
  0.37964E-02  0.93572E-03 -0.11693E-02
  0.39100E-02  0.00000E+00 -0.11693E-02
  0.34621E-02  0.18171E-02 -0.11693E-02
  0.29267E-02  0.25928E-02 -0.11693E-02
  0.22211E-02  0.32179E-02 -0.11693E-02
  0.13865E-02  0.36559E-02 -0.11693E-02
  0.47130E-03  0.38815E-02 -0.11693E-02
 -0.47130E-03  0.38815E-02 -0.11693E-02
 -0.13865E-02  0.36559E-02 -0.11693E-02
 -0.22211E-02  0.32179E-02 -0.11693E-02
 -0.29267E-02  0.25928E-02 -0.11693E-02
 -0.34621E-02  0.18171E-02 -0.11693E-02
 -0.37964E-02  0.93572E-03 -0.11693E-02
 -0.39100E-02 -0.47884E-18 -0.11693E-02
 -0.37964E-02 -0.93572E-03 -0.11693E-02
 -0.34621E-02 -0.18171E-02 -0.11693E-02
 -0.29267E-02 -0.25928E-02 -0.11693E-02
 -0.22211E-02 -0.32179E-02 -0.11693E-02
 -0.13865E-02 -0.36559E-02 -0.11693E-02
 -0.47130E-03 -0.38815E-02 -0.11693E-02
  0.47130E-03 -0.38815E-02 -0.11693E-02
  0.13865E-02 -0.36559E-02 -0.11693E-02
  0.22211E-02 -0.32179E-02 -0.11693E-02
  0.29267E-02 -0.25928E-02 -0.11693E-02
  0.34621E-02 -0.18171E-02 -0.11693E-02
  0.37964E-02 -0.93572E-03 -0.11693E-02
  0.10357E-02  0.68290E-03 -0.19012E-03
  0.17420E-02  0.12427E-02 -0.19012E-03
  0.23155E-02  0.60093E-03 -0.19012E-03
  0.16660E-02 -0.32417E-03 -0.19012E-03
  0.30372E-02  0.15536E-03 -0.19012E-03
  0.27853E-02 -0.66755E-03 -0.19012E-03
  0.12832E-02  0.18445E-02 -0.19012E-03
  0.64698E-03  0.14757E-02 -0.19012E-03
  0.12285E-03  0.32000E-03 -0.19012E-03
 -0.13155E-03  0.11987E-02 -0.19012E-03
  0.93903E-03  0.22771E-02 -0.19012E-03
  0.11266E-02  0.28207E-02 -0.19012E-03
  0.17420E-02  0.24264E-02 -0.19012E-03
  0.40490E-03  0.21691E-02 -0.19012E-03
  0.39749E-03  0.29319E-02 -0.19012E-03
 -0.76940E-03 -0.10058E-02 -0.19012E-03
 -0.86800E-03  0.93536E-04 -0.19012E-03
  0.45313E-03 -0.69011E-03 -0.19012E-03
 -0.18353E-02 -0.70943E-03 -0.19012E-03
 -0.18423E-02  0.84973E-04 -0.19012E-03
 -0.27233E-02 -0.77559E-03 -0.19012E-03
 -0.27979E-02  0.45633E-04 -0.19012E-03
 -0.25393E-02 -0.15186E-02 -0.19012E-03
 -0.19365E-02 -0.13212E-02 -0.19012E-03
 -0.99104E-03  0.10129E-02 -0.19012E-03
 -0.14443E-02 -0.17318E-02 -0.19012E-03
 -0.31214E-03  0.20271E-02 -0.19012E-03
 -0.11006E-02  0.18592E-02 -0.19012E-03
 -0.18836E-02  0.17175E-02 -0.19012E-03
 -0.18690E-02  0.91371E-03 -0.19012E-03
 -0.16366E-03 -0.19805E-02 -0.19012E-03
 -0.95166E-03 -0.23493E-02 -0.19012E-03
  0.77667E-03 -0.17073E-02 -0.19012E-03
  0.17203E-02 -0.14938E-02 -0.19012E-03
  0.32109E-02  0.77846E-03 -0.19012E-03
  0.28042E-02  0.12554E-02 -0.19012E-03
  0.23039E-02  0.18672E-02 -0.19012E-03
 -0.40365E-03  0.28845E-02 -0.19012E-03
 -0.12093E-02  0.27122E-02 -0.19012E-03
 -0.19441E-02  0.24602E-02 -0.19012E-03
 -0.25023E-02  0.22358E-02 -0.19012E-03
 -0.26355E-02  0.16502E-02 -0.19012E-03
 -0.27615E-02  0.87964E-03 -0.19012E-03
 -0.21148E-02 -0.21374E-02 -0.19012E-03
 -0.16095E-02 -0.26935E-02 -0.19012E-03
 -0.11960E-02 -0.31291E-02 -0.19012E-03
 -0.59270E-03 -0.30381E-02 -0.19012E-03
  0.20180E-03 -0.28750E-02 -0.19012E-03
  0.10530E-02 -0.26471E-02 -0.19012E-03
  0.18421E-02 -0.23744E-02 -0.19012E-03
  0.24566E-02 -0.21543E-02 -0.19012E-03
  0.26035E-02 -0.15085E-02 -0.19012E-03
  0.37964E-02  0.93572E-03 -0.19012E-03
  0.39100E-02  0.00000E+00 -0.19012E-03
  0.34621E-02  0.18171E-02 -0.19012E-03
  0.29267E-02  0.25928E-02 -0.19012E-03
  0.22211E-02  0.32179E-02 -0.19012E-03
  0.13865E-02  0.36559E-02 -0.19012E-03
  0.47130E-03  0.38815E-02 -0.19012E-03
 -0.47130E-03  0.38815E-02 -0.19012E-03
 -0.13865E-02  0.36559E-02 -0.19012E-03
 -0.22211E-02  0.32179E-02 -0.19012E-03
 -0.29267E-02  0.25928E-02 -0.19012E-03
 -0.34621E-02  0.18171E-02 -0.19012E-03
 -0.37964E-02  0.93572E-03 -0.19012E-03
 -0.39100E-02 -0.47884E-18 -0.19012E-03
 -0.37964E-02 -0.93572E-03 -0.19012E-03
 -0.34621E-02 -0.18171E-02 -0.19012E-03
 -0.29267E-02 -0.25928E-02 -0.19012E-03
 -0.22211E-02 -0.32179E-02 -0.19012E-03
 -0.13865E-02 -0.36559E-02 -0.19012E-03
 -0.47130E-03 -0.38815E-02 -0.19012E-03
  0.47130E-03 -0.38815E-02 -0.19012E-03
  0.13865E-02 -0.36559E-02 -0.19012E-03
  0.22211E-02 -0.32179E-02 -0.19012E-03
  0.29267E-02 -0.25928E-02 -0.19012E-03
  0.34621E-02 -0.18171E-02 -0.19012E-03
  0.37964E-02 -0.93572E-03 -0.19012E-03
  0.10356E-02  0.68346E-03  0.78904E-03
  0.17418E-02  0.12434E-02  0.78904E-03
  0.23153E-02  0.60145E-03  0.78904E-03
  0.16657E-02 -0.32342E-03  0.78904E-03
  0.30372E-02  0.15572E-03  0.78904E-03
  0.27856E-02 -0.66706E-03  0.78904E-03
  0.12830E-02  0.18447E-02  0.78904E-03
  0.64673E-03  0.14767E-02  0.78904E-03
  0.12259E-03  0.32115E-03  0.78904E-03
 -0.13174E-03  0.12005E-02  0.78904E-03
  0.93870E-03  0.22772E-02  0.78904E-03
  0.11262E-02  0.28203E-02  0.78904E-03
  0.17416E-02  0.24265E-02  0.78904E-03
  0.40485E-03  0.21691E-02  0.78904E-03
  0.39747E-03  0.29316E-02  0.78904E-03
 -0.76975E-03 -0.10060E-02  0.78904E-03
 -0.86811E-03  0.94345E-04  0.78904E-03
  0.45268E-03 -0.68939E-03  0.78904E-03
 -0.18356E-02 -0.70929E-03  0.78904E-03
 -0.18422E-02  0.85096E-04  0.78904E-03
 -0.27233E-02 -0.77542E-03  0.78904E-03
 -0.27976E-02  0.45906E-04  0.78904E-03
 -0.25394E-02 -0.15185E-02  0.78904E-03
 -0.19369E-02 -0.13211E-02  0.78904E-03
 -0.99090E-03  0.10142E-02  0.78904E-03
 -0.14446E-02 -0.17317E-02  0.78904E-03
 -0.31194E-03  0.20274E-02  0.78904E-03
 -0.11002E-02  0.18590E-02  0.78904E-03
 -0.18835E-02  0.17175E-02  0.78904E-03
 -0.18689E-02  0.91395E-03  0.78904E-03
 -0.16394E-03 -0.19805E-02  0.78904E-03
 -0.95226E-03 -0.23494E-02  0.78904E-03
  0.77601E-03 -0.17073E-02  0.78904E-03
  0.17203E-02 -0.14941E-02  0.78904E-03
  0.32112E-02  0.77946E-03  0.78904E-03
  0.28042E-02  0.12558E-02  0.78904E-03
  0.23038E-02  0.18672E-02  0.78904E-03
 -0.40352E-03  0.28835E-02  0.78904E-03
 -0.12093E-02  0.27118E-02  0.78904E-03
 -0.19441E-02  0.24600E-02  0.78904E-03
 -0.25023E-02  0.22358E-02  0.78904E-03
 -0.26354E-02  0.16502E-02  0.78904E-03
 -0.27612E-02  0.87990E-03  0.78904E-03
 -0.21150E-02 -0.21374E-02  0.78904E-03
 -0.16095E-02 -0.26935E-02  0.78904E-03
 -0.11961E-02 -0.31291E-02  0.78904E-03
 -0.59305E-03 -0.30381E-02  0.78904E-03
  0.20140E-03 -0.28750E-02  0.78904E-03
  0.10527E-02 -0.26474E-02  0.78904E-03
  0.18421E-02 -0.23746E-02  0.78904E-03
  0.24568E-02 -0.21549E-02  0.78904E-03
  0.26036E-02 -0.15084E-02  0.78904E-03
  0.37964E-02  0.93572E-03  0.78904E-03
  0.39100E-02  0.00000E+00  0.78904E-03
  0.34621E-02  0.18171E-02  0.78904E-03
  0.29267E-02  0.25928E-02  0.78904E-03
  0.22211E-02  0.32179E-02  0.78904E-03
  0.13865E-02  0.36559E-02  0.78904E-03
  0.47130E-03  0.38815E-02  0.78904E-03
 -0.47130E-03  0.38815E-02  0.78904E-03
 -0.13865E-02  0.36559E-02  0.78904E-03
 -0.22211E-02  0.32179E-02  0.78904E-03
 -0.29267E-02  0.25928E-02  0.78904E-03
 -0.34621E-02  0.18171E-02  0.78904E-03
 -0.37964E-02  0.93572E-03  0.78904E-03
 -0.39100E-02  0.22152E-17  0.78904E-03
 -0.37964E-02 -0.93572E-03  0.78904E-03
 -0.34621E-02 -0.18171E-02  0.78904E-03
 -0.29267E-02 -0.25928E-02  0.78904E-03
 -0.22211E-02 -0.32179E-02  0.78904E-03
 -0.13865E-02 -0.36559E-02  0.78904E-03
 -0.47130E-03 -0.38815E-02  0.78904E-03
  0.47130E-03 -0.38815E-02  0.78904E-03
  0.13865E-02 -0.36559E-02  0.78904E-03
  0.22211E-02 -0.32179E-02  0.78904E-03
  0.29267E-02 -0.25928E-02  0.78904E-03
  0.34621E-02 -0.18171E-02  0.78904E-03
  0.37964E-02 -0.93572E-03  0.78904E-03
  0.10355E-02  0.68401E-03  0.17682E-02
  0.17416E-02  0.12440E-02  0.17682E-02
  0.23152E-02  0.60198E-03  0.17682E-02
  0.16655E-02 -0.32266E-03  0.17682E-02
  0.30372E-02  0.15609E-03  0.17682E-02
  0.27860E-02 -0.66657E-03  0.17682E-02
  0.12829E-02  0.18449E-02  0.17682E-02
  0.64649E-03  0.14777E-02  0.17682E-02
  0.12232E-03  0.32230E-03  0.17682E-02
 -0.13193E-03  0.12022E-02  0.17682E-02
  0.93837E-03  0.22774E-02  0.17682E-02
  0.11259E-02  0.28198E-02  0.17682E-02
  0.17412E-02  0.24267E-02  0.17682E-02
  0.40480E-03  0.21692E-02  0.17682E-02
  0.39745E-03  0.29314E-02  0.17682E-02
 -0.77011E-03 -0.10061E-02  0.17682E-02
 -0.86822E-03  0.95155E-04  0.17682E-02
  0.45223E-03 -0.68866E-03  0.17682E-02
 -0.18359E-02 -0.70915E-03  0.17682E-02
 -0.18421E-02  0.85220E-04  0.17682E-02
 -0.27232E-02 -0.77525E-03  0.17682E-02
 -0.27973E-02  0.46180E-04  0.17682E-02
 -0.25396E-02 -0.15185E-02  0.17682E-02
 -0.19373E-02 -0.13210E-02  0.17682E-02
 -0.99075E-03  0.10156E-02  0.17682E-02
 -0.14450E-02 -0.17317E-02  0.17682E-02
 -0.31173E-03  0.20277E-02  0.17682E-02
 -0.10999E-02  0.18589E-02  0.17682E-02
 -0.18835E-02  0.17175E-02  0.17682E-02
 -0.18687E-02  0.91419E-03  0.17682E-02
 -0.16421E-03 -0.19805E-02  0.17682E-02
 -0.95285E-03 -0.23494E-02  0.17682E-02
  0.77535E-03 -0.17073E-02  0.17682E-02
  0.17202E-02 -0.14943E-02  0.17682E-02
  0.32115E-02  0.78047E-03  0.17682E-02
  0.28041E-02  0.12563E-02  0.17682E-02
  0.23037E-02  0.18672E-02  0.17682E-02
 -0.40338E-03  0.28824E-02  0.17682E-02
 -0.12093E-02  0.27113E-02  0.17682E-02
 -0.19440E-02  0.24597E-02  0.17682E-02
 -0.25023E-02  0.22358E-02  0.17682E-02
 -0.26353E-02  0.16502E-02  0.17682E-02
 -0.27609E-02  0.88016E-03  0.17682E-02
 -0.21151E-02 -0.21374E-02  0.17682E-02
 -0.16096E-02 -0.26935E-02  0.17682E-02
 -0.11962E-02 -0.31291E-02  0.17682E-02
 -0.59340E-03 -0.30381E-02  0.17682E-02
  0.20099E-03 -0.28751E-02  0.17682E-02
  0.10524E-02 -0.26476E-02  0.17682E-02
  0.18422E-02 -0.23748E-02  0.17682E-02
  0.24569E-02 -0.21554E-02  0.17682E-02
  0.26036E-02 -0.15083E-02  0.17682E-02
  0.37964E-02  0.93572E-03  0.17682E-02
  0.39100E-02  0.00000E+00  0.17682E-02
  0.34621E-02  0.18171E-02  0.17682E-02
  0.29267E-02  0.25928E-02  0.17682E-02
  0.22211E-02  0.32179E-02  0.17682E-02
  0.13865E-02  0.36559E-02  0.17682E-02
  0.47130E-03  0.38815E-02  0.17682E-02
 -0.47130E-03  0.38815E-02  0.17682E-02
 -0.13865E-02  0.36559E-02  0.17682E-02
 -0.22211E-02  0.32179E-02  0.17682E-02
 -0.29267E-02  0.25928E-02  0.17682E-02
 -0.34621E-02  0.18171E-02  0.17682E-02
 -0.37964E-02  0.93572E-03  0.17682E-02
 -0.39100E-02 -0.47884E-18  0.17682E-02
 -0.37964E-02 -0.93572E-03  0.17682E-02
 -0.34621E-02 -0.18171E-02  0.17682E-02
 -0.29267E-02 -0.25928E-02  0.17682E-02
 -0.22211E-02 -0.32179E-02  0.17682E-02
 -0.13865E-02 -0.36559E-02  0.17682E-02
 -0.47130E-03 -0.38815E-02  0.17682E-02
  0.47130E-03 -0.38815E-02  0.17682E-02
  0.13865E-02 -0.36559E-02  0.17682E-02
  0.22211E-02 -0.32179E-02  0.17682E-02
  0.29267E-02 -0.25928E-02  0.17682E-02
  0.34621E-02 -0.18171E-02  0.17682E-02
  0.37964E-02 -0.93572E-03  0.17682E-02
  0.10354E-02  0.68457E-03  0.27474E-02
  0.17414E-02  0.12447E-02  0.27474E-02
  0.23151E-02  0.60250E-03  0.27474E-02
  0.16653E-02 -0.32191E-03  0.27474E-02
  0.30372E-02  0.15645E-03  0.27474E-02
  0.27863E-02 -0.66607E-03  0.27474E-02
  0.12829E-02  0.18451E-02  0.27474E-02
  0.64624E-03  0.14787E-02  0.27474E-02
  0.12206E-03  0.32345E-03  0.27474E-02
 -0.13211E-03  0.12040E-02  0.27474E-02
  0.93804E-03  0.22775E-02  0.27474E-02
  0.11255E-02  0.28194E-02  0.27474E-02
  0.17408E-02  0.24268E-02  0.27474E-02
  0.40474E-03  0.21692E-02  0.27474E-02
  0.39744E-03  0.29311E-02  0.27474E-02
 -0.77046E-03 -0.10062E-02  0.27474E-02
 -0.86832E-03  0.95964E-04  0.27474E-02
  0.45179E-03 -0.68793E-03  0.27474E-02
 -0.18362E-02 -0.70901E-03  0.27474E-02
 -0.18420E-02  0.85343E-04  0.27474E-02
 -0.27232E-02 -0.77507E-03  0.27474E-02
 -0.27970E-02  0.46453E-04  0.27474E-02
 -0.25397E-02 -0.15184E-02  0.27474E-02
 -0.19377E-02 -0.13209E-02  0.27474E-02
 -0.99061E-03  0.10169E-02  0.27474E-02
 -0.14453E-02 -0.17316E-02  0.27474E-02
 -0.31153E-03  0.20280E-02  0.27474E-02
 -0.10995E-02  0.18588E-02  0.27474E-02
 -0.18834E-02  0.17175E-02  0.27474E-02
 -0.18686E-02  0.91443E-03  0.27474E-02
 -0.16449E-03 -0.19806E-02  0.27474E-02
 -0.95345E-03 -0.23494E-02  0.27474E-02
  0.77469E-03 -0.17073E-02  0.27474E-02
  0.17202E-02 -0.14945E-02  0.27474E-02
  0.32119E-02  0.78148E-03  0.27474E-02
  0.28041E-02  0.12567E-02  0.27474E-02
  0.23036E-02  0.18673E-02  0.27474E-02
 -0.40324E-03  0.28813E-02  0.27474E-02
 -0.12093E-02  0.27108E-02  0.27474E-02
 -0.19440E-02  0.24595E-02  0.27474E-02
 -0.25022E-02  0.22358E-02  0.27474E-02
 -0.26352E-02  0.16502E-02  0.27474E-02
 -0.27606E-02  0.88043E-03  0.27474E-02
 -0.21152E-02 -0.21374E-02  0.27474E-02
 -0.16096E-02 -0.26936E-02  0.27474E-02
 -0.11963E-02 -0.31291E-02  0.27474E-02
 -0.59375E-03 -0.30381E-02  0.27474E-02
  0.20059E-03 -0.28751E-02  0.27474E-02
  0.10521E-02 -0.26479E-02  0.27474E-02
  0.18422E-02 -0.23750E-02  0.27474E-02
  0.24570E-02 -0.21560E-02  0.27474E-02
  0.26037E-02 -0.15082E-02  0.27474E-02
  0.37964E-02  0.93572E-03  0.27474E-02
  0.39100E-02  0.00000E+00  0.27474E-02
  0.34621E-02  0.18171E-02  0.27474E-02
  0.29267E-02  0.25928E-02  0.27474E-02
  0.22211E-02  0.32179E-02  0.27474E-02
  0.13865E-02  0.36559E-02  0.27474E-02
  0.47130E-03  0.38815E-02  0.27474E-02
 -0.47130E-03  0.38815E-02  0.27474E-02
 -0.13865E-02  0.36559E-02  0.27474E-02
 -0.22211E-02  0.32179E-02  0.27474E-02
 -0.29267E-02  0.25928E-02  0.27474E-02
 -0.34621E-02  0.18171E-02  0.27474E-02
 -0.37964E-02  0.93572E-03  0.27474E-02
 -0.39100E-02 -0.47884E-18  0.27474E-02
 -0.37964E-02 -0.93572E-03  0.27474E-02
 -0.34621E-02 -0.18171E-02  0.27474E-02
 -0.29267E-02 -0.25928E-02  0.27474E-02
 -0.22211E-02 -0.32179E-02  0.27474E-02
 -0.13865E-02 -0.36559E-02  0.27474E-02
 -0.47130E-03 -0.38815E-02  0.27474E-02
  0.47130E-03 -0.38815E-02  0.27474E-02
  0.13865E-02 -0.36559E-02  0.27474E-02
  0.22211E-02 -0.32179E-02  0.27474E-02
  0.29267E-02 -0.25928E-02  0.27474E-02
  0.34621E-02 -0.18171E-02  0.27474E-02
  0.37964E-02 -0.93572E-03  0.27474E-02
  0.10352E-02  0.68512E-03  0.37265E-02
  0.17413E-02  0.12454E-02  0.37265E-02
  0.23150E-02  0.60302E-03  0.37265E-02
  0.16651E-02 -0.32115E-03  0.37265E-02
  0.30371E-02  0.15681E-03  0.37265E-02
  0.27866E-02 -0.66558E-03  0.37265E-02
  0.12827E-02  0.18453E-02  0.37265E-02
  0.64600E-03  0.14797E-02  0.37265E-02
  0.12180E-03  0.32459E-03  0.37265E-02
 -0.13230E-03  0.12058E-02  0.37265E-02
  0.93771E-03  0.22776E-02  0.37265E-02
  0.11252E-02  0.28189E-02  0.37265E-02
  0.17404E-02  0.24270E-02  0.37265E-02
  0.40469E-03  0.21693E-02  0.37265E-02
  0.39742E-03  0.29308E-02  0.37265E-02
 -0.77081E-03 -0.10064E-02  0.37265E-02
 -0.86843E-03  0.96773E-04  0.37265E-02
  0.45134E-03 -0.68721E-03  0.37265E-02
 -0.18365E-02 -0.70887E-03  0.37265E-02
 -0.18419E-02  0.85467E-04  0.37265E-02
 -0.27232E-02 -0.77490E-03  0.37265E-02
 -0.27968E-02  0.46726E-04  0.37265E-02
 -0.25399E-02 -0.15184E-02  0.37265E-02
 -0.19382E-02 -0.13208E-02  0.37265E-02
 -0.99046E-03  0.10183E-02  0.37265E-02
 -0.14457E-02 -0.17316E-02  0.37265E-02
 -0.31133E-03  0.20283E-02  0.37265E-02
 -0.10992E-02  0.18586E-02  0.37265E-02
 -0.18834E-02  0.17175E-02  0.37265E-02
 -0.18685E-02  0.91467E-03  0.37265E-02
 -0.16476E-03 -0.19806E-02  0.37265E-02
 -0.95405E-03 -0.23494E-02  0.37265E-02
  0.77402E-03 -0.17073E-02  0.37265E-02
  0.17202E-02 -0.14948E-02  0.37265E-02
  0.32122E-02  0.78248E-03  0.37265E-02
  0.28041E-02  0.12571E-02  0.37265E-02
  0.23034E-02  0.18673E-02  0.37265E-02
 -0.40310E-03  0.28802E-02  0.37265E-02
 -0.12093E-02  0.27103E-02  0.37265E-02
 -0.19440E-02  0.24593E-02  0.37265E-02
 -0.25022E-02  0.22358E-02  0.37265E-02
 -0.26351E-02  0.16502E-02  0.37265E-02
 -0.27602E-02  0.88069E-03  0.37265E-02
 -0.21154E-02 -0.21374E-02  0.37265E-02
 -0.16097E-02 -0.26936E-02  0.37265E-02
 -0.11964E-02 -0.31291E-02  0.37265E-02
 -0.59409E-03 -0.30381E-02  0.37265E-02
  0.20018E-03 -0.28751E-02  0.37265E-02
  0.10518E-02 -0.26482E-02  0.37265E-02
  0.18422E-02 -0.23752E-02  0.37265E-02
  0.24571E-02 -0.21565E-02  0.37265E-02
  0.26038E-02 -0.15081E-02  0.37265E-02
  0.37964E-02  0.93572E-03  0.37265E-02
  0.39100E-02  0.00000E+00  0.37265E-02
  0.34621E-02  0.18171E-02  0.37265E-02
  0.29267E-02  0.25928E-02  0.37265E-02
  0.22211E-02  0.32179E-02  0.37265E-02
  0.13865E-02  0.36559E-02  0.37265E-02
  0.47130E-03  0.38815E-02  0.37265E-02
 -0.47130E-03  0.38815E-02  0.37265E-02
 -0.13865E-02  0.36559E-02  0.37265E-02
 -0.22211E-02  0.32179E-02  0.37265E-02
 -0.29267E-02  0.25928E-02  0.37265E-02
 -0.34621E-02  0.18171E-02  0.37265E-02
 -0.37964E-02  0.93572E-03  0.37265E-02
 -0.39100E-02 -0.47884E-18  0.37265E-02
 -0.37964E-02 -0.93572E-03  0.37265E-02
 -0.34621E-02 -0.18171E-02  0.37265E-02
 -0.29267E-02 -0.25928E-02  0.37265E-02
 -0.22211E-02 -0.32179E-02  0.37265E-02
 -0.13865E-02 -0.36559E-02  0.37265E-02
 -0.47130E-03 -0.38815E-02  0.37265E-02
  0.47130E-03 -0.38815E-02  0.37265E-02
  0.13865E-02 -0.36559E-02  0.37265E-02
  0.22211E-02 -0.32179E-02  0.37265E-02
  0.29267E-02 -0.25928E-02  0.37265E-02
  0.34621E-02 -0.18171E-02  0.37265E-02
  0.37964E-02 -0.93572E-03  0.37265E-02
  0.10351E-02  0.68567E-03  0.47057E-02
  0.17411E-02  0.12460E-02  0.47057E-02
  0.23149E-02  0.60355E-03  0.47057E-02
  0.16649E-02 -0.32040E-03  0.47057E-02
  0.30371E-02  0.15718E-03  0.47057E-02
  0.27870E-02 -0.66509E-03  0.47057E-02
  0.12826E-02  0.18455E-02  0.47057E-02
  0.64575E-03  0.14807E-02  0.47057E-02
  0.12154E-03  0.32574E-03  0.47057E-02
 -0.13248E-03  0.12075E-02  0.47057E-02
  0.93738E-03  0.22777E-02  0.47057E-02
  0.11249E-02  0.28185E-02  0.47057E-02
  0.17400E-02  0.24271E-02  0.47057E-02
  0.40463E-03  0.21693E-02  0.47057E-02
  0.39740E-03  0.29306E-02  0.47057E-02
 -0.77117E-03 -0.10065E-02  0.47057E-02
 -0.86854E-03  0.97583E-04  0.47057E-02
  0.45089E-03 -0.68648E-03  0.47057E-02
 -0.18368E-02 -0.70873E-03  0.47057E-02
 -0.18418E-02  0.85591E-04  0.47057E-02
 -0.27232E-02 -0.77474E-03  0.47057E-02
 -0.27965E-02  0.47000E-04  0.47057E-02
 -0.25400E-02 -0.15183E-02  0.47057E-02
 -0.19386E-02 -0.13207E-02  0.47057E-02
 -0.99032E-03  0.10197E-02  0.47057E-02
 -0.14460E-02 -0.17316E-02  0.47057E-02
 -0.31113E-03  0.20285E-02  0.47057E-02
 -0.10988E-02  0.18585E-02  0.47057E-02
 -0.18833E-02  0.17175E-02  0.47057E-02
 -0.18683E-02  0.91491E-03  0.47057E-02
 -0.16504E-03 -0.19806E-02  0.47057E-02
 -0.95465E-03 -0.23495E-02  0.47057E-02
  0.77336E-03 -0.17073E-02  0.47057E-02
  0.17201E-02 -0.14950E-02  0.47057E-02
  0.32125E-02  0.78348E-03  0.47057E-02
  0.28041E-02  0.12576E-02  0.47057E-02
  0.23033E-02  0.18674E-02  0.47057E-02
 -0.40296E-03  0.28792E-02  0.47057E-02
 -0.12093E-02  0.27099E-02  0.47057E-02
 -0.19439E-02  0.24591E-02  0.47057E-02
 -0.25022E-02  0.22358E-02  0.47057E-02
 -0.26350E-02  0.16502E-02  0.47057E-02
 -0.27599E-02  0.88095E-03  0.47057E-02
 -0.21155E-02 -0.21374E-02  0.47057E-02
 -0.16097E-02 -0.26936E-02  0.47057E-02
 -0.11965E-02 -0.31290E-02  0.47057E-02
 -0.59444E-03 -0.30381E-02  0.47057E-02
  0.19977E-03 -0.28751E-02  0.47057E-02
  0.10515E-02 -0.26484E-02  0.47057E-02
  0.18423E-02 -0.23754E-02  0.47057E-02
  0.24573E-02 -0.21571E-02  0.47057E-02
  0.26039E-02 -0.15080E-02  0.47057E-02
  0.37964E-02  0.93572E-03  0.47057E-02
  0.39100E-02  0.00000E+00  0.47057E-02
  0.34621E-02  0.18171E-02  0.47057E-02
  0.29267E-02  0.25928E-02  0.47057E-02
  0.22211E-02  0.32179E-02  0.47057E-02
  0.13865E-02  0.36559E-02  0.47057E-02
  0.47130E-03  0.38815E-02  0.47057E-02
 -0.47130E-03  0.38815E-02  0.47057E-02
 -0.13865E-02  0.36559E-02  0.47057E-02
 -0.22211E-02  0.32179E-02  0.47057E-02
 -0.29267E-02  0.25928E-02  0.47057E-02
 -0.34621E-02  0.18171E-02  0.47057E-02
 -0.37964E-02  0.93572E-03  0.47057E-02
 -0.39100E-02  0.47884E-18  0.47057E-02
 -0.37964E-02 -0.93572E-03  0.47057E-02
 -0.34621E-02 -0.18171E-02  0.47057E-02
 -0.29267E-02 -0.25928E-02  0.47057E-02
 -0.22211E-02 -0.32179E-02  0.47057E-02
 -0.13865E-02 -0.36559E-02  0.47057E-02
 -0.47130E-03 -0.38815E-02  0.47057E-02
  0.47130E-03 -0.38815E-02  0.47057E-02
  0.13865E-02 -0.36559E-02  0.47057E-02
  0.22211E-02 -0.32179E-02  0.47057E-02
  0.29267E-02 -0.25928E-02  0.47057E-02
  0.34621E-02 -0.18171E-02  0.47057E-02
  0.37964E-02 -0.93572E-03  0.47057E-02
  
CELLS       3486               17724
       1       0
       1       1
       1       2
       1       3
       1       4
       1       5
       1       6
       1       7
       1       8
       1       9
       1      10
       1      11
       1      12
       1      13
       1      14
       1      15
       1      16
       1      17
       1      18
       1      19
       1      20
       1      21
       1      22
       1      23
       1      24
       1      25
       1      26
       1      27
       1      28
       1      29
       1      30
       1      31
       1      32
       1      33
       1      34
       1      35
       1      36
       1      37
       1      38
       1      39
       1      40
       1      41
       1      42
       1      43
       1      44
       1      45
       1      46
       1      47
       1      48
       1      49
       1      50
       1      51
       1      52
       1      53
       1      54
       1      55
       1      56
       1      57
       1      58
       1      59
       1      60
       1      61
       1      62
       1      63
       1      64
       1      65
       1      66
       1      67
       1      68
       1      69
       1      70
       1      71
       1      72
       1      73
       1      74
       1      75
       1      76
       1      77
       1      78
       1      79
       1      80
       1      81
       1      82
       1      83
       1      84
       1      85
       1      86
       1      87
       1      88
       1      89
       1      90
       1      91
       1      92
       1      93
       1      94
       1      95
       1      96
       1      97
       1      98
       1      99
       1     100
       1     101
       1     102
       1     103
       1     104
       1     105
       1     106
       1     107
       1     108
       1     109
       1     110
       1     111
       1     112
       1     113
       1     114
       1     115
       1     116
       1     117
       1     118
       1     119
       1     120
       1     121
       1     122
       1     123
       1     124
       1     125
       1     126
       1     127
       1     128
       1     129
       1     130
       1     131
       1     132
       1     133
       1     134
       1     135
       1     136
       1     137
       1     138
       1     139
       1     140
       1     141
       1     142
       1     143
       1     144
       1     145
       1     146
       1     147
       1     148
       1     149
       1     150
       1     151
       1     152
       1     153
       1     154
       1     155
       1     156
       1     157
       1     158
       1     159
       1     160
       1     161
       1     162
       1     163
       1     164
       1     165
       1     166
       1     167
       1     168
       1     169
       1     170
       1     171
       1     172
       1     173
       1     174
       1     175
       1     176
       1     177
       1     178
       1     179
       1     180
       1     181
       1     182
       1     183
       1     184
       1     185
       1     186
       1     187
       1     188
       1     189
       1     190
       1     191
       1     192
       1     193
       1     194
       1     195
       1     196
       1     197
       1     198
       1     199
       1     200
       1     201
       1     202
       1     203
       1     204
       1     205
       1     206
       1     207
       1     208
       1     209
       1     210
       1     211
       1     212
       1     213
       1     214
       1     215
       1     216
       1     217
       1     218
       1     219
       1     220
       1     221
       1     222
       1     223
       1     224
       1     225
       1     226
       1     227
       1     228
       1     229
       1     230
       1     231
       1     232
       1     233
       1     234
       1     235
       1     236
       1     237
       1     238
       1     239
       1     240
       1     241
       1     242
       1     243
       1     244
       1     245
       1     246
       1     247
       1     248
       1     249
       1     250
       1     251
       1     252
       1     253
       1     254
       1     255
       1     256
       1     257
       1     258
       1     259
       1     260
       1     261
       1     262
       1     263
       1     264
       1     265
       1     266
       1     267
       1     268
       1     269
       1     270
       1     271
       1     272
       1     273
       1     274
       1     275
       1     276
       1     277
       1     278
       1     279
       1     280
       1     281
       1     282
       1     283
       1     284
       1     285
       1     286
       1     287
       1     288
       1     289
       1     290
       1     291
       1     292
       1     293
       1     294
       1     295
       1     296
       1     297
       1     298
       1     299
       1     300
       1     301
       1     302
       1     303
       1     304
       1     305
       1     306
       1     307
       1     308
       1     309
       1     310
       1     311
       1     312
       1     313
       1     314
       1     315
       1     316
       1     317
       1     318
       1     319
       1     320
       1     321
       1     322
       1     323
       1     324
       1     325
       1     326
       1     327
       1     328
       1     329
       1     330
       1     331
       1     332
       1     333
       1     334
       1     335
       1     336
       1     337
       1     338
       1     339
       1     340
       1     341
       1     342
       1     343
       1     344
       1     345
       1     346
       1     347
       1     348
       1     349
       1     350
       1     351
       1     352
       1     353
       1     354
       1     355
       1     356
       1     357
       1     358
       1     359
       1     360
       1     361
       1     362
       1     363
       1     364
       1     365
       1     366
       1     367
       1     368
       1     369
       1     370
       1     371
       1     372
       1     373
       1     374
       1     375
       1     376
       1     377
       1     378
       1     379
       1     380
       1     381
       1     382
       1     383
       1     384
       1     385
       1     386
       1     387
       1     388
       1     389
       1     390
       1     391
       1     392
       1     393
       1     394
       1     395
       1     396
       1     397
       1     398
       1     399
       1     400
       1     401
       1     402
       1     403
       1     404
       1     405
       1     406
       1     407
       1     408
       1     409
       1     410
       1     411
       1     412
       1     413
       1     414
       1     415
       1     416
       1     417
       1     418
       1     419
       1     420
       1     421
       1     422
       1     423
       1     424
       1     425
       1     426
       1     427
       1     428
       1     429
       1     430
       1     431
       1     432
       1     433
       1     434
       1     435
       1     436
       1     437
       1     438
       1     439
       1     440
       1     441
       1     442
       1     443
       1     444
       1     445
       1     446
       1     447
       1     448
       1     449
       1     450
       1     451
       1     452
       1     453
       1     454
       1     455
       1     456
       1     457
       1     458
       1     459
       1     460
       1     461
       1     462
       1     463
       1     464
       1     465
       1     466
       1     467
       1     468
       1     469
       1     470
       1     471
       1     472
       1     473
       1     474
       1     475
       1     476
       1     477
       1     478
       1     479
       1     480
       1     481
       1     482
       1     483
       1     484
       1     485
       1     486
       1     487
       1     488
       1     489
       1     490
       1     491
       1     492
       1     493
       1     494
       1     495
       1     496
       1     497
       1     498
       1     499
       1     500
       1     501
       1     502
       1     503
       1     504
       1     505
       1     506
       1     507
       1     508
       1     509
       1     510
       1     511
       1     512
       1     513
       1     514
       1     515
       1     516
       1     517
       1     518
       1     519
       1     520
       1     521
       1     522
       1     523
       1     524
       1     525
       1     526
       1     527
       1     528
       1     529
       1     530
       1     531
       1     532
       1     533
       1     534
       1     535
       1     536
       1     537
       1     538
       1     539
       1     540
       1     541
       1     542
       1     543
       1     544
       1     545
       1     546
       1     547
       1     548
       1     549
       1     550
       1     551
       1     552
       1     553
       1     554
       1     555
       1     556
       1     557
       1     558
       1     559
       1     560
       1     561
       1     562
       1     563
       1     564
       1     565
       1     566
       1     567
       1     568
       1     569
       1     570
       1     571
       1     572
       1     573
       1     574
       1     575
       1     576
       1     577
       1     578
       1     579
       1     580
       1     581
       1     582
       1     583
       1     584
       1     585
       1     586
       1     587
       1     588
       1     589
       1     590
       1     591
       1     592
       1     593
       1     594
       1     595
       1     596
       1     597
       1     598
       1     599
       1     600
       1     601
       1     602
       1     603
       1     604
       1     605
       1     606
       1     607
       1     608
       1     609
       1     610
       1     611
       1     612
       1     613
       1     614
       1     615
       1     616
       1     617
       1     618
       1     619
       1     620
       1     621
       1     622
       1     623
       1     624
       1     625
       1     626
       1     627
       1     628
       1     629
       1     630
       1     631
       1     632
       1     633
       1     634
       1     635
       1     636
       1     637
       1     638
       1     639
       1     640
       1     641
       1     642
       1     643
       1     644
       1     645
       1     646
       1     647
       1     648
       1     649
       1     650
       1     651
       1     652
       1     653
       1     654
       1     655
       1     656
       1     657
       1     658
       1     659
       1     660
       1     661
       1     662
       1     663
       1     664
       1     665
       1     666
       1     667
       1     668
       1     669
       1     670
       1     671
       1     672
       1     673
       1     674
       1     675
       1     676
       1     677
       1     678
       1     679
       1     680
       1     681
       1     682
       1     683
       1     684
       1     685
       1     686
       1     687
       1     688
       1     689
       1     690
       1     691
       1     692
       1     693
       1     694
       1     695
       1     696
       1     697
       1     698
       1     699
       1     700
       1     701
       1     702
       1     703
       1     704
       1     705
       1     706
       1     707
       1     708
       1     709
       1     710
       1     711
       1     712
       1     713
       1     714
       1     715
       1     716
       1     717
       1     718
       1     719
       1     720
       1     721
       1     722
       1     723
       1     724
       1     725
       1     726
       1     727
       1     728
       1     729
       1     730
       1     731
       1     732
       1     733
       1     734
       1     735
       1     736
       1     737
       1     738
       1     739
       1     740
       1     741
       1     742
       1     743
       1     744
       1     745
       1     746
       1     747
       1     748
       1     749
       1     750
       1     751
       1     752
       1     753
       1     754
       1     755
       1     756
       1     757
       1     758
       1     759
       1     760
       1     761
       1     762
       1     763
       1     764
       1     765
       1     766
       1     767
       1     768
       1     769
       1     770
       1     771
       1     772
       1     773
       1     774
       1     775
       1     776
       1     777
       1     778
       1     779
       1     780
       1     781
       1     782
       1     783
       1     784
       1     785
       1     786
       1     787
       1     788
       1     789
       1     790
       1     791
       1     792
       1     793
       1     794
       1     795
       1     796
       1     797
       1     798
       1     799
       1     800
       1     801
       1     802
       1     803
       1     804
       1     805
       1     806
       1     807
       1     808
       1     809
       1     810
       1     811
       1     812
       1     813
       1     814
       1     815
       1     816
       1     817
       1     818
       1     819
       1     820
       1     821
       1     822
       1     823
       1     824
       1     825
       1     826
       1     827
       1     828
       1     829
       1     830
       1     831
       1     832
       1     833
       1     834
       1     835
       1     836
       1     837
       1     838
       1     839
       1     840
       1     841
       1     842
       1     843
       1     844
       1     845
       1     846
       1     847
       1     848
       1     849
       1     850
       1     851
       1     852
       1     853
       1     854
       1     855
       1     856
       1     857
       1     858
       1     859
       1     860
       1     861
       1     862
       1     863
       1     864
       1     865
       1     866
       1     867
       1     868
       1     869
       1     870
       1     871
       1     872
       1     873
       1     874
       1     875
       1     876
       1     877
       1     878
       1     879
       1     880
       1     881
       1     882
       1     883
       1     884
       1     885
       1     886
       1     887
       1     888
       1     889
       1     890
       1     891
       1     892
       1     893
       1     894
       1     895
       1     896
       1     897
       1     898
       1     899
       1     900
       1     901
       1     902
       1     903
       1     904
       1     905
       1     906
       1     907
       1     908
       1     909
       1     910
       1     911
       1     912
       1     913
       1     914
       1     915
       1     916
       1     917
       1     918
       1     919
       1     920
       1     921
       1     922
       1     923
       1     924
       1     925
       1     926
       1     927
       1     928
       1     929
       1     930
       1     931
       1     932
       1     933
       1     934
       1     935
       1     936
       1     937
       1     938
       1     939
       1     940
       1     941
       1     942
       1     943
       1     944
       1     945
       1     946
       1     947
       1     948
       1     949
       1     950
       1     951
       1     952
       1     953
       1     954
       1     955
       1     956
       1     957
       1     958
       1     959
       1     960
       1     961
       1     962
       1     963
       1     964
       1     965
       1     966
       1     967
       1     968
       1     969
       1     970
       1     971
       1     972
       1     973
       1     974
       1     975
       1     976
       1     977
       1     978
       1     979
       1     980
       1     981
       1     982
       1     983
       1     984
       1     985
       1     986
       1     987
       1     988
       1     989
       1     990
       1     991
       1     992
       1     993
       1     994
       1     995
       1     996
       1     997
       1     998
       1     999
       1    1000
       1    1001
       1    1002
       1    1003
       1    1004
       1    1005
       1    1006
       1    1007
       1    1008
       1    1009
       1    1010
       1    1011
       1    1012
       1    1013
       1    1014
       1    1015
       1    1016
       1    1017
       1    1018
       1    1019
       1    1020
       1    1021
       1    1022
       1    1023
       1    1024
       1    1025
       1    1026
       1    1027
       1    1028
       1    1029
       1    1030
       1    1031
       1    1032
       1    1033
       1    1034
       1    1035
       1    1036
       1    1037
       1    1038
       1    1039
       1    1040
       1    1041
       1    1042
       1    1043
       1    1044
       1    1045
       1    1046
       1    1047
       1    1048
       1    1049
       1    1050
       1    1051
       1    1052
       1    1053
       1    1054
       1    1055
       1    1056
       1    1057
       1    1058
       1    1059
       1    1060
       1    1061
       1    1062
       1    1063
       1    1064
       1    1065
       1    1066
       1    1067
       1    1068
       1    1069
       1    1070
       1    1071
       1    1072
       1    1073
       1    1074
       1    1075
       1    1076
       1    1077
       1    1078
       1    1079
       1    1080
       1    1081
       1    1082
       1    1083
       1    1084
       1    1085
       1    1086
       1    1087
       1    1088
       1    1089
       1    1090
       1    1091
       1    1092
       1    1093
       1    1094
       1    1095
       1    1096
       1    1097
       1    1098
       1    1099
       1    1100
       1    1101
       1    1102
       1    1103
       1    1104
       1    1105
       1    1106
       1    1107
       1    1108
       1    1109
       1    1110
       1    1111
       1    1112
       1    1113
       1    1114
       1    1115
       1    1116
       1    1117
       1    1118
       1    1119
       1    1120
       1    1121
       1    1122
       1    1123
       1    1124
       1    1125
       1    1126
       1    1127
       1    1128
       1    1129
       1    1130
       1    1131
       1    1132
       1    1133
       1    1134
       1    1135
       1    1136
       1    1137
       1    1138
       1    1139
       1    1140
       1    1141
       1    1142
       1    1143
       1    1144
       1    1145
       1    1146
       1    1147
       1    1148
       1    1149
       1    1150
       1    1151
       1    1152
       1    1153
       1    1154
       1    1155
       1    1156
       1    1157
       1    1158
       1    1159
       1    1160
       1    1161
       1    1162
       1    1163
       1    1164
       1    1165
       1    1166
       1    1167
       1    1168
       1    1169
       1    1170
       1    1171
       1    1172
       1    1173
       1    1174
       1    1175
       1    1176
       1    1177
       1    1178
       1    1179
       1    1180
       1    1181
       1    1182
       1    1183
       1    1184
       1    1185
       1    1186
       1    1187
       1    1188
       1    1189
       1    1190
       1    1191
       1    1192
       1    1193
       1    1194
       1    1195
       1    1196
       1    1197
       1    1198
       1    1199
       1    1200
       1    1201
       1    1202
       1    1203
       1    1204
       1    1205
       1    1206
       1    1207
       1    1208
       1    1209
       1    1210
       1    1211
       1    1212
       1    1213
       1    1214
       1    1215
       1    1216
       1    1217
       1    1218
       1    1219
       1    1220
       1    1221
       1    1222
       1    1223
       1    1224
       1    1225
       1    1226
       1    1227
       1    1228
       1    1229
       1    1230
       1    1231
       1    1232
       1    1233
       1    1234
       1    1235
       1    1236
       1    1237
       1    1238
       1    1239
       1    1240
       1    1241
       1    1242
       1    1243
       1    1244
       1    1245
       1    1246
       1    1247
       1    1248
       1    1249
       1    1250
       1    1251
       1    1252
       1    1253
       1    1254
       1    1255
       1    1256
       1    1257
       1    1258
       1    1259
       1    1260
       1    1261
       1    1262
       1    1263
       1    1264
       1    1265
       1    1266
       1    1267
       1    1268
       1    1269
       1    1270
       1    1271
       1    1272
       1    1273
       1    1274
       1    1275
       1    1276
       1    1277
       1    1278
       1    1279
       1    1280
       1    1281
       1    1282
       1    1283
       1    1284
       1    1285
       1    1286
       1    1287
       1    1288
       1    1289
       1    1290
       1    1291
       1    1292
       1    1293
       1    1294
       1    1295
       1    1296
       1    1297
       1    1298
       1    1299
       1    1300
       1    1301
       1    1302
       1    1303
       1    1304
       1    1305
       1    1306
       1    1307
       1    1308
       1    1309
       1    1310
       1    1311
       1    1312
       1    1313
       1    1314
       1    1315
       1    1316
       1    1317
       1    1318
       1    1319
       1    1320
       1    1321
       1    1322
       1    1323
       1    1324
       1    1325
       1    1326
       1    1327
       1    1328
       1    1329
       1    1330
       1    1331
       1    1332
       1    1333
       1    1334
       1    1335
       1    1336
       1    1337
       1    1338
       1    1339
       1    1340
       1    1341
       1    1342
       1    1343
       1    1344
       1    1345
       1    1346
       1    1347
       1    1348
       1    1349
       1    1350
       1    1351
       1    1352
       1    1353
       1    1354
       1    1355
       1    1356
       1    1357
       1    1358
       1    1359
       1    1360
       1    1361
       1    1362
       1    1363
       1    1364
       1    1365
       1    1366
       1    1367
       1    1368
       1    1369
       1    1370
       1    1371
       1    1372
       1    1373
       1    1374
       1    1375
       1    1376
       1    1377
       1    1378
       1    1379
       1    1380
       1    1381
       1    1382
       1    1383
       1    1384
       1    1385
       1    1386
       1    1387
       1    1388
       1    1389
       1    1390
       1    1391
       1    1392
       1    1393
       1    1394
       1    1395
       1    1396
       1    1397
       1    1398
       1    1399
       1    1400
       1    1401
       1    1402
       1    1403
       1    1404
       1    1405
       1    1406
       1    1407
       1    1408
       1    1409
       1    1410
       1    1411
       1    1412
       1    1413
       1    1414
       1    1415
       1    1416
       1    1417
       1    1418
       1    1419
       1    1420
       1    1421
       1    1422
       1    1423
       1    1424
       1    1425
       1    1426
       1    1427
       1    1428
       1    1429
       1    1430
       1    1431
       1    1432
       1    1433
       1    1434
       1    1435
       1    1436
       1    1437
       1    1438
       1    1439
       1    1440
       1    1441
       1    1442
       1    1443
       1    1444
       1    1445
       1    1446
       1    1447
       1    1448
       1    1449
       1    1450
       1    1451
       1    1452
       1    1453
       1    1454
       1    1455
       1    1456
       1    1457
       1    1458
       1    1459
       1    1460
       1    1461
       1    1462
       1    1463
       1    1464
       1    1465
       1    1466
       1    1467
       1    1468
       1    1469
       1    1470
       1    1471
       1    1472
       1    1473
       1    1474
       1    1475
       1    1476
       1    1477
       1    1478
       1    1479
       1    1480
       1    1481
       1    1482
       1    1483
       1    1484
       1    1485
       1    1486
       1    1487
       1    1488
       1    1489
       1    1490
       1    1491
       1    1492
       1    1493
       1    1494
       1    1495
       1    1496
       1    1497
       1    1498
       1    1499
       1    1500
       1    1501
       1    1502
       1    1503
       1    1504
       1    1505
       1    1506
       1    1507
       1    1508
       1    1509
       1    1510
       1    1511
       1    1512
       1    1513
       1    1514
       1    1515
       1    1516
       1    1517
       1    1518
       1    1519
       1    1520
       1    1521
       1    1522
       1    1523
       1    1524
       1    1525
       1    1526
       1    1527
       1    1528
       1    1529
       1    1530
       1    1531
       1    1532
       1    1533
       1    1534
       1    1535
       1    1536
       1    1537
       1    1538
       1    1539
       1    1540
       1    1541
       1    1542
       1    1543
       1    1544
       1    1545
       1    1546
       1    1547
       1    1548
       1    1549
       1    1550
       1    1551
       1    1552
       1    1553
       1    1554
       1    1555
       1    1556
       1    1557
       1    1558
       1    1559
       1    1560
       1    1561
       1    1562
       1    1563
       1    1564
       1    1565
       1    1566
       1    1567
       1    1568
       1    1569
       1    1570
       1    1571
       1    1572
       1    1573
       1    1574
       1    1575
       1    1576
       1    1577
       1    1578
       1    1579
       1    1580
       1    1581
       1    1582
       1    1583
       1    1584
       1    1585
       1    1586
       1    1587
       1    1588
       1    1589
       1    1590
       1    1591
       1    1592
       1    1593
       1    1594
       1    1595
       1    1596
       1    1597
       1    1598
       1    1599
       1    1600
       1    1601
       1    1602
       1    1603
       1    1604
       1    1605
       1    1606
       1    1607
       1    1608
       1    1609
       1    1610
       1    1611
       1    1612
       1    1613
       1    1614
       1    1615
       1    1616
       1    1617
       1    1618
       1    1619
       1    1620
       1    1621
       1    1622
       1    1623
       1    1624
       1    1625
       1    1626
       1    1627
       1    1628
       1    1629
       1    1630
       1    1631
       1    1632
       1    1633
       1    1634
       1    1635
       1    1636
       1    1637
       1    1638
       1    1639
       1    1640
       1    1641
       1    1642
       1    1643
       1    1644
       1    1645
       1    1646
       1    1647
       1    1648
       1    1649
       1    1650
       1    1651
       1    1652
       1    1653
       1    1654
       1    1655
       1    1656
       1    1657
       1    1658
       1    1659
       1    1660
       1    1661
       1    1662
       1    1663
       1    1664
       1    1665
       1    1666
       1    1667
       1    1668
       1    1669
       1    1670
       1    1671
       1    1672
       1    1673
       1    1674
       1    1675
       1    1676
       1    1677
       1    1678
       1    1679
       1    1680
       1    1681
       1    1682
       1    1683
       1    1684
       1    1685
       1    1686
       1    1687
       1    1688
       1    1689
       1    1690
       1    1691
       1    1692
       1    1693
       1    1694
       1    1695
       1    1696
       1    1697
       1    1698
       1    1699
       1    1700
       1    1701
       1    1702
       1    1703
       1    1704
       1    1705
       1    1706
       1    1707
       1    1708
       1    1709
       1    1710
       1    1711
       1    1712
       1    1713
       1    1714
       1    1715
       1    1716
       1    1717
       1    1718
       1    1719
       1    1720
       1    1721
       1    1722
       1    1723
       1    1724
       1    1725
       1    1726
       1    1727
       1    1728
       1    1729
       1    1730
       1    1731
       1    1732
       1    1733
       1    1734
       1    1735
       1    1736
       1    1737
       1    1738
       1    1739
       1    1740
       1    1741
       1    1742
       1    1743
       1    1744
       1    1745
       1    1746
       1    1747
       1    1748
       1    1749
       1    1750
       1    1751
       1    1752
       1    1753
       1    1754
       1    1755
       1    1756
       1    1757
       1    1758
       1    1759
       1    1760
       1    1761
       1    1762
       1    1763
       1    1764
       1    1765
       1    1766
       1    1767
       1    1768
       1    1769
       1    1770
       1    1771
       1    1772
       1    1773
       1    1774
       1    1775
       1    1776
       1    1777
       1    1778
       1    1779
       1    1780
       1    1781
       1    1782
       1    1783
       1    1784
       1    1785
       1    1786
       1    1787
       1    1788
       1    1789
       1    1790
       1    1791
       1    1792
       1    1793
       1    1794
       1    1795
       1    1796
       1    1797
       1    1798
       1    1799
       1    1800
       1    1801
       1    1802
       1    1803
       1    1804
       1    1805
       1    1806
       1    1807
       1    1808
       1    1809
       1    1810
       1    1811
       1    1812
       1    1813
       1    1814
       1    1815
       1    1816
       1    1817
       1    1818
       1    1819
       1    1820
       1    1821
       1    1822
       1    1823
       1    1824
       1    1825
       1    1826
       1    1827
       1    1828
       1    1829
       1    1830
       1    1831
       1    1832
       1    1833
       1    1834
       1    1835
       1    1836
       1    1837
       1    1838
       1    1839
       1    1840
       1    1841
       1    1842
       1    1843
       1    1844
       1    1845
       1    1846
       1    1847
       1    1848
       1    1849
       1    1850
       1    1851
       1    1852
       1    1853
       1    1854
       1    1855
       1    1856
       1    1857
       1    1858
       1    1859
       1    1860
       1    1861
       1    1862
       1    1863
       1    1864
       1    1865
       1    1866
       1    1867
       1    1868
       1    1869
       1    1870
       1    1871
       1    1872
       1    1873
       1    1874
       1    1875
       1    1876
       1    1877
       1    1878
       1    1879
       1    1880
       1    1881
       1    1882
       1    1883
       1    1884
       1    1885
       1    1886
       1    1887
       1    1888
       1    1889
       1    1890
       1    1891
       1    1892
       1    1893
       1    1894
       1    1895
       1    1896
       1    1897
       1    1898
       1    1899
       1    1900
       1    1901
       1    1902
       1    1903
       1    1904
       1    1905
       1    1906
       1    1907
       1    1908
       1    1909
       1    1910
       1    1911
       1    1912
       1    1913
       1    1914
       1    1915
       1    1916
       1    1917
       1    1918
       1    1919
       1    1920
       1    1921
       1    1922
       1    1923
       1    1924
       1    1925
       1    1926
       1    1927
       1    1928
       1    1929
       1    1930
       1    1931
       1    1932
       1    1933
       1    1934
       1    1935
       1    1936
       1    1937
       1    1938
       1    1939
       1    1940
       1    1941
       1    1942
       1    1943
       1    1944
       1    1945
       1    1946
       1    1947
       1    1948
       1    1949
       8       0       1       2       3       4       5       6       7
       8       2       8       9       3       6      10      11       7
       8      12       1       0      13      14       5       4      15
       8       0      16      17      13       4      18      19      15
       8      20      21      22      12      23      24      25      14
       8      26      27      21      20      28      29      24      23
       8      13      26      20      12      15      28      23      14
       8      30      31      16      32      33      34      18      35
       8      36      37      31      30      38      39      34      33
       8      40      41      37      36      42      43      39      38
       8      44      40      36      45      46      42      38      47
       8      48      17      16      31      49      19      18      34
       8      30      50      45      36      33      51      47      38
       8       0       3      32      16       4       7      35      18
       8      52      26      13      17      53      28      15      19
       8      54      52      17      48      55      53      19      49
       8      56      54      48      57      58      55      49      59
       8      37      57      48      31      39      59      49      34
       8      60      61      50      30      62      63      51      33
       8      64      60      30      32      65      62      33      35
       8      66      64      32       3      67      65      35       7
       8      68       8       2      69      70      10       6      71
       8      72      69       2       1      73      71       6       5
       8      22      72       1      12      25      73       5      14
       8      74      27      26      52      75      29      28      53
       8      76      74      52      54      77      75      53      55
       8      78      76      54      56      79      77      55      58
       8      80      78      56      81      82      79      58      83
       8      84      81      56      57      85      83      58      59
       8      41      84      57      37      43      85      59      39
       8      86      44      45      50      87      46      47      51
       8      88      86      50      61      89      87      51      63
       8      90      88      61      91      92      89      63      93
       8      94      91      61      60      95      93      63      62
       8      96      94      60      64      97      95      62      65
       8      98      96      64      66      99      97      65      67
       8     100      98      66     101     102      99      67     103
       8       9     101      66       3      11     103      67       7
       8     104     105       8      68     106     107      10      70
       8     108     104      68      69     109     106      70      71
       8     110     108      69      72     111     109      71      73
       8     112     110      72      22     113     111      73      25
       8     114     112      22      21     115     113      25      24
       8     116     114      21      27     117     115      24      29
       8     118     116      27      74     119     117      29      75
       8     120     118      74      76     121     119      75      77
       8     122     120      76      78     123     121      77      79
       8     124     122      78      80     125     123      79      82
       8     126     124      80      81     127     125      82      83
       8     128     126      81      84     129     127      83      85
       8     130     128      84      41     131     129      85      43
       8     132     130      41      40     133     131      43      42
       8     134     132      40      44     135     133      42      46
       8     136     134      44      86     137     135      46      87
       8     138     136      86      88     139     137      87      89
       8     140     138      88      90     141     139      89      92
       8     142     140      90      91     143     141      92      93
       8     144     142      91      94     145     143      93      95
       8     146     144      94      96     147     145      95      97
       8     148     146      96      98     149     147      97      99
       8     150     148      98     100     151     149      99     102
       8     152     150     100     101     153     151     102     103
       8     154     152     101       9     155     153     103      11
       8     105     154       9       8     107     155      11      10
       8     156     157     158     159       0       1       2       3
       8     158     160     161     159       2       8       9       3
       8     162     157     156     163      12       1       0      13
       8     156     164     165     163       0      16      17      13
       8     166     167     168     162      20      21      22      12
       8     169     170     167     166      26      27      21      20
       8     163     169     166     162      13      26      20      12
       8     171     172     164     173      30      31      16      32
       8     174     175     172     171      36      37      31      30
       8     176     177     175     174      40      41      37      36
       8     178     176     174     179      44      40      36      45
       8     180     165     164     172      48      17      16      31
       8     171     181     179     174      30      50      45      36
       8     156     159     173     164       0       3      32      16
       8     182     169     163     165      52      26      13      17
       8     183     182     165     180      54      52      17      48
       8     184     183     180     185      56      54      48      57
       8     175     185     180     172      37      57      48      31
       8     186     187     181     171      60      61      50      30
       8     188     186     171     173      64      60      30      32
       8     189     188     173     159      66      64      32       3
       8     190     160     158     191      68       8       2      69
       8     192     191     158     157      72      69       2       1
       8     168     192     157     162      22      72       1      12
       8     193     170     169     182      74      27      26      52
       8     194     193     182     183      76      74      52      54
       8     195     194     183     184      78      76      54      56
       8     196     195     184     197      80      78      56      81
       8     198     197     184     185      84      81      56      57
       8     177     198     185     175      41      84      57      37
       8     199     178     179     181      86      44      45      50
       8     200     199     181     187      88      86      50      61
       8     201     200     187     202      90      88      61      91
       8     203     202     187     186      94      91      61      60
       8     204     203     186     188      96      94      60      64
       8     205     204     188     189      98      96      64      66
       8     206     205     189     207     100      98      66     101
       8     161     207     189     159       9     101      66       3
       8     208     209     160     190     104     105       8      68
       8     210     208     190     191     108     104      68      69
       8     211     210     191     192     110     108      69      72
       8     212     211     192     168     112     110      72      22
       8     213     212     168     167     114     112      22      21
       8     214     213     167     170     116     114      21      27
       8     215     214     170     193     118     116      27      74
       8     216     215     193     194     120     118      74      76
       8     217     216     194     195     122     120      76      78
       8     218     217     195     196     124     122      78      80
       8     219     218     196     197     126     124      80      81
       8     220     219     197     198     128     126      81      84
       8     221     220     198     177     130     128      84      41
       8     222     221     177     176     132     130      41      40
       8     223     222     176     178     134     132      40      44
       8     224     223     178     199     136     134      44      86
       8     225     224     199     200     138     136      86      88
       8     226     225     200     201     140     138      88      90
       8     227     226     201     202     142     140      90      91
       8     228     227     202     203     144     142      91      94
       8     229     228     203     204     146     144      94      96
       8     230     229     204     205     148     146      96      98
       8     231     230     205     206     150     148      98     100
       8     232     231     206     207     152     150     100     101
       8     233     232     207     161     154     152     101       9
       8     209     233     161     160     105     154       9       8
       8     234     235     236     237     156     157     158     159
       8     236     238     239     237     158     160     161     159
       8     240     235     234     241     162     157     156     163
       8     234     242     243     241     156     164     165     163
       8     244     245     246     240     166     167     168     162
       8     247     248     245     244     169     170     167     166
       8     241     247     244     240     163     169     166     162
       8     249     250     242     251     171     172     164     173
       8     252     253     250     249     174     175     172     171
       8     254     255     253     252     176     177     175     174
       8     256     254     252     257     178     176     174     179
       8     258     243     242     250     180     165     164     172
       8     249     259     257     252     171     181     179     174
       8     234     237     251     242     156     159     173     164
       8     260     247     241     243     182     169     163     165
       8     261     260     243     258     183     182     165     180
       8     262     261     258     263     184     183     180     185
       8     253     263     258     250     175     185     180     172
       8     264     265     259     249     186     187     181     171
       8     266     264     249     251     188     186     171     173
       8     267     266     251     237     189     188     173     159
       8     268     238     236     269     190     160     158     191
       8     270     269     236     235     192     191     158     157
       8     246     270     235     240     168     192     157     162
       8     271     248     247     260     193     170     169     182
       8     272     271     260     261     194     193     182     183
       8     273     272     261     262     195     194     183     184
       8     274     273     262     275     196     195     184     197
       8     276     275     262     263     198     197     184     185
       8     255     276     263     253     177     198     185     175
       8     277     256     257     259     199     178     179     181
       8     278     277     259     265     200     199     181     187
       8     279     278     265     280     201     200     187     202
       8     281     280     265     264     203     202     187     186
       8     282     281     264     266     204     203     186     188
       8     283     282     266     267     205     204     188     189
       8     284     283     267     285     206     205     189     207
       8     239     285     267     237     161     207     189     159
       8     286     287     238     268     208     209     160     190
       8     288     286     268     269     210     208     190     191
       8     289     288     269     270     211     210     191     192
       8     290     289     270     246     212     211     192     168
       8     291     290     246     245     213     212     168     167
       8     292     291     245     248     214     213     167     170
       8     293     292     248     271     215     214     170     193
       8     294     293     271     272     216     215     193     194
       8     295     294     272     273     217     216     194     195
       8     296     295     273     274     218     217     195     196
       8     297     296     274     275     219     218     196     197
       8     298     297     275     276     220     219     197     198
       8     299     298     276     255     221     220     198     177
       8     300     299     255     254     222     221     177     176
       8     301     300     254     256     223     222     176     178
       8     302     301     256     277     224     223     178     199
       8     303     302     277     278     225     224     199     200
       8     304     303     278     279     226     225     200     201
       8     305     304     279     280     227     226     201     202
       8     306     305     280     281     228     227     202     203
       8     307     306     281     282     229     228     203     204
       8     308     307     282     283     230     229     204     205
       8     309     308     283     284     231     230     205     206
       8     310     309     284     285     232     231     206     207
       8     311     310     285     239     233     232     207     161
       8     287     311     239     238     209     233     161     160
       8     312     313     314     315     234     235     236     237
       8     314     316     317     315     236     238     239     237
       8     318     313     312     319     240     235     234     241
       8     312     320     321     319     234     242     243     241
       8     322     323     324     318     244     245     246     240
       8     325     326     323     322     247     248     245     244
       8     319     325     322     318     241     247     244     240
       8     327     328     320     329     249     250     242     251
       8     330     331     328     327     252     253     250     249
       8     332     333     331     330     254     255     253     252
       8     334     332     330     335     256     254     252     257
       8     336     321     320     328     258     243     242     250
       8     327     337     335     330     249     259     257     252
       8     312     315     329     320     234     237     251     242
       8     338     325     319     321     260     247     241     243
       8     339     338     321     336     261     260     243     258
       8     340     339     336     341     262     261     258     263
       8     331     341     336     328     253     263     258     250
       8     342     343     337     327     264     265     259     249
       8     344     342     327     329     266     264     249     251
       8     345     344     329     315     267     266     251     237
       8     346     316     314     347     268     238     236     269
       8     348     347     314     313     270     269     236     235
       8     324     348     313     318     246     270     235     240
       8     349     326     325     338     271     248     247     260
       8     350     349     338     339     272     271     260     261
       8     351     350     339     340     273     272     261     262
       8     352     351     340     353     274     273     262     275
       8     354     353     340     341     276     275     262     263
       8     333     354     341     331     255     276     263     253
       8     355     334     335     337     277     256     257     259
       8     356     355     337     343     278     277     259     265
       8     357     356     343     358     279     278     265     280
       8     359     358     343     342     281     280     265     264
       8     360     359     342     344     282     281     264     266
       8     361     360     344     345     283     282     266     267
       8     362     361     345     363     284     283     267     285
       8     317     363     345     315     239     285     267     237
       8     364     365     316     346     286     287     238     268
       8     366     364     346     347     288     286     268     269
       8     367     366     347     348     289     288     269     270
       8     368     367     348     324     290     289     270     246
       8     369     368     324     323     291     290     246     245
       8     370     369     323     326     292     291     245     248
       8     371     370     326     349     293     292     248     271
       8     372     371     349     350     294     293     271     272
       8     373     372     350     351     295     294     272     273
       8     374     373     351     352     296     295     273     274
       8     375     374     352     353     297     296     274     275
       8     376     375     353     354     298     297     275     276
       8     377     376     354     333     299     298     276     255
       8     378     377     333     332     300     299     255     254
       8     379     378     332     334     301     300     254     256
       8     380     379     334     355     302     301     256     277
       8     381     380     355     356     303     302     277     278
       8     382     381     356     357     304     303     278     279
       8     383     382     357     358     305     304     279     280
       8     384     383     358     359     306     305     280     281
       8     385     384     359     360     307     306     281     282
       8     386     385     360     361     308     307     282     283
       8     387     386     361     362     309     308     283     284
       8     388     387     362     363     310     309     284     285
       8     389     388     363     317     311     310     285     239
       8     365     389     317     316     287     311     239     238
       8     390     391     392     393     312     313     314     315
       8     392     394     395     393     314     316     317     315
       8     396     391     390     397     318     313     312     319
       8     390     398     399     397     312     320     321     319
       8     400     401     402     396     322     323     324     318
       8     403     404     401     400     325     326     323     322
       8     397     403     400     396     319     325     322     318
       8     405     406     398     407     327     328     320     329
       8     408     409     406     405     330     331     328     327
       8     410     411     409     408     332     333     331     330
       8     412     410     408     413     334     332     330     335
       8     414     399     398     406     336     321     320     328
       8     405     415     413     408     327     337     335     330
       8     390     393     407     398     312     315     329     320
       8     416     403     397     399     338     325     319     321
       8     417     416     399     414     339     338     321     336
       8     418     417     414     419     340     339     336     341
       8     409     419     414     406     331     341     336     328
       8     420     421     415     405     342     343     337     327
       8     422     420     405     407     344     342     327     329
       8     423     422     407     393     345     344     329     315
       8     424     394     392     425     346     316     314     347
       8     426     425     392     391     348     347     314     313
       8     402     426     391     396     324     348     313     318
       8     427     404     403     416     349     326     325     338
       8     428     427     416     417     350     349     338     339
       8     429     428     417     418     351     350     339     340
       8     430     429     418     431     352     351     340     353
       8     432     431     418     419     354     353     340     341
       8     411     432     419     409     333     354     341     331
       8     433     412     413     415     355     334     335     337
       8     434     433     415     421     356     355     337     343
       8     435     434     421     436     357     356     343     358
       8     437     436     421     420     359     358     343     342
       8     438     437     420     422     360     359     342     344
       8     439     438     422     423     361     360     344     345
       8     440     439     423     441     362     361     345     363
       8     395     441     423     393     317     363     345     315
       8     442     443     394     424     364     365     316     346
       8     444     442     424     425     366     364     346     347
       8     445     444     425     426     367     366     347     348
       8     446     445     426     402     368     367     348     324
       8     447     446     402     401     369     368     324     323
       8     448     447     401     404     370     369     323     326
       8     449     448     404     427     371     370     326     349
       8     450     449     427     428     372     371     349     350
       8     451     450     428     429     373     372     350     351
       8     452     451     429     430     374     373     351     352
       8     453     452     430     431     375     374     352     353
       8     454     453     431     432     376     375     353     354
       8     455     454     432     411     377     376     354     333
       8     456     455     411     410     378     377     333     332
       8     457     456     410     412     379     378     332     334
       8     458     457     412     433     380     379     334     355
       8     459     458     433     434     381     380     355     356
       8     460     459     434     435     382     381     356     357
       8     461     460     435     436     383     382     357     358
       8     462     461     436     437     384     383     358     359
       8     463     462     437     438     385     384     359     360
       8     464     463     438     439     386     385     360     361
       8     465     464     439     440     387     386     361     362
       8     466     465     440     441     388     387     362     363
       8     467     466     441     395     389     388     363     317
       8     443     467     395     394     365     389     317     316
       8     468     469     470     471     390     391     392     393
       8     470     472     473     471     392     394     395     393
       8     474     469     468     475     396     391     390     397
       8     468     476     477     475     390     398     399     397
       8     478     479     480     474     400     401     402     396
       8     481     482     479     478     403     404     401     400
       8     475     481     478     474     397     403     400     396
       8     483     484     476     485     405     406     398     407
       8     486     487     484     483     408     409     406     405
       8     488     489     487     486     410     411     409     408
       8     490     488     486     491     412     410     408     413
       8     492     477     476     484     414     399     398     406
       8     483     493     491     486     405     415     413     408
       8     468     471     485     476     390     393     407     398
       8     494     481     475     477     416     403     397     399
       8     495     494     477     492     417     416     399     414
       8     496     495     492     497     418     417     414     419
       8     487     497     492     484     409     419     414     406
       8     498     499     493     483     420     421     415     405
       8     500     498     483     485     422     420     405     407
       8     501     500     485     471     423     422     407     393
       8     502     472     470     503     424     394     392     425
       8     504     503     470     469     426     425     392     391
       8     480     504     469     474     402     426     391     396
       8     505     482     481     494     427     404     403     416
       8     506     505     494     495     428     427     416     417
       8     507     506     495     496     429     428     417     418
       8     508     507     496     509     430     429     418     431
       8     510     509     496     497     432     431     418     419
       8     489     510     497     487     411     432     419     409
       8     511     490     491     493     433     412     413     415
       8     512     511     493     499     434     433     415     421
       8     513     512     499     514     435     434     421     436
       8     515     514     499     498     437     436     421     420
       8     516     515     498     500     438     437     420     422
       8     517     516     500     501     439     438     422     423
       8     518     517     501     519     440     439     423     441
       8     473     519     501     471     395     441     423     393
       8     520     521     472     502     442     443     394     424
       8     522     520     502     503     444     442     424     425
       8     523     522     503     504     445     444     425     426
       8     524     523     504     480     446     445     426     402
       8     525     524     480     479     447     446     402     401
       8     526     525     479     482     448     447     401     404
       8     527     526     482     505     449     448     404     427
       8     528     527     505     506     450     449     427     428
       8     529     528     506     507     451     450     428     429
       8     530     529     507     508     452     451     429     430
       8     531     530     508     509     453     452     430     431
       8     532     531     509     510     454     453     431     432
       8     533     532     510     489     455     454     432     411
       8     534     533     489     488     456     455     411     410
       8     535     534     488     490     457     456     410     412
       8     536     535     490     511     458     457     412     433
       8     537     536     511     512     459     458     433     434
       8     538     537     512     513     460     459     434     435
       8     539     538     513     514     461     460     435     436
       8     540     539     514     515     462     461     436     437
       8     541     540     515     516     463     462     437     438
       8     542     541     516     517     464     463     438     439
       8     543     542     517     518     465     464     439     440
       8     544     543     518     519     466     465     440     441
       8     545     544     519     473     467     466     441     395
       8     521     545     473     472     443     467     395     394
       8     546     547     548     549     468     469     470     471
       8     548     550     551     549     470     472     473     471
       8     552     547     546     553     474     469     468     475
       8     546     554     555     553     468     476     477     475
       8     556     557     558     552     478     479     480     474
       8     559     560     557     556     481     482     479     478
       8     553     559     556     552     475     481     478     474
       8     561     562     554     563     483     484     476     485
       8     564     565     562     561     486     487     484     483
       8     566     567     565     564     488     489     487     486
       8     568     566     564     569     490     488     486     491
       8     570     555     554     562     492     477     476     484
       8     561     571     569     564     483     493     491     486
       8     546     549     563     554     468     471     485     476
       8     572     559     553     555     494     481     475     477
       8     573     572     555     570     495     494     477     492
       8     574     573     570     575     496     495     492     497
       8     565     575     570     562     487     497     492     484
       8     576     577     571     561     498     499     493     483
       8     578     576     561     563     500     498     483     485
       8     579     578     563     549     501     500     485     471
       8     580     550     548     581     502     472     470     503
       8     582     581     548     547     504     503     470     469
       8     558     582     547     552     480     504     469     474
       8     583     560     559     572     505     482     481     494
       8     584     583     572     573     506     505     494     495
       8     585     584     573     574     507     506     495     496
       8     586     585     574     587     508     507     496     509
       8     588     587     574     575     510     509     496     497
       8     567     588     575     565     489     510     497     487
       8     589     568     569     571     511     490     491     493
       8     590     589     571     577     512     511     493     499
       8     591     590     577     592     513     512     499     514
       8     593     592     577     576     515     514     499     498
       8     594     593     576     578     516     515     498     500
       8     595     594     578     579     517     516     500     501
       8     596     595     579     597     518     517     501     519
       8     551     597     579     549     473     519     501     471
       8     598     599     550     580     520     521     472     502
       8     600     598     580     581     522     520     502     503
       8     601     600     581     582     523     522     503     504
       8     602     601     582     558     524     523     504     480
       8     603     602     558     557     525     524     480     479
       8     604     603     557     560     526     525     479     482
       8     605     604     560     583     527     526     482     505
       8     606     605     583     584     528     527     505     506
       8     607     606     584     585     529     528     506     507
       8     608     607     585     586     530     529     507     508
       8     609     608     586     587     531     530     508     509
       8     610     609     587     588     532     531     509     510
       8     611     610     588     567     533     532     510     489
       8     612     611     567     566     534     533     489     488
       8     613     612     566     568     535     534     488     490
       8     614     613     568     589     536     535     490     511
       8     615     614     589     590     537     536     511     512
       8     616     615     590     591     538     537     512     513
       8     617     616     591     592     539     538     513     514
       8     618     617     592     593     540     539     514     515
       8     619     618     593     594     541     540     515     516
       8     620     619     594     595     542     541     516     517
       8     621     620     595     596     543     542     517     518
       8     622     621     596     597     544     543     518     519
       8     623     622     597     551     545     544     519     473
       8     599     623     551     550     521     545     473     472
       8     624     625     626     627     546     547     548     549
       8     626     628     629     627     548     550     551     549
       8     630     625     624     631     552     547     546     553
       8     624     632     633     631     546     554     555     553
       8     634     635     636     630     556     557     558     552
       8     637     638     635     634     559     560     557     556
       8     631     637     634     630     553     559     556     552
       8     639     640     632     641     561     562     554     563
       8     642     643     640     639     564     565     562     561
       8     644     645     643     642     566     567     565     564
       8     646     644     642     647     568     566     564     569
       8     648     633     632     640     570     555     554     562
       8     639     649     647     642     561     571     569     564
       8     624     627     641     632     546     549     563     554
       8     650     637     631     633     572     559     553     555
       8     651     650     633     648     573     572     555     570
       8     652     651     648     653     574     573     570     575
       8     643     653     648     640     565     575     570     562
       8     654     655     649     639     576     577     571     561
       8     656     654     639     641     578     576     561     563
       8     657     656     641     627     579     578     563     549
       8     658     628     626     659     580     550     548     581
       8     660     659     626     625     582     581     548     547
       8     636     660     625     630     558     582     547     552
       8     661     638     637     650     583     560     559     572
       8     662     661     650     651     584     583     572     573
       8     663     662     651     652     585     584     573     574
       8     664     663     652     665     586     585     574     587
       8     666     665     652     653     588     587     574     575
       8     645     666     653     643     567     588     575     565
       8     667     646     647     649     589     568     569     571
       8     668     667     649     655     590     589     571     577
       8     669     668     655     670     591     590     577     592
       8     671     670     655     654     593     592     577     576
       8     672     671     654     656     594     593     576     578
       8     673     672     656     657     595     594     578     579
       8     674     673     657     675     596     595     579     597
       8     629     675     657     627     551     597     579     549
       8     676     677     628     658     598     599     550     580
       8     678     676     658     659     600     598     580     581
       8     679     678     659     660     601     600     581     582
       8     680     679     660     636     602     601     582     558
       8     681     680     636     635     603     602     558     557
       8     682     681     635     638     604     603     557     560
       8     683     682     638     661     605     604     560     583
       8     684     683     661     662     606     605     583     584
       8     685     684     662     663     607     606     584     585
       8     686     685     663     664     608     607     585     586
       8     687     686     664     665     609     608     586     587
       8     688     687     665     666     610     609     587     588
       8     689     688     666     645     611     610     588     567
       8     690     689     645     644     612     611     567     566
       8     691     690     644     646     613     612     566     568
       8     692     691     646     667     614     613     568     589
       8     693     692     667     668     615     614     589     590
       8     694     693     668     669     616     615     590     591
       8     695     694     669     670     617     616     591     592
       8     696     695     670     671     618     617     592     593
       8     697     696     671     672     619     618     593     594
       8     698     697     672     673     620     619     594     595
       8     699     698     673     674     621     620     595     596
       8     700     699     674     675     622     621     596     597
       8     701     700     675     629     623     622     597     551
       8     677     701     629     628     599     623     551     550
       8     702     703     704     705     624     625     626     627
       8     704     706     707     705     626     628     629     627
       8     708     703     702     709     630     625     624     631
       8     702     710     711     709     624     632     633     631
       8     712     713     714     708     634     635     636     630
       8     715     716     713     712     637     638     635     634
       8     709     715     712     708     631     637     634     630
       8     717     718     710     719     639     640     632     641
       8     720     721     718     717     642     643     640     639
       8     722     723     721     720     644     645     643     642
       8     724     722     720     725     646     644     642     647
       8     726     711     710     718     648     633     632     640
       8     717     727     725     720     639     649     647     642
       8     702     705     719     710     624     627     641     632
       8     728     715     709     711     650     637     631     633
       8     729     728     711     726     651     650     633     648
       8     730     729     726     731     652     651     648     653
       8     721     731     726     718     643     653     648     640
       8     732     733     727     717     654     655     649     639
       8     734     732     717     719     656     654     639     641
       8     735     734     719     705     657     656     641     627
       8     736     706     704     737     658     628     626     659
       8     738     737     704     703     660     659     626     625
       8     714     738     703     708     636     660     625     630
       8     739     716     715     728     661     638     637     650
       8     740     739     728     729     662     661     650     651
       8     741     740     729     730     663     662     651     652
       8     742     741     730     743     664     663     652     665
       8     744     743     730     731     666     665     652     653
       8     723     744     731     721     645     666     653     643
       8     745     724     725     727     667     646     647     649
       8     746     745     727     733     668     667     649     655
       8     747     746     733     748     669     668     655     670
       8     749     748     733     732     671     670     655     654
       8     750     749     732     734     672     671     654     656
       8     751     750     734     735     673     672     656     657
       8     752     751     735     753     674     673     657     675
       8     707     753     735     705     629     675     657     627
       8     754     755     706     736     676     677     628     658
       8     756     754     736     737     678     676     658     659
       8     757     756     737     738     679     678     659     660
       8     758     757     738     714     680     679     660     636
       8     759     758     714     713     681     680     636     635
       8     760     759     713     716     682     681     635     638
       8     761     760     716     739     683     682     638     661
       8     762     761     739     740     684     683     661     662
       8     763     762     740     741     685     684     662     663
       8     764     763     741     742     686     685     663     664
       8     765     764     742     743     687     686     664     665
       8     766     765     743     744     688     687     665     666
       8     767     766     744     723     689     688     666     645
       8     768     767     723     722     690     689     645     644
       8     769     768     722     724     691     690     644     646
       8     770     769     724     745     692     691     646     667
       8     771     770     745     746     693     692     667     668
       8     772     771     746     747     694     693     668     669
       8     773     772     747     748     695     694     669     670
       8     774     773     748     749     696     695     670     671
       8     775     774     749     750     697     696     671     672
       8     776     775     750     751     698     697     672     673
       8     777     776     751     752     699     698     673     674
       8     778     777     752     753     700     699     674     675
       8     779     778     753     707     701     700     675     629
       8     755     779     707     706     677     701     629     628
       8     780     781     782     783     702     703     704     705
       8     782     784     785     783     704     706     707     705
       8     786     781     780     787     708     703     702     709
       8     780     788     789     787     702     710     711     709
       8     790     791     792     786     712     713     714     708
       8     793     794     791     790     715     716     713     712
       8     787     793     790     786     709     715     712     708
       8     795     796     788     797     717     718     710     719
       8     798     799     796     795     720     721     718     717
       8     800     801     799     798     722     723     721     720
       8     802     800     798     803     724     722     720     725
       8     804     789     788     796     726     711     710     718
       8     795     805     803     798     717     727     725     720
       8     780     783     797     788     702     705     719     710
       8     806     793     787     789     728     715     709     711
       8     807     806     789     804     729     728     711     726
       8     808     807     804     809     730     729     726     731
       8     799     809     804     796     721     731     726     718
       8     810     811     805     795     732     733     727     717
       8     812     810     795     797     734     732     717     719
       8     813     812     797     783     735     734     719     705
       8     814     784     782     815     736     706     704     737
       8     816     815     782     781     738     737     704     703
       8     792     816     781     786     714     738     703     708
       8     817     794     793     806     739     716     715     728
       8     818     817     806     807     740     739     728     729
       8     819     818     807     808     741     740     729     730
       8     820     819     808     821     742     741     730     743
       8     822     821     808     809     744     743     730     731
       8     801     822     809     799     723     744     731     721
       8     823     802     803     805     745     724     725     727
       8     824     823     805     811     746     745     727     733
       8     825     824     811     826     747     746     733     748
       8     827     826     811     810     749     748     733     732
       8     828     827     810     812     750     749     732     734
       8     829     828     812     813     751     750     734     735
       8     830     829     813     831     752     751     735     753
       8     785     831     813     783     707     753     735     705
       8     832     833     784     814     754     755     706     736
       8     834     832     814     815     756     754     736     737
       8     835     834     815     816     757     756     737     738
       8     836     835     816     792     758     757     738     714
       8     837     836     792     791     759     758     714     713
       8     838     837     791     794     760     759     713     716
       8     839     838     794     817     761     760     716     739
       8     840     839     817     818     762     761     739     740
       8     841     840     818     819     763     762     740     741
       8     842     841     819     820     764     763     741     742
       8     843     842     820     821     765     764     742     743
       8     844     843     821     822     766     765     743     744
       8     845     844     822     801     767     766     744     723
       8     846     845     801     800     768     767     723     722
       8     847     846     800     802     769     768     722     724
       8     848     847     802     823     770     769     724     745
       8     849     848     823     824     771     770     745     746
       8     850     849     824     825     772     771     746     747
       8     851     850     825     826     773     772     747     748
       8     852     851     826     827     774     773     748     749
       8     853     852     827     828     775     774     749     750
       8     854     853     828     829     776     775     750     751
       8     855     854     829     830     777     776     751     752
       8     856     855     830     831     778     777     752     753
       8     857     856     831     785     779     778     753     707
       8     833     857     785     784     755     779     707     706
       8     858     859     860     861     780     781     782     783
       8     860     862     863     861     782     784     785     783
       8     864     859     858     865     786     781     780     787
       8     858     866     867     865     780     788     789     787
       8     868     869     870     864     790     791     792     786
       8     871     872     869     868     793     794     791     790
       8     865     871     868     864     787     793     790     786
       8     873     874     866     875     795     796     788     797
       8     876     877     874     873     798     799     796     795
       8     878     879     877     876     800     801     799     798
       8     880     878     876     881     802     800     798     803
       8     882     867     866     874     804     789     788     796
       8     873     883     881     876     795     805     803     798
       8     858     861     875     866     780     783     797     788
       8     884     871     865     867     806     793     787     789
       8     885     884     867     882     807     806     789     804
       8     886     885     882     887     808     807     804     809
       8     877     887     882     874     799     809     804     796
       8     888     889     883     873     810     811     805     795
       8     890     888     873     875     812     810     795     797
       8     891     890     875     861     813     812     797     783
       8     892     862     860     893     814     784     782     815
       8     894     893     860     859     816     815     782     781
       8     870     894     859     864     792     816     781     786
       8     895     872     871     884     817     794     793     806
       8     896     895     884     885     818     817     806     807
       8     897     896     885     886     819     818     807     808
       8     898     897     886     899     820     819     808     821
       8     900     899     886     887     822     821     808     809
       8     879     900     887     877     801     822     809     799
       8     901     880     881     883     823     802     803     805
       8     902     901     883     889     824     823     805     811
       8     903     902     889     904     825     824     811     826
       8     905     904     889     888     827     826     811     810
       8     906     905     888     890     828     827     810     812
       8     907     906     890     891     829     828     812     813
       8     908     907     891     909     830     829     813     831
       8     863     909     891     861     785     831     813     783
       8     910     911     862     892     832     833     784     814
       8     912     910     892     893     834     832     814     815
       8     913     912     893     894     835     834     815     816
       8     914     913     894     870     836     835     816     792
       8     915     914     870     869     837     836     792     791
       8     916     915     869     872     838     837     791     794
       8     917     916     872     895     839     838     794     817
       8     918     917     895     896     840     839     817     818
       8     919     918     896     897     841     840     818     819
       8     920     919     897     898     842     841     819     820
       8     921     920     898     899     843     842     820     821
       8     922     921     899     900     844     843     821     822
       8     923     922     900     879     845     844     822     801
       8     924     923     879     878     846     845     801     800
       8     925     924     878     880     847     846     800     802
       8     926     925     880     901     848     847     802     823
       8     927     926     901     902     849     848     823     824
       8     928     927     902     903     850     849     824     825
       8     929     928     903     904     851     850     825     826
       8     930     929     904     905     852     851     826     827
       8     931     930     905     906     853     852     827     828
       8     932     931     906     907     854     853     828     829
       8     933     932     907     908     855     854     829     830
       8     934     933     908     909     856     855     830     831
       8     935     934     909     863     857     856     831     785
       8     911     935     863     862     833     857     785     784
       8     936     937     938     939     858     859     860     861
       8     938     940     941     939     860     862     863     861
       8     942     937     936     943     864     859     858     865
       8     936     944     945     943     858     866     867     865
       8     946     947     948     942     868     869     870     864
       8     949     950     947     946     871     872     869     868
       8     943     949     946     942     865     871     868     864
       8     951     952     944     953     873     874     866     875
       8     954     955     952     951     876     877     874     873
       8     956     957     955     954     878     879     877     876
       8     958     956     954     959     880     878     876     881
       8     960     945     944     952     882     867     866     874
       8     951     961     959     954     873     883     881     876
       8     936     939     953     944     858     861     875     866
       8     962     949     943     945     884     871     865     867
       8     963     962     945     960     885     884     867     882
       8     964     963     960     965     886     885     882     887
       8     955     965     960     952     877     887     882     874
       8     966     967     961     951     888     889     883     873
       8     968     966     951     953     890     888     873     875
       8     969     968     953     939     891     890     875     861
       8     970     940     938     971     892     862     860     893
       8     972     971     938     937     894     893     860     859
       8     948     972     937     942     870     894     859     864
       8     973     950     949     962     895     872     871     884
       8     974     973     962     963     896     895     884     885
       8     975     974     963     964     897     896     885     886
       8     976     975     964     977     898     897     886     899
       8     978     977     964     965     900     899     886     887
       8     957     978     965     955     879     900     887     877
       8     979     958     959     961     901     880     881     883
       8     980     979     961     967     902     901     883     889
       8     981     980     967     982     903     902     889     904
       8     983     982     967     966     905     904     889     888
       8     984     983     966     968     906     905     888     890
       8     985     984     968     969     907     906     890     891
       8     986     985     969     987     908     907     891     909
       8     941     987     969     939     863     909     891     861
       8     988     989     940     970     910     911     862     892
       8     990     988     970     971     912     910     892     893
       8     991     990     971     972     913     912     893     894
       8     992     991     972     948     914     913     894     870
       8     993     992     948     947     915     914     870     869
       8     994     993     947     950     916     915     869     872
       8     995     994     950     973     917     916     872     895
       8     996     995     973     974     918     917     895     896
       8     997     996     974     975     919     918     896     897
       8     998     997     975     976     920     919     897     898
       8     999     998     976     977     921     920     898     899
       8    1000     999     977     978     922     921     899     900
       8    1001    1000     978     957     923     922     900     879
       8    1002    1001     957     956     924     923     879     878
       8    1003    1002     956     958     925     924     878     880
       8    1004    1003     958     979     926     925     880     901
       8    1005    1004     979     980     927     926     901     902
       8    1006    1005     980     981     928     927     902     903
       8    1007    1006     981     982     929     928     903     904
       8    1008    1007     982     983     930     929     904     905
       8    1009    1008     983     984     931     930     905     906
       8    1010    1009     984     985     932     931     906     907
       8    1011    1010     985     986     933     932     907     908
       8    1012    1011     986     987     934     933     908     909
       8    1013    1012     987     941     935     934     909     863
       8     989    1013     941     940     911     935     863     862
       8    1014    1015    1016    1017     936     937     938     939
       8    1016    1018    1019    1017     938     940     941     939
       8    1020    1015    1014    1021     942     937     936     943
       8    1014    1022    1023    1021     936     944     945     943
       8    1024    1025    1026    1020     946     947     948     942
       8    1027    1028    1025    1024     949     950     947     946
       8    1021    1027    1024    1020     943     949     946     942
       8    1029    1030    1022    1031     951     952     944     953
       8    1032    1033    1030    1029     954     955     952     951
       8    1034    1035    1033    1032     956     957     955     954
       8    1036    1034    1032    1037     958     956     954     959
       8    1038    1023    1022    1030     960     945     944     952
       8    1029    1039    1037    1032     951     961     959     954
       8    1014    1017    1031    1022     936     939     953     944
       8    1040    1027    1021    1023     962     949     943     945
       8    1041    1040    1023    1038     963     962     945     960
       8    1042    1041    1038    1043     964     963     960     965
       8    1033    1043    1038    1030     955     965     960     952
       8    1044    1045    1039    1029     966     967     961     951
       8    1046    1044    1029    1031     968     966     951     953
       8    1047    1046    1031    1017     969     968     953     939
       8    1048    1018    1016    1049     970     940     938     971
       8    1050    1049    1016    1015     972     971     938     937
       8    1026    1050    1015    1020     948     972     937     942
       8    1051    1028    1027    1040     973     950     949     962
       8    1052    1051    1040    1041     974     973     962     963
       8    1053    1052    1041    1042     975     974     963     964
       8    1054    1053    1042    1055     976     975     964     977
       8    1056    1055    1042    1043     978     977     964     965
       8    1035    1056    1043    1033     957     978     965     955
       8    1057    1036    1037    1039     979     958     959     961
       8    1058    1057    1039    1045     980     979     961     967
       8    1059    1058    1045    1060     981     980     967     982
       8    1061    1060    1045    1044     983     982     967     966
       8    1062    1061    1044    1046     984     983     966     968
       8    1063    1062    1046    1047     985     984     968     969
       8    1064    1063    1047    1065     986     985     969     987
       8    1019    1065    1047    1017     941     987     969     939
       8    1066    1067    1018    1048     988     989     940     970
       8    1068    1066    1048    1049     990     988     970     971
       8    1069    1068    1049    1050     991     990     971     972
       8    1070    1069    1050    1026     992     991     972     948
       8    1071    1070    1026    1025     993     992     948     947
       8    1072    1071    1025    1028     994     993     947     950
       8    1073    1072    1028    1051     995     994     950     973
       8    1074    1073    1051    1052     996     995     973     974
       8    1075    1074    1052    1053     997     996     974     975
       8    1076    1075    1053    1054     998     997     975     976
       8    1077    1076    1054    1055     999     998     976     977
       8    1078    1077    1055    1056    1000     999     977     978
       8    1079    1078    1056    1035    1001    1000     978     957
       8    1080    1079    1035    1034    1002    1001     957     956
       8    1081    1080    1034    1036    1003    1002     956     958
       8    1082    1081    1036    1057    1004    1003     958     979
       8    1083    1082    1057    1058    1005    1004     979     980
       8    1084    1083    1058    1059    1006    1005     980     981
       8    1085    1084    1059    1060    1007    1006     981     982
       8    1086    1085    1060    1061    1008    1007     982     983
       8    1087    1086    1061    1062    1009    1008     983     984
       8    1088    1087    1062    1063    1010    1009     984     985
       8    1089    1088    1063    1064    1011    1010     985     986
       8    1090    1089    1064    1065    1012    1011     986     987
       8    1091    1090    1065    1019    1013    1012     987     941
       8    1067    1091    1019    1018     989    1013     941     940
       8    1092    1093    1094    1095    1014    1015    1016    1017
       8    1094    1096    1097    1095    1016    1018    1019    1017
       8    1098    1093    1092    1099    1020    1015    1014    1021
       8    1092    1100    1101    1099    1014    1022    1023    1021
       8    1102    1103    1104    1098    1024    1025    1026    1020
       8    1105    1106    1103    1102    1027    1028    1025    1024
       8    1099    1105    1102    1098    1021    1027    1024    1020
       8    1107    1108    1100    1109    1029    1030    1022    1031
       8    1110    1111    1108    1107    1032    1033    1030    1029
       8    1112    1113    1111    1110    1034    1035    1033    1032
       8    1114    1112    1110    1115    1036    1034    1032    1037
       8    1116    1101    1100    1108    1038    1023    1022    1030
       8    1107    1117    1115    1110    1029    1039    1037    1032
       8    1092    1095    1109    1100    1014    1017    1031    1022
       8    1118    1105    1099    1101    1040    1027    1021    1023
       8    1119    1118    1101    1116    1041    1040    1023    1038
       8    1120    1119    1116    1121    1042    1041    1038    1043
       8    1111    1121    1116    1108    1033    1043    1038    1030
       8    1122    1123    1117    1107    1044    1045    1039    1029
       8    1124    1122    1107    1109    1046    1044    1029    1031
       8    1125    1124    1109    1095    1047    1046    1031    1017
       8    1126    1096    1094    1127    1048    1018    1016    1049
       8    1128    1127    1094    1093    1050    1049    1016    1015
       8    1104    1128    1093    1098    1026    1050    1015    1020
       8    1129    1106    1105    1118    1051    1028    1027    1040
       8    1130    1129    1118    1119    1052    1051    1040    1041
       8    1131    1130    1119    1120    1053    1052    1041    1042
       8    1132    1131    1120    1133    1054    1053    1042    1055
       8    1134    1133    1120    1121    1056    1055    1042    1043
       8    1113    1134    1121    1111    1035    1056    1043    1033
       8    1135    1114    1115    1117    1057    1036    1037    1039
       8    1136    1135    1117    1123    1058    1057    1039    1045
       8    1137    1136    1123    1138    1059    1058    1045    1060
       8    1139    1138    1123    1122    1061    1060    1045    1044
       8    1140    1139    1122    1124    1062    1061    1044    1046
       8    1141    1140    1124    1125    1063    1062    1046    1047
       8    1142    1141    1125    1143    1064    1063    1047    1065
       8    1097    1143    1125    1095    1019    1065    1047    1017
       8    1144    1145    1096    1126    1066    1067    1018    1048
       8    1146    1144    1126    1127    1068    1066    1048    1049
       8    1147    1146    1127    1128    1069    1068    1049    1050
       8    1148    1147    1128    1104    1070    1069    1050    1026
       8    1149    1148    1104    1103    1071    1070    1026    1025
       8    1150    1149    1103    1106    1072    1071    1025    1028
       8    1151    1150    1106    1129    1073    1072    1028    1051
       8    1152    1151    1129    1130    1074    1073    1051    1052
       8    1153    1152    1130    1131    1075    1074    1052    1053
       8    1154    1153    1131    1132    1076    1075    1053    1054
       8    1155    1154    1132    1133    1077    1076    1054    1055
       8    1156    1155    1133    1134    1078    1077    1055    1056
       8    1157    1156    1134    1113    1079    1078    1056    1035
       8    1158    1157    1113    1112    1080    1079    1035    1034
       8    1159    1158    1112    1114    1081    1080    1034    1036
       8    1160    1159    1114    1135    1082    1081    1036    1057
       8    1161    1160    1135    1136    1083    1082    1057    1058
       8    1162    1161    1136    1137    1084    1083    1058    1059
       8    1163    1162    1137    1138    1085    1084    1059    1060
       8    1164    1163    1138    1139    1086    1085    1060    1061
       8    1165    1164    1139    1140    1087    1086    1061    1062
       8    1166    1165    1140    1141    1088    1087    1062    1063
       8    1167    1166    1141    1142    1089    1088    1063    1064
       8    1168    1167    1142    1143    1090    1089    1064    1065
       8    1169    1168    1143    1097    1091    1090    1065    1019
       8    1145    1169    1097    1096    1067    1091    1019    1018
       8    1170    1171    1172    1173    1092    1093    1094    1095
       8    1172    1174    1175    1173    1094    1096    1097    1095
       8    1176    1171    1170    1177    1098    1093    1092    1099
       8    1170    1178    1179    1177    1092    1100    1101    1099
       8    1180    1181    1182    1176    1102    1103    1104    1098
       8    1183    1184    1181    1180    1105    1106    1103    1102
       8    1177    1183    1180    1176    1099    1105    1102    1098
       8    1185    1186    1178    1187    1107    1108    1100    1109
       8    1188    1189    1186    1185    1110    1111    1108    1107
       8    1190    1191    1189    1188    1112    1113    1111    1110
       8    1192    1190    1188    1193    1114    1112    1110    1115
       8    1194    1179    1178    1186    1116    1101    1100    1108
       8    1185    1195    1193    1188    1107    1117    1115    1110
       8    1170    1173    1187    1178    1092    1095    1109    1100
       8    1196    1183    1177    1179    1118    1105    1099    1101
       8    1197    1196    1179    1194    1119    1118    1101    1116
       8    1198    1197    1194    1199    1120    1119    1116    1121
       8    1189    1199    1194    1186    1111    1121    1116    1108
       8    1200    1201    1195    1185    1122    1123    1117    1107
       8    1202    1200    1185    1187    1124    1122    1107    1109
       8    1203    1202    1187    1173    1125    1124    1109    1095
       8    1204    1174    1172    1205    1126    1096    1094    1127
       8    1206    1205    1172    1171    1128    1127    1094    1093
       8    1182    1206    1171    1176    1104    1128    1093    1098
       8    1207    1184    1183    1196    1129    1106    1105    1118
       8    1208    1207    1196    1197    1130    1129    1118    1119
       8    1209    1208    1197    1198    1131    1130    1119    1120
       8    1210    1209    1198    1211    1132    1131    1120    1133
       8    1212    1211    1198    1199    1134    1133    1120    1121
       8    1191    1212    1199    1189    1113    1134    1121    1111
       8    1213    1192    1193    1195    1135    1114    1115    1117
       8    1214    1213    1195    1201    1136    1135    1117    1123
       8    1215    1214    1201    1216    1137    1136    1123    1138
       8    1217    1216    1201    1200    1139    1138    1123    1122
       8    1218    1217    1200    1202    1140    1139    1122    1124
       8    1219    1218    1202    1203    1141    1140    1124    1125
       8    1220    1219    1203    1221    1142    1141    1125    1143
       8    1175    1221    1203    1173    1097    1143    1125    1095
       8    1222    1223    1174    1204    1144    1145    1096    1126
       8    1224    1222    1204    1205    1146    1144    1126    1127
       8    1225    1224    1205    1206    1147    1146    1127    1128
       8    1226    1225    1206    1182    1148    1147    1128    1104
       8    1227    1226    1182    1181    1149    1148    1104    1103
       8    1228    1227    1181    1184    1150    1149    1103    1106
       8    1229    1228    1184    1207    1151    1150    1106    1129
       8    1230    1229    1207    1208    1152    1151    1129    1130
       8    1231    1230    1208    1209    1153    1152    1130    1131
       8    1232    1231    1209    1210    1154    1153    1131    1132
       8    1233    1232    1210    1211    1155    1154    1132    1133
       8    1234    1233    1211    1212    1156    1155    1133    1134
       8    1235    1234    1212    1191    1157    1156    1134    1113
       8    1236    1235    1191    1190    1158    1157    1113    1112
       8    1237    1236    1190    1192    1159    1158    1112    1114
       8    1238    1237    1192    1213    1160    1159    1114    1135
       8    1239    1238    1213    1214    1161    1160    1135    1136
       8    1240    1239    1214    1215    1162    1161    1136    1137
       8    1241    1240    1215    1216    1163    1162    1137    1138
       8    1242    1241    1216    1217    1164    1163    1138    1139
       8    1243    1242    1217    1218    1165    1164    1139    1140
       8    1244    1243    1218    1219    1166    1165    1140    1141
       8    1245    1244    1219    1220    1167    1166    1141    1142
       8    1246    1245    1220    1221    1168    1167    1142    1143
       8    1247    1246    1221    1175    1169    1168    1143    1097
       8    1223    1247    1175    1174    1145    1169    1097    1096
       8    1248    1249    1250    1251    1170    1171    1172    1173
       8    1250    1252    1253    1251    1172    1174    1175    1173
       8    1254    1249    1248    1255    1176    1171    1170    1177
       8    1248    1256    1257    1255    1170    1178    1179    1177
       8    1258    1259    1260    1254    1180    1181    1182    1176
       8    1261    1262    1259    1258    1183    1184    1181    1180
       8    1255    1261    1258    1254    1177    1183    1180    1176
       8    1263    1264    1256    1265    1185    1186    1178    1187
       8    1266    1267    1264    1263    1188    1189    1186    1185
       8    1268    1269    1267    1266    1190    1191    1189    1188
       8    1270    1268    1266    1271    1192    1190    1188    1193
       8    1272    1257    1256    1264    1194    1179    1178    1186
       8    1263    1273    1271    1266    1185    1195    1193    1188
       8    1248    1251    1265    1256    1170    1173    1187    1178
       8    1274    1261    1255    1257    1196    1183    1177    1179
       8    1275    1274    1257    1272    1197    1196    1179    1194
       8    1276    1275    1272    1277    1198    1197    1194    1199
       8    1267    1277    1272    1264    1189    1199    1194    1186
       8    1278    1279    1273    1263    1200    1201    1195    1185
       8    1280    1278    1263    1265    1202    1200    1185    1187
       8    1281    1280    1265    1251    1203    1202    1187    1173
       8    1282    1252    1250    1283    1204    1174    1172    1205
       8    1284    1283    1250    1249    1206    1205    1172    1171
       8    1260    1284    1249    1254    1182    1206    1171    1176
       8    1285    1262    1261    1274    1207    1184    1183    1196
       8    1286    1285    1274    1275    1208    1207    1196    1197
       8    1287    1286    1275    1276    1209    1208    1197    1198
       8    1288    1287    1276    1289    1210    1209    1198    1211
       8    1290    1289    1276    1277    1212    1211    1198    1199
       8    1269    1290    1277    1267    1191    1212    1199    1189
       8    1291    1270    1271    1273    1213    1192    1193    1195
       8    1292    1291    1273    1279    1214    1213    1195    1201
       8    1293    1292    1279    1294    1215    1214    1201    1216
       8    1295    1294    1279    1278    1217    1216    1201    1200
       8    1296    1295    1278    1280    1218    1217    1200    1202
       8    1297    1296    1280    1281    1219    1218    1202    1203
       8    1298    1297    1281    1299    1220    1219    1203    1221
       8    1253    1299    1281    1251    1175    1221    1203    1173
       8    1300    1301    1252    1282    1222    1223    1174    1204
       8    1302    1300    1282    1283    1224    1222    1204    1205
       8    1303    1302    1283    1284    1225    1224    1205    1206
       8    1304    1303    1284    1260    1226    1225    1206    1182
       8    1305    1304    1260    1259    1227    1226    1182    1181
       8    1306    1305    1259    1262    1228    1227    1181    1184
       8    1307    1306    1262    1285    1229    1228    1184    1207
       8    1308    1307    1285    1286    1230    1229    1207    1208
       8    1309    1308    1286    1287    1231    1230    1208    1209
       8    1310    1309    1287    1288    1232    1231    1209    1210
       8    1311    1310    1288    1289    1233    1232    1210    1211
       8    1312    1311    1289    1290    1234    1233    1211    1212
       8    1313    1312    1290    1269    1235    1234    1212    1191
       8    1314    1313    1269    1268    1236    1235    1191    1190
       8    1315    1314    1268    1270    1237    1236    1190    1192
       8    1316    1315    1270    1291    1238    1237    1192    1213
       8    1317    1316    1291    1292    1239    1238    1213    1214
       8    1318    1317    1292    1293    1240    1239    1214    1215
       8    1319    1318    1293    1294    1241    1240    1215    1216
       8    1320    1319    1294    1295    1242    1241    1216    1217
       8    1321    1320    1295    1296    1243    1242    1217    1218
       8    1322    1321    1296    1297    1244    1243    1218    1219
       8    1323    1322    1297    1298    1245    1244    1219    1220
       8    1324    1323    1298    1299    1246    1245    1220    1221
       8    1325    1324    1299    1253    1247    1246    1221    1175
       8    1301    1325    1253    1252    1223    1247    1175    1174
       8    1326    1327    1328    1329    1248    1249    1250    1251
       8    1328    1330    1331    1329    1250    1252    1253    1251
       8    1332    1327    1326    1333    1254    1249    1248    1255
       8    1326    1334    1335    1333    1248    1256    1257    1255
       8    1336    1337    1338    1332    1258    1259    1260    1254
       8    1339    1340    1337    1336    1261    1262    1259    1258
       8    1333    1339    1336    1332    1255    1261    1258    1254
       8    1341    1342    1334    1343    1263    1264    1256    1265
       8    1344    1345    1342    1341    1266    1267    1264    1263
       8    1346    1347    1345    1344    1268    1269    1267    1266
       8    1348    1346    1344    1349    1270    1268    1266    1271
       8    1350    1335    1334    1342    1272    1257    1256    1264
       8    1341    1351    1349    1344    1263    1273    1271    1266
       8    1326    1329    1343    1334    1248    1251    1265    1256
       8    1352    1339    1333    1335    1274    1261    1255    1257
       8    1353    1352    1335    1350    1275    1274    1257    1272
       8    1354    1353    1350    1355    1276    1275    1272    1277
       8    1345    1355    1350    1342    1267    1277    1272    1264
       8    1356    1357    1351    1341    1278    1279    1273    1263
       8    1358    1356    1341    1343    1280    1278    1263    1265
       8    1359    1358    1343    1329    1281    1280    1265    1251
       8    1360    1330    1328    1361    1282    1252    1250    1283
       8    1362    1361    1328    1327    1284    1283    1250    1249
       8    1338    1362    1327    1332    1260    1284    1249    1254
       8    1363    1340    1339    1352    1285    1262    1261    1274
       8    1364    1363    1352    1353    1286    1285    1274    1275
       8    1365    1364    1353    1354    1287    1286    1275    1276
       8    1366    1365    1354    1367    1288    1287    1276    1289
       8    1368    1367    1354    1355    1290    1289    1276    1277
       8    1347    1368    1355    1345    1269    1290    1277    1267
       8    1369    1348    1349    1351    1291    1270    1271    1273
       8    1370    1369    1351    1357    1292    1291    1273    1279
       8    1371    1370    1357    1372    1293    1292    1279    1294
       8    1373    1372    1357    1356    1295    1294    1279    1278
       8    1374    1373    1356    1358    1296    1295    1278    1280
       8    1375    1374    1358    1359    1297    1296    1280    1281
       8    1376    1375    1359    1377    1298    1297    1281    1299
       8    1331    1377    1359    1329    1253    1299    1281    1251
       8    1378    1379    1330    1360    1300    1301    1252    1282
       8    1380    1378    1360    1361    1302    1300    1282    1283
       8    1381    1380    1361    1362    1303    1302    1283    1284
       8    1382    1381    1362    1338    1304    1303    1284    1260
       8    1383    1382    1338    1337    1305    1304    1260    1259
       8    1384    1383    1337    1340    1306    1305    1259    1262
       8    1385    1384    1340    1363    1307    1306    1262    1285
       8    1386    1385    1363    1364    1308    1307    1285    1286
       8    1387    1386    1364    1365    1309    1308    1286    1287
       8    1388    1387    1365    1366    1310    1309    1287    1288
       8    1389    1388    1366    1367    1311    1310    1288    1289
       8    1390    1389    1367    1368    1312    1311    1289    1290
       8    1391    1390    1368    1347    1313    1312    1290    1269
       8    1392    1391    1347    1346    1314    1313    1269    1268
       8    1393    1392    1346    1348    1315    1314    1268    1270
       8    1394    1393    1348    1369    1316    1315    1270    1291
       8    1395    1394    1369    1370    1317    1316    1291    1292
       8    1396    1395    1370    1371    1318    1317    1292    1293
       8    1397    1396    1371    1372    1319    1318    1293    1294
       8    1398    1397    1372    1373    1320    1319    1294    1295
       8    1399    1398    1373    1374    1321    1320    1295    1296
       8    1400    1399    1374    1375    1322    1321    1296    1297
       8    1401    1400    1375    1376    1323    1322    1297    1298
       8    1402    1401    1376    1377    1324    1323    1298    1299
       8    1403    1402    1377    1331    1325    1324    1299    1253
       8    1379    1403    1331    1330    1301    1325    1253    1252
       8    1404    1405    1406    1407    1326    1327    1328    1329
       8    1406    1408    1409    1407    1328    1330    1331    1329
       8    1410    1405    1404    1411    1332    1327    1326    1333
       8    1404    1412    1413    1411    1326    1334    1335    1333
       8    1414    1415    1416    1410    1336    1337    1338    1332
       8    1417    1418    1415    1414    1339    1340    1337    1336
       8    1411    1417    1414    1410    1333    1339    1336    1332
       8    1419    1420    1412    1421    1341    1342    1334    1343
       8    1422    1423    1420    1419    1344    1345    1342    1341
       8    1424    1425    1423    1422    1346    1347    1345    1344
       8    1426    1424    1422    1427    1348    1346    1344    1349
       8    1428    1413    1412    1420    1350    1335    1334    1342
       8    1419    1429    1427    1422    1341    1351    1349    1344
       8    1404    1407    1421    1412    1326    1329    1343    1334
       8    1430    1417    1411    1413    1352    1339    1333    1335
       8    1431    1430    1413    1428    1353    1352    1335    1350
       8    1432    1431    1428    1433    1354    1353    1350    1355
       8    1423    1433    1428    1420    1345    1355    1350    1342
       8    1434    1435    1429    1419    1356    1357    1351    1341
       8    1436    1434    1419    1421    1358    1356    1341    1343
       8    1437    1436    1421    1407    1359    1358    1343    1329
       8    1438    1408    1406    1439    1360    1330    1328    1361
       8    1440    1439    1406    1405    1362    1361    1328    1327
       8    1416    1440    1405    1410    1338    1362    1327    1332
       8    1441    1418    1417    1430    1363    1340    1339    1352
       8    1442    1441    1430    1431    1364    1363    1352    1353
       8    1443    1442    1431    1432    1365    1364    1353    1354
       8    1444    1443    1432    1445    1366    1365    1354    1367
       8    1446    1445    1432    1433    1368    1367    1354    1355
       8    1425    1446    1433    1423    1347    1368    1355    1345
       8    1447    1426    1427    1429    1369    1348    1349    1351
       8    1448    1447    1429    1435    1370    1369    1351    1357
       8    1449    1448    1435    1450    1371    1370    1357    1372
       8    1451    1450    1435    1434    1373    1372    1357    1356
       8    1452    1451    1434    1436    1374    1373    1356    1358
       8    1453    1452    1436    1437    1375    1374    1358    1359
       8    1454    1453    1437    1455    1376    1375    1359    1377
       8    1409    1455    1437    1407    1331    1377    1359    1329
       8    1456    1457    1408    1438    1378    1379    1330    1360
       8    1458    1456    1438    1439    1380    1378    1360    1361
       8    1459    1458    1439    1440    1381    1380    1361    1362
       8    1460    1459    1440    1416    1382    1381    1362    1338
       8    1461    1460    1416    1415    1383    1382    1338    1337
       8    1462    1461    1415    1418    1384    1383    1337    1340
       8    1463    1462    1418    1441    1385    1384    1340    1363
       8    1464    1463    1441    1442    1386    1385    1363    1364
       8    1465    1464    1442    1443    1387    1386    1364    1365
       8    1466    1465    1443    1444    1388    1387    1365    1366
       8    1467    1466    1444    1445    1389    1388    1366    1367
       8    1468    1467    1445    1446    1390    1389    1367    1368
       8    1469    1468    1446    1425    1391    1390    1368    1347
       8    1470    1469    1425    1424    1392    1391    1347    1346
       8    1471    1470    1424    1426    1393    1392    1346    1348
       8    1472    1471    1426    1447    1394    1393    1348    1369
       8    1473    1472    1447    1448    1395    1394    1369    1370
       8    1474    1473    1448    1449    1396    1395    1370    1371
       8    1475    1474    1449    1450    1397    1396    1371    1372
       8    1476    1475    1450    1451    1398    1397    1372    1373
       8    1477    1476    1451    1452    1399    1398    1373    1374
       8    1478    1477    1452    1453    1400    1399    1374    1375
       8    1479    1478    1453    1454    1401    1400    1375    1376
       8    1480    1479    1454    1455    1402    1401    1376    1377
       8    1481    1480    1455    1409    1403    1402    1377    1331
       8    1457    1481    1409    1408    1379    1403    1331    1330
       8    1482    1483    1484    1485    1404    1405    1406    1407
       8    1484    1486    1487    1485    1406    1408    1409    1407
       8    1488    1483    1482    1489    1410    1405    1404    1411
       8    1482    1490    1491    1489    1404    1412    1413    1411
       8    1492    1493    1494    1488    1414    1415    1416    1410
       8    1495    1496    1493    1492    1417    1418    1415    1414
       8    1489    1495    1492    1488    1411    1417    1414    1410
       8    1497    1498    1490    1499    1419    1420    1412    1421
       8    1500    1501    1498    1497    1422    1423    1420    1419
       8    1502    1503    1501    1500    1424    1425    1423    1422
       8    1504    1502    1500    1505    1426    1424    1422    1427
       8    1506    1491    1490    1498    1428    1413    1412    1420
       8    1497    1507    1505    1500    1419    1429    1427    1422
       8    1482    1485    1499    1490    1404    1407    1421    1412
       8    1508    1495    1489    1491    1430    1417    1411    1413
       8    1509    1508    1491    1506    1431    1430    1413    1428
       8    1510    1509    1506    1511    1432    1431    1428    1433
       8    1501    1511    1506    1498    1423    1433    1428    1420
       8    1512    1513    1507    1497    1434    1435    1429    1419
       8    1514    1512    1497    1499    1436    1434    1419    1421
       8    1515    1514    1499    1485    1437    1436    1421    1407
       8    1516    1486    1484    1517    1438    1408    1406    1439
       8    1518    1517    1484    1483    1440    1439    1406    1405
       8    1494    1518    1483    1488    1416    1440    1405    1410
       8    1519    1496    1495    1508    1441    1418    1417    1430
       8    1520    1519    1508    1509    1442    1441    1430    1431
       8    1521    1520    1509    1510    1443    1442    1431    1432
       8    1522    1521    1510    1523    1444    1443    1432    1445
       8    1524    1523    1510    1511    1446    1445    1432    1433
       8    1503    1524    1511    1501    1425    1446    1433    1423
       8    1525    1504    1505    1507    1447    1426    1427    1429
       8    1526    1525    1507    1513    1448    1447    1429    1435
       8    1527    1526    1513    1528    1449    1448    1435    1450
       8    1529    1528    1513    1512    1451    1450    1435    1434
       8    1530    1529    1512    1514    1452    1451    1434    1436
       8    1531    1530    1514    1515    1453    1452    1436    1437
       8    1532    1531    1515    1533    1454    1453    1437    1455
       8    1487    1533    1515    1485    1409    1455    1437    1407
       8    1534    1535    1486    1516    1456    1457    1408    1438
       8    1536    1534    1516    1517    1458    1456    1438    1439
       8    1537    1536    1517    1518    1459    1458    1439    1440
       8    1538    1537    1518    1494    1460    1459    1440    1416
       8    1539    1538    1494    1493    1461    1460    1416    1415
       8    1540    1539    1493    1496    1462    1461    1415    1418
       8    1541    1540    1496    1519    1463    1462    1418    1441
       8    1542    1541    1519    1520    1464    1463    1441    1442
       8    1543    1542    1520    1521    1465    1464    1442    1443
       8    1544    1543    1521    1522    1466    1465    1443    1444
       8    1545    1544    1522    1523    1467    1466    1444    1445
       8    1546    1545    1523    1524    1468    1467    1445    1446
       8    1547    1546    1524    1503    1469    1468    1446    1425
       8    1548    1547    1503    1502    1470    1469    1425    1424
       8    1549    1548    1502    1504    1471    1470    1424    1426
       8    1550    1549    1504    1525    1472    1471    1426    1447
       8    1551    1550    1525    1526    1473    1472    1447    1448
       8    1552    1551    1526    1527    1474    1473    1448    1449
       8    1553    1552    1527    1528    1475    1474    1449    1450
       8    1554    1553    1528    1529    1476    1475    1450    1451
       8    1555    1554    1529    1530    1477    1476    1451    1452
       8    1556    1555    1530    1531    1478    1477    1452    1453
       8    1557    1556    1531    1532    1479    1478    1453    1454
       8    1558    1557    1532    1533    1480    1479    1454    1455
       8    1559    1558    1533    1487    1481    1480    1455    1409
       8    1535    1559    1487    1486    1457    1481    1409    1408
       8    1560    1561    1562    1563    1482    1483    1484    1485
       8    1562    1564    1565    1563    1484    1486    1487    1485
       8    1566    1561    1560    1567    1488    1483    1482    1489
       8    1560    1568    1569    1567    1482    1490    1491    1489
       8    1570    1571    1572    1566    1492    1493    1494    1488
       8    1573    1574    1571    1570    1495    1496    1493    1492
       8    1567    1573    1570    1566    1489    1495    1492    1488
       8    1575    1576    1568    1577    1497    1498    1490    1499
       8    1578    1579    1576    1575    1500    1501    1498    1497
       8    1580    1581    1579    1578    1502    1503    1501    1500
       8    1582    1580    1578    1583    1504    1502    1500    1505
       8    1584    1569    1568    1576    1506    1491    1490    1498
       8    1575    1585    1583    1578    1497    1507    1505    1500
       8    1560    1563    1577    1568    1482    1485    1499    1490
       8    1586    1573    1567    1569    1508    1495    1489    1491
       8    1587    1586    1569    1584    1509    1508    1491    1506
       8    1588    1587    1584    1589    1510    1509    1506    1511
       8    1579    1589    1584    1576    1501    1511    1506    1498
       8    1590    1591    1585    1575    1512    1513    1507    1497
       8    1592    1590    1575    1577    1514    1512    1497    1499
       8    1593    1592    1577    1563    1515    1514    1499    1485
       8    1594    1564    1562    1595    1516    1486    1484    1517
       8    1596    1595    1562    1561    1518    1517    1484    1483
       8    1572    1596    1561    1566    1494    1518    1483    1488
       8    1597    1574    1573    1586    1519    1496    1495    1508
       8    1598    1597    1586    1587    1520    1519    1508    1509
       8    1599    1598    1587    1588    1521    1520    1509    1510
       8    1600    1599    1588    1601    1522    1521    1510    1523
       8    1602    1601    1588    1589    1524    1523    1510    1511
       8    1581    1602    1589    1579    1503    1524    1511    1501
       8    1603    1582    1583    1585    1525    1504    1505    1507
       8    1604    1603    1585    1591    1526    1525    1507    1513
       8    1605    1604    1591    1606    1527    1526    1513    1528
       8    1607    1606    1591    1590    1529    1528    1513    1512
       8    1608    1607    1590    1592    1530    1529    1512    1514
       8    1609    1608    1592    1593    1531    1530    1514    1515
       8    1610    1609    1593    1611    1532    1531    1515    1533
       8    1565    1611    1593    1563    1487    1533    1515    1485
       8    1612    1613    1564    1594    1534    1535    1486    1516
       8    1614    1612    1594    1595    1536    1534    1516    1517
       8    1615    1614    1595    1596    1537    1536    1517    1518
       8    1616    1615    1596    1572    1538    1537    1518    1494
       8    1617    1616    1572    1571    1539    1538    1494    1493
       8    1618    1617    1571    1574    1540    1539    1493    1496
       8    1619    1618    1574    1597    1541    1540    1496    1519
       8    1620    1619    1597    1598    1542    1541    1519    1520
       8    1621    1620    1598    1599    1543    1542    1520    1521
       8    1622    1621    1599    1600    1544    1543    1521    1522
       8    1623    1622    1600    1601    1545    1544    1522    1523
       8    1624    1623    1601    1602    1546    1545    1523    1524
       8    1625    1624    1602    1581    1547    1546    1524    1503
       8    1626    1625    1581    1580    1548    1547    1503    1502
       8    1627    1626    1580    1582    1549    1548    1502    1504
       8    1628    1627    1582    1603    1550    1549    1504    1525
       8    1629    1628    1603    1604    1551    1550    1525    1526
       8    1630    1629    1604    1605    1552    1551    1526    1527
       8    1631    1630    1605    1606    1553    1552    1527    1528
       8    1632    1631    1606    1607    1554    1553    1528    1529
       8    1633    1632    1607    1608    1555    1554    1529    1530
       8    1634    1633    1608    1609    1556    1555    1530    1531
       8    1635    1634    1609    1610    1557    1556    1531    1532
       8    1636    1635    1610    1611    1558    1557    1532    1533
       8    1637    1636    1611    1565    1559    1558    1533    1487
       8    1613    1637    1565    1564    1535    1559    1487    1486
       8    1638    1639    1640    1641    1560    1561    1562    1563
       8    1640    1642    1643    1641    1562    1564    1565    1563
       8    1644    1639    1638    1645    1566    1561    1560    1567
       8    1638    1646    1647    1645    1560    1568    1569    1567
       8    1648    1649    1650    1644    1570    1571    1572    1566
       8    1651    1652    1649    1648    1573    1574    1571    1570
       8    1645    1651    1648    1644    1567    1573    1570    1566
       8    1653    1654    1646    1655    1575    1576    1568    1577
       8    1656    1657    1654    1653    1578    1579    1576    1575
       8    1658    1659    1657    1656    1580    1581    1579    1578
       8    1660    1658    1656    1661    1582    1580    1578    1583
       8    1662    1647    1646    1654    1584    1569    1568    1576
       8    1653    1663    1661    1656    1575    1585    1583    1578
       8    1638    1641    1655    1646    1560    1563    1577    1568
       8    1664    1651    1645    1647    1586    1573    1567    1569
       8    1665    1664    1647    1662    1587    1586    1569    1584
       8    1666    1665    1662    1667    1588    1587    1584    1589
       8    1657    1667    1662    1654    1579    1589    1584    1576
       8    1668    1669    1663    1653    1590    1591    1585    1575
       8    1670    1668    1653    1655    1592    1590    1575    1577
       8    1671    1670    1655    1641    1593    1592    1577    1563
       8    1672    1642    1640    1673    1594    1564    1562    1595
       8    1674    1673    1640    1639    1596    1595    1562    1561
       8    1650    1674    1639    1644    1572    1596    1561    1566
       8    1675    1652    1651    1664    1597    1574    1573    1586
       8    1676    1675    1664    1665    1598    1597    1586    1587
       8    1677    1676    1665    1666    1599    1598    1587    1588
       8    1678    1677    1666    1679    1600    1599    1588    1601
       8    1680    1679    1666    1667    1602    1601    1588    1589
       8    1659    1680    1667    1657    1581    1602    1589    1579
       8    1681    1660    1661    1663    1603    1582    1583    1585
       8    1682    1681    1663    1669    1604    1603    1585    1591
       8    1683    1682    1669    1684    1605    1604    1591    1606
       8    1685    1684    1669    1668    1607    1606    1591    1590
       8    1686    1685    1668    1670    1608    1607    1590    1592
       8    1687    1686    1670    1671    1609    1608    1592    1593
       8    1688    1687    1671    1689    1610    1609    1593    1611
       8    1643    1689    1671    1641    1565    1611    1593    1563
       8    1690    1691    1642    1672    1612    1613    1564    1594
       8    1692    1690    1672    1673    1614    1612    1594    1595
       8    1693    1692    1673    1674    1615    1614    1595    1596
       8    1694    1693    1674    1650    1616    1615    1596    1572
       8    1695    1694    1650    1649    1617    1616    1572    1571
       8    1696    1695    1649    1652    1618    1617    1571    1574
       8    1697    1696    1652    1675    1619    1618    1574    1597
       8    1698    1697    1675    1676    1620    1619    1597    1598
       8    1699    1698    1676    1677    1621    1620    1598    1599
       8    1700    1699    1677    1678    1622    1621    1599    1600
       8    1701    1700    1678    1679    1623    1622    1600    1601
       8    1702    1701    1679    1680    1624    1623    1601    1602
       8    1703    1702    1680    1659    1625    1624    1602    1581
       8    1704    1703    1659    1658    1626    1625    1581    1580
       8    1705    1704    1658    1660    1627    1626    1580    1582
       8    1706    1705    1660    1681    1628    1627    1582    1603
       8    1707    1706    1681    1682    1629    1628    1603    1604
       8    1708    1707    1682    1683    1630    1629    1604    1605
       8    1709    1708    1683    1684    1631    1630    1605    1606
       8    1710    1709    1684    1685    1632    1631    1606    1607
       8    1711    1710    1685    1686    1633    1632    1607    1608
       8    1712    1711    1686    1687    1634    1633    1608    1609
       8    1713    1712    1687    1688    1635    1634    1609    1610
       8    1714    1713    1688    1689    1636    1635    1610    1611
       8    1715    1714    1689    1643    1637    1636    1611    1565
       8    1691    1715    1643    1642    1613    1637    1565    1564
       8    1716    1717    1718    1719    1638    1639    1640    1641
       8    1718    1720    1721    1719    1640    1642    1643    1641
       8    1722    1717    1716    1723    1644    1639    1638    1645
       8    1716    1724    1725    1723    1638    1646    1647    1645
       8    1726    1727    1728    1722    1648    1649    1650    1644
       8    1729    1730    1727    1726    1651    1652    1649    1648
       8    1723    1729    1726    1722    1645    1651    1648    1644
       8    1731    1732    1724    1733    1653    1654    1646    1655
       8    1734    1735    1732    1731    1656    1657    1654    1653
       8    1736    1737    1735    1734    1658    1659    1657    1656
       8    1738    1736    1734    1739    1660    1658    1656    1661
       8    1740    1725    1724    1732    1662    1647    1646    1654
       8    1731    1741    1739    1734    1653    1663    1661    1656
       8    1716    1719    1733    1724    1638    1641    1655    1646
       8    1742    1729    1723    1725    1664    1651    1645    1647
       8    1743    1742    1725    1740    1665    1664    1647    1662
       8    1744    1743    1740    1745    1666    1665    1662    1667
       8    1735    1745    1740    1732    1657    1667    1662    1654
       8    1746    1747    1741    1731    1668    1669    1663    1653
       8    1748    1746    1731    1733    1670    1668    1653    1655
       8    1749    1748    1733    1719    1671    1670    1655    1641
       8    1750    1720    1718    1751    1672    1642    1640    1673
       8    1752    1751    1718    1717    1674    1673    1640    1639
       8    1728    1752    1717    1722    1650    1674    1639    1644
       8    1753    1730    1729    1742    1675    1652    1651    1664
       8    1754    1753    1742    1743    1676    1675    1664    1665
       8    1755    1754    1743    1744    1677    1676    1665    1666
       8    1756    1755    1744    1757    1678    1677    1666    1679
       8    1758    1757    1744    1745    1680    1679    1666    1667
       8    1737    1758    1745    1735    1659    1680    1667    1657
       8    1759    1738    1739    1741    1681    1660    1661    1663
       8    1760    1759    1741    1747    1682    1681    1663    1669
       8    1761    1760    1747    1762    1683    1682    1669    1684
       8    1763    1762    1747    1746    1685    1684    1669    1668
       8    1764    1763    1746    1748    1686    1685    1668    1670
       8    1765    1764    1748    1749    1687    1686    1670    1671
       8    1766    1765    1749    1767    1688    1687    1671    1689
       8    1721    1767    1749    1719    1643    1689    1671    1641
       8    1768    1769    1720    1750    1690    1691    1642    1672
       8    1770    1768    1750    1751    1692    1690    1672    1673
       8    1771    1770    1751    1752    1693    1692    1673    1674
       8    1772    1771    1752    1728    1694    1693    1674    1650
       8    1773    1772    1728    1727    1695    1694    1650    1649
       8    1774    1773    1727    1730    1696    1695    1649    1652
       8    1775    1774    1730    1753    1697    1696    1652    1675
       8    1776    1775    1753    1754    1698    1697    1675    1676
       8    1777    1776    1754    1755    1699    1698    1676    1677
       8    1778    1777    1755    1756    1700    1699    1677    1678
       8    1779    1778    1756    1757    1701    1700    1678    1679
       8    1780    1779    1757    1758    1702    1701    1679    1680
       8    1781    1780    1758    1737    1703    1702    1680    1659
       8    1782    1781    1737    1736    1704    1703    1659    1658
       8    1783    1782    1736    1738    1705    1704    1658    1660
       8    1784    1783    1738    1759    1706    1705    1660    1681
       8    1785    1784    1759    1760    1707    1706    1681    1682
       8    1786    1785    1760    1761    1708    1707    1682    1683
       8    1787    1786    1761    1762    1709    1708    1683    1684
       8    1788    1787    1762    1763    1710    1709    1684    1685
       8    1789    1788    1763    1764    1711    1710    1685    1686
       8    1790    1789    1764    1765    1712    1711    1686    1687
       8    1791    1790    1765    1766    1713    1712    1687    1688
       8    1792    1791    1766    1767    1714    1713    1688    1689
       8    1793    1792    1767    1721    1715    1714    1689    1643
       8    1769    1793    1721    1720    1691    1715    1643    1642
       8    1794    1795    1796    1797    1716    1717    1718    1719
       8    1796    1798    1799    1797    1718    1720    1721    1719
       8    1800    1795    1794    1801    1722    1717    1716    1723
       8    1794    1802    1803    1801    1716    1724    1725    1723
       8    1804    1805    1806    1800    1726    1727    1728    1722
       8    1807    1808    1805    1804    1729    1730    1727    1726
       8    1801    1807    1804    1800    1723    1729    1726    1722
       8    1809    1810    1802    1811    1731    1732    1724    1733
       8    1812    1813    1810    1809    1734    1735    1732    1731
       8    1814    1815    1813    1812    1736    1737    1735    1734
       8    1816    1814    1812    1817    1738    1736    1734    1739
       8    1818    1803    1802    1810    1740    1725    1724    1732
       8    1809    1819    1817    1812    1731    1741    1739    1734
       8    1794    1797    1811    1802    1716    1719    1733    1724
       8    1820    1807    1801    1803    1742    1729    1723    1725
       8    1821    1820    1803    1818    1743    1742    1725    1740
       8    1822    1821    1818    1823    1744    1743    1740    1745
       8    1813    1823    1818    1810    1735    1745    1740    1732
       8    1824    1825    1819    1809    1746    1747    1741    1731
       8    1826    1824    1809    1811    1748    1746    1731    1733
       8    1827    1826    1811    1797    1749    1748    1733    1719
       8    1828    1798    1796    1829    1750    1720    1718    1751
       8    1830    1829    1796    1795    1752    1751    1718    1717
       8    1806    1830    1795    1800    1728    1752    1717    1722
       8    1831    1808    1807    1820    1753    1730    1729    1742
       8    1832    1831    1820    1821    1754    1753    1742    1743
       8    1833    1832    1821    1822    1755    1754    1743    1744
       8    1834    1833    1822    1835    1756    1755    1744    1757
       8    1836    1835    1822    1823    1758    1757    1744    1745
       8    1815    1836    1823    1813    1737    1758    1745    1735
       8    1837    1816    1817    1819    1759    1738    1739    1741
       8    1838    1837    1819    1825    1760    1759    1741    1747
       8    1839    1838    1825    1840    1761    1760    1747    1762
       8    1841    1840    1825    1824    1763    1762    1747    1746
       8    1842    1841    1824    1826    1764    1763    1746    1748
       8    1843    1842    1826    1827    1765    1764    1748    1749
       8    1844    1843    1827    1845    1766    1765    1749    1767
       8    1799    1845    1827    1797    1721    1767    1749    1719
       8    1846    1847    1798    1828    1768    1769    1720    1750
       8    1848    1846    1828    1829    1770    1768    1750    1751
       8    1849    1848    1829    1830    1771    1770    1751    1752
       8    1850    1849    1830    1806    1772    1771    1752    1728
       8    1851    1850    1806    1805    1773    1772    1728    1727
       8    1852    1851    1805    1808    1774    1773    1727    1730
       8    1853    1852    1808    1831    1775    1774    1730    1753
       8    1854    1853    1831    1832    1776    1775    1753    1754
       8    1855    1854    1832    1833    1777    1776    1754    1755
       8    1856    1855    1833    1834    1778    1777    1755    1756
       8    1857    1856    1834    1835    1779    1778    1756    1757
       8    1858    1857    1835    1836    1780    1779    1757    1758
       8    1859    1858    1836    1815    1781    1780    1758    1737
       8    1860    1859    1815    1814    1782    1781    1737    1736
       8    1861    1860    1814    1816    1783    1782    1736    1738
       8    1862    1861    1816    1837    1784    1783    1738    1759
       8    1863    1862    1837    1838    1785    1784    1759    1760
       8    1864    1863    1838    1839    1786    1785    1760    1761
       8    1865    1864    1839    1840    1787    1786    1761    1762
       8    1866    1865    1840    1841    1788    1787    1762    1763
       8    1867    1866    1841    1842    1789    1788    1763    1764
       8    1868    1867    1842    1843    1790    1789    1764    1765
       8    1869    1868    1843    1844    1791    1790    1765    1766
       8    1870    1869    1844    1845    1792    1791    1766    1767
       8    1871    1870    1845    1799    1793    1792    1767    1721
       8    1847    1871    1799    1798    1769    1793    1721    1720
       8    1872    1873    1874    1875    1794    1795    1796    1797
       8    1874    1876    1877    1875    1796    1798    1799    1797
       8    1878    1873    1872    1879    1800    1795    1794    1801
       8    1872    1880    1881    1879    1794    1802    1803    1801
       8    1882    1883    1884    1878    1804    1805    1806    1800
       8    1885    1886    1883    1882    1807    1808    1805    1804
       8    1879    1885    1882    1878    1801    1807    1804    1800
       8    1887    1888    1880    1889    1809    1810    1802    1811
       8    1890    1891    1888    1887    1812    1813    1810    1809
       8    1892    1893    1891    1890    1814    1815    1813    1812
       8    1894    1892    1890    1895    1816    1814    1812    1817
       8    1896    1881    1880    1888    1818    1803    1802    1810
       8    1887    1897    1895    1890    1809    1819    1817    1812
       8    1872    1875    1889    1880    1794    1797    1811    1802
       8    1898    1885    1879    1881    1820    1807    1801    1803
       8    1899    1898    1881    1896    1821    1820    1803    1818
       8    1900    1899    1896    1901    1822    1821    1818    1823
       8    1891    1901    1896    1888    1813    1823    1818    1810
       8    1902    1903    1897    1887    1824    1825    1819    1809
       8    1904    1902    1887    1889    1826    1824    1809    1811
       8    1905    1904    1889    1875    1827    1826    1811    1797
       8    1906    1876    1874    1907    1828    1798    1796    1829
       8    1908    1907    1874    1873    1830    1829    1796    1795
       8    1884    1908    1873    1878    1806    1830    1795    1800
       8    1909    1886    1885    1898    1831    1808    1807    1820
       8    1910    1909    1898    1899    1832    1831    1820    1821
       8    1911    1910    1899    1900    1833    1832    1821    1822
       8    1912    1911    1900    1913    1834    1833    1822    1835
       8    1914    1913    1900    1901    1836    1835    1822    1823
       8    1893    1914    1901    1891    1815    1836    1823    1813
       8    1915    1894    1895    1897    1837    1816    1817    1819
       8    1916    1915    1897    1903    1838    1837    1819    1825
       8    1917    1916    1903    1918    1839    1838    1825    1840
       8    1919    1918    1903    1902    1841    1840    1825    1824
       8    1920    1919    1902    1904    1842    1841    1824    1826
       8    1921    1920    1904    1905    1843    1842    1826    1827
       8    1922    1921    1905    1923    1844    1843    1827    1845
       8    1877    1923    1905    1875    1799    1845    1827    1797
       8    1924    1925    1876    1906    1846    1847    1798    1828
       8    1926    1924    1906    1907    1848    1846    1828    1829
       8    1927    1926    1907    1908    1849    1848    1829    1830
       8    1928    1927    1908    1884    1850    1849    1830    1806
       8    1929    1928    1884    1883    1851    1850    1806    1805
       8    1930    1929    1883    1886    1852    1851    1805    1808
       8    1931    1930    1886    1909    1853    1852    1808    1831
       8    1932    1931    1909    1910    1854    1853    1831    1832
       8    1933    1932    1910    1911    1855    1854    1832    1833
       8    1934    1933    1911    1912    1856    1855    1833    1834
       8    1935    1934    1912    1913    1857    1856    1834    1835
       8    1936    1935    1913    1914    1858    1857    1835    1836
       8    1937    1936    1914    1893    1859    1858    1836    1815
       8    1938    1937    1893    1892    1860    1859    1815    1814
       8    1939    1938    1892    1894    1861    1860    1814    1816
       8    1940    1939    1894    1915    1862    1861    1816    1837
       8    1941    1940    1915    1916    1863    1862    1837    1838
       8    1942    1941    1916    1917    1864    1863    1838    1839
       8    1943    1942    1917    1918    1865    1864    1839    1840
       8    1944    1943    1918    1919    1866    1865    1840    1841
       8    1945    1944    1919    1920    1867    1866    1841    1842
       8    1946    1945    1920    1921    1868    1867    1842    1843
       8    1947    1946    1921    1922    1869    1868    1843    1844
       8    1948    1947    1922    1923    1870    1869    1844    1845
       8    1949    1948    1923    1877    1871    1870    1845    1799
       8    1925    1949    1877    1876    1847    1871    1799    1798
  
CELL_TYPES    3486
       1
       1
       1
       1
       1
       1
       1
       1
       1
       1
       1
       1
       1
       1
       1
       1
       1
       1
       1
       1
       1
       1
       1
       1
       1
       1
       1
       1
       1
       1
       1
       1
       1
       1
       1
       1
       1
       1
       1
       1
       1
       1
       1
       1
       1
       1
       1
       1
       1
       1
       1
       1
       1
       1
       1
       1
       1
       1
       1
       1
       1
       1
       1
       1
       1
       1
       1
       1
       1
       1
       1
       1
       1
       1
       1
       1
       1
       1
       1
       1
       1
       1
       1
       1
       1
       1
       1
       1
       1
       1
       1
       1
       1
       1
       1
       1
       1
       1
       1
       1
       1
       1
       1
       1
       1
       1
       1
       1
       1
       1
       1
       1
       1
       1
       1
       1
       1
       1
       1
       1
       1
       1
       1
       1
       1
       1
       1
       1
       1
       1
       1
       1
       1
       1
       1
       1
       1
       1
       1
       1
       1
       1
       1
       1
       1
       1
       1
       1
       1
       1
       1
       1
       1
       1
       1
       1
       1
       1
       1
       1
       1
       1
       1
       1
       1
       1
       1
       1
       1
       1
       1
       1
       1
       1
       1
       1
       1
       1
       1
       1
       1
       1
       1
       1
       1
       1
       1
       1
       1
       1
       1
       1
       1
       1
       1
       1
       1
       1
       1
       1
       1
       1
       1
       1
       1
       1
       1
       1
       1
       1
       1
       1
       1
       1
       1
       1
       1
       1
       1
       1
       1
       1
       1
       1
       1
       1
       1
       1
       1
       1
       1
       1
       1
       1
       1
       1
       1
       1
       1
       1
       1
       1
       1
       1
       1
       1
       1
       1
       1
       1
       1
       1
       1
       1
       1
       1
       1
       1
       1
       1
       1
       1
       1
       1
       1
       1
       1
       1
       1
       1
       1
       1
       1
       1
       1
       1
       1
       1
       1
       1
       1
       1
       1
       1
       1
       1
       1
       1
       1
       1
       1
       1
       1
       1
       1
       1
       1
       1
       1
       1
       1
       1
       1
       1
       1
       1
       1
       1
       1
       1
       1
       1
       1
       1
       1
       1
       1
       1
       1
       1
       1
       1
       1
       1
       1
       1
       1
       1
       1
       1
       1
       1
       1
       1
       1
       1
       1
       1
       1
       1
       1
       1
       1
       1
       1
       1
       1
       1
       1
       1
       1
       1
       1
       1
       1
       1
       1
       1
       1
       1
       1
       1
       1
       1
       1
       1
       1
       1
       1
       1
       1
       1
       1
       1
       1
       1
       1
       1
       1
       1
       1
       1
       1
       1
       1
       1
       1
       1
       1
       1
       1
       1
       1
       1
       1
       1
       1
       1
       1
       1
       1
       1
       1
       1
       1
       1
       1
       1
       1
       1
       1
       1
       1
       1
       1
       1
       1
       1
       1
       1
       1
       1
       1
       1
       1
       1
       1
       1
       1
       1
       1
       1
       1
       1
       1
       1
       1
       1
       1
       1
       1
       1
       1
       1
       1
       1
       1
       1
       1
       1
       1
       1
       1
       1
       1
       1
       1
       1
       1
       1
       1
       1
       1
       1
       1
       1
       1
       1
       1
       1
       1
       1
       1
       1
       1
       1
       1
       1
       1
       1
       1
       1
       1
       1
       1
       1
       1
       1
       1
       1
       1
       1
       1
       1
       1
       1
       1
       1
       1
       1
       1
       1
       1
       1
       1
       1
       1
       1
       1
       1
       1
       1
       1
       1
       1
       1
       1
       1
       1
       1
       1
       1
       1
       1
       1
       1
       1
       1
       1
       1
       1
       1
       1
       1
       1
       1
       1
       1
       1
       1
       1
       1
       1
       1
       1
       1
       1
       1
       1
       1
       1
       1
       1
       1
       1
       1
       1
       1
       1
       1
       1
       1
       1
       1
       1
       1
       1
       1
       1
       1
       1
       1
       1
       1
       1
       1
       1
       1
       1
       1
       1
       1
       1
       1
       1
       1
       1
       1
       1
       1
       1
       1
       1
       1
       1
       1
       1
       1
       1
       1
       1
       1
       1
       1
       1
       1
       1
       1
       1
       1
       1
       1
       1
       1
       1
       1
       1
       1
       1
       1
       1
       1
       1
       1
       1
       1
       1
       1
       1
       1
       1
       1
       1
       1
       1
       1
       1
       1
       1
       1
       1
       1
       1
       1
       1
       1
       1
       1
       1
       1
       1
       1
       1
       1
       1
       1
       1
       1
       1
       1
       1
       1
       1
       1
       1
       1
       1
       1
       1
       1
       1
       1
       1
       1
       1
       1
       1
       1
       1
       1
       1
       1
       1
       1
       1
       1
       1
       1
       1
       1
       1
       1
       1
       1
       1
       1
       1
       1
       1
       1
       1
       1
       1
       1
       1
       1
       1
       1
       1
       1
       1
       1
       1
       1
       1
       1
       1
       1
       1
       1
       1
       1
       1
       1
       1
       1
       1
       1
       1
       1
       1
       1
       1
       1
       1
       1
       1
       1
       1
       1
       1
       1
       1
       1
       1
       1
       1
       1
       1
       1
       1
       1
       1
       1
       1
       1
       1
       1
       1
       1
       1
       1
       1
       1
       1
       1
       1
       1
       1
       1
       1
       1
       1
       1
       1
       1
       1
       1
       1
       1
       1
       1
       1
       1
       1
       1
       1
       1
       1
       1
       1
       1
       1
       1
       1
       1
       1
       1
       1
       1
       1
       1
       1
       1
       1
       1
       1
       1
       1
       1
       1
       1
       1
       1
       1
       1
       1
       1
       1
       1
       1
       1
       1
       1
       1
       1
       1
       1
       1
       1
       1
       1
       1
       1
       1
       1
       1
       1
       1
       1
       1
       1
       1
       1
       1
       1
       1
       1
       1
       1
       1
       1
       1
       1
       1
       1
       1
       1
       1
       1
       1
       1
       1
       1
       1
       1
       1
       1
       1
       1
       1
       1
       1
       1
       1
       1
       1
       1
       1
       1
       1
       1
       1
       1
       1
       1
       1
       1
       1
       1
       1
       1
       1
       1
       1
       1
       1
       1
       1
       1
       1
       1
       1
       1
       1
       1
       1
       1
       1
       1
       1
       1
       1
       1
       1
       1
       1
       1
       1
       1
       1
       1
       1
       1
       1
       1
       1
       1
       1
       1
       1
       1
       1
       1
       1
       1
       1
       1
       1
       1
       1
       1
       1
       1
       1
       1
       1
       1
       1
       1
       1
       1
       1
       1
       1
       1
       1
       1
       1
       1
       1
       1
       1
       1
       1
       1
       1
       1
       1
       1
       1
       1
       1
       1
       1
       1
       1
       1
       1
       1
       1
       1
       1
       1
       1
       1
       1
       1
       1
       1
       1
       1
       1
       1
       1
       1
       1
       1
       1
       1
       1
       1
       1
       1
       1
       1
       1
       1
       1
       1
       1
       1
       1
       1
       1
       1
       1
       1
       1
       1
       1
       1
       1
       1
       1
       1
       1
       1
       1
       1
       1
       1
       1
       1
       1
       1
       1
       1
       1
       1
       1
       1
       1
       1
       1
       1
       1
       1
       1
       1
       1
       1
       1
       1
       1
       1
       1
       1
       1
       1
       1
       1
       1
       1
       1
       1
       1
       1
       1
       1
       1
       1
       1
       1
       1
       1
       1
       1
       1
       1
       1
       1
       1
       1
       1
       1
       1
       1
       1
       1
       1
       1
       1
       1
       1
       1
       1
       1
       1
       1
       1
       1
       1
       1
       1
       1
       1
       1
       1
       1
       1
       1
       1
       1
       1
       1
       1
       1
       1
       1
       1
       1
       1
       1
       1
       1
       1
       1
       1
       1
       1
       1
       1
       1
       1
       1
       1
       1
       1
       1
       1
       1
       1
       1
       1
       1
       1
       1
       1
       1
       1
       1
       1
       1
       1
       1
       1
       1
       1
       1
       1
       1
       1
       1
       1
       1
       1
       1
       1
       1
       1
       1
       1
       1
       1
       1
       1
       1
       1
       1
       1
       1
       1
       1
       1
       1
       1
       1
       1
       1
       1
       1
       1
       1
       1
       1
       1
       1
       1
       1
       1
       1
       1
       1
       1
       1
       1
       1
       1
       1
       1
       1
       1
       1
       1
       1
       1
       1
       1
       1
       1
       1
       1
       1
       1
       1
       1
       1
       1
       1
       1
       1
       1
       1
       1
       1
       1
       1
       1
       1
       1
       1
       1
       1
       1
       1
       1
       1
       1
       1
       1
       1
       1
       1
       1
       1
       1
       1
       1
       1
       1
       1
       1
       1
       1
       1
       1
       1
       1
       1
       1
       1
       1
       1
       1
       1
       1
       1
       1
       1
       1
       1
       1
       1
       1
       1
       1
       1
       1
       1
       1
       1
       1
       1
       1
       1
       1
       1
       1
       1
       1
       1
       1
       1
       1
       1
       1
       1
       1
       1
       1
       1
       1
       1
       1
       1
       1
       1
       1
       1
       1
       1
       1
       1
       1
       1
       1
       1
       1
       1
       1
       1
       1
       1
       1
       1
       1
       1
       1
       1
       1
       1
       1
       1
       1
       1
       1
       1
       1
       1
       1
       1
       1
       1
       1
       1
       1
       1
       1
       1
       1
       1
       1
       1
       1
       1
       1
       1
       1
       1
       1
       1
       1
       1
       1
       1
       1
       1
       1
       1
       1
       1
       1
       1
       1
       1
       1
       1
       1
       1
       1
       1
       1
       1
       1
       1
       1
       1
       1
       1
       1
       1
       1
       1
       1
       1
       1
       1
       1
       1
       1
       1
       1
       1
       1
       1
       1
       1
       1
       1
       1
       1
       1
       1
       1
       1
       1
       1
       1
       1
       1
       1
       1
       1
       1
       1
       1
       1
       1
       1
       1
       1
       1
       1
       1
       1
       1
       1
       1
       1
       1
       1
       1
       1
       1
       1
       1
       1
       1
       1
       1
       1
       1
       1
       1
       1
       1
       1
       1
       1
       1
       1
       1
       1
       1
       1
       1
       1
       1
       1
       1
       1
       1
       1
       1
       1
       1
       1
       1
       1
       1
       1
       1
       1
       1
       1
       1
       1
       1
       1
       1
       1
       1
       1
       1
       1
       1
       1
       1
       1
       1
       1
       1
       1
       1
       1
       1
       1
       1
       1
       1
       1
       1
       1
       1
       1
       1
       1
       1
       1
       1
       1
       1
       1
       1
       1
       1
       1
       1
       1
       1
       1
       1
       1
       1
       1
       1
       1
       1
       1
       1
       1
       1
       1
       1
       1
       1
       1
       1
       1
       1
       1
       1
       1
       1
       1
       1
       1
       1
       1
       1
       1
       1
       1
       1
       1
       1
       1
       1
       1
       1
       1
       1
       1
       1
       1
       1
       1
       1
       1
       1
       1
       1
       1
       1
       1
       1
       1
       1
       1
       1
       1
       1
       1
       1
       1
       1
       1
       1
       1
       1
       1
       1
       1
       1
       1
       1
       1
       1
       1
       1
       1
       1
       1
       1
       1
       1
       1
       1
       1
       1
       1
       1
       1
       1
       1
       1
       1
       1
       1
       1
       1
       1
       1
       1
       1
       1
       1
       1
       1
       1
       1
       1
       1
       1
       1
       1
       1
       1
       1
       1
       1
       1
       1
       1
       1
       1
       1
       1
       1
       1
       1
       1
       1
       1
       1
       1
       1
       1
       1
       1
       1
       1
       1
       1
       1
       1
       1
       1
       1
       1
       1
       1
       1
       1
       1
       1
       1
       1
       1
       1
       1
       1
       1
       1
       1
       1
       1
       1
       1
       1
       1
       1
       1
       1
       1
       1
       1
       1
       1
       1
       1
       1
       1
       1
       1
       1
       1
       1
       1
       1
       1
       1
       1
       1
       1
       1
       1
       1
       1
       1
       1
       1
       1
       1
       1
       1
       1
       1
       1
       1
       1
       1
       1
       1
       1
       1
       1
       1
       1
       1
       1
       1
       1
       1
       1
       1
       1
       1
       1
       1
       1
       1
       1
       1
       1
       1
       1
       1
       1
       1
       1
       1
       1
       1
       1
       1
       1
       1
       1
       1
       1
       1
       1
       1
       1
       1
       1
       1
       1
       1
       1
       1
       1
       1
       1
       1
       1
       1
       1
       1
       1
       1
       1
       1
       1
       1
       1
       1
       1
       1
       1
       1
       1
       1
       1
       1
       1
       1
       1
       1
       1
       1
       1
       1
       1
       1
       1
       1
       1
       1
       1
       1
       1
       1
       1
       1
       1
       1
       1
       1
       1
       1
       1
       1
       1
       1
       1
       1
       1
       1
       1
       1
       1
       1
       1
       1
       1
       1
       1
       1
       1
       1
       1
       1
       1
       1
       1
       1
       1
       1
       1
       1
       1
       1
       1
       1
       1
       1
       1
       1
       1
       1
       1
       1
       1
       1
       1
       1
       1
       1
       1
       1
       1
       1
       1
       1
       1
       1
       1
       1
       1
       1
       1
       1
       1
       1
       1
       1
       1
       1
       1
       1
       1
       1
       1
       1
       1
       1
       1
       1
       1
       1
       1
       1
       1
       1
       1
       1
       1
       1
       1
       1
       1
       1
       1
       1
       1
       1
       1
      12
      12
      12
      12
      12
      12
      12
      12
      12
      12
      12
      12
      12
      12
      12
      12
      12
      12
      12
      12
      12
      12
      12
      12
      12
      12
      12
      12
      12
      12
      12
      12
      12
      12
      12
      12
      12
      12
      12
      12
      12
      12
      12
      12
      12
      12
      12
      12
      12
      12
      12
      12
      12
      12
      12
      12
      12
      12
      12
      12
      12
      12
      12
      12
      12
      12
      12
      12
      12
      12
      12
      12
      12
      12
      12
      12
      12
      12
      12
      12
      12
      12
      12
      12
      12
      12
      12
      12
      12
      12
      12
      12
      12
      12
      12
      12
      12
      12
      12
      12
      12
      12
      12
      12
      12
      12
      12
      12
      12
      12
      12
      12
      12
      12
      12
      12
      12
      12
      12
      12
      12
      12
      12
      12
      12
      12
      12
      12
      12
      12
      12
      12
      12
      12
      12
      12
      12
      12
      12
      12
      12
      12
      12
      12
      12
      12
      12
      12
      12
      12
      12
      12
      12
      12
      12
      12
      12
      12
      12
      12
      12
      12
      12
      12
      12
      12
      12
      12
      12
      12
      12
      12
      12
      12
      12
      12
      12
      12
      12
      12
      12
      12
      12
      12
      12
      12
      12
      12
      12
      12
      12
      12
      12
      12
      12
      12
      12
      12
      12
      12
      12
      12
      12
      12
      12
      12
      12
      12
      12
      12
      12
      12
      12
      12
      12
      12
      12
      12
      12
      12
      12
      12
      12
      12
      12
      12
      12
      12
      12
      12
      12
      12
      12
      12
      12
      12
      12
      12
      12
      12
      12
      12
      12
      12
      12
      12
      12
      12
      12
      12
      12
      12
      12
      12
      12
      12
      12
      12
      12
      12
      12
      12
      12
      12
      12
      12
      12
      12
      12
      12
      12
      12
      12
      12
      12
      12
      12
      12
      12
      12
      12
      12
      12
      12
      12
      12
      12
      12
      12
      12
      12
      12
      12
      12
      12
      12
      12
      12
      12
      12
      12
      12
      12
      12
      12
      12
      12
      12
      12
      12
      12
      12
      12
      12
      12
      12
      12
      12
      12
      12
      12
      12
      12
      12
      12
      12
      12
      12
      12
      12
      12
      12
      12
      12
      12
      12
      12
      12
      12
      12
      12
      12
      12
      12
      12
      12
      12
      12
      12
      12
      12
      12
      12
      12
      12
      12
      12
      12
      12
      12
      12
      12
      12
      12
      12
      12
      12
      12
      12
      12
      12
      12
      12
      12
      12
      12
      12
      12
      12
      12
      12
      12
      12
      12
      12
      12
      12
      12
      12
      12
      12
      12
      12
      12
      12
      12
      12
      12
      12
      12
      12
      12
      12
      12
      12
      12
      12
      12
      12
      12
      12
      12
      12
      12
      12
      12
      12
      12
      12
      12
      12
      12
      12
      12
      12
      12
      12
      12
      12
      12
      12
      12
      12
      12
      12
      12
      12
      12
      12
      12
      12
      12
      12
      12
      12
      12
      12
      12
      12
      12
      12
      12
      12
      12
      12
      12
      12
      12
      12
      12
      12
      12
      12
      12
      12
      12
      12
      12
      12
      12
      12
      12
      12
      12
      12
      12
      12
      12
      12
      12
      12
      12
      12
      12
      12
      12
      12
      12
      12
      12
      12
      12
      12
      12
      12
      12
      12
      12
      12
      12
      12
      12
      12
      12
      12
      12
      12
      12
      12
      12
      12
      12
      12
      12
      12
      12
      12
      12
      12
      12
      12
      12
      12
      12
      12
      12
      12
      12
      12
      12
      12
      12
      12
      12
      12
      12
      12
      12
      12
      12
      12
      12
      12
      12
      12
      12
      12
      12
      12
      12
      12
      12
      12
      12
      12
      12
      12
      12
      12
      12
      12
      12
      12
      12
      12
      12
      12
      12
      12
      12
      12
      12
      12
      12
      12
      12
      12
      12
      12
      12
      12
      12
      12
      12
      12
      12
      12
      12
      12
      12
      12
      12
      12
      12
      12
      12
      12
      12
      12
      12
      12
      12
      12
      12
      12
      12
      12
      12
      12
      12
      12
      12
      12
      12
      12
      12
      12
      12
      12
      12
      12
      12
      12
      12
      12
      12
      12
      12
      12
      12
      12
      12
      12
      12
      12
      12
      12
      12
      12
      12
      12
      12
      12
      12
      12
      12
      12
      12
      12
      12
      12
      12
      12
      12
      12
      12
      12
      12
      12
      12
      12
      12
      12
      12
      12
      12
      12
      12
      12
      12
      12
      12
      12
      12
      12
      12
      12
      12
      12
      12
      12
      12
      12
      12
      12
      12
      12
      12
      12
      12
      12
      12
      12
      12
      12
      12
      12
      12
      12
      12
      12
      12
      12
      12
      12
      12
      12
      12
      12
      12
      12
      12
      12
      12
      12
      12
      12
      12
      12
      12
      12
      12
      12
      12
      12
      12
      12
      12
      12
      12
      12
      12
      12
      12
      12
      12
      12
      12
      12
      12
      12
      12
      12
      12
      12
      12
      12
      12
      12
      12
      12
      12
      12
      12
      12
      12
      12
      12
      12
      12
      12
      12
      12
      12
      12
      12
      12
      12
      12
      12
      12
      12
      12
      12
      12
      12
      12
      12
      12
      12
      12
      12
      12
      12
      12
      12
      12
      12
      12
      12
      12
      12
      12
      12
      12
      12
      12
      12
      12
      12
      12
      12
      12
      12
      12
      12
      12
      12
      12
      12
      12
      12
      12
      12
      12
      12
      12
      12
      12
      12
      12
      12
      12
      12
      12
      12
      12
      12
      12
      12
      12
      12
      12
      12
      12
      12
      12
      12
      12
      12
      12
      12
      12
      12
      12
      12
      12
      12
      12
      12
      12
      12
      12
      12
      12
      12
      12
      12
      12
      12
      12
      12
      12
      12
      12
      12
      12
      12
      12
      12
      12
      12
      12
      12
      12
      12
      12
      12
      12
      12
      12
      12
      12
      12
      12
      12
      12
      12
      12
      12
      12
      12
      12
      12
      12
      12
      12
      12
      12
      12
      12
      12
      12
      12
      12
      12
      12
      12
      12
      12
      12
      12
      12
      12
      12
      12
      12
      12
      12
      12
      12
      12
      12
      12
      12
      12
      12
      12
      12
      12
      12
      12
      12
      12
      12
      12
      12
      12
      12
      12
      12
      12
      12
      12
      12
      12
      12
      12
      12
      12
      12
      12
      12
      12
      12
      12
      12
      12
      12
      12
      12
      12
      12
      12
      12
      12
      12
      12
      12
      12
      12
      12
      12
      12
      12
      12
      12
      12
      12
      12
      12
      12
      12
      12
      12
      12
      12
      12
      12
      12
      12
      12
      12
      12
      12
      12
      12
      12
      12
      12
      12
      12
      12
      12
      12
      12
      12
      12
      12
      12
      12
      12
      12
      12
      12
      12
      12
      12
      12
      12
      12
      12
      12
      12
      12
      12
      12
      12
      12
      12
      12
      12
      12
      12
      12
      12
      12
      12
      12
      12
      12
      12
      12
      12
      12
      12
      12
      12
      12
      12
      12
      12
      12
      12
      12
      12
      12
      12
      12
      12
      12
      12
      12
      12
      12
      12
      12
      12
      12
      12
      12
      12
      12
      12
      12
      12
      12
      12
      12
      12
      12
      12
      12
      12
      12
      12
      12
      12
      12
      12
      12
      12
      12
      12
      12
      12
      12
      12
      12
      12
      12
      12
      12
      12
      12
      12
      12
      12
      12
      12
      12
      12
      12
      12
      12
      12
      12
      12
      12
      12
      12
      12
      12
      12
      12
      12
      12
      12
      12
      12
      12
      12
      12
      12
      12
      12
      12
      12
      12
      12
      12
      12
      12
      12
      12
      12
      12
      12
      12
      12
      12
      12
      12
      12
      12
      12
      12
      12
      12
      12
      12
      12
      12
      12
      12
      12
      12
      12
      12
      12
      12
      12
      12
      12
      12
      12
      12
      12
      12
      12
      12
      12
      12
      12
      12
      12
      12
      12
      12
      12
      12
      12
      12
      12
      12
      12
      12
      12
      12
      12
      12
      12
      12
      12
      12
      12
      12
      12
      12
      12
      12
      12
      12
      12
      12
      12
      12
      12
      12
      12
      12
      12
      12
      12
      12
      12
      12
      12
      12
      12
      12
      12
      12
      12
      12
      12
      12
      12
      12
      12
      12
      12
      12
      12
      12
      12
      12
      12
      12
      12
      12
      12
      12
      12
      12
      12
      12
      12
      12
      12
      12
      12
      12
      12
      12
      12
      12
      12
      12
      12
      12
      12
      12
      12
      12
      12
      12
      12
      12
      12
      12
      12
      12
      12
      12
      12
      12
      12
      12
      12
      12
      12
      12
      12
      12
      12
      12
      12
      12
      12
      12
      12
      12
      12
      12
      12
      12
      12
      12
      12
      12
      12
      12
      12
      12
      12
      12
      12
      12
      12
      12
      12
      12
      12
      12
      12
      12
      12
      12
      12
      12
      12
      12
      12
      12
      12
      12
      12
      12
      12
      12
      12
      12
      12
      12
      12
      12
      12
      12
      12
      12
      12
      12
      12
      12
      12
      12
      12
      12
      12
      12
      12
      12
      12
      12
      12
      12
      12
      12
      12
      12
      12
      12
      12
      12
      12
      12
      12
      12
      12
      12
      12
      12
      12
      12
      12
      12
      12
      12
      12
      12
      12
      12
      12
      12
      12
      12
      12
      12
      12
      12
      12
      12
      12
      12
      12
      12
      12
      12
      12
      12
      12
      12
      12
      12
      12
      12
      12
      12
      12
      12
      12
      12
      12
      12
      12
      12
      12
      12
      12
      12
      12
      12
      12
      12
      12
      12
      12
      12
      12
      12
      12
      12
      12
      12
      12
      12
      12
      12
      12
      12
      12
      12
      12
      12
      12
      12
      12
      12
      12
      12
      12
      12
      12
      12
      12
      12
      12
      12
      12
      12
      12
      12
      12
      12
      12
      12
      12
      12
      12
      12
      12
      12
      12
      12
      12
      12
      12
      12
      12
      12
      12
      12
      12
      12
      12
      12
      12
      12
      12
      12
      12
      12
      12
      12
      12
      12
      12
      12
      12
      12
      12
      12
      12
      12
      12
      12
      12
      12
      12
      12
      12
      12
      12
      12
      12
      12
      12
      12
      12
      12
      12
      12
      12
      12
      12
  
  
POINT_DATA       1950
  
SCALARS                  material_type  double 1
LOOKUP_TABLE default
                   2
                   2
                   2
                   2
                   2
                   2
                   2
                   2
                   2
                   2
                   2
                   2
                   2
                   2
                   2
                   2
                   2
                   2
                   2
                   2
                   2
                   2
                   2
                   2
                   2
                   2
                   2
                   2
                   2
                   2
                   2
                   2
                   2
                   2
                   2
                   2
                   2
                   2
                   2
                   2
                   2
                   2
                   2
                   2
                   2
                   2
                   2
                   2
                   2
                   2
                   2
                   2
                   2
                   2
                   2
                   2
                   2
                   2
                   2
                   2
                   2
                   2
                   2
                   2
                   2
                   2
                   2
                   2
                   2
                   2
                   2
                   2
                   2
                   2
                   2
                   2
                   2
                   2
                   2
                   2
                   2
                   2
                   2
                   2
                   2
                   2
                   2
                   2
                   2
                   2
                   2
                   2
                   2
                   2
                   2
                   2
                   2
                   2
                   2
                   2
                   2
                   2
                   2
                   2
                   2
                   2
                   2
                   2
                   2
                   2
                   2
                   2
                   2
                   2
                   2
                   2
                   2
                   2
                   2
                   2
                   2
                   2
                   2
                   2
                   2
                   2
                   2
                   2
                   2
                   2
                   2
                   2
                   2
                   2
                   2
                   2
                   2
                   2
                   2
                   2
                   2
                   2
                   2
                   2
                   2
                   2
                   2
                   2
                   2
                   2
                   2
                   2
                   2
                   2
                   2
                   2
                   2
                   2
                   2
                   2
                   2
                   2
                   2
                   2
                   2
                   2
                   2
                   2
                   2
                   2
                   2
                   2
                   2
                   2
                   2
                   2
                   2
                   2
                   2
                   2
                   2
                   2
                   2
                   2
                   2
                   2
                   2
                   2
                   2
                   2
                   2
                   2
                   2
                   2
                   2
                   2
                   2
                   2
                   2
                   2
                   2
                   2
                   2
                   2
                   2
                   2
                   2
                   2
                   2
                   2
                   2
                   2
                   2
                   2
                   2
                   2
                   2
                   2
                   2
                   2
                   2
                   2
                   2
                   2
                   2
                   2
                   2
                   2
                   2
                   2
                   2
                   2
                   2
                   2
                   2
                   2
                   2
                   2
                   2
                   2
                   2
                   2
                   2
                   2
                   2
                   2
                   2
                   2
                   2
                   2
                   2
                   2
                   2
                   2
                   2
                   2
                   2
                   2
                   2
                   2
                   2
                   2
                   2
                   2
                   2
                   2
                   2
                   2
                   2
                   2
                   2
                   2
                   2
                   2
                   2
                   2
                   2
                   2
                   2
                   2
                   2
                   2
                   2
                   2
                   2
                   2
                   2
                   2
                   2
                   2
                   2
                   2
                   2
                   2
                   2
                   2
                   2
                   2
                   2
                   2
                   2
                   2
                   2
                   2
                   2
                   2
                   2
                   2
                   2
                   2
                   2
                   2
                   2
                   2
                   2
                   2
                   2
                   2
                   2
                   2
                   2
                   2
                   2
                   2
                   2
                   2
                   2
                   2
                   2
                   2
                   2
                   2
                   2
                   2
                   2
                   2
                   2
                   2
                   2
                   2
                   2
                   2
                   2
                   2
                   2
                   2
                   2
                   2
                   2
                   2
                   2
                   2
                   2
                   2
                   2
                   2
                   2
                   2
                   2
                   2
                   2
                   2
                   2
                   2
                   2
                   2
                   2
                   2
                   2
                   2
                   2
                   2
                   2
                   2
                   2
                   2
                   2
                   2
                   2
                   2
                   2
                   2
                   2
                   2
                   2
                   2
                   2
                   2
                   2
                   2
                   2
                   2
                   2
                   2
                   2
                   2
                   2
                   2
                   2
                   2
                   2
                   2
                   2
                   2
                   2
                   2
                   2
                   2
                   2
                   2
                   2
                   2
                   2
                   2
                   2
                   2
                   2
                   2
                   2
                   2
                   2
                   2
                   2
                   2
                   2
                   2
                   2
                   2
                   2
                   2
                   2
                   2
                   2
                   2
                   2
                   2
                   2
                   2
                   2
                   2
                   2
                   2
                   2
                   2
                   2
                   2
                   2
                   2
                   2
                   2
                   2
                   2
                   2
                   2
                   2
                   2
                   2
                   2
                   2
                   2
                   2
                   2
                   2
                   2
                   2
                   2
                   2
                   2
                   2
                   2
                   2
                   2
                   2
                   2
                   2
                   2
                   2
                   2
                   2
                   2
                   2
                   2
                   2
                   2
                   2
                   2
                   2
                   2
                   2
                   2
                   2
                   2
                   2
                   2
                   2
                   2
                   2
                   2
                   2
                   2
                   2
                   2
                   2
                   2
                   2
                   2
                   2
                   2
                   2
                   2
                   2
                   2
                   2
                   2
                   2
                   2
                   2
                   2
                   2
                   2
                   2
                   2
                   2
                   2
                   2
                   2
                   2
                   2
                   2
                   2
                   2
                   2
                   2
                   2
                   2
                   2
                   2
                   2
                   2
                   2
                   2
                   2
                   2
                   2
                   2
                   2
                   2
                   2
                   2
                   2
                   2
                   2
                   2
                   2
                   2
                   2
                   2
                   2
                   2
                   2
                   2
                   2
                   2
                   2
                   2
                   2
                   2
                   2
                   2
                   2
                   2
                   2
                   2
                   2
                   2
                   2
                   2
                   2
                   2
                   2
                   2
                   2
                   2
                   2
                   2
                   2
                   2
                   2
                   2
                   2
                   2
                   2
                   2
                   2
                   2
                   2
                   2
                   2
                   2
                   2
                   2
                   2
                   2
                   2
                   2
                   2
                   2
                   2
                   2
                   2
                   2
                   2
                   2
                   2
                   2
                   2
                   2
                   2
                   2
                   2
                   2
                   2
                   2
                   2
                   2
                   2
                   2
                   2
                   2
                   2
                   2
                   2
                   2
                   2
                   2
                   2
                   2
                   2
                   2
                   2
                   2
                   2
                   2
                   2
                   2
                   2
                   2
                   2
                   2
                   2
                   2
                   2
                   2
                   2
                   2
                   2
                   2
                   2
                   2
                   2
                   2
                   2
                   2
                   2
                   2
                   2
                   2
                   2
                   2
                   2
                   2
                   2
                   2
                   2
                   2
                   2
                   2
                   2
                   2
                   2
                   2
                   2
                   2
                   2
                   2
                   2
                   2
                   2
                   2
                   2
                   2
                   2
                   2
                   2
                   2
                   2
                   2
                   2
                   2
                   2
                   2
                   2
                   2
                   2
                   2
                   2
                   2
                   2
                   2
                   2
                   2
                   2
                   2
                   2
                   2
                   2
                   2
                   2
                   2
                   2
                   2
                   2
                   2
                   2
                   2
                   2
                   2
                   2
                   2
                   2
                   2
                   2
                   2
                   2
                   2
                   2
                   2
                   2
                   2
                   2
                   2
                   2
                   2
                   2
                   2
                   2
                   2
                   2
                   2
                   2
                   2
                   2
                   2
                   2
                   2
                   2
                   2
                   2
                   2
                   2
                   2
                   2
                   2
                   2
                   2
                   2
                   2
                   2
                   2
                   2
                   2
                   2
                   2
                   2
                   2
                   2
                   2
                   2
                   2
                   2
                   2
                   2
                   2
                   2
                   2
                   2
                   2
                   2
                   2
                   2
                   2
                   2
                   2
                   2
                   2
                   2
                   2
                   2
                   2
                   2
                   2
                   2
                   2
                   2
                   2
                   2
                   2
                   2
                   2
                   2
                   2
                   2
                   2
                   2
                   2
                   2
                   2
                   2
                   2
                   2
                   2
                   2
                   2
                   2
                   2
                   2
                   2
                   2
                   2
                   2
                   2
                   2
                   2
                   2
                   2
                   2
                   2
                   2
                   2
                   2
                   2
                   2
                   2
                   2
                   2
                   2
                   2
                   2
                   2
                   2
                   2
                   2
                   2
                   2
                   2
                   2
                   2
                   2
                   2
                   2
                   2
                   2
                   2
                   2
                   2
                   2
                   2
                   2
                   2
                   2
                   2
                   2
                   2
                   2
                   2
                   2
                   2
                   2
                   2
                   2
                   2
                   2
                   2
                   2
                   2
                   2
                   2
                   2
                   2
                   2
                   2
                   2
                   2
                   2
                   2
                   2
                   2
                   2
                   2
                   2
                   2
                   2
                   2
                   2
                   2
                   2
                   2
                   2
                   2
                   2
                   2
                   2
                   2
                   2
                   2
                   2
                   2
                   2
                   2
                   2
                   2
                   2
                   2
                   2
                   2
                   2
                   2
                   2
                   2
                   2
                   2
                   2
                   2
                   2
                   2
                   2
                   2
                   2
                   2
                   2
                   2
                   2
                   2
                   2
                   2
                   2
                   2
                   2
                   2
                   2
                   2
                   2
                   2
                   2
                   2
                   2
                   2
                   2
                   2
                   2
                   2
                   2
                   2
                   2
                   2
                   2
                   2
                   2
                   2
                   2
                   2
                   2
                   2
                   2
                   2
                   2
                   2
                   2
                   2
                   2
                   2
                   2
                   2
                   2
                   2
                   2
                   2
                   2
                   2
                   2
                   2
                   2
                   2
                   2
                   2
                   2
                   2
                   2
                   2
                   2
                   2
                   2
                   2
                   2
                   2
                   2
                   2
                   2
                   2
                   2
                   2
                   2
                   2
                   2
                   2
                   2
                   2
                   2
                   2
                   2
                   2
                   2
                   2
                   2
                   2
                   2
                   2
                   2
                   2
                   2
                   2
                   2
                   2
                   2
                   2
                   2
                   2
                   2
                   2
                   2
                   2
                   2
                   2
                   2
                   2
                   2
                   2
                   2
                   2
                   2
                   2
                   2
                   2
                   2
                   2
                   2
                   2
                   2
                   2
                   2
                   2
                   2
                   2
                   2
                   2
                   2
                   2
                   2
                   2
                   2
                   2
                   2
                   2
                   2
                   2
                   2
                   2
                   2
                   2
                   2
                   2
                   2
                   2
                   2
                   2
                   2
                   2
                   2
                   2
                   2
                   2
                   2
                   2
                   2
                   2
                   2
                   2
                   2
                   2
                   2
                   2
                   2
                   2
                   2
                   2
                   2
                   2
                   2
                   2
                   2
                   2
                   2
                   2
                   2
                   2
                   2
                   2
                   2
                   2
                   2
                   2
                   2
                   2
                   2
                   2
                   2
                   2
                   2
                   2
                   2
                   2
                   2
                   2
                   2
                   2
                   2
                   2
                   2
                   2
                   2
                   2
                   2
                   2
                   2
                   2
                   2
                   2
                   2
                   2
                   2
                   2
                   2
                   2
                   2
                   2
                   2
                   2
                   2
                   2
                   2
                   2
                   2
                   2
                   2
                   2
                   2
                   2
                   2
                   2
                   2
                   2
                   2
                   2
                   2
                   2
                   2
                   2
                   2
                   2
                   2
                   2
                   2
                   2
                   2
                   2
                   2
                   2
                   2
                   2
                   2
                   2
                   2
                   2
                   2
                   2
                   2
                   2
                   2
                   2
                   2
                   2
                   2
                   2
                   2
                   2
                   2
                   2
                   2
                   2
                   2
                   2
                   2
                   2
                   2
                   2
                   2
                   2
                   2
                   2
                   2
                   2
                   2
                   2
                   2
                   2
                   2
                   2
                   2
                   2
                   2
                   2
                   2
                   2
                   2
                   2
                   2
                   2
                   2
                   2
                   2
                   2
                   2
                   2
                   2
                   2
                   2
                   2
                   2
                   2
                   2
                   2
                   2
                   2
                   2
                   2
                   2
                   2
                   2
                   2
                   2
                   2
                   2
                   2
                   2
                   2
                   2
                   2
                   2
                   2
                   2
                   2
                   2
                   2
                   2
                   2
                   2
                   2
                   2
                   2
                   2
                   2
                   2
                   2
                   2
                   2
                   2
                   2
                   2
                   2
                   2
                   2
                   2
                   2
                   2
                   2
                   2
                   2
                   2
                   2
                   2
                   2
                   2
                   2
                   2
                   2
                   2
                   2
                   2
                   2
                   2
                   2
                   2
                   2
                   2
                   2
                   2
                   2
                   2
                   2
                   2
                   2
                   2
                   2
                   2
                   2
                   2
                   2
                   2
                   2
                   2
                   2
                   2
                   2
                   2
                   2
                   2
                   2
                   2
                   2
                   2
                   2
                   2
                   2
                   2
                   2
                   2
                   2
                   2
                   2
                   2
                   2
                   2
                   2
                   2
                   2
                   2
                   2
                   2
                   2
                   2
                   2
                   2
                   2
                   2
                   2
                   2
                   2
                   2
                   2
                   2
                   2
                   2
                   2
                   2
                   2
                   2
                   2
                   2
                   2
                   2
                   2
                   2
                   2
                   2
                   2
                   2
                   2
                   2
                   2
                   2
                   2
                   2
                   2
                   2
                   2
                   2
                   2
                   2
                   2
                   2
                   2
                   2
                   2
                   2
                   2
                   2
                   2
                   2
                   2
                   2
                   2
                   2
                   2
                   2
                   2
                   2
                   2
                   2
                   2
                   2
                   2
                   2
                   2
                   2
                   2
                   2
                   2
                   2
                   2
                   2
                   2
                   2
                   2
                   2
                   2
                   2
                   2
                   2
                   2
                   2
                   2
                   2
                   2
                   2
                   2
                   2
                   2
                   2
                   2
                   2
                   2
                   2
                   2
                   2
                   2
                   2
                   2
                   2
                   2
                   2
                   2
                   2
                   2
                   2
                   2
                   2
                   2
                   2
                   2
                   2
                   2
                   2
                   2
                   2
                   2
                   2
                   2
                   2
                   2
                   2
                   2
                   2
                   2
                   2
                   2
                   2
                   2
                   2
                   2
                   2
                   2
                   2
                   2
                   2
                   2
                   2
                   2
                   2
                   2
                   2
                   2
                   2
                   2
                   2
                   2
                   2
                   2
                   2
                   2
                   2
                   2
                   2
                   2
                   2
                   2
                   2
                   2
                   2
                   2
                   2
                   2
                   2
                   2
                   2
                   2
                   2
                   2
                   2
                   2
                   2
                   2
                   2
                   2
                   2
                   2
                   2
                   2
                   2
                   2
                   2
                   2
                   2
                   2
                   2
                   2
                   2
                   2
                   2
                   2
                   2
                   2
                   2
                   2
                   2
                   2
                   2
                   2
                   2
                   2
                   2
                   2
                   2
                   2
                   2
                   2
                   2
                   2
                   2
                   2
                   2
                   2
                   2
                   2
                   2
                   2
                   2
                   2
                   2
                   2
                   2
                   2
                   2
                   2
                   2
                   2
                   2
                   2
                   2
                   2
                   2
                   2
                   2
                   2
                   2
                   2
                   2
                   2
                   2
                   2
                   2
                   2
                   2
                   2
                   2
                   2
                   2
                   2
                   2
                   2
                   2
                   2
                   2
                   2
                   2
                   2
                   2
                   2
                   2
                   2
                   2
                   2
                   2
                   2
                   2
                   2
                   2
                   2
                   2
                   2
                   2
                   2
                   2
                   2
                   2
                   2
                   2
                   2
                   2
                   2
                   2
                   2
                   2
                   2
                   2
                   2
                   2
                   2
                   2
                   2
                   2
                   2
                   2
                   2
                   2
                   2
                   2
                   2
                   2
                   2
                   2
                   2
                   2
                   2
                   2
                   2
                   2
                   2
                   2
                   2
                   2
                   2
                   2
                   2
                   2
                   2
                   2
                   2
                   2
                   2
                   2
                   2
                   2
                   2
                   2
                   2
                   2
                   2
                   2
                   2
                   2
                   2
                   2
                   2
                   2
                   2
                   2
                   2
                   2
                   2
                   2
                   2
                   2
                   2
                   2
                   2
                   2
                   2
                   2
                   2
                   2
                   2
                   2
                   2
                   2
                   2
                   2
                   2
                   2
                   2
                   2
                   2
                   2
                   2
                   2
                   2
                   2
                   2
                   2
                   2
                   2
                   2
                   2
                   2
                   2
                   2
                   2
                   2
                   2
                   2
                   2
                   2
                   2
                   2
                   2
                   2
                   2
                   2
                   2
                   2
                   2
                   2
                   2
                   2
                   2
                   2
                   2
                   2
                   2
                   2
                   2
                   2
                   2
                   2
                   2
                   2
                   2
                   2
                   2
                   2
                   2
                   2
                   2
                   2
                   2
                   2
                   2
                   2
                   2
                   2
                   2
                   2
                   2
                   2
                   2
                   2
                   2
                   2
                   2
                   2
                   2
                   2
                   2
                   2
                   2
                   2
                   2
                   2
                   2
                   2
                   2
                   2
                   2
                   2
                   2
                   2
                   2
                   2
                   2
                   2
                   2
                   2
                   2
                   2
                   2
                   2
                   2
                   2
                   2
                   2
                   2
                   2
                   2
                   2
                   2
                   2
                   2
                   2
                   2
                   2
                   2
                   2
                   2
                   2
                   2
                   2
                   2
                   2
                   2
                   2
                   2
                   2
                   2
                   2
                   2
                   2
                   2
                   2
                   2
                   2
                   2
                   2
                   2
                   2
                   2
                   2
                   2
                   2
                   2
                   2
                   2
                   2
                   2
                   2
                   2
                   2
                   2
                   2
                   2
                   2
                   2
                   2
                   2
                   2
                   2
                   2
                   2
                   2
                   2
                   2
                   2
                   2
                   2
                   2
                   2
                   2
                   2
                   2
                   2
                   2
                   2
                   2
                   2
                   2
                   2
                   2
                   2
                   2
                   2
                   2
                   2
                   2
                   2
                   2
                   2
                   2
                   2
                   2
                   2
                   2
                   2
                   2
                   2
                   2
                   2
                   2
                   2
                   2
                   2
                   2
                   2
                   2
                   2
                   2
                   2
                   2
                   2
                   2
                   2
                   2
                   2
                   2
                   2
                   2
                   2
                   2
                   2
                   2
                   2
                   2
                   2
                   2
                   2
                   2
                   2
                   2
                   2
                   2
                   2
                   2
                   2
  
SCALARS                        node_id  double 1
LOOKUP_TABLE default
                   1
                   2
                   3
                   4
                   5
                   6
                   7
                   8
                   9
                  10
                  11
                  12
                  13
                  14
                  15
                  16
                  17
                  18
                  19
                  20
                  21
                  22
                  23
                  24
                  25
                  26
                  27
                  28
                  29
                  30
                  31
                  32
                  33
                  34
                  35
                  36
                  37
                  38
                  39
                  40
                  41
                  42
                  43
                  44
                  45
                  46
                  47
                  48
                  49
                  50
                  51
                  52
                  53
                  54
                  55
                  56
                  57
                  58
                  59
                  60
                  61
                  62
                  63
                  64
                  65
                  66
                  67
                  68
                  69
                  70
                  71
                  72
                  73
                  74
                  75
                  76
                  77
                  78
                  79
                  80
                  81
                  82
                  83
                  84
                  85
                  86
                  87
                  88
                  89
                  90
                  91
                  92
                  93
                  94
                  95
                  96
                  97
                  98
                  99
                 100
                 101
                 102
                 103
                 104
                 105
                 106
                 107
                 108
                 109
                 110
                 111
                 112
                 113
                 114
                 115
                 116
                 117
                 118
                 119
                 120
                 121
                 122
                 123
                 124
                 125
                 126
                 127
                 128
                 129
                 130
                 131
                 132
                 133
                 134
                 135
                 136
                 137
                 138
                 139
                 140
                 141
                 142
                 143
                 144
                 145
                 146
                 147
                 148
                 149
                 150
                 151
                 152
                 153
                 154
                 155
                 156
                 157
                 158
                 159
                 160
                 161
                 162
                 163
                 164
                 165
                 166
                 167
                 168
                 169
                 170
                 171
                 172
                 173
                 174
                 175
                 176
                 177
                 178
                 179
                 180
                 181
                 182
                 183
                 184
                 185
                 186
                 187
                 188
                 189
                 190
                 191
                 192
                 193
                 194
                 195
                 196
                 197
                 198
                 199
                 200
                 201
                 202
                 203
                 204
                 205
                 206
                 207
                 208
                 209
                 210
                 211
                 212
                 213
                 214
                 215
                 216
                 217
                 218
                 219
                 220
                 221
                 222
                 223
                 224
                 225
                 226
                 227
                 228
                 229
                 230
                 231
                 232
                 233
                 234
                 235
                 236
                 237
                 238
                 239
                 240
                 241
                 242
                 243
                 244
                 245
                 246
                 247
                 248
                 249
                 250
                 251
                 252
                 253
                 254
                 255
                 256
                 257
                 258
                 259
                 260
                 261
                 262
                 263
                 264
                 265
                 266
                 267
                 268
                 269
                 270
                 271
                 272
                 273
                 274
                 275
                 276
                 277
                 278
                 279
                 280
                 281
                 282
                 283
                 284
                 285
                 286
                 287
                 288
                 289
                 290
                 291
                 292
                 293
                 294
                 295
                 296
                 297
                 298
                 299
                 300
                 301
                 302
                 303
                 304
                 305
                 306
                 307
                 308
                 309
                 310
                 311
                 312
                 313
                 314
                 315
                 316
                 317
                 318
                 319
                 320
                 321
                 322
                 323
                 324
                 325
                 326
                 327
                 328
                 329
                 330
                 331
                 332
                 333
                 334
                 335
                 336
                 337
                 338
                 339
                 340
                 341
                 342
                 343
                 344
                 345
                 346
                 347
                 348
                 349
                 350
                 351
                 352
                 353
                 354
                 355
                 356
                 357
                 358
                 359
                 360
                 361
                 362
                 363
                 364
                 365
                 366
                 367
                 368
                 369
                 370
                 371
                 372
                 373
                 374
                 375
                 376
                 377
                 378
                 379
                 380
                 381
                 382
                 383
                 384
                 385
                 386
                 387
                 388
                 389
                 390
                 391
                 392
                 393
                 394
                 395
                 396
                 397
                 398
                 399
                 400
                 401
                 402
                 403
                 404
                 405
                 406
                 407
                 408
                 409
                 410
                 411
                 412
                 413
                 414
                 415
                 416
                 417
                 418
                 419
                 420
                 421
                 422
                 423
                 424
                 425
                 426
                 427
                 428
                 429
                 430
                 431
                 432
                 433
                 434
                 435
                 436
                 437
                 438
                 439
                 440
                 441
                 442
                 443
                 444
                 445
                 446
                 447
                 448
                 449
                 450
                 451
                 452
                 453
                 454
                 455
                 456
                 457
                 458
                 459
                 460
                 461
                 462
                 463
                 464
                 465
                 466
                 467
                 468
                 469
                 470
                 471
                 472
                 473
                 474
                 475
                 476
                 477
                 478
                 479
                 480
                 481
                 482
                 483
                 484
                 485
                 486
                 487
                 488
                 489
                 490
                 491
                 492
                 493
                 494
                 495
                 496
                 497
                 498
                 499
                 500
                 501
                 502
                 503
                 504
                 505
                 506
                 507
                 508
                 509
                 510
                 511
                 512
                 513
                 514
                 515
                 516
                 517
                 518
                 519
                 520
                 521
                 522
                 523
                 524
                 525
                 526
                 527
                 528
                 529
                 530
                 531
                 532
                 533
                 534
                 535
                 536
                 537
                 538
                 539
                 540
                 541
                 542
                 543
                 544
                 545
                 546
                 547
                 548
                 549
                 550
                 551
                 552
                 553
                 554
                 555
                 556
                 557
                 558
                 559
                 560
                 561
                 562
                 563
                 564
                 565
                 566
                 567
                 568
                 569
                 570
                 571
                 572
                 573
                 574
                 575
                 576
                 577
                 578
                 579
                 580
                 581
                 582
                 583
                 584
                 585
                 586
                 587
                 588
                 589
                 590
                 591
                 592
                 593
                 594
                 595
                 596
                 597
                 598
                 599
                 600
                 601
                 602
                 603
                 604
                 605
                 606
                 607
                 608
                 609
                 610
                 611
                 612
                 613
                 614
                 615
                 616
                 617
                 618
                 619
                 620
                 621
                 622
                 623
                 624
                 625
                 626
                 627
                 628
                 629
                 630
                 631
                 632
                 633
                 634
                 635
                 636
                 637
                 638
                 639
                 640
                 641
                 642
                 643
                 644
                 645
                 646
                 647
                 648
                 649
                 650
                 651
                 652
                 653
                 654
                 655
                 656
                 657
                 658
                 659
                 660
                 661
                 662
                 663
                 664
                 665
                 666
                 667
                 668
                 669
                 670
                 671
                 672
                 673
                 674
                 675
                 676
                 677
                 678
                 679
                 680
                 681
                 682
                 683
                 684
                 685
                 686
                 687
                 688
                 689
                 690
                 691
                 692
                 693
                 694
                 695
                 696
                 697
                 698
                 699
                 700
                 701
                 702
                 703
                 704
                 705
                 706
                 707
                 708
                 709
                 710
                 711
                 712
                 713
                 714
                 715
                 716
                 717
                 718
                 719
                 720
                 721
                 722
                 723
                 724
                 725
                 726
                 727
                 728
                 729
                 730
                 731
                 732
                 733
                 734
                 735
                 736
                 737
                 738
                 739
                 740
                 741
                 742
                 743
                 744
                 745
                 746
                 747
                 748
                 749
                 750
                 751
                 752
                 753
                 754
                 755
                 756
                 757
                 758
                 759
                 760
                 761
                 762
                 763
                 764
                 765
                 766
                 767
                 768
                 769
                 770
                 771
                 772
                 773
                 774
                 775
                 776
                 777
                 778
                 779
                 780
                 781
                 782
                 783
                 784
                 785
                 786
                 787
                 788
                 789
                 790
                 791
                 792
                 793
                 794
                 795
                 796
                 797
                 798
                 799
                 800
                 801
                 802
                 803
                 804
                 805
                 806
                 807
                 808
                 809
                 810
                 811
                 812
                 813
                 814
                 815
                 816
                 817
                 818
                 819
                 820
                 821
                 822
                 823
                 824
                 825
                 826
                 827
                 828
                 829
                 830
                 831
                 832
                 833
                 834
                 835
                 836
                 837
                 838
                 839
                 840
                 841
                 842
                 843
                 844
                 845
                 846
                 847
                 848
                 849
                 850
                 851
                 852
                 853
                 854
                 855
                 856
                 857
                 858
                 859
                 860
                 861
                 862
                 863
                 864
                 865
                 866
                 867
                 868
                 869
                 870
                 871
                 872
                 873
                 874
                 875
                 876
                 877
                 878
                 879
                 880
                 881
                 882
                 883
                 884
                 885
                 886
                 887
                 888
                 889
                 890
                 891
                 892
                 893
                 894
                 895
                 896
                 897
                 898
                 899
                 900
                 901
                 902
                 903
                 904
                 905
                 906
                 907
                 908
                 909
                 910
                 911
                 912
                 913
                 914
                 915
                 916
                 917
                 918
                 919
                 920
                 921
                 922
                 923
                 924
                 925
                 926
                 927
                 928
                 929
                 930
                 931
                 932
                 933
                 934
                 935
                 936
                 937
                 938
                 939
                 940
                 941
                 942
                 943
                 944
                 945
                 946
                 947
                 948
                 949
                 950
                 951
                 952
                 953
                 954
                 955
                 956
                 957
                 958
                 959
                 960
                 961
                 962
                 963
                 964
                 965
                 966
                 967
                 968
                 969
                 970
                 971
                 972
                 973
                 974
                 975
                 976
                 977
                 978
                 979
                 980
                 981
                 982
                 983
                 984
                 985
                 986
                 987
                 988
                 989
                 990
                 991
                 992
                 993
                 994
                 995
                 996
                 997
                 998
                 999
                1000
                1001
                1002
                1003
                1004
                1005
                1006
                1007
                1008
                1009
                1010
                1011
                1012
                1013
                1014
                1015
                1016
                1017
                1018
                1019
                1020
                1021
                1022
                1023
                1024
                1025
                1026
                1027
                1028
                1029
                1030
                1031
                1032
                1033
                1034
                1035
                1036
                1037
                1038
                1039
                1040
                1041
                1042
                1043
                1044
                1045
                1046
                1047
                1048
                1049
                1050
                1051
                1052
                1053
                1054
                1055
                1056
                1057
                1058
                1059
                1060
                1061
                1062
                1063
                1064
                1065
                1066
                1067
                1068
                1069
                1070
                1071
                1072
                1073
                1074
                1075
                1076
                1077
                1078
                1079
                1080
                1081
                1082
                1083
                1084
                1085
                1086
                1087
                1088
                1089
                1090
                1091
                1092
                1093
                1094
                1095
                1096
                1097
                1098
                1099
                1100
                1101
                1102
                1103
                1104
                1105
                1106
                1107
                1108
                1109
                1110
                1111
                1112
                1113
                1114
                1115
                1116
                1117
                1118
                1119
                1120
                1121
                1122
                1123
                1124
                1125
                1126
                1127
                1128
                1129
                1130
                1131
                1132
                1133
                1134
                1135
                1136
                1137
                1138
                1139
                1140
                1141
                1142
                1143
                1144
                1145
                1146
                1147
                1148
                1149
                1150
                1151
                1152
                1153
                1154
                1155
                1156
                1157
                1158
                1159
                1160
                1161
                1162
                1163
                1164
                1165
                1166
                1167
                1168
                1169
                1170
                1171
                1172
                1173
                1174
                1175
                1176
                1177
                1178
                1179
                1180
                1181
                1182
                1183
                1184
                1185
                1186
                1187
                1188
                1189
                1190
                1191
                1192
                1193
                1194
                1195
                1196
                1197
                1198
                1199
                1200
                1201
                1202
                1203
                1204
                1205
                1206
                1207
                1208
                1209
                1210
                1211
                1212
                1213
                1214
                1215
                1216
                1217
                1218
                1219
                1220
                1221
                1222
                1223
                1224
                1225
                1226
                1227
                1228
                1229
                1230
                1231
                1232
                1233
                1234
                1235
                1236
                1237
                1238
                1239
                1240
                1241
                1242
                1243
                1244
                1245
                1246
                1247
                1248
                1249
                1250
                1251
                1252
                1253
                1254
                1255
                1256
                1257
                1258
                1259
                1260
                1261
                1262
                1263
                1264
                1265
                1266
                1267
                1268
                1269
                1270
                1271
                1272
                1273
                1274
                1275
                1276
                1277
                1278
                1279
                1280
                1281
                1282
                1283
                1284
                1285
                1286
                1287
                1288
                1289
                1290
                1291
                1292
                1293
                1294
                1295
                1296
                1297
                1298
                1299
                1300
                1301
                1302
                1303
                1304
                1305
                1306
                1307
                1308
                1309
                1310
                1311
                1312
                1313
                1314
                1315
                1316
                1317
                1318
                1319
                1320
                1321
                1322
                1323
                1324
                1325
                1326
                1327
                1328
                1329
                1330
                1331
                1332
                1333
                1334
                1335
                1336
                1337
                1338
                1339
                1340
                1341
                1342
                1343
                1344
                1345
                1346
                1347
                1348
                1349
                1350
                1351
                1352
                1353
                1354
                1355
                1356
                1357
                1358
                1359
                1360
                1361
                1362
                1363
                1364
                1365
                1366
                1367
                1368
                1369
                1370
                1371
                1372
                1373
                1374
                1375
                1376
                1377
                1378
                1379
                1380
                1381
                1382
                1383
                1384
                1385
                1386
                1387
                1388
                1389
                1390
                1391
                1392
                1393
                1394
                1395
                1396
                1397
                1398
                1399
                1400
                1401
                1402
                1403
                1404
                1405
                1406
                1407
                1408
                1409
                1410
                1411
                1412
                1413
                1414
                1415
                1416
                1417
                1418
                1419
                1420
                1421
                1422
                1423
                1424
                1425
                1426
                1427
                1428
                1429
                1430
                1431
                1432
                1433
                1434
                1435
                1436
                1437
                1438
                1439
                1440
                1441
                1442
                1443
                1444
                1445
                1446
                1447
                1448
                1449
                1450
                1451
                1452
                1453
                1454
                1455
                1456
                1457
                1458
                1459
                1460
                1461
                1462
                1463
                1464
                1465
                1466
                1467
                1468
                1469
                1470
                1471
                1472
                1473
                1474
                1475
                1476
                1477
                1478
                1479
                1480
                1481
                1482
                1483
                1484
                1485
                1486
                1487
                1488
                1489
                1490
                1491
                1492
                1493
                1494
                1495
                1496
                1497
                1498
                1499
                1500
                1501
                1502
                1503
                1504
                1505
                1506
                1507
                1508
                1509
                1510
                1511
                1512
                1513
                1514
                1515
                1516
                1517
                1518
                1519
                1520
                1521
                1522
                1523
                1524
                1525
                1526
                1527
                1528
                1529
                1530
                1531
                1532
                1533
                1534
                1535
                1536
                1537
                1538
                1539
                1540
                1541
                1542
                1543
                1544
                1545
                1546
                1547
                1548
                1549
                1550
                1551
                1552
                1553
                1554
                1555
                1556
                1557
                1558
                1559
                1560
                1561
                1562
                1563
                1564
                1565
                1566
                1567
                1568
                1569
                1570
                1571
                1572
                1573
                1574
                1575
                1576
                1577
                1578
                1579
                1580
                1581
                1582
                1583
                1584
                1585
                1586
                1587
                1588
                1589
                1590
                1591
                1592
                1593
                1594
                1595
                1596
                1597
                1598
                1599
                1600
                1601
                1602
                1603
                1604
                1605
                1606
                1607
                1608
                1609
                1610
                1611
                1612
                1613
                1614
                1615
                1616
                1617
                1618
                1619
                1620
                1621
                1622
                1623
                1624
                1625
                1626
                1627
                1628
                1629
                1630
                1631
                1632
                1633
                1634
                1635
                1636
                1637
                1638
                1639
                1640
                1641
                1642
                1643
                1644
                1645
                1646
                1647
                1648
                1649
                1650
                1651
                1652
                1653
                1654
                1655
                1656
                1657
                1658
                1659
                1660
                1661
                1662
                1663
                1664
                1665
                1666
                1667
                1668
                1669
                1670
                1671
                1672
                1673
                1674
                1675
                1676
                1677
                1678
                1679
                1680
                1681
                1682
                1683
                1684
                1685
                1686
                1687
                1688
                1689
                1690
                1691
                1692
                1693
                1694
                1695
                1696
                1697
                1698
                1699
                1700
                1701
                1702
                1703
                1704
                1705
                1706
                1707
                1708
                1709
                1710
                1711
                1712
                1713
                1714
                1715
                1716
                1717
                1718
                1719
                1720
                1721
                1722
                1723
                1724
                1725
                1726
                1727
                1728
                1729
                1730
                1731
                1732
                1733
                1734
                1735
                1736
                1737
                1738
                1739
                1740
                1741
                1742
                1743
                1744
                1745
                1746
                1747
                1748
                1749
                1750
                1751
                1752
                1753
                1754
                1755
                1756
                1757
                1758
                1759
                1760
                1761
                1762
                1763
                1764
                1765
                1766
                1767
                1768
                1769
                1770
                1771
                1772
                1773
                1774
                1775
                1776
                1777
                1778
                1779
                1780
                1781
                1782
                1783
                1784
                1785
                1786
                1787
                1788
                1789
                1790
                1791
                1792
                1793
                1794
                1795
                1796
                1797
                1798
                1799
                1800
                1801
                1802
                1803
                1804
                1805
                1806
                1807
                1808
                1809
                1810
                1811
                1812
                1813
                1814
                1815
                1816
                1817
                1818
                1819
                1820
                1821
                1822
                1823
                1824
                1825
                1826
                1827
                1828
                1829
                1830
                1831
                1832
                1833
                1834
                1835
                1836
                1837
                1838
                1839
                1840
                1841
                1842
                1843
                1844
                1845
                1846
                1847
                1848
                1849
                1850
                1851
                1852
                1853
                1854
                1855
                1856
                1857
                1858
                1859
                1860
                1861
                1862
                1863
                1864
                1865
                1866
                1867
                1868
                1869
                1870
                1871
                1872
                1873
                1874
                1875
                1876
                1877
                1878
                1879
                1880
                1881
                1882
                1883
                1884
                1885
                1886
                1887
                1888
                1889
                1890
                1891
                1892
                1893
                1894
                1895
                1896
                1897
                1898
                1899
                1900
                1901
                1902
                1903
                1904
                1905
                1906
                1907
                1908
                1909
                1910
                1911
                1912
                1913
                1914
                1915
                1916
                1917
                1918
                1919
                1920
                1921
                1922
                1923
                1924
                1925
                1926
                1927
                1928
                1929
                1930
                1931
                1932
                1933
                1934
                1935
                1936
                1937
                1938
                1939
                1940
                1941
                1942
                1943
                1944
                1945
                1946
                1947
                1948
                1949
                1950
  
SCALARS                         bodyid  double 1
LOOKUP_TABLE default
                   1
                   1
                   1
                   1
                   1
                   1
                   1
                   1
                   1
                   1
                   1
                   1
                   1
                   1
                   1
                   1
                   1
                   1
                   1
                   1
                   1
                   1
                   1
                   1
                   1
                   1
                   1
                   1
                   1
                   1
                   1
                   1
                   1
                   1
                   1
                   1
                   1
                   1
                   1
                   1
                   1
                   1
                   1
                   1
                   1
                   1
                   1
                   1
                   1
                   1
                   1
                   1
                   1
                   1
                   1
                   1
                   1
                   1
                   1
                   1
                   1
                   1
                   1
                   1
                   1
                   1
                   1
                   1
                   1
                   1
                   1
                   1
                   1
                   1
                   1
                   1
                   1
                   1
                   1
                   1
                   1
                   1
                   1
                   1
                   1
                   1
                   1
                   1
                   1
                   1
                   1
                   1
                   1
                   1
                   1
                   1
                   1
                   1
                   1
                   1
                   1
                   1
                   1
                   1
                   1
                   1
                   1
                   1
                   1
                   1
                   1
                   1
                   1
                   1
                   1
                   1
                   1
                   1
                   1
                   1
                   1
                   1
                   1
                   1
                   1
                   1
                   1
                   1
                   1
                   1
                   1
                   1
                   1
                   1
                   1
                   1
                   1
                   1
                   1
                   1
                   1
                   1
                   1
                   1
                   1
                   1
                   1
                   1
                   1
                   1
                   1
                   1
                   1
                   1
                   1
                   1
                   1
                   1
                   1
                   1
                   1
                   1
                   1
                   1
                   1
                   1
                   1
                   1
                   1
                   1
                   1
                   1
                   1
                   1
                   1
                   1
                   1
                   1
                   1
                   1
                   1
                   1
                   1
                   1
                   1
                   1
                   1
                   1
                   1
                   1
                   1
                   1
                   1
                   1
                   1
                   1
                   1
                   1
                   1
                   1
                   1
                   1
                   1
                   1
                   1
                   1
                   1
                   1
                   1
                   1
                   1
                   1
                   1
                   1
                   1
                   1
                   1
                   1
                   1
                   1
                   1
                   1
                   1
                   1
                   1
                   1
                   1
                   1
                   1
                   1
                   1
                   1
                   1
                   1
                   1
                   1
                   1
                   1
                   1
                   1
                   1
                   1
                   1
                   1
                   1
                   1
                   1
                   1
                   1
                   1
                   1
                   1
                   1
                   1
                   1
                   1
                   1
                   1
                   1
                   1
                   1
                   1
                   1
                   1
                   1
                   1
                   1
                   1
                   1
                   1
                   1
                   1
                   1
                   1
                   1
                   1
                   1
                   1
                   1
                   1
                   1
                   1
                   1
                   1
                   1
                   1
                   1
                   1
                   1
                   1
                   1
                   1
                   1
                   1
                   1
                   1
                   1
                   1
                   1
                   1
                   1
                   1
                   1
                   1
                   1
                   1
                   1
                   1
                   1
                   1
                   1
                   1
                   1
                   1
                   1
                   1
                   1
                   1
                   1
                   1
                   1
                   1
                   1
                   1
                   1
                   1
                   1
                   1
                   1
                   1
                   1
                   1
                   1
                   1
                   1
                   1
                   1
                   1
                   1
                   1
                   1
                   1
                   1
                   1
                   1
                   1
                   1
                   1
                   1
                   1
                   1
                   1
                   1
                   1
                   1
                   1
                   1
                   1
                   1
                   1
                   1
                   1
                   1
                   1
                   1
                   1
                   1
                   1
                   1
                   1
                   1
                   1
                   1
                   1
                   1
                   1
                   1
                   1
                   1
                   1
                   1
                   1
                   1
                   1
                   1
                   1
                   1
                   1
                   1
                   1
                   1
                   1
                   1
                   1
                   1
                   1
                   1
                   1
                   1
                   1
                   1
                   1
                   1
                   1
                   1
                   1
                   1
                   1
                   1
                   1
                   1
                   1
                   1
                   1
                   1
                   1
                   1
                   1
                   1
                   1
                   1
                   1
                   1
                   1
                   1
                   1
                   1
                   1
                   1
                   1
                   1
                   1
                   1
                   1
                   1
                   1
                   1
                   1
                   1
                   1
                   1
                   1
                   1
                   1
                   1
                   1
                   1
                   1
                   1
                   1
                   1
                   1
                   1
                   1
                   1
                   1
                   1
                   1
                   1
                   1
                   1
                   1
                   1
                   1
                   1
                   1
                   1
                   1
                   1
                   1
                   1
                   1
                   1
                   1
                   1
                   1
                   1
                   1
                   1
                   1
                   1
                   1
                   1
                   1
                   1
                   1
                   1
                   1
                   1
                   1
                   1
                   1
                   1
                   1
                   1
                   1
                   1
                   1
                   1
                   1
                   1
                   1
                   1
                   1
                   1
                   1
                   1
                   1
                   1
                   1
                   1
                   1
                   1
                   1
                   1
                   1
                   1
                   1
                   1
                   1
                   1
                   1
                   1
                   1
                   1
                   1
                   1
                   1
                   1
                   1
                   1
                   1
                   1
                   1
                   1
                   1
                   1
                   1
                   1
                   1
                   1
                   1
                   1
                   1
                   1
                   1
                   1
                   1
                   1
                   1
                   1
                   1
                   1
                   1
                   1
                   1
                   1
                   1
                   1
                   1
                   1
                   1
                   1
                   1
                   1
                   1
                   1
                   1
                   1
                   1
                   1
                   1
                   1
                   1
                   1
                   1
                   1
                   1
                   1
                   1
                   1
                   1
                   1
                   1
                   1
                   1
                   1
                   1
                   1
                   1
                   1
                   1
                   1
                   1
                   1
                   1
                   1
                   1
                   1
                   1
                   1
                   1
                   1
                   1
                   1
                   1
                   1
                   1
                   1
                   1
                   1
                   1
                   1
                   1
                   1
                   1
                   1
                   1
                   1
                   1
                   1
                   1
                   1
                   1
                   1
                   1
                   1
                   1
                   1
                   1
                   1
                   1
                   1
                   1
                   1
                   1
                   1
                   1
                   1
                   1
                   1
                   1
                   1
                   1
                   1
                   1
                   1
                   1
                   1
                   1
                   1
                   1
                   1
                   1
                   1
                   1
                   1
                   1
                   1
                   1
                   1
                   1
                   1
                   1
                   1
                   1
                   1
                   1
                   1
                   1
                   1
                   1
                   1
                   1
                   1
                   1
                   1
                   1
                   1
                   1
                   1
                   1
                   1
                   1
                   1
                   1
                   1
                   1
                   1
                   1
                   1
                   1
                   1
                   1
                   1
                   1
                   1
                   1
                   1
                   1
                   1
                   1
                   1
                   1
                   1
                   1
                   1
                   1
                   1
                   1
                   1
                   1
                   1
                   1
                   1
                   1
                   1
                   1
                   1
                   1
                   1
                   1
                   1
                   1
                   1
                   1
                   1
                   1
                   1
                   1
                   1
                   1
                   1
                   1
                   1
                   1
                   1
                   1
                   1
                   1
                   1
                   1
                   1
                   1
                   1
                   1
                   1
                   1
                   1
                   1
                   1
                   1
                   1
                   1
                   1
                   1
                   1
                   1
                   1
                   1
                   1
                   1
                   1
                   1
                   1
                   1
                   1
                   1
                   1
                   1
                   1
                   1
                   1
                   1
                   1
                   1
                   1
                   1
                   1
                   1
                   1
                   1
                   1
                   1
                   1
                   1
                   1
                   1
                   1
                   1
                   1
                   1
                   1
                   1
                   1
                   1
                   1
                   1
                   1
                   1
                   1
                   1
                   1
                   1
                   1
                   1
                   1
                   1
                   1
                   1
                   1
                   1
                   1
                   1
                   1
                   1
                   1
                   1
                   1
                   1
                   1
                   1
                   1
                   1
                   1
                   1
                   1
                   1
                   1
                   1
                   1
                   1
                   1
                   1
                   1
                   1
                   1
                   1
                   1
                   1
                   1
                   1
                   1
                   1
                   1
                   1
                   1
                   1
                   1
                   1
                   1
                   1
                   1
                   1
                   1
                   1
                   1
                   1
                   1
                   1
                   1
                   1
                   1
                   1
                   1
                   1
                   1
                   1
                   1
                   1
                   1
                   1
                   1
                   1
                   1
                   1
                   1
                   1
                   1
                   1
                   1
                   1
                   1
                   1
                   1
                   1
                   1
                   1
                   1
                   1
                   1
                   1
                   1
                   1
                   1
                   1
                   1
                   1
                   1
                   1
                   1
                   1
                   1
                   1
                   1
                   1
                   1
                   1
                   1
                   1
                   1
                   1
                   1
                   1
                   1
                   1
                   1
                   1
                   1
                   1
                   1
                   1
                   1
                   1
                   1
                   1
                   1
                   1
                   1
                   1
                   1
                   1
                   1
                   1
                   1
                   1
                   1
                   1
                   1
                   1
                   1
                   1
                   1
                   1
                   1
                   1
                   1
                   1
                   1
                   1
                   1
                   1
                   1
                   1
                   1
                   1
                   1
                   1
                   1
                   1
                   1
                   1
                   1
                   1
                   1
                   1
                   1
                   1
                   1
                   1
                   1
                   1
                   1
                   1
                   1
                   1
                   1
                   1
                   1
                   1
                   1
                   1
                   1
                   1
                   1
                   1
                   1
                   1
                   1
                   1
                   1
                   1
                   1
                   1
                   1
                   1
                   1
                   1
                   1
                   1
                   1
                   1
                   1
                   1
                   1
                   1
                   1
                   1
                   1
                   1
                   1
                   1
                   1
                   1
                   1
                   1
                   1
                   1
                   1
                   1
                   1
                   1
                   1
                   1
                   1
                   1
                   1
                   1
                   1
                   1
                   1
                   1
                   1
                   1
                   1
                   1
                   1
                   1
                   1
                   1
                   1
                   1
                   1
                   1
                   1
                   1
                   1
                   1
                   1
                   1
                   1
                   1
                   1
                   1
                   1
                   1
                   1
                   1
                   1
                   1
                   1
                   1
                   1
                   1
                   1
                   1
                   1
                   1
                   1
                   1
                   1
                   1
                   1
                   1
                   1
                   1
                   1
                   1
                   1
                   1
                   1
                   1
                   1
                   1
                   1
                   1
                   1
                   1
                   1
                   1
                   1
                   1
                   1
                   1
                   1
                   1
                   1
                   1
                   1
                   1
                   1
                   1
                   1
                   1
                   1
                   1
                   1
                   1
                   1
                   1
                   1
                   1
                   1
                   1
                   1
                   1
                   1
                   1
                   1
                   1
                   1
                   1
                   1
                   1
                   1
                   1
                   1
                   1
                   1
                   1
                   1
                   1
                   1
                   1
                   1
                   1
                   1
                   1
                   1
                   1
                   1
                   1
                   1
                   1
                   1
                   1
                   1
                   1
                   1
                   1
                   1
                   1
                   1
                   1
                   1
                   1
                   1
                   1
                   1
                   1
                   1
                   1
                   1
                   1
                   1
                   1
                   1
                   1
                   1
                   1
                   1
                   1
                   1
                   1
                   1
                   1
                   1
                   1
                   1
                   1
                   1
                   1
                   1
                   1
                   1
                   1
                   1
                   1
                   1
                   1
                   1
                   1
                   1
                   1
                   1
                   1
                   1
                   1
                   1
                   1
                   1
                   1
                   1
                   1
                   1
                   1
                   1
                   1
                   1
                   1
                   1
                   1
                   1
                   1
                   1
                   1
                   1
                   1
                   1
                   1
                   1
                   1
                   1
                   1
                   1
                   1
                   1
                   1
                   1
                   1
                   1
                   1
                   1
                   1
                   1
                   1
                   1
                   1
                   1
                   1
                   1
                   1
                   1
                   1
                   1
                   1
                   1
                   1
                   1
                   1
                   1
                   1
                   1
                   1
                   1
                   1
                   1
                   1
                   1
                   1
                   1
                   1
                   1
                   1
                   1
                   1
                   1
                   1
                   1
                   1
                   1
                   1
                   1
                   1
                   1
                   1
                   1
                   1
                   1
                   1
                   1
                   1
                   1
                   1
                   1
                   1
                   1
                   1
                   1
                   1
                   1
                   1
                   1
                   1
                   1
                   1
                   1
                   1
                   1
                   1
                   1
                   1
                   1
                   1
                   1
                   1
                   1
                   1
                   1
                   1
                   1
                   1
                   1
                   1
                   1
                   1
                   1
                   1
                   1
                   1
                   1
                   1
                   1
                   1
                   1
                   1
                   1
                   1
                   1
                   1
                   1
                   1
                   1
                   1
                   1
                   1
                   1
                   1
                   1
                   1
                   1
                   1
                   1
                   1
                   1
                   1
                   1
                   1
                   1
                   1
                   1
                   1
                   1
                   1
                   1
                   1
                   1
                   1
                   1
                   1
                   1
                   1
                   1
                   1
                   1
                   1
                   1
                   1
                   1
                   1
                   1
                   1
                   1
                   1
                   1
                   1
                   1
                   1
                   1
                   1
                   1
                   1
                   1
                   1
                   1
                   1
                   1
                   1
                   1
                   1
                   1
                   1
                   1
                   1
                   1
                   1
                   1
                   1
                   1
                   1
                   1
                   1
                   1
                   1
                   1
                   1
                   1
                   1
                   1
                   1
                   1
                   1
                   1
                   1
                   1
                   1
                   1
                   1
                   1
                   1
                   1
                   1
                   1
                   1
                   1
                   1
                   1
                   1
                   1
                   1
                   1
                   1
                   1
                   1
                   1
                   1
                   1
                   1
                   1
                   1
                   1
                   1
                   1
                   1
                   1
                   1
                   1
                   1
                   1
                   1
                   1
                   1
                   1
                   1
                   1
                   1
                   1
                   1
                   1
                   1
                   1
                   1
                   1
                   1
                   1
                   1
                   1
                   1
                   1
                   1
                   1
                   1
                   1
                   1
                   1
                   1
                   1
                   1
                   1
                   1
                   1
                   1
                   1
                   1
                   1
                   1
                   1
                   1
                   1
                   1
                   1
                   1
                   1
                   1
                   1
                   1
                   1
                   1
                   1
                   1
                   1
                   1
                   1
                   1
                   1
                   1
                   1
                   1
                   1
                   1
                   1
                   1
                   1
                   1
                   1
                   1
                   1
                   1
                   1
                   1
                   1
                   1
                   1
                   1
                   1
                   1
                   1
                   1
                   1
                   1
                   1
                   1
                   1
                   1
                   1
                   1
                   1
                   1
                   1
                   1
                   1
                   1
                   1
                   1
                   1
                   1
                   1
                   1
                   1
                   1
                   1
                   1
                   1
                   1
                   1
                   1
                   1
                   1
                   1
                   1
                   1
                   1
                   1
                   1
                   1
                   1
                   1
                   1
                   1
                   1
                   1
                   1
                   1
                   1
                   1
                   1
                   1
                   1
                   1
                   1
                   1
                   1
                   1
                   1
                   1
                   1
                   1
                   1
                   1
                   1
                   1
                   1
                   1
                   1
                   1
                   1
                   1
                   1
                   1
                   1
                   1
                   1
                   1
                   1
                   1
                   1
                   1
                   1
                   1
                   1
                   1
                   1
                   1
                   1
                   1
                   1
                   1
                   1
                   1
                   1
                   1
                   1
                   1
                   1
                   1
                   1
                   1
                   1
                   1
                   1
                   1
                   1
                   1
                   1
                   1
                   1
                   1
                   1
                   1
                   1
                   1
                   1
                   1
                   1
                   1
                   1
                   1
                   1
                   1
                   1
                   1
                   1
                   1
                   1
                   1
                   1
                   1
                   1
                   1
                   1
                   1
                   1
                   1
                   1
                   1
                   1
                   1
                   1
                   1
                   1
                   1
                   1
                   1
                   1
                   1
                   1
                   1
                   1
                   1
                   1
                   1
                   1
                   1
                   1
                   1
                   1
                   1
                   1
                   1
                   1
                   1
                   1
                   1
                   1
                   1
                   1
                   1
                   1
                   1
                   1
                   1
                   1
                   1
                   1
                   1
                   1
                   1
                   1
                   1
                   1
                   1
                   1
                   1
                   1
                   1
                   1
                   1
                   1
                   1
                   1
                   1
                   1
                   1
                   1
                   1
                   1
                   1
                   1
                   1
                   1
                   1
                   1
                   1
                   1
                   1
                   1
                   1
                   1
                   1
                   1
                   1
                   1
                   1
                   1
                   1
                   1
                   1
                   1
                   1
                   1
                   1
                   1
                   1
                   1
                   1
                   1
                   1
                   1
                   1
                   1
                   1
                   1
                   1
                   1
                   1
                   1
                   1
                   1
                   1
                   1
                   1
                   1
                   1
                   1
                   1
                   1
                   1
                   1
                   1
                   1
                   1
                   1
                   1
                   1
                   1
                   1
                   1
                   1
                   1
                   1
                   1
                   1
                   1
                   1
                   1
                   1
                   1
                   1
                   1
                   1
                   1
                   1
                   1
                   1
                   1
                   1
                   1
                   1
                   1
                   1
                   1
                   1
                   1
                   1
                   1
                   1
                   1
                   1
                   1
                   1
                   1
                   1
                   1
                   1
                   1
                   1
                   1
                   1
                   1
                   1
                   1
                   1
                   1
                   1
                   1
                   1
                   1
                   1
                   1
                   1
                   1
                   1
                   1
                   1
                   1
                   1
                   1
                   1
                   1
                   1
                   1
                   1
                   1
                   1
                   1
                   1
                   1
                   1
                   1
                   1
                   1
                   1
                   1
                   1
                   1
                   1
                   1
                   1
                   1
                   1
                   1
                   1
                   1
                   1
                   1
                   1
                   1
                   1
                   1
                   1
                   1
                   1
                   1
                   1
                   1
                   1
                   1
                   1
                   1
                   1
                   1
                   1
                   1
                   1
                   1
                   1
                   1
                   1
                   1
                   1
                   1
                   1
                   1
                   1
                   1
                   1
                   1
                   1
                   1
                   1
                   1
                   1
                   1
                   1
                   1
                   1
                   1
                   1
                   1
                   1
                   1
                   1
                   1
                   1
                   1
                   1
                   1
                   1
                   1
                   1
                   1
                   1
                   1
                   1
                   1
                   1
                   1
                   1
                   1
                   1
                   1
                   1
                   1
                   1
                   1
                   1
                   1
                   1
                   1
                   1
  
SCALARS                  material_type  double 1
LOOKUP_TABLE default
                   2
                   2
                   2
                   2
                   2
                   2
                   2
                   2
                   2
                   2
                   2
                   2
                   2
                   2
                   2
                   2
                   2
                   2
                   2
                   2
                   2
                   2
                   2
                   2
                   2
                   2
                   2
                   2
                   2
                   2
                   2
                   2
                   2
                   2
                   2
                   2
                   2
                   2
                   2
                   2
                   2
                   2
                   2
                   2
                   2
                   2
                   2
                   2
                   2
                   2
                   2
                   2
                   2
                   2
                   2
                   2
                   2
                   2
                   2
                   2
                   2
                   2
                   2
                   2
                   2
                   2
                   2
                   2
                   2
                   2
                   2
                   2
                   2
                   2
                   2
                   2
                   2
                   2
                   2
                   2
                   2
                   2
                   2
                   2
                   2
                   2
                   2
                   2
                   2
                   2
                   2
                   2
                   2
                   2
                   2
                   2
                   2
                   2
                   2
                   2
                   2
                   2
                   2
                   2
                   2
                   2
                   2
                   2
                   2
                   2
                   2
                   2
                   2
                   2
                   2
                   2
                   2
                   2
                   2
                   2
                   2
                   2
                   2
                   2
                   2
                   2
                   2
                   2
                   2
                   2
                   2
                   2
                   2
                   2
                   2
                   2
                   2
                   2
                   2
                   2
                   2
                   2
                   2
                   2
                   2
                   2
                   2
                   2
                   2
                   2
                   2
                   2
                   2
                   2
                   2
                   2
                   2
                   2
                   2
                   2
                   2
                   2
                   2
                   2
                   2
                   2
                   2
                   2
                   2
                   2
                   2
                   2
                   2
                   2
                   2
                   2
                   2
                   2
                   2
                   2
                   2
                   2
                   2
                   2
                   2
                   2
                   2
                   2
                   2
                   2
                   2
                   2
                   2
                   2
                   2
                   2
                   2
                   2
                   2
                   2
                   2
                   2
                   2
                   2
                   2
                   2
                   2
                   2
                   2
                   2
                   2
                   2
                   2
                   2
                   2
                   2
                   2
                   2
                   2
                   2
                   2
                   2
                   2
                   2
                   2
                   2
                   2
                   2
                   2
                   2
                   2
                   2
                   2
                   2
                   2
                   2
                   2
                   2
                   2
                   2
                   2
                   2
                   2
                   2
                   2
                   2
                   2
                   2
                   2
                   2
                   2
                   2
                   2
                   2
                   2
                   2
                   2
                   2
                   2
                   2
                   2
                   2
                   2
                   2
                   2
                   2
                   2
                   2
                   2
                   2
                   2
                   2
                   2
                   2
                   2
                   2
                   2
                   2
                   2
                   2
                   2
                   2
                   2
                   2
                   2
                   2
                   2
                   2
                   2
                   2
                   2
                   2
                   2
                   2
                   2
                   2
                   2
                   2
                   2
                   2
                   2
                   2
                   2
                   2
                   2
                   2
                   2
                   2
                   2
                   2
                   2
                   2
                   2
                   2
                   2
                   2
                   2
                   2
                   2
                   2
                   2
                   2
                   2
                   2
                   2
                   2
                   2
                   2
                   2
                   2
                   2
                   2
                   2
                   2
                   2
                   2
                   2
                   2
                   2
                   2
                   2
                   2
                   2
                   2
                   2
                   2
                   2
                   2
                   2
                   2
                   2
                   2
                   2
                   2
                   2
                   2
                   2
                   2
                   2
                   2
                   2
                   2
                   2
                   2
                   2
                   2
                   2
                   2
                   2
                   2
                   2
                   2
                   2
                   2
                   2
                   2
                   2
                   2
                   2
                   2
                   2
                   2
                   2
                   2
                   2
                   2
                   2
                   2
                   2
                   2
                   2
                   2
                   2
                   2
                   2
                   2
                   2
                   2
                   2
                   2
                   2
                   2
                   2
                   2
                   2
                   2
                   2
                   2
                   2
                   2
                   2
                   2
                   2
                   2
                   2
                   2
                   2
                   2
                   2
                   2
                   2
                   2
                   2
                   2
                   2
                   2
                   2
                   2
                   2
                   2
                   2
                   2
                   2
                   2
                   2
                   2
                   2
                   2
                   2
                   2
                   2
                   2
                   2
                   2
                   2
                   2
                   2
                   2
                   2
                   2
                   2
                   2
                   2
                   2
                   2
                   2
                   2
                   2
                   2
                   2
                   2
                   2
                   2
                   2
                   2
                   2
                   2
                   2
                   2
                   2
                   2
                   2
                   2
                   2
                   2
                   2
                   2
                   2
                   2
                   2
                   2
                   2
                   2
                   2
                   2
                   2
                   2
                   2
                   2
                   2
                   2
                   2
                   2
                   2
                   2
                   2
                   2
                   2
                   2
                   2
                   2
                   2
                   2
                   2
                   2
                   2
                   2
                   2
                   2
                   2
                   2
                   2
                   2
                   2
                   2
                   2
                   2
                   2
                   2
                   2
                   2
                   2
                   2
                   2
                   2
                   2
                   2
                   2
                   2
                   2
                   2
                   2
                   2
                   2
                   2
                   2
                   2
                   2
                   2
                   2
                   2
                   2
                   2
                   2
                   2
                   2
                   2
                   2
                   2
                   2
                   2
                   2
                   2
                   2
                   2
                   2
                   2
                   2
                   2
                   2
                   2
                   2
                   2
                   2
                   2
                   2
                   2
                   2
                   2
                   2
                   2
                   2
                   2
                   2
                   2
                   2
                   2
                   2
                   2
                   2
                   2
                   2
                   2
                   2
                   2
                   2
                   2
                   2
                   2
                   2
                   2
                   2
                   2
                   2
                   2
                   2
                   2
                   2
                   2
                   2
                   2
                   2
                   2
                   2
                   2
                   2
                   2
                   2
                   2
                   2
                   2
                   2
                   2
                   2
                   2
                   2
                   2
                   2
                   2
                   2
                   2
                   2
                   2
                   2
                   2
                   2
                   2
                   2
                   2
                   2
                   2
                   2
                   2
                   2
                   2
                   2
                   2
                   2
                   2
                   2
                   2
                   2
                   2
                   2
                   2
                   2
                   2
                   2
                   2
                   2
                   2
                   2
                   2
                   2
                   2
                   2
                   2
                   2
                   2
                   2
                   2
                   2
                   2
                   2
                   2
                   2
                   2
                   2
                   2
                   2
                   2
                   2
                   2
                   2
                   2
                   2
                   2
                   2
                   2
                   2
                   2
                   2
                   2
                   2
                   2
                   2
                   2
                   2
                   2
                   2
                   2
                   2
                   2
                   2
                   2
                   2
                   2
                   2
                   2
                   2
                   2
                   2
                   2
                   2
                   2
                   2
                   2
                   2
                   2
                   2
                   2
                   2
                   2
                   2
                   2
                   2
                   2
                   2
                   2
                   2
                   2
                   2
                   2
                   2
                   2
                   2
                   2
                   2
                   2
                   2
                   2
                   2
                   2
                   2
                   2
                   2
                   2
                   2
                   2
                   2
                   2
                   2
                   2
                   2
                   2
                   2
                   2
                   2
                   2
                   2
                   2
                   2
                   2
                   2
                   2
                   2
                   2
                   2
                   2
                   2
                   2
                   2
                   2
                   2
                   2
                   2
                   2
                   2
                   2
                   2
                   2
                   2
                   2
                   2
                   2
                   2
                   2
                   2
                   2
                   2
                   2
                   2
                   2
                   2
                   2
                   2
                   2
                   2
                   2
                   2
                   2
                   2
                   2
                   2
                   2
                   2
                   2
                   2
                   2
                   2
                   2
                   2
                   2
                   2
                   2
                   2
                   2
                   2
                   2
                   2
                   2
                   2
                   2
                   2
                   2
                   2
                   2
                   2
                   2
                   2
                   2
                   2
                   2
                   2
                   2
                   2
                   2
                   2
                   2
                   2
                   2
                   2
                   2
                   2
                   2
                   2
                   2
                   2
                   2
                   2
                   2
                   2
                   2
                   2
                   2
                   2
                   2
                   2
                   2
                   2
                   2
                   2
                   2
                   2
                   2
                   2
                   2
                   2
                   2
                   2
                   2
                   2
                   2
                   2
                   2
                   2
                   2
                   2
                   2
                   2
                   2
                   2
                   2
                   2
                   2
                   2
                   2
                   2
                   2
                   2
                   2
                   2
                   2
                   2
                   2
                   2
                   2
                   2
                   2
                   2
                   2
                   2
                   2
                   2
                   2
                   2
                   2
                   2
                   2
                   2
                   2
                   2
                   2
                   2
                   2
                   2
                   2
                   2
                   2
                   2
                   2
                   2
                   2
                   2
                   2
                   2
                   2
                   2
                   2
                   2
                   2
                   2
                   2
                   2
                   2
                   2
                   2
                   2
                   2
                   2
                   2
                   2
                   2
                   2
                   2
                   2
                   2
                   2
                   2
                   2
                   2
                   2
                   2
                   2
                   2
                   2
                   2
                   2
                   2
                   2
                   2
                   2
                   2
                   2
                   2
                   2
                   2
                   2
                   2
                   2
                   2
                   2
                   2
                   2
                   2
                   2
                   2
                   2
                   2
                   2
                   2
                   2
                   2
                   2
                   2
                   2
                   2
                   2
                   2
                   2
                   2
                   2
                   2
                   2
                   2
                   2
                   2
                   2
                   2
                   2
                   2
                   2
                   2
                   2
                   2
                   2
                   2
                   2
                   2
                   2
                   2
                   2
                   2
                   2
                   2
                   2
                   2
                   2
                   2
                   2
                   2
                   2
                   2
                   2
                   2
                   2
                   2
                   2
                   2
                   2
                   2
                   2
                   2
                   2
                   2
                   2
                   2
                   2
                   2
                   2
                   2
                   2
                   2
                   2
                   2
                   2
                   2
                   2
                   2
                   2
                   2
                   2
                   2
                   2
                   2
                   2
                   2
                   2
                   2
                   2
                   2
                   2
                   2
                   2
                   2
                   2
                   2
                   2
                   2
                   2
                   2
                   2
                   2
                   2
                   2
                   2
                   2
                   2
                   2
                   2
                   2
                   2
                   2
                   2
                   2
                   2
                   2
                   2
                   2
                   2
                   2
                   2
                   2
                   2
                   2
                   2
                   2
                   2
                   2
                   2
                   2
                   2
                   2
                   2
                   2
                   2
                   2
                   2
                   2
                   2
                   2
                   2
                   2
                   2
                   2
                   2
                   2
                   2
                   2
                   2
                   2
                   2
                   2
                   2
                   2
                   2
                   2
                   2
                   2
                   2
                   2
                   2
                   2
                   2
                   2
                   2
                   2
                   2
                   2
                   2
                   2
                   2
                   2
                   2
                   2
                   2
                   2
                   2
                   2
                   2
                   2
                   2
                   2
                   2
                   2
                   2
                   2
                   2
                   2
                   2
                   2
                   2
                   2
                   2
                   2
                   2
                   2
                   2
                   2
                   2
                   2
                   2
                   2
                   2
                   2
                   2
                   2
                   2
                   2
                   2
                   2
                   2
                   2
                   2
                   2
                   2
                   2
                   2
                   2
                   2
                   2
                   2
                   2
                   2
                   2
                   2
                   2
                   2
                   2
                   2
                   2
                   2
                   2
                   2
                   2
                   2
                   2
                   2
                   2
                   2
                   2
                   2
                   2
                   2
                   2
                   2
                   2
                   2
                   2
                   2
                   2
                   2
                   2
                   2
                   2
                   2
                   2
                   2
                   2
                   2
                   2
                   2
                   2
                   2
                   2
                   2
                   2
                   2
                   2
                   2
                   2
                   2
                   2
                   2
                   2
                   2
                   2
                   2
                   2
                   2
                   2
                   2
                   2
                   2
                   2
                   2
                   2
                   2
                   2
                   2
                   2
                   2
                   2
                   2
                   2
                   2
                   2
                   2
                   2
                   2
                   2
                   2
                   2
                   2
                   2
                   2
                   2
                   2
                   2
                   2
                   2
                   2
                   2
                   2
                   2
                   2
                   2
                   2
                   2
                   2
                   2
                   2
                   2
                   2
                   2
                   2
                   2
                   2
                   2
                   2
                   2
                   2
                   2
                   2
                   2
                   2
                   2
                   2
                   2
                   2
                   2
                   2
                   2
                   2
                   2
                   2
                   2
                   2
                   2
                   2
                   2
                   2
                   2
                   2
                   2
                   2
                   2
                   2
                   2
                   2
                   2
                   2
                   2
                   2
                   2
                   2
                   2
                   2
                   2
                   2
                   2
                   2
                   2
                   2
                   2
                   2
                   2
                   2
                   2
                   2
                   2
                   2
                   2
                   2
                   2
                   2
                   2
                   2
                   2
                   2
                   2
                   2
                   2
                   2
                   2
                   2
                   2
                   2
                   2
                   2
                   2
                   2
                   2
                   2
                   2
                   2
                   2
                   2
                   2
                   2
                   2
                   2
                   2
                   2
                   2
                   2
                   2
                   2
                   2
                   2
                   2
                   2
                   2
                   2
                   2
                   2
                   2
                   2
                   2
                   2
                   2
                   2
                   2
                   2
                   2
                   2
                   2
                   2
                   2
                   2
                   2
                   2
                   2
                   2
                   2
                   2
                   2
                   2
                   2
                   2
                   2
                   2
                   2
                   2
                   2
                   2
                   2
                   2
                   2
                   2
                   2
                   2
                   2
                   2
                   2
                   2
                   2
                   2
                   2
                   2
                   2
                   2
                   2
                   2
                   2
                   2
                   2
                   2
                   2
                   2
                   2
                   2
                   2
                   2
                   2
                   2
                   2
                   2
                   2
                   2
                   2
                   2
                   2
                   2
                   2
                   2
                   2
                   2
                   2
                   2
                   2
                   2
                   2
                   2
                   2
                   2
                   2
                   2
                   2
                   2
                   2
                   2
                   2
                   2
                   2
                   2
                   2
                   2
                   2
                   2
                   2
                   2
                   2
                   2
                   2
                   2
                   2
                   2
                   2
                   2
                   2
                   2
                   2
                   2
                   2
                   2
                   2
                   2
                   2
                   2
                   2
                   2
                   2
                   2
                   2
                   2
                   2
                   2
                   2
                   2
                   2
                   2
                   2
                   2
                   2
                   2
                   2
                   2
                   2
                   2
                   2
                   2
                   2
                   2
                   2
                   2
                   2
                   2
                   2
                   2
                   2
                   2
                   2
                   2
                   2
                   2
                   2
                   2
                   2
                   2
                   2
                   2
                   2
                   2
                   2
                   2
                   2
                   2
                   2
                   2
                   2
                   2
                   2
                   2
                   2
                   2
                   2
                   2
                   2
                   2
                   2
                   2
                   2
                   2
                   2
                   2
                   2
                   2
                   2
                   2
                   2
                   2
                   2
                   2
                   2
                   2
                   2
                   2
                   2
                   2
                   2
                   2
                   2
                   2
                   2
                   2
                   2
                   2
                   2
                   2
                   2
                   2
                   2
                   2
                   2
                   2
                   2
                   2
                   2
                   2
                   2
                   2
                   2
                   2
                   2
                   2
                   2
                   2
                   2
                   2
                   2
                   2
                   2
                   2
                   2
                   2
                   2
                   2
                   2
                   2
                   2
                   2
                   2
                   2
                   2
                   2
                   2
                   2
                   2
                   2
                   2
                   2
                   2
                   2
                   2
                   2
                   2
                   2
                   2
                   2
                   2
                   2
                   2
                   2
                   2
                   2
                   2
                   2
                   2
                   2
                   2
                   2
                   2
                   2
                   2
                   2
                   2
                   2
                   2
                   2
                   2
                   2
                   2
                   2
                   2
                   2
                   2
                   2
                   2
                   2
                   2
                   2
                   2
                   2
                   2
                   2
                   2
                   2
                   2
                   2
                   2
                   2
                   2
                   2
                   2
                   2
                   2
                   2
                   2
                   2
                   2
                   2
                   2
                   2
                   2
                   2
                   2
                   2
                   2
                   2
                   2
                   2
                   2
                   2
                   2
                   2
                   2
                   2
                   2
                   2
                   2
                   2
                   2
                   2
                   2
                   2
                   2
                   2
                   2
                   2
                   2
                   2
                   2
                   2
                   2
                   2
                   2
                   2
                   2
                   2
                   2
                   2
                   2
                   2
                   2
                   2
                   2
                   2
                   2
                   2
                   2
                   2
                   2
                   2
                   2
                   2
                   2
                   2
                   2
                   2
                   2
                   2
                   2
                   2
                   2
                   2
                   2
                   2
                   2
                   2
                   2
                   2
                   2
                   2
                   2
                   2
                   2
                   2
                   2
                   2
                   2
                   2
                   2
                   2
                   2
                   2
                   2
                   2
                   2
                   2
                   2
                   2
                   2
                   2
                   2
                   2
                   2
                   2
                   2
                   2
                   2
                   2
                   2
                   2
                   2
                   2
                   2
                   2
                   2
                   2
                   2
                   2
                   2
                   2
                   2
                   2
                   2
                   2
                   2
                   2
                   2
                   2
                   2
                   2
                   2
                   2
                   2
                   2
                   2
                   2
                   2
                   2
                   2
                   2
                   2
                   2
                   2
                   2
                   2
                   2
                   2
                   2
                   2
                   2
                   2
                   2
                   2
                   2
                   2
                   2
                   2
                   2
                   2
                   2
                   2
                   2
                   2
                   2
                   2
                   2
                   2
                   2
                   2
                   2
                   2
                   2
                   2
                   2
                   2
                   2
                   2
                   2
                   2
                   2
                   2
                   2
                   2
                   2
                   2
                   2
                   2
                   2
                   2
                   2
                   2
                   2
                   2
                   2
                   2
                   2
                   2
                   2
                   2
                   2
                   2
                   2
                   2
                   2
                   2
                   2
                   2
                   2
                   2
                   2
                   2
                   2
                   2
                   2
                   2
                   2
                   2
                   2
                   2
                   2
                   2
                   2
                   2
                   2
                   2
                   2
                   2
                   2
                   2
                   2
                   2
                   2
                   2
                   2
                   2
                   2
                   2
                   2
                   2
                   2
                   2
                   2
                   2
                   2
                   2
                   2
                   2
                   2
                   2
                   2
                   2
                   2
                   2
                   2
                   2
                   2
                   2
                   2
                   2
                   2
                   2
                   2
                   2
                   2
                   2
                   2
  
SCALARS                       fixity_x  double 1
LOOKUP_TABLE default
                   0
                   0
                   0
                   0
                   0
                   0
                   0
                   0
                   0
                   0
                   0
                   0
                   0
                   0
                   0
                   0
                   0
                   0
                   0
                   0
                   0
                   0
                   0
                   0
                   0
                   0
                   0
                   0
                   0
                   0
                   0
                   0
                   0
                   0
                   0
                   0
                   0
                   0
                   0
                   0
                   0
                   0
                   0
                   0
                   0
                   0
                   0
                   0
                   0
                   0
                   0
                   0
                   0
                   0
                   0
                   0
                   0
                   0
                   0
                   0
                   0
                   0
                   0
                   0
                   0
                   0
                   0
                   0
                   0
                   0
                   0
                   0
                   0
                   0
                   0
                   0
                   0
                   0
                   0
                   0
                   0
                   0
                   0
                   0
                   0
                   0
                   0
                   0
                   0
                   0
                   0
                   0
                   0
                   0
                   0
                   0
                   0
                   0
                   0
                   0
                   0
                   0
                   0
                   0
                   0
                   0
                   0
                   0
                   0
                   0
                   0
                   0
                   0
                   0
                   0
                   0
                   0
                   0
                   0
                   0
                   0
                   0
                   0
                   0
                   0
                   0
                   0
                   0
                   0
                   0
                   0
                   0
                   0
                   0
                   0
                   0
                   0
                   0
                   0
                   0
                   0
                   0
                   0
                   0
                   0
                   0
                   0
                   0
                   0
                   0
                   0
                   0
                   0
                   0
                   0
                   0
                   0
                   0
                   0
                   0
                   0
                   0
                   0
                   0
                   0
                   0
                   0
                   0
                   0
                   0
                   0
                   0
                   0
                   0
                   0
                   0
                   0
                   0
                   0
                   0
                   0
                   0
                   0
                   0
                   0
                   0
                   0
                   0
                   0
                   0
                   0
                   0
                   0
                   0
                   0
                   0
                   0
                   0
                   0
                   0
                   0
                   0
                   0
                   0
                   0
                   0
                   0
                   0
                   0
                   0
                   0
                   0
                   0
                   0
                   0
                   0
                   0
                   0
                   0
                   0
                   0
                   0
                   0
                   0
                   0
                   0
                   0
                   0
                   0
                   0
                   0
                   0
                   0
                   0
                   0
                   0
                   0
                   0
                   0
                   0
                   0
                   0
                   0
                   0
                   0
                   0
                   0
                   0
                   0
                   0
                   0
                   0
                   0
                   0
                   0
                   0
                   0
                   0
                   0
                   0
                   0
                   0
                   0
                   0
                   0
                   0
                   0
                   0
                   0
                   0
                   0
                   0
                   0
                   0
                   0
                   0
                   0
                   0
                   0
                   0
                   0
                   0
                   0
                   0
                   0
                   0
                   0
                   0
                   0
                   0
                   0
                   0
                   0
                   0
                   0
                   0
                   0
                   0
                   0
                   0
                   0
                   0
                   0
                   0
                   0
                   0
                   0
                   0
                   0
                   0
                   0
                   0
                   0
                   0
                   0
                   0
                   0
                   0
                   0
                   0
                   0
                   0
                   0
                   0
                   0
                   0
                   0
                   0
                   0
                   0
                   0
                   0
                   0
                   0
                   0
                   0
                   0
                   0
                   0
                   0
                   0
                   0
                   0
                   0
                   0
                   0
                   0
                   0
                   0
                   0
                   0
                   0
                   0
                   0
                   0
                   0
                   0
                   0
                   0
                   0
                   0
                   0
                   0
                   0
                   0
                   0
                   0
                   0
                   0
                   0
                   0
                   0
                   0
                   0
                   0
                   0
                   0
                   0
                   0
                   0
                   0
                   0
                   0
                   0
                   0
                   0
                   0
                   0
                   0
                   0
                   0
                   0
                   0
                   0
                   0
                   0
                   0
                   0
                   0
                   0
                   0
                   0
                   0
                   0
                   0
                   0
                   0
                   0
                   0
                   0
                   0
                   0
                   0
                   0
                   0
                   0
                   0
                   0
                   0
                   0
                   0
                   0
                   0
                   0
                   0
                   0
                   0
                   0
                   0
                   0
                   0
                   0
                   0
                   0
                   0
                   0
                   0
                   0
                   0
                   0
                   0
                   0
                   0
                   0
                   0
                   0
                   0
                   0
                   0
                   0
                   0
                   0
                   0
                   0
                   0
                   0
                   0
                   0
                   0
                   0
                   0
                   0
                   0
                   0
                   0
                   0
                   0
                   0
                   0
                   0
                   0
                   0
                   0
                   0
                   0
                   0
                   0
                   0
                   0
                   0
                   0
                   0
                   0
                   0
                   0
                   0
                   0
                   0
                   0
                   0
                   0
                   0
                   0
                   0
                   0
                   0
                   0
                   0
                   0
                   0
                   0
                   0
                   0
                   0
                   0
                   0
                   0
                   0
                   0
                   0
                   0
                   0
                   0
                   0
                   0
                   0
                   0
                   0
                   0
                   0
                   0
                   0
                   0
                   0
                   0
                   0
                   0
                   0
                   0
                   0
                   0
                   0
                   0
                   0
                   0
                   0
                   0
                   0
                   0
                   0
                   0
                   0
                   0
                   0
                   0
                   0
                   0
                   0
                   0
                   0
                   0
                   0
                   0
                   0
                   0
                   0
                   0
                   0
                   0
                   0
                   0
                   0
                   0
                   0
                   0
                   0
                   0
                   0
                   0
                   0
                   0
                   0
                   0
                   0
                   0
                   0
                   0
                   0
                   0
                   0
                   0
                   0
                   0
                   0
                   0
                   0
                   0
                   0
                   0
                   0
                   0
                   0
                   0
                   0
                   0
                   0
                   0
                   0
                   0
                   0
                   0
                   0
                   0
                   0
                   0
                   0
                   0
                   0
                   0
                   0
                   0
                   0
                   0
                   0
                   0
                   0
                   0
                   0
                   0
                   0
                   0
                   0
                   0
                   0
                   0
                   0
                   0
                   0
                   0
                   0
                   0
                   0
                   0
                   0
                   0
                   0
                   0
                   0
                   0
                   0
                   0
                   0
                   0
                   0
                   0
                   0
                   0
                   0
                   0
                   0
                   0
                   0
                   0
                   0
                   0
                   0
                   0
                   0
                   0
                   0
                   0
                   0
                   0
                   0
                   0
                   0
                   0
                   0
                   0
                   0
                   0
                   0
                   0
                   0
                   0
                   0
                   0
                   0
                   0
                   0
                   0
                   0
                   0
                   0
                   0
                   0
                   0
                   0
                   0
                   0
                   0
                   0
                   0
                   0
                   0
                   0
                   0
                   0
                   0
                   0
                   0
                   0
                   0
                   0
                   0
                   0
                   0
                   0
                   0
                   0
                   0
                   0
                   0
                   0
                   0
                   0
                   0
                   0
                   0
                   0
                   0
                   0
                   0
                   0
                   0
                   0
                   0
                   0
                   0
                   0
                   0
                   0
                   0
                   0
                   0
                   0
                   0
                   0
                   0
                   0
                   0
                   0
                   0
                   0
                   0
                   0
                   0
                   0
                   0
                   0
                   0
                   0
                   0
                   0
                   0
                   0
                   0
                   0
                   0
                   0
                   0
                   0
                   0
                   0
                   0
                   0
                   0
                   0
                   0
                   0
                   0
                   0
                   0
                   0
                   0
                   0
                   0
                   0
                   0
                   0
                   0
                   0
                   0
                   0
                   0
                   0
                   0
                   0
                   0
                   0
                   0
                   0
                   0
                   0
                   0
                   0
                   0
                   0
                   0
                   0
                   0
                   0
                   0
                   0
                   0
                   0
                   0
                   0
                   0
                   0
                   0
                   0
                   0
                   0
                   0
                   0
                   0
                   0
                   0
                   0
                   0
                   0
                   0
                   0
                   0
                   0
                   0
                   0
                   0
                   0
                   0
                   0
                   0
                   0
                   0
                   0
                   0
                   0
                   0
                   0
                   0
                   0
                   0
                   0
                   0
                   0
                   0
                   0
                   0
                   0
                   0
                   0
                   0
                   0
                   0
                   0
                   0
                   0
                   0
                   0
                   0
                   0
                   0
                   0
                   0
                   0
                   0
                   0
                   0
                   0
                   0
                   0
                   0
                   0
                   0
                   0
                   0
                   0
                   0
                   0
                   0
                   0
                   0
                   0
                   0
                   0
                   0
                   0
                   0
                   0
                   0
                   0
                   0
                   0
                   0
                   0
                   0
                   0
                   0
                   0
                   0
                   0
                   0
                   0
                   0
                   0
                   0
                   0
                   0
                   0
                   0
                   0
                   0
                   0
                   0
                   0
                   0
                   0
                   0
                   0
                   0
                   0
                   0
                   0
                   0
                   0
                   0
                   0
                   0
                   0
                   0
                   0
                   0
                   0
                   0
                   0
                   0
                   0
                   0
                   0
                   0
                   0
                   0
                   0
                   0
                   0
                   0
                   0
                   0
                   0
                   0
                   0
                   0
                   0
                   0
                   0
                   0
                   0
                   0
                   0
                   0
                   0
                   0
                   0
                   0
                   0
                   0
                   0
                   0
                   0
                   0
                   0
                   0
                   0
                   0
                   0
                   0
                   0
                   0
                   0
                   0
                   0
                   0
                   0
                   0
                   0
                   0
                   0
                   0
                   0
                   0
                   0
                   0
                   0
                   0
                   0
                   0
                   0
                   0
                   0
                   0
                   0
                   0
                   0
                   0
                   0
                   0
                   0
                   0
                   0
                   0
                   0
                   0
                   0
                   0
                   0
                   0
                   0
                   0
                   0
                   0
                   0
                   0
                   0
                   0
                   0
                   0
                   0
                   0
                   0
                   0
                   0
                   0
                   0
                   0
                   0
                   0
                   0
                   0
                   0
                   0
                   0
                   0
                   0
                   0
                   0
                   0
                   0
                   0
                   0
                   0
                   0
                   0
                   0
                   0
                   0
                   0
                   0
                   0
                   0
                   0
                   0
                   0
                   0
                   0
                   0
                   0
                   0
                   0
                   0
                   0
                   0
                   0
                   0
                   0
                   0
                   0
                   0
                   0
                   0
                   0
                   0
                   0
                   0
                   0
                   0
                   0
                   0
                   0
                   0
                   0
                   0
                   0
                   0
                   0
                   0
                   0
                   0
                   0
                   0
                   0
                   0
                   0
                   0
                   0
                   0
                   0
                   0
                   0
                   0
                   0
                   0
                   0
                   0
                   0
                   0
                   0
                   0
                   0
                   0
                   0
                   0
                   0
                   0
                   0
                   0
                   0
                   0
                   0
                   0
                   0
                   0
                   0
                   0
                   0
                   0
                   0
                   0
                   0
                   0
                   0
                   0
                   0
                   0
                   0
                   0
                   0
                   0
                   0
                   0
                   0
                   0
                   0
                   0
                   0
                   0
                   0
                   0
                   0
                   0
                   0
                   0
                   0
                   0
                   0
                   0
                   0
                   0
                   0
                   0
                   0
                   0
                   0
                   0
                   0
                   0
                   0
                   0
                   0
                   0
                   0
                   0
                   0
                   0
                   0
                   0
                   0
                   0
                   0
                   0
                   0
                   0
                   0
                   0
                   0
                   0
                   0
                   0
                   0
                   0
                   0
                   0
                   0
                   0
                   0
                   0
                   0
                   0
                   0
                   0
                   0
                   0
                   0
                   0
                   0
                   0
                   0
                   0
                   0
                   0
                   0
                   0
                   0
                   0
                   0
                   0
                   0
                   0
                   0
                   0
                   0
                   0
                   0
                   0
                   0
                   0
                   0
                   0
                   0
                   0
                   0
                   0
                   0
                   0
                   0
                   0
                   0
                   0
                   0
                   0
                   0
                   0
                   0
                   0
                   0
                   0
                   0
                   0
                   0
                   0
                   0
                   0
                   0
                   0
                   0
                   0
                   0
                   0
                   0
                   0
                   0
                   0
                   0
                   0
                   0
                   0
                   0
                   0
                   0
                   0
                   0
                   0
                   0
                   0
                   0
                   0
                   0
                   0
                   0
                   0
                   0
                   0
                   0
                   0
                   0
                   0
                   0
                   0
                   0
                   0
                   0
                   0
                   0
                   0
                   0
                   0
                   0
                   0
                   0
                   0
                   0
                   0
                   0
                   0
                   0
                   0
                   0
                   0
                   0
                   0
                   0
                   0
                   0
                   0
                   0
                   0
                   0
                   0
                   0
                   0
                   0
                   0
                   0
                   0
                   0
                   0
                   0
                   0
                   0
                   0
                   0
                   0
                   0
                   0
                   0
                   0
                   0
                   0
                   0
                   0
                   0
                   0
                   0
                   0
                   0
                   0
                   0
                   0
                   0
                   0
                   0
                   0
                   0
                   0
                   0
                   0
                   0
                   0
                   0
                   0
                   0
                   0
                   0
                   0
                   0
                   0
                   0
                   0
                   0
                   0
                   0
                   0
                   0
                   0
                   0
                   0
                   0
                   0
                   0
                   0
                   0
                   0
                   0
                   0
                   0
                   0
                   0
                   0
                   0
                   0
                   0
                   0
                   0
                   0
                   0
                   0
                   0
                   0
                   0
                   0
                   0
                   0
                   0
                   0
                   0
                   0
                   0
                   0
                   0
                   0
                   0
                   0
                   0
                   0
                   0
                   0
                   0
                   0
                   0
                   0
                   0
                   0
                   0
                   0
                   0
                   0
                   0
                   0
                   0
                   0
                   0
                   0
                   0
                   0
                   0
                   0
                   0
                   0
                   0
                   0
                   0
                   0
                   0
                   0
                   0
                   0
                   0
                   0
                   0
                   0
                   0
                   0
                   0
                   0
                   0
                   0
                   0
                   0
                   0
                   0
                   0
                   0
                   0
                   0
                   0
                   0
                   0
                   0
                   0
                   0
                   0
                   0
                   0
                   0
                   0
                   0
                   0
                   0
                   0
                   0
                   0
                   0
                   0
                   0
                   0
                   0
                   0
                   0
                   0
                   0
                   0
                   0
                   0
                   0
                   0
                   0
                   0
                   0
                   0
                   0
                   0
                   0
                   0
                   0
                   0
                   0
                   0
                   0
                   0
                   0
                   0
                   0
                   0
                   0
                   0
                   0
                   0
                   0
                   0
                   0
                   0
                   0
                   0
                   0
                   0
                   0
                   0
                   0
                   0
                   0
                   0
                   0
                   0
                   0
                   0
                   0
                   0
                   0
                   0
                   0
                   0
                   0
                   0
                   0
                   0
                   0
                   0
                   0
                   0
                   0
                   0
                   0
                   0
                   0
                   0
                   0
                   0
                   0
                   0
                   0
                   0
                   0
                   0
                   0
                   0
                   0
                   0
                   0
                   0
                   0
                   0
                   0
                   0
                   0
                   0
                   0
                   0
                   0
                   0
                   0
                   0
                   0
                   0
                   0
                   0
                   0
                   0
                   0
                   0
                   0
                   0
                   0
                   0
                   0
                   0
                   0
                   0
                   0
                   0
                   0
                   0
                   0
                   0
                   0
                   0
                   0
                   0
                   0
                   0
                   0
                   0
                   0
                   0
                   0
                   0
                   0
                   0
                   0
                   0
                   0
                   0
                   0
                   0
                   0
                   0
                   0
                   0
                   0
                   0
                   0
                   0
                   0
                   0
                   0
                   0
                   0
                   0
                   0
                   0
                   0
                   0
                   0
                   0
                   0
                   0
                   0
                   0
                   0
                   0
                   0
                   0
                   0
                   0
                   0
                   0
                   0
                   0
                   0
                   0
                   0
                   0
                   0
                   0
                   0
                   0
                   0
                   0
                   0
                   0
                   0
                   0
                   0
                   0
                   0
                   0
                   0
                   0
                   0
                   0
                   0
                   0
                   0
                   0
                   0
                   0
                   0
                   0
                   0
                   0
                   0
                   0
                   0
                   0
                   0
                   0
                   0
                   0
                   0
                   0
                   0
                   0
                   0
                   0
                   0
                   0
                   0
                   0
                   0
                   0
                   0
                   0
                   0
                   0
                   0
                   0
                   0
                   0
                   0
                   0
                   0
                   0
                   0
                   0
                   0
                   0
                   0
                   0
                   0
                   0
                   0
                   0
                   0
                   0
                   0
                   0
                   0
                   0
                   0
                   0
                   0
                   0
                   0
                   0
                   0
                   0
                   0
                   0
                   0
                   0
                   0
                   0
                   0
                   0
                   0
                   0
                   0
                   0
                   0
                   0
                   0
                   0
                   0
                   0
                   0
                   0
                   0
                   0
                   0
                   0
                   0
                   0
                   0
                   0
                   0
                   0
                   0
                   0
                   0
                   0
                   0
                   0
                   0
                   0
                   0
                   0
                   0
                   0
                   0
                   0
                   0
                   0
                   0
                   0
                   0
                   0
                   0
                   0
                   0
                   0
                   0
                   0
                   0
                   0
                   0
                   0
                   0
                   0
                   0
                   0
                   0
                   0
                   0
                   0
                   0
                   0
                   0
                   0
                   0
                   0
                   0
                   0
                   0
                   0
                   0
                   0
                   0
                   0
                   0
                   0
                   0
                   0
                   0
                   0
                   0
                   0
                   0
                   0
                   0
                   0
                   0
                   0
                   0
                   0
                   0
                   0
                   0
                   0
                   0
                   0
                   0
                   0
                   0
                   0
                   0
                   0
                   0
                   0
                   0
                   0
                   0
                   0
                   0
                   0
                   0
                   0
                   0
                   0
                   0
                   0
                   0
                   0
                   0
                   0
                   0
                   0
                   0
                   0
                   0
                   0
                   0
                   0
                   0
                   0
                   0
                   0
                   0
                   0
                   0
                   0
                   0
                   0
                   0
                   0
                   0
                   0
                   0
                   0
                   0
                   0
                   0
                   0
                   0
                   0
                   0
                   0
                   0
                   0
                   0
                   0
                   0
                   0
                   0
                   0
                   0
                   0
                   0
                   0
                   0
                   0
                   0
                   0
                   0
                   0
                   0
                   0
                   0
                   0
                   0
                   0
                   0
                   0
                   0
                   0
                   0
                   0
                   0
                   0
                   0
                   0
                   0
  
SCALARS                       fixity_y  double 1
LOOKUP_TABLE default
                   0
                   0
                   0
                   0
                   0
                   0
                   0
                   0
                   0
                   0
                   0
                   0
                   0
                   0
                   0
                   0
                   0
                   0
                   0
                   0
                   0
                   0
                   0
                   0
                   0
                   0
                   0
                   0
                   0
                   0
                   0
                   0
                   0
                   0
                   0
                   0
                   0
                   0
                   0
                   0
                   0
                   0
                   0
                   0
                   0
                   0
                   0
                   0
                   0
                   0
                   0
                   0
                   0
                   0
                   0
                   0
                   0
                   0
                   0
                   0
                   0
                   0
                   0
                   0
                   0
                   0
                   0
                   0
                   0
                   0
                   0
                   0
                   0
                   0
                   0
                   0
                   0
                   0
                   0
                   0
                   0
                   0
                   0
                   0
                   0
                   0
                   0
                   0
                   0
                   0
                   0
                   0
                   0
                   0
                   0
                   0
                   0
                   0
                   0
                   0
                   0
                   0
                   0
                   0
                   0
                   0
                   0
                   0
                   0
                   0
                   0
                   0
                   0
                   0
                   0
                   0
                   0
                   0
                   0
                   0
                   0
                   0
                   0
                   0
                   0
                   0
                   0
                   0
                   0
                   0
                   0
                   0
                   0
                   0
                   0
                   0
                   0
                   0
                   0
                   0
                   0
                   0
                   0
                   0
                   0
                   0
                   0
                   0
                   0
                   0
                   0
                   0
                   0
                   0
                   0
                   0
                   0
                   0
                   0
                   0
                   0
                   0
                   0
                   0
                   0
                   0
                   0
                   0
                   0
                   0
                   0
                   0
                   0
                   0
                   0
                   0
                   0
                   0
                   0
                   0
                   0
                   0
                   0
                   0
                   0
                   0
                   0
                   0
                   0
                   0
                   0
                   0
                   0
                   0
                   0
                   0
                   0
                   0
                   0
                   0
                   0
                   0
                   0
                   0
                   0
                   0
                   0
                   0
                   0
                   0
                   0
                   0
                   0
                   0
                   0
                   0
                   0
                   0
                   0
                   0
                   0
                   0
                   0
                   0
                   0
                   0
                   0
                   0
                   0
                   0
                   0
                   0
                   0
                   0
                   0
                   0
                   0
                   0
                   0
                   0
                   0
                   0
                   0
                   0
                   0
                   0
                   0
                   0
                   0
                   0
                   0
                   0
                   0
                   0
                   0
                   0
                   0
                   0
                   0
                   0
                   0
                   0
                   0
                   0
                   0
                   0
                   0
                   0
                   0
                   0
                   0
                   0
                   0
                   0
                   0
                   0
                   0
                   0
                   0
                   0
                   0
                   0
                   0
                   0
                   0
                   0
                   0
                   0
                   0
                   0
                   0
                   0
                   0
                   0
                   0
                   0
                   0
                   0
                   0
                   0
                   0
                   0
                   0
                   0
                   0
                   0
                   0
                   0
                   0
                   0
                   0
                   0
                   0
                   0
                   0
                   0
                   0
                   0
                   0
                   0
                   0
                   0
                   0
                   0
                   0
                   0
                   0
                   0
                   0
                   0
                   0
                   0
                   0
                   0
                   0
                   0
                   0
                   0
                   0
                   0
                   0
                   0
                   0
                   0
                   0
                   0
                   0
                   0
                   0
                   0
                   0
                   0
                   0
                   0
                   0
                   0
                   0
                   0
                   0
                   0
                   0
                   0
                   0
                   0
                   0
                   0
                   0
                   0
                   0
                   0
                   0
                   0
                   0
                   0
                   0
                   0
                   0
                   0
                   0
                   0
                   0
                   0
                   0
                   0
                   0
                   0
                   0
                   0
                   0
                   0
                   0
                   0
                   0
                   0
                   0
                   0
                   0
                   0
                   0
                   0
                   0
                   0
                   0
                   0
                   0
                   0
                   0
                   0
                   0
                   0
                   0
                   0
                   0
                   0
                   0
                   0
                   0
                   0
                   0
                   0
                   0
                   0
                   0
                   0
                   0
                   0
                   0
                   0
                   0
                   0
                   0
                   0
                   0
                   0
                   0
                   0
                   0
                   0
                   0
                   0
                   0
                   0
                   0
                   0
                   0
                   0
                   0
                   0
                   0
                   0
                   0
                   0
                   0
                   0
                   0
                   0
                   0
                   0
                   0
                   0
                   0
                   0
                   0
                   0
                   0
                   0
                   0
                   0
                   0
                   0
                   0
                   0
                   0
                   0
                   0
                   0
                   0
                   0
                   0
                   0
                   0
                   0
                   0
                   0
                   0
                   0
                   0
                   0
                   0
                   0
                   0
                   0
                   0
                   0
                   0
                   0
                   0
                   0
                   0
                   0
                   0
                   0
                   0
                   0
                   0
                   0
                   0
                   0
                   0
                   0
                   0
                   0
                   0
                   0
                   0
                   0
                   0
                   0
                   0
                   0
                   0
                   0
                   0
                   0
                   0
                   0
                   0
                   0
                   0
                   0
                   0
                   0
                   0
                   0
                   0
                   0
                   0
                   0
                   0
                   0
                   0
                   0
                   0
                   0
                   0
                   0
                   0
                   0
                   0
                   0
                   0
                   0
                   0
                   0
                   0
                   0
                   0
                   0
                   0
                   0
                   0
                   0
                   0
                   0
                   0
                   0
                   0
                   0
                   0
                   0
                   0
                   0
                   0
                   0
                   0
                   0
                   0
                   0
                   0
                   0
                   0
                   0
                   0
                   0
                   0
                   0
                   0
                   0
                   0
                   0
                   0
                   0
                   0
                   0
                   0
                   0
                   0
                   0
                   0
                   0
                   0
                   0
                   0
                   0
                   0
                   0
                   0
                   0
                   0
                   0
                   0
                   0
                   0
                   0
                   0
                   0
                   0
                   0
                   0
                   0
                   0
                   0
                   0
                   0
                   0
                   0
                   0
                   0
                   0
                   0
                   0
                   0
                   0
                   0
                   0
                   0
                   0
                   0
                   0
                   0
                   0
                   0
                   0
                   0
                   0
                   0
                   0
                   0
                   0
                   0
                   0
                   0
                   0
                   0
                   0
                   0
                   0
                   0
                   0
                   0
                   0
                   0
                   0
                   0
                   0
                   0
                   0
                   0
                   0
                   0
                   0
                   0
                   0
                   0
                   0
                   0
                   0
                   0
                   0
                   0
                   0
                   0
                   0
                   0
                   0
                   0
                   0
                   0
                   0
                   0
                   0
                   0
                   0
                   0
                   0
                   0
                   0
                   0
                   0
                   0
                   0
                   0
                   0
                   0
                   0
                   0
                   0
                   0
                   0
                   0
                   0
                   0
                   0
                   0
                   0
                   0
                   0
                   0
                   0
                   0
                   0
                   0
                   0
                   0
                   0
                   0
                   0
                   0
                   0
                   0
                   0
                   0
                   0
                   0
                   0
                   0
                   0
                   0
                   0
                   0
                   0
                   0
                   0
                   0
                   0
                   0
                   0
                   0
                   0
                   0
                   0
                   0
                   0
                   0
                   0
                   0
                   0
                   0
                   0
                   0
                   0
                   0
                   0
                   0
                   0
                   0
                   0
                   0
                   0
                   0
                   0
                   0
                   0
                   0
                   0
                   0
                   0
                   0
                   0
                   0
                   0
                   0
                   0
                   0
                   0
                   0
                   0
                   0
                   0
                   0
                   0
                   0
                   0
                   0
                   0
                   0
                   0
                   0
                   0
                   0
                   0
                   0
                   0
                   0
                   0
                   0
                   0
                   0
                   0
                   0
                   0
                   0
                   0
                   0
                   0
                   0
                   0
                   0
                   0
                   0
                   0
                   0
                   0
                   0
                   0
                   0
                   0
                   0
                   0
                   0
                   0
                   0
                   0
                   0
                   0
                   0
                   0
                   0
                   0
                   0
                   0
                   0
                   0
                   0
                   0
                   0
                   0
                   0
                   0
                   0
                   0
                   0
                   0
                   0
                   0
                   0
                   0
                   0
                   0
                   0
                   0
                   0
                   0
                   0
                   0
                   0
                   0
                   0
                   0
                   0
                   0
                   0
                   0
                   0
                   0
                   0
                   0
                   0
                   0
                   0
                   0
                   0
                   0
                   0
                   0
                   0
                   0
                   0
                   0
                   0
                   0
                   0
                   0
                   0
                   0
                   0
                   0
                   0
                   0
                   0
                   0
                   0
                   0
                   0
                   0
                   0
                   0
                   0
                   0
                   0
                   0
                   0
                   0
                   0
                   0
                   0
                   0
                   0
                   0
                   0
                   0
                   0
                   0
                   0
                   0
                   0
                   0
                   0
                   0
                   0
                   0
                   0
                   0
                   0
                   0
                   0
                   0
                   0
                   0
                   0
                   0
                   0
                   0
                   0
                   0
                   0
                   0
                   0
                   0
                   0
                   0
                   0
                   0
                   0
                   0
                   0
                   0
                   0
                   0
                   0
                   0
                   0
                   0
                   0
                   0
                   0
                   0
                   0
                   0
                   0
                   0
                   0
                   0
                   0
                   0
                   0
                   0
                   0
                   0
                   0
                   0
                   0
                   0
                   0
                   0
                   0
                   0
                   0
                   0
                   0
                   0
                   0
                   0
                   0
                   0
                   0
                   0
                   0
                   0
                   0
                   0
                   0
                   0
                   0
                   0
                   0
                   0
                   0
                   0
                   0
                   0
                   0
                   0
                   0
                   0
                   0
                   0
                   0
                   0
                   0
                   0
                   0
                   0
                   0
                   0
                   0
                   0
                   0
                   0
                   0
                   0
                   0
                   0
                   0
                   0
                   0
                   0
                   0
                   0
                   0
                   0
                   0
                   0
                   0
                   0
                   0
                   0
                   0
                   0
                   0
                   0
                   0
                   0
                   0
                   0
                   0
                   0
                   0
                   0
                   0
                   0
                   0
                   0
                   0
                   0
                   0
                   0
                   0
                   0
                   0
                   0
                   0
                   0
                   0
                   0
                   0
                   0
                   0
                   0
                   0
                   0
                   0
                   0
                   0
                   0
                   0
                   0
                   0
                   0
                   0
                   0
                   0
                   0
                   0
                   0
                   0
                   0
                   0
                   0
                   0
                   0
                   0
                   0
                   0
                   0
                   0
                   0
                   0
                   0
                   0
                   0
                   0
                   0
                   0
                   0
                   0
                   0
                   0
                   0
                   0
                   0
                   0
                   0
                   0
                   0
                   0
                   0
                   0
                   0
                   0
                   0
                   0
                   0
                   0
                   0
                   0
                   0
                   0
                   0
                   0
                   0
                   0
                   0
                   0
                   0
                   0
                   0
                   0
                   0
                   0
                   0
                   0
                   0
                   0
                   0
                   0
                   0
                   0
                   0
                   0
                   0
                   0
                   0
                   0
                   0
                   0
                   0
                   0
                   0
                   0
                   0
                   0
                   0
                   0
                   0
                   0
                   0
                   0
                   0
                   0
                   0
                   0
                   0
                   0
                   0
                   0
                   0
                   0
                   0
                   0
                   0
                   0
                   0
                   0
                   0
                   0
                   0
                   0
                   0
                   0
                   0
                   0
                   0
                   0
                   0
                   0
                   0
                   0
                   0
                   0
                   0
                   0
                   0
                   0
                   0
                   0
                   0
                   0
                   0
                   0
                   0
                   0
                   0
                   0
                   0
                   0
                   0
                   0
                   0
                   0
                   0
                   0
                   0
                   0
                   0
                   0
                   0
                   0
                   0
                   0
                   0
                   0
                   0
                   0
                   0
                   0
                   0
                   0
                   0
                   0
                   0
                   0
                   0
                   0
                   0
                   0
                   0
                   0
                   0
                   0
                   0
                   0
                   0
                   0
                   0
                   0
                   0
                   0
                   0
                   0
                   0
                   0
                   0
                   0
                   0
                   0
                   0
                   0
                   0
                   0
                   0
                   0
                   0
                   0
                   0
                   0
                   0
                   0
                   0
                   0
                   0
                   0
                   0
                   0
                   0
                   0
                   0
                   0
                   0
                   0
                   0
                   0
                   0
                   0
                   0
                   0
                   0
                   0
                   0
                   0
                   0
                   0
                   0
                   0
                   0
                   0
                   0
                   0
                   0
                   0
                   0
                   0
                   0
                   0
                   0
                   0
                   0
                   0
                   0
                   0
                   0
                   0
                   0
                   0
                   0
                   0
                   0
                   0
                   0
                   0
                   0
                   0
                   0
                   0
                   0
                   0
                   0
                   0
                   0
                   0
                   0
                   0
                   0
                   0
                   0
                   0
                   0
                   0
                   0
                   0
                   0
                   0
                   0
                   0
                   0
                   0
                   0
                   0
                   0
                   0
                   0
                   0
                   0
                   0
                   0
                   0
                   0
                   0
                   0
                   0
                   0
                   0
                   0
                   0
                   0
                   0
                   0
                   0
                   0
                   0
                   0
                   0
                   0
                   0
                   0
                   0
                   0
                   0
                   0
                   0
                   0
                   0
                   0
                   0
                   0
                   0
                   0
                   0
                   0
                   0
                   0
                   0
                   0
                   0
                   0
                   0
                   0
                   0
                   0
                   0
                   0
                   0
                   0
                   0
                   0
                   0
                   0
                   0
                   0
                   0
                   0
                   0
                   0
                   0
                   0
                   0
                   0
                   0
                   0
                   0
                   0
                   0
                   0
                   0
                   0
                   0
                   0
                   0
                   0
                   0
                   0
                   0
                   0
                   0
                   0
                   0
                   0
                   0
                   0
                   0
                   0
                   0
                   0
                   0
                   0
                   0
                   0
                   0
                   0
                   0
                   0
                   0
                   0
                   0
                   0
                   0
                   0
                   0
                   0
                   0
                   0
                   0
                   0
                   0
                   0
                   0
                   0
                   0
                   0
                   0
                   0
                   0
                   0
                   0
                   0
                   0
                   0
                   0
                   0
                   0
                   0
                   0
                   0
                   0
                   0
                   0
                   0
                   0
                   0
                   0
                   0
                   0
                   0
                   0
                   0
                   0
                   0
                   0
                   0
                   0
                   0
                   0
                   0
                   0
                   0
                   0
                   0
                   0
                   0
                   0
                   0
                   0
                   0
                   0
                   0
                   0
                   0
                   0
                   0
                   0
                   0
                   0
                   0
                   0
                   0
                   0
                   0
                   0
                   0
                   0
                   0
                   0
                   0
                   0
                   0
                   0
                   0
                   0
                   0
                   0
                   0
                   0
                   0
                   0
                   0
                   0
                   0
                   0
                   0
                   0
                   0
                   0
                   0
                   0
                   0
                   0
                   0
                   0
                   0
                   0
                   0
                   0
                   0
                   0
                   0
                   0
                   0
                   0
                   0
                   0
                   0
                   0
                   0
                   0
                   0
                   0
                   0
                   0
                   0
                   0
                   0
                   0
                   0
                   0
                   0
                   0
                   0
                   0
                   0
                   0
                   0
                   0
                   0
                   0
                   0
                   0
                   0
                   0
                   0
                   0
                   0
                   0
                   0
                   0
                   0
                   0
                   0
                   0
                   0
                   0
                   0
                   0
                   0
                   0
                   0
                   0
                   0
                   0
                   0
                   0
                   0
                   0
                   0
                   0
                   0
                   0
                   0
                   0
                   0
                   0
                   0
                   0
                   0
                   0
                   0
                   0
                   0
                   0
                   0
                   0
                   0
                   0
                   0
                   0
                   0
                   0
                   0
                   0
                   0
                   0
                   0
                   0
                   0
                   0
                   0
                   0
                   0
                   0
                   0
                   0
                   0
                   0
                   0
                   0
                   0
                   0
                   0
                   0
                   0
                   0
                   0
                   0
                   0
                   0
                   0
                   0
                   0
                   0
                   0
                   0
                   0
                   0
                   0
                   0
                   0
                   0
                   0
                   0
                   0
                   0
                   0
                   0
                   0
                   0
                   0
                   0
                   0
                   0
                   0
                   0
                   0
                   0
                   0
                   0
                   0
                   0
                   0
                   0
                   0
                   0
                   0
                   0
                   0
                   0
                   0
                   0
                   0
                   0
                   0
                   0
                   0
                   0
                   0
                   0
                   0
                   0
                   0
                   0
                   0
                   0
                   0
                   0
                   0
                   0
                   0
                   0
                   0
                   0
                   0
                   0
                   0
                   0
                   0
                   0
                   0
                   0
                   0
                   0
                   0
                   0
                   0
                   0
                   0
                   0
                   0
                   0
                   0
                   0
                   0
                   0
                   0
                   0
                   0
                   0
                   0
                   0
                   0
                   0
                   0
                   0
                   0
                   0
                   0
                   0
                   0
                   0
                   0
                   0
                   0
                   0
                   0
                   0
                   0
                   0
                   0
                   0
                   0
                   0
                   0
                   0
                   0
                   0
                   0
                   0
                   0
                   0
                   0
                   0
                   0
                   0
                   0
                   0
                   0
                   0
                   0
                   0
                   0
                   0
                   0
                   0
                   0
                   0
                   0
                   0
                   0
                   0
                   0
                   0
                   0
                   0
                   0
                   0
                   0
                   0
                   0
                   0
                   0
                   0
                   0
                   0
                   0
                   0
                   0
                   0
                   0
                   0
                   0
                   0
                   0
                   0
                   0
                   0
                   0
                   0
                   0
                   0
                   0
                   0
                   0
                   0
                   0
                   0
                   0
                   0
                   0
                   0
                   0
                   0
                   0
                   0
                   0
                   0
                   0
                   0
                   0
                   0
                   0
                   0
                   0
                   0
                   0
                   0
                   0
                   0
                   0
                   0
                   0
                   0
                   0
                   0
                   0
                   0
                   0
                   0
                   0
                   0
                   0
                   0
                   0
                   0
                   0
                   0
                   0
                   0
                   0
                   0
                   0
                   0
                   0
                   0
                   0
                   0
                   0
                   0
                   0
                   0
                   0
                   0
                   0
                   0
                   0
                   0
                   0
                   0
                   0
                   0
                   0
                   0
                   0
                   0
                   0
                   0
                   0
                   0
                   0
                   0
                   0
                   0
                   0
                   0
  
SCALARS                       fixity_z  double 1
LOOKUP_TABLE default
                   0
                   0
                   0
                   0
                   1
                   1
                   1
                   1
                   0
                   0
                   1
                   1
                   0
                   0
                   1
                   1
                   0
                   0
                   1
                   1
                   0
                   0
                   0
                   1
                   1
                   1
                   0
                   0
                   1
                   1
                   0
                   0
                   0
                   1
                   1
                   1
                   0
                   0
                   1
                   1
                   0
                   0
                   1
                   1
                   0
                   0
                   1
                   1
                   0
                   1
                   0
                   1
                   0
                   1
                   0
                   1
                   0
                   0
                   1
                   1
                   0
                   0
                   1
                   1
                   0
                   1
                   0
                   1
                   0
                   0
                   1
                   1
                   0
                   1
                   0
                   1
                   0
                   1
                   0
                   1
                   0
                   0
                   1
                   1
                   0
                   1
                   0
                   1
                   0
                   1
                   0
                   0
                   1
                   1
                   0
                   1
                   0
                   1
                   0
                   1
                   0
                   0
                   1
                   1
                   0
                   0
                   1
                   1
                   0
                   1
                   0
                   1
                   0
                   1
                   0
                   1
                   0
                   1
                   0
                   1
                   0
                   1
                   0
                   1
                   0
                   1
                   0
                   1
                   0
                   1
                   0
                   1
                   0
                   1
                   0
                   1
                   0
                   1
                   0
                   1
                   0
                   1
                   0
                   1
                   0
                   1
                   0
                   1
                   0
                   1
                   0
                   1
                   0
                   1
                   0
                   1
                   0
                   0
                   0
                   0
                   0
                   0
                   0
                   0
                   0
                   0
                   0
                   0
                   0
                   0
                   0
                   0
                   0
                   0
                   0
                   0
                   0
                   0
                   0
                   0
                   0
                   0
                   0
                   0
                   0
                   0
                   0
                   0
                   0
                   0
                   0
                   0
                   0
                   0
                   0
                   0
                   0
                   0
                   0
                   0
                   0
                   0
                   0
                   0
                   0
                   0
                   0
                   0
                   0
                   0
                   0
                   0
                   0
                   0
                   0
                   0
                   0
                   0
                   0
                   0
                   0
                   0
                   0
                   0
                   0
                   0
                   0
                   0
                   0
                   0
                   0
                   0
                   0
                   0
                   0
                   0
                   0
                   0
                   0
                   0
                   0
                   0
                   0
                   0
                   0
                   0
                   0
                   0
                   0
                   0
                   0
                   0
                   0
                   0
                   0
                   0
                   0
                   0
                   0
                   0
                   0
                   0
                   0
                   0
                   0
                   0
                   0
                   0
                   0
                   0
                   0
                   0
                   0
                   0
                   0
                   0
                   0
                   0
                   0
                   0
                   0
                   0
                   0
                   0
                   0
                   0
                   0
                   0
                   0
                   0
                   0
                   0
                   0
                   0
                   0
                   0
                   0
                   0
                   0
                   0
                   0
                   0
                   0
                   0
                   0
                   0
                   0
                   0
                   0
                   0
                   0
                   0
                   0
                   0
                   0
                   0
                   0
                   0
                   0
                   0
                   0
                   0
                   0
                   0
                   0
                   0
                   0
                   0
                   0
                   0
                   0
                   0
                   0
                   0
                   0
                   0
                   0
                   0
                   0
                   0
                   0
                   0
                   0
                   0
                   0
                   0
                   0
                   0
                   0
                   0
                   0
                   0
                   0
                   0
                   0
                   0
                   0
                   0
                   0
                   0
                   0
                   0
                   0
                   0
                   0
                   0
                   0
                   0
                   0
                   0
                   0
                   0
                   0
                   0
                   0
                   0
                   0
                   0
                   0
                   0
                   0
                   0
                   0
                   0
                   0
                   0
                   0
                   0
                   0
                   0
                   0
                   0
                   0
                   0
                   0
                   0
                   0
                   0
                   0
                   0
                   0
                   0
                   0
                   0
                   0
                   0
                   0
                   0
                   0
                   0
                   0
                   0
                   0
                   0
                   0
                   0
                   0
                   0
                   0
                   0
                   0
                   0
                   0
                   0
                   0
                   0
                   0
                   0
                   0
                   0
                   0
                   0
                   0
                   0
                   0
                   0
                   0
                   0
                   0
                   0
                   0
                   0
                   0
                   0
                   0
                   0
                   0
                   0
                   0
                   0
                   0
                   0
                   0
                   0
                   0
                   0
                   0
                   0
                   0
                   0
                   0
                   0
                   0
                   0
                   0
                   0
                   0
                   0
                   0
                   0
                   0
                   0
                   0
                   0
                   0
                   0
                   0
                   0
                   0
                   0
                   0
                   0
                   0
                   0
                   0
                   0
                   0
                   0
                   0
                   0
                   0
                   0
                   0
                   0
                   0
                   0
                   0
                   0
                   0
                   0
                   0
                   0
                   0
                   0
                   0
                   0
                   0
                   0
                   0
                   0
                   0
                   0
                   0
                   0
                   0
                   0
                   0
                   0
                   0
                   0
                   0
                   0
                   0
                   0
                   0
                   0
                   0
                   0
                   0
                   0
                   0
                   0
                   0
                   0
                   0
                   0
                   0
                   0
                   0
                   0
                   0
                   0
                   0
                   0
                   0
                   0
                   0
                   0
                   0
                   0
                   0
                   0
                   0
                   0
                   0
                   0
                   0
                   0
                   0
                   0
                   0
                   0
                   0
                   0
                   0
                   0
                   0
                   0
                   0
                   0
                   0
                   0
                   0
                   0
                   0
                   0
                   0
                   0
                   0
                   0
                   0
                   0
                   0
                   0
                   0
                   0
                   0
                   0
                   0
                   0
                   0
                   0
                   0
                   0
                   0
                   0
                   0
                   0
                   0
                   0
                   0
                   0
                   0
                   0
                   0
                   0
                   0
                   0
                   0
                   0
                   0
                   0
                   0
                   0
                   0
                   0
                   0
                   0
                   0
                   0
                   0
                   0
                   0
                   0
                   0
                   0
                   0
                   0
                   0
                   0
                   0
                   0
                   0
                   0
                   0
                   0
                   0
                   0
                   0
                   0
                   0
                   0
                   0
                   0
                   0
                   0
                   0
                   0
                   0
                   0
                   0
                   0
                   0
                   0
                   0
                   0
                   0
                   0
                   0
                   0
                   0
                   0
                   0
                   0
                   0
                   0
                   0
                   0
                   0
                   0
                   0
                   0
                   0
                   0
                   0
                   0
                   0
                   0
                   0
                   0
                   0
                   0
                   0
                   0
                   0
                   0
                   0
                   0
                   0
                   0
                   0
                   0
                   0
                   0
                   0
                   0
                   0
                   0
                   0
                   0
                   0
                   0
                   0
                   0
                   0
                   0
                   0
                   0
                   0
                   0
                   0
                   0
                   0
                   0
                   0
                   0
                   0
                   0
                   0
                   0
                   0
                   0
                   0
                   0
                   0
                   0
                   0
                   0
                   0
                   0
                   0
                   0
                   0
                   0
                   0
                   0
                   0
                   0
                   0
                   0
                   0
                   0
                   0
                   0
                   0
                   0
                   0
                   0
                   0
                   0
                   0
                   0
                   0
                   0
                   0
                   0
                   0
                   0
                   0
                   0
                   0
                   0
                   0
                   0
                   0
                   0
                   0
                   0
                   0
                   0
                   0
                   0
                   0
                   0
                   0
                   0
                   0
                   0
                   0
                   0
                   0
                   0
                   0
                   0
                   0
                   0
                   0
                   0
                   0
                   0
                   0
                   0
                   0
                   0
                   0
                   0
                   0
                   0
                   0
                   0
                   0
                   0
                   0
                   0
                   0
                   0
                   0
                   0
                   0
                   0
                   0
                   0
                   0
                   0
                   0
                   0
                   0
                   0
                   0
                   0
                   0
                   0
                   0
                   0
                   0
                   0
                   0
                   0
                   0
                   0
                   0
                   0
                   0
                   0
                   0
                   0
                   0
                   0
                   0
                   0
                   0
                   0
                   0
                   0
                   0
                   0
                   0
                   0
                   0
                   0
                   0
                   0
                   0
                   0
                   0
                   0
                   0
                   0
                   0
                   0
                   0
                   0
                   0
                   0
                   0
                   0
                   0
                   0
                   0
                   0
                   0
                   0
                   0
                   0
                   0
                   0
                   0
                   0
                   0
                   0
                   0
                   0
                   0
                   0
                   0
                   0
                   0
                   0
                   0
                   0
                   0
                   0
                   0
                   0
                   0
                   0
                   0
                   0
                   0
                   0
                   0
                   0
                   0
                   0
                   0
                   0
                   0
                   0
                   0
                   0
                   0
                   0
                   0
                   0
                   0
                   0
                   0
                   0
                   0
                   0
                   0
                   0
                   0
                   0
                   0
                   0
                   0
                   0
                   0
                   0
                   0
                   0
                   0
                   0
                   0
                   0
                   0
                   0
                   0
                   0
                   0
                   0
                   0
                   0
                   0
                   0
                   0
                   0
                   0
                   0
                   0
                   0
                   0
                   0
                   0
                   0
                   0
                   0
                   0
                   0
                   0
                   0
                   0
                   0
                   0
                   0
                   0
                   0
                   0
                   0
                   0
                   0
                   0
                   0
                   0
                   0
                   0
                   0
                   0
                   0
                   0
                   0
                   0
                   0
                   0
                   0
                   0
                   0
                   0
                   0
                   0
                   0
                   0
                   0
                   0
                   0
                   0
                   0
                   0
                   0
                   0
                   0
                   0
                   0
                   0
                   0
                   0
                   0
                   0
                   0
                   0
                   0
                   0
                   0
                   0
                   0
                   0
                   0
                   0
                   0
                   0
                   0
                   0
                   0
                   0
                   0
                   0
                   0
                   0
                   0
                   0
                   0
                   0
                   0
                   0
                   0
                   0
                   0
                   0
                   0
                   0
                   0
                   0
                   0
                   0
                   0
                   0
                   0
                   0
                   0
                   0
                   0
                   0
                   0
                   0
                   0
                   0
                   0
                   0
                   0
                   0
                   0
                   0
                   0
                   0
                   0
                   0
                   0
                   0
                   0
                   0
                   0
                   0
                   0
                   0
                   0
                   0
                   0
                   0
                   0
                   0
                   0
                   0
                   0
                   0
                   0
                   0
                   0
                   0
                   0
                   0
                   0
                   0
                   0
                   0
                   0
                   0
                   0
                   0
                   0
                   0
                   0
                   0
                   0
                   0
                   0
                   0
                   0
                   0
                   0
                   0
                   0
                   0
                   0
                   0
                   0
                   0
                   0
                   0
                   0
                   0
                   0
                   0
                   0
                   0
                   0
                   0
                   0
                   0
                   0
                   0
                   0
                   0
                   0
                   0
                   0
                   0
                   0
                   0
                   0
                   0
                   0
                   0
                   0
                   0
                   0
                   0
                   0
                   0
                   0
                   0
                   0
                   0
                   0
                   0
                   0
                   0
                   0
                   0
                   0
                   0
                   0
                   0
                   0
                   0
                   0
                   0
                   0
                   0
                   0
                   0
                   0
                   0
                   0
                   0
                   0
                   0
                   0
                   0
                   0
                   0
                   0
                   0
                   0
                   0
                   0
                   0
                   0
                   0
                   0
                   0
                   0
                   0
                   0
                   0
                   0
                   0
                   0
                   0
                   0
                   0
                   0
                   0
                   0
                   0
                   0
                   0
                   0
                   0
                   0
                   0
                   0
                   0
                   0
                   0
                   0
                   0
                   0
                   0
                   0
                   0
                   0
                   0
                   0
                   0
                   0
                   0
                   0
                   0
                   0
                   0
                   0
                   0
                   0
                   0
                   0
                   0
                   0
                   0
                   0
                   0
                   0
                   0
                   0
                   0
                   0
                   0
                   0
                   0
                   0
                   0
                   0
                   0
                   0
                   0
                   0
                   0
                   0
                   0
                   0
                   0
                   0
                   0
                   0
                   0
                   0
                   0
                   0
                   0
                   0
                   0
                   0
                   0
                   0
                   0
                   0
                   0
                   0
                   0
                   0
                   0
                   0
                   0
                   0
                   0
                   0
                   0
                   0
                   0
                   0
                   0
                   0
                   0
                   0
                   0
                   0
                   0
                   0
                   0
                   0
                   0
                   0
                   0
                   0
                   0
                   0
                   0
                   0
                   0
                   0
                   0
                   0
                   0
                   0
                   0
                   0
                   0
                   0
                   0
                   0
                   0
                   0
                   0
                   0
                   0
                   0
                   0
                   0
                   0
                   0
                   0
                   0
                   0
                   0
                   0
                   0
                   0
                   0
                   0
                   0
                   0
                   0
                   0
                   0
                   0
                   0
                   0
                   0
                   0
                   0
                   0
                   0
                   0
                   0
                   0
                   0
                   0
                   0
                   0
                   0
                   0
                   0
                   0
                   0
                   0
                   0
                   0
                   0
                   0
                   0
                   0
                   0
                   0
                   0
                   0
                   0
                   0
                   0
                   0
                   0
                   0
                   0
                   0
                   0
                   0
                   0
                   0
                   0
                   0
                   0
                   0
                   0
                   0
                   0
                   0
                   0
                   0
                   0
                   0
                   0
                   0
                   0
                   0
                   0
                   0
                   0
                   0
                   0
                   0
                   0
                   0
                   0
                   0
                   0
                   0
                   0
                   0
                   0
                   0
                   0
                   0
                   0
                   0
                   0
                   0
                   0
                   0
                   0
                   0
                   0
                   0
                   0
                   0
                   0
                   0
                   0
                   0
                   0
                   0
                   0
                   0
                   0
                   0
                   0
                   0
                   0
                   0
                   0
                   0
                   0
                   0
                   0
                   0
                   0
                   0
                   0
                   0
                   0
                   0
                   0
                   0
                   0
                   0
                   0
                   0
                   0
                   0
                   0
                   0
                   0
                   0
                   0
                   0
                   0
                   0
                   0
                   0
                   0
                   0
                   0
                   0
                   0
                   0
                   0
                   0
                   0
                   0
                   0
                   0
                   0
                   0
                   0
                   0
                   0
                   0
                   0
                   0
                   0
                   0
                   0
                   0
                   0
                   0
                   0
                   0
                   0
                   0
                   0
                   0
                   0
                   0
                   0
                   0
                   0
                   0
                   0
                   0
                   0
                   0
                   0
                   0
                   0
                   0
                   0
                   0
                   0
                   0
                   0
                   0
                   0
                   0
                   0
                   0
                   0
                   0
                   0
                   0
                   0
                   0
                   0
                   0
                   0
                   0
                   0
                   0
                   0
                   0
                   0
                   0
                   0
                   0
                   0
                   0
                   0
                   0
                   0
                   0
                   0
                   0
                   0
                   0
                   0
                   0
                   0
                   0
                   0
                   0
                   0
                   0
                   0
                   0
                   0
                   0
                   0
                   0
                   0
                   0
                   0
                   0
                   0
                   0
                   0
                   0
                   0
                   0
                   0
                   0
                   0
                   0
                   0
                   0
                   0
                   0
                   0
                   0
                   0
                   0
                   0
                   0
                   0
                   0
                   0
                   0
                   0
                   0
                   0
                   0
                   0
                   0
                   0
                   0
                   0
                   0
                   0
                   0
                   0
                   0
                   0
                   0
                   0
                   0
                   0
                   0
                   0
                   0
                   0
                   0
                   0
                   0
                   0
                   0
                   0
                   0
                   0
                   0
                   0
                   0
                   0
                   0
                   0
                   0
                   0
                   0
                   0
                   0
                   0
                   0
                   0
                   0
                   0
                   0
                   0
                   0
                   0
                   0
                   0
                   0
                   0
                   0
                   0
                   0
                   0
                   0
                   0
                   0
                   0
                   0
                   0
                   0
                   0
                   0
                   0
                   0
                   0
                   0
                   0
                   0
                   0
                   0
                   0
                   0
                   0
                   0
                   0
                   0
                   0
                   0
                   0
                   0
                   0
                   0
                   0
                   0
                   0
                   0
                   0
                   0
                   0
                   0
                   0
                   0
                   0
                   0
                   0
                   0
                   0
                   0
                   0
                   0
                   0
                   0
                   0
                   0
                   0
                   0
                   0
                   0
                   0
                   0
                   0
                   0
                   0
                   0
                   0
                   0
                   0
                   0
                   0
                   0
                   0
                   0
                   0
                   0
                   0
                   0
                   0
                   0
                   0
                   0
                   0
                   0
                   0
                   0
                   0
                   0
                   0
                   0
                   0
                   0
                   0
                   0
                   0
                   0
                   0
                   0
                   0
                   0
                   0
                   0
                   0
                   0
                   0
                   0
                   0
                   0
                   0
                   0
                   0
                   0
                   0
                   0
                   0
                   0
                   0
                   0
                   0
                   0
                   0
                   0
                   0
                   0
                   0
                   0
                   0
                   0
                   0
                   0
                   0
                   0
                   0
                   0
                   0
                   0
                   0
                   0
                   0
                   0
                   0
                   0
                   0
                   0
                   0
                   0
                   0
                   0
                   0
                   0
                   0
                   0
                   0
                   0
                   0
                   0
                   0
                   0
                   0
                   0
                   0
                   0
                   0
                   0
                   0
                   0
                   0
                   0
                   0
                   0
                   0
                   0
                   0
                   0
                   0
                   0
                   0
                   0
                   0
                   0
                   0
                   0
                   0
                   0
                   0
                   0
                   0
                   0
                   0
                   0
                   0
                   0
                   0
                   0
                   0
                   0
                   0
                   0
                   0
                   0
                   0
                   0
                   0
                   0
                   0
                   0
                   0
                   0
                   0
                   0
                   0
                   0
                   0
                   0
                   0
                   0
                   0
                   0
                   0
                   0
                   0
                   0
                   0
                   0
                   0
                   0
                   0
                   0
                   0
                   0
                   0
                   0
                   0
                   0
                   0
                   0
                   0
                   0
                   0
                   0
                   0
                   0
                   0
                   0
                   0
                   0
                   0
                   0
                   0
                   0
                   0
                   0
                   0
                   0
                   0
                   0
                   0
                   0
                   0
                   0
                   0
                   0
                   0
                   0
                   0
                   0
                   0
                   0
                   0
                   0
                   0
                   0
                   0
                   0
                   0
                   0
                   0
                   0
                   0
                   0
                   0
                   0
                   0
                   0
                   0
                   0
                   0
                   0
                   0
                   0
                   0
                   0
                   0
  
SCALARS                         Ispace  double 1
LOOKUP_TABLE default
                  12
                  12
                  12
                  12
                  12
                  12
                  12
                  12
                  12
                  12
                  12
                  12
                  12
                  11
                  12
                  11
                  11
                  11
                  11
                  11
                  11
                  12
                  12
                  11
                  12
                  12
                  11
                  11
                  11
                  11
                  11
                  11
                  11
                  11
                  11
                  11
                  11
                  11
                  11
                  11
                  11
                  11
                  11
                  11
                  11
                  11
                  11
                  11
                  11
                  11
                  11
                  11
                  11
                  11
                  11
                  11
                  11
                  11
                  11
                  11
                  11
                  11
                  11
                  11
                  11
                  11
                  12
                  12
                  12
                  12
                  12
                  12
                  12
                  12
                  11
                  11
                  11
                  11
                  11
                  11
                  11
                  11
                  11
                  11
                  11
                  11
                  11
                  11
                  11
                  11
                  11
                  11
                  11
                  11
                  11
                  11
                  12
                  12
                  12
                  12
                  12
                  12
                  12
                  12
                  12
                  12
                  12
                  12
                  12
                  12
                  12
                  12
                  12
                  12
                  12
                  12
                  11
                  11
                  11
                  11
                  11
                  11
                  11
                  11
                  11
                  11
                  11
                  11
                  11
                  11
                  11
                  11
                  11
                  11
                  11
                  11
                  11
                  11
                  11
                  11
                  11
                  11
                  11
                  11
                  11
                  11
                  12
                  12
                  12
                  12
                  12
                  12
                  12
                  12
                  12
                  12
                  12
                  12
                  12
                  12
                  12
                  12
                  12
                  11
                  11
                  11
                  11
                  12
                  12
                  11
                  11
                  11
                  11
                  11
                  11
                  11
                  11
                  11
                  11
                  11
                  11
                  11
                  11
                  11
                  11
                  11
                  11
                  11
                  11
                  12
                  12
                  12
                  12
                  11
                  11
                  11
                  11
                  11
                  11
                  11
                  11
                  11
                  11
                  11
                  12
                  12
                  12
                  12
                  12
                  12
                  12
                  12
                  12
                  12
                  11
                  11
                  11
                  11
                  11
                  11
                  11
                  11
                  11
                  11
                  11
                  11
                  11
                  11
                  11
                  12
                  12
                  12
                  12
                  12
                  12
                  12
                  12
                  12
                  12
                  12
                  12
                  11
                  11
                  11
                  11
                  12
                  12
                  11
                  11
                  11
                  11
                  11
                  11
                  11
                  11
                  11
                  11
                  11
                  11
                  11
                  11
                  11
                  11
                  11
                  11
                  11
                  11
                  12
                  12
                  12
                  12
                  11
                  11
                  11
                  11
                  11
                  11
                  11
                  11
                  11
                  11
                  11
                  12
                  12
                  12
                  12
                  12
                  12
                  12
                  12
                  12
                  12
                  11
                  11
                  11
                  11
                  11
                  11
                  11
                  11
                  11
                  11
                  11
                  11
                  11
                  11
                  11
                  12
                  12
                  12
                  12
                  12
                  12
                  12
                  12
                  12
                  12
                  12
                  12
                  11
                  11
                  11
                  11
                  12
                  12
                  11
                  11
                  11
                  11
                  11
                  11
                  11
                  11
                  11
                  11
                  11
                  11
                  11
                  11
                  11
                  11
                  11
                  11
                  11
                  11
                  12
                  12
                  12
                  12
                  11
                  11
                  11
                  11
                  11
                  11
                  11
                  11
                  11
                  11
                  11
                  12
                  12
                  12
                  12
                  12
                  12
                  12
                  12
                  12
                  12
                  11
                  11
                  11
                  11
                  11
                  11
                  11
                  11
                  11
                  11
                  11
                  11
                  11
                  11
                  11
                  12
                  12
                  12
                  12
                  12
                  12
                  12
                  12
                  12
                  12
                  12
                  12
                  11
                  11
                  11
                  11
                  12
                  12
                  11
                  11
                  11
                  11
                  11
                  11
                  11
                  11
                  11
                  11
                  11
                  11
                  11
                  11
                  11
                  11
                  11
                  11
                  11
                  11
                  12
                  12
                  12
                  12
                  11
                  11
                  11
                  11
                  11
                  11
                  11
                  11
                  11
                  11
                  11
                  12
                  12
                  12
                  12
                  12
                  12
                  12
                  12
                  12
                  12
                  11
                  11
                  11
                  11
                  11
                  11
                  11
                  11
                  11
                  11
                  11
                  11
                  11
                  11
                  11
                  12
                  12
                  12
                  12
                  12
                  12
                  12
                  12
                  12
                  12
                  12
                  12
                  11
                  11
                  11
                  11
                  12
                  12
                  11
                  11
                  11
                  11
                  11
                  11
                  11
                  11
                  11
                  11
                  11
                  11
                  11
                  11
                  11
                  11
                  11
                  11
                  11
                  11
                  12
                  12
                  12
                  12
                  11
                  11
                  11
                  11
                  11
                  11
                  11
                  11
                  11
                  11
                  11
                  12
                  12
                  12
                  12
                  12
                  12
                  12
                  12
                  12
                  12
                  11
                  11
                  11
                  11
                  11
                  11
                  11
                  11
                  11
                  11
                  11
                  11
                  11
                  11
                  11
                  12
                  12
                  12
                  12
                  12
                  12
                  12
                  12
                  12
                  12
                  12
                  12
                  11
                  11
                  11
                  11
                  12
                  12
                  11
                  11
                  11
                  11
                  11
                  11
                  11
                  11
                  11
                  11
                  11
                  11
                  11
                  11
                  11
                  11
                  11
                  11
                  11
                  11
                  12
                  12
                  12
                  12
                  11
                  11
                  11
                  11
                  11
                  11
                  11
                  11
                  11
                  11
                  11
                  12
                  12
                  12
                  12
                  12
                  12
                  12
                  12
                  12
                  12
                  11
                  11
                  11
                  11
                  11
                  11
                  11
                  11
                  11
                  11
                  11
                  11
                  11
                  11
                  11
                  12
                  12
                  12
                  12
                  12
                  12
                  12
                  12
                  12
                  12
                  12
                  12
                  11
                  11
                  11
                  11
                  12
                  12
                  11
                  11
                  11
                  11
                  11
                  11
                  11
                  11
                  11
                  11
                  11
                  11
                  11
                  11
                  11
                  11
                  11
                  11
                  11
                  11
                  12
                  12
                  12
                  12
                  11
                  11
                  11
                  11
                  11
                  11
                  11
                  11
                  11
                  11
                  11
                  12
                  12
                  12
                  12
                  12
                  12
                  12
                  12
                  12
                  12
                  11
                  11
                  11
                  11
                  11
                  11
                  11
                  11
                  11
                  11
                  11
                  11
                  11
                  11
                  11
                  12
                  12
                  12
                  12
                  12
                  12
                  12
                  12
                  12
                  12
                  12
                  12
                  11
                  11
                  11
                  11
                  12
                  12
                  11
                  11
                  11
                  11
                  11
                  11
                  11
                  11
                  11
                  11
                  11
                  11
                  11
                  11
                  11
                  11
                  11
                  11
                  11
                  11
                  12
                  12
                  12
                  12
                  11
                  11
                  11
                  11
                  11
                  11
                  11
                  11
                  11
                  11
                  11
                  12
                  12
                  12
                  12
                  12
                  12
                  12
                  12
                  12
                  12
                  11
                  11
                  11
                  11
                  11
                  11
                  11
                  11
                  11
                  11
                  11
                  11
                  11
                  11
                  11
                  12
                  12
                  12
                  12
                  12
                  12
                  12
                  12
                  12
                  12
                  12
                  12
                  11
                  11
                  11
                  11
                  12
                  12
                  11
                  11
                  11
                  11
                  11
                  11
                  11
                  11
                  11
                  11
                  11
                  11
                  11
                  11
                  11
                  11
                  11
                  11
                  11
                  11
                  12
                  12
                  12
                  12
                  11
                  11
                  11
                  11
                  11
                  11
                  11
                  11
                  11
                  11
                  11
                  12
                  12
                  12
                  12
                  12
                  12
                  12
                  12
                  12
                  12
                  11
                  11
                  11
                  11
                  11
                  11
                  11
                  11
                  11
                  11
                  11
                  11
                  11
                  11
                  11
                  12
                  12
                  12
                  12
                  12
                  12
                  12
                  12
                  12
                  12
                  12
                  12
                  11
                  11
                  11
                  11
                  12
                  12
                  11
                  11
                  11
                  11
                  11
                  11
                  11
                  11
                  11
                  11
                  11
                  11
                  11
                  11
                  11
                  11
                  11
                  11
                  11
                  11
                  12
                  12
                  12
                  12
                  11
                  11
                  11
                  11
                  11
                  11
                  11
                  11
                  11
                  11
                  11
                  12
                  12
                  12
                  12
                  12
                  12
                  12
                  12
                  12
                  12
                  11
                  11
                  11
                  11
                  11
                  11
                  11
                  11
                  11
                  11
                  11
                  11
                  11
                  11
                  11
                  12
                  12
                  12
                  12
                  12
                  12
                  12
                  12
                  12
                  12
                  12
                  12
                  11
                  11
                  11
                  11
                  12
                  12
                  11
                  11
                  11
                  11
                  11
                  11
                  11
                  11
                  11
                  11
                  11
                  11
                  11
                  11
                  11
                  11
                  11
                  11
                  11
                  11
                  12
                  12
                  12
                  12
                  11
                  11
                  11
                  11
                  11
                  11
                  11
                  11
                  11
                  11
                  11
                  12
                  12
                  12
                  12
                  12
                  12
                  12
                  12
                  12
                  12
                  11
                  11
                  11
                  11
                  11
                  11
                  11
                  11
                  11
                  11
                  11
                  11
                  11
                  11
                  11
                  12
                  12
                  12
                  12
                  12
                  12
                  12
                  12
                  12
                  12
                  12
                  12
                  11
                  11
                  11
                  11
                  12
                  12
                  11
                  11
                  11
                  11
                  11
                  11
                  11
                  11
                  11
                  11
                  11
                  11
                  11
                  11
                  11
                  11
                  11
                  11
                  11
                  11
                  12
                  12
                  12
                  12
                  11
                  11
                  11
                  11
                  11
                  11
                  11
                  11
                  11
                  11
                  11
                  12
                  12
                  12
                  12
                  12
                  12
                  12
                  12
                  12
                  12
                  11
                  11
                  11
                  11
                  11
                  11
                  11
                  11
                  11
                  11
                  11
                  11
                  11
                  11
                  11
                  12
                  12
                  12
                  12
                  12
                  12
                  12
                  12
                  12
                  12
                  12
                  12
                  11
                  11
                  11
                  11
                  12
                  12
                  11
                  11
                  11
                  11
                  11
                  11
                  11
                  11
                  11
                  11
                  11
                  11
                  11
                  11
                  11
                  11
                  11
                  11
                  11
                  11
                  12
                  12
                  12
                  12
                  11
                  11
                  11
                  11
                  11
                  11
                  11
                  11
                  11
                  11
                  11
                  12
                  12
                  12
                  12
                  12
                  12
                  12
                  12
                  12
                  12
                  11
                  11
                  11
                  11
                  11
                  11
                  11
                  11
                  11
                  11
                  11
                  11
                  11
                  11
                  11
                  12
                  12
                  12
                  12
                  12
                  12
                  12
                  12
                  12
                  12
                  12
                  12
                  11
                  11
                  11
                  11
                  12
                  12
                  11
                  11
                  11
                  11
                  11
                  11
                  11
                  11
                  11
                  11
                  11
                  11
                  11
                  11
                  11
                  11
                  11
                  11
                  11
                  11
                  12
                  12
                  12
                  12
                  11
                  11
                  11
                  11
                  11
                  11
                  11
                  11
                  11
                  11
                  11
                  12
                  12
                  12
                  12
                  12
                  12
                  12
                  12
                  12
                  12
                  11
                  11
                  11
                  11
                  11
                  11
                  11
                  11
                  11
                  11
                  11
                  11
                  11
                  11
                  11
                  12
                  12
                  12
                  12
                  12
                  12
                  12
                  12
                  12
                  12
                  12
                  12
                  11
                  11
                  11
                  11
                  12
                  12
                  11
                  11
                  11
                  11
                  11
                  11
                  11
                  11
                  11
                  11
                  11
                  11
                  11
                  11
                  11
                  11
                  11
                  11
                  11
                  11
                  12
                  12
                  12
                  12
                  11
                  11
                  11
                  11
                  11
                  11
                  11
                  11
                  11
                  11
                  11
                  12
                  12
                  12
                  12
                  12
                  12
                  12
                  12
                  12
                  12
                  11
                  11
                  11
                  11
                  11
                  11
                  11
                  11
                  11
                  11
                  11
                  11
                  11
                  11
                  11
                  12
                  12
                  12
                  12
                  12
                  12
                  12
                  12
                  12
                  12
                  12
                  12
                  11
                  11
                  11
                  11
                  12
                  12
                  11
                  11
                  11
                  11
                  11
                  11
                  11
                  11
                  11
                  11
                  11
                  11
                  11
                  11
                  11
                  11
                  11
                  11
                  11
                  11
                  12
                  12
                  12
                  12
                  11
                  11
                  11
                  11
                  11
                  11
                  11
                  11
                  11
                  11
                  11
                  12
                  12
                  12
                  12
                  12
                  12
                  12
                  12
                  12
                  12
                  11
                  11
                  11
                  11
                  11
                  11
                  11
                  11
                  11
                  11
                  11
                  11
                  11
                  11
                  11
                  12
                  12
                  12
                  12
                  12
                  12
                  12
                  12
                  12
                  12
                  12
                  12
                  11
                  11
                  11
                  11
                  12
                  12
                  11
                  11
                  11
                  11
                  11
                  11
                  11
                  11
                  11
                  11
                  11
                  11
                  11
                  11
                  11
                  11
                  11
                  11
                  11
                  11
                  12
                  12
                  12
                  12
                  11
                  11
                  11
                  11
                  11
                  11
                  11
                  11
                  11
                  11
                  11
                  12
                  12
                  12
                  12
                  12
                  12
                  12
                  12
                  12
                  12
                  11
                  11
                  11
                  11
                  11
                  11
                  11
                  11
                  11
                  11
                  11
                  11
                  11
                  11
                  11
                  12
                  12
                  12
                  12
                  12
                  12
                  12
                  12
                  12
                  12
                  12
                  12
                  11
                  11
                  11
                  11
                  12
                  12
                  11
                  11
                  11
                  11
                  11
                  11
                  11
                  11
                  11
                  11
                  11
                  11
                  11
                  11
                  11
                  11
                  11
                  11
                  11
                  11
                  12
                  12
                  12
                  12
                  11
                  11
                  11
                  11
                  11
                  11
                  11
                  11
                  11
                  11
                  11
                  12
                  12
                  12
                  12
                  12
                  12
                  12
                  12
                  12
                  12
                  11
                  11
                  11
                  11
                  11
                  11
                  11
                  11
                  11
                  11
                  11
                  11
                  11
                  11
                  11
                  12
                  12
                  12
                  12
                  12
                  12
                  12
                  12
                  12
                  12
                  12
                  12
                  11
                  11
                  11
                  11
                  12
                  12
                  11
                  11
                  11
                  11
                  11
                  11
                  11
                  11
                  11
                  11
                  11
                  11
                  11
                  11
                  11
                  11
                  11
                  11
                  11
                  11
                  12
                  12
                  12
                  12
                  11
                  11
                  11
                  11
                  11
                  11
                  11
                  11
                  11
                  11
                  11
                  12
                  12
                  12
                  12
                  12
                  12
                  12
                  12
                  12
                  12
                  11
                  11
                  11
                  11
                  11
                  11
                  11
                  11
                  11
                  11
                  11
                  11
                  11
                  11
                  11
                  12
                  12
                  12
                  12
                  12
                  12
                  12
                  12
                  12
                  12
                  12
                  12
                  11
                  11
                  11
                  11
                  12
                  12
                  11
                  11
                  11
                  11
                  11
                  11
                  11
                  11
                  11
                  11
                  11
                  11
                  11
                  11
                  11
                  11
                  11
                  11
                  11
                  11
                  12
                  12
                  12
                  12
                  11
                  11
                  11
                  11
                  11
                  11
                  11
                  11
                  11
                  11
                  11
                  12
                  12
                  12
                  12
                  12
                  12
                  12
                  12
                  12
                  12
                  11
                  11
                  11
                  11
                  11
                  11
                  11
                  11
                  11
                  11
                  11
                  11
                  11
                  11
                  11
                  12
                  12
                  12
                  12
                  12
                  12
                  12
                  12
                  12
                  12
                  12
                  12
                  11
                  11
                  11
                  11
                  12
                  12
                  11
                  11
                  11
                  11
                  11
                  11
                  11
                  11
                  11
                  11
                  11
                  11
                  11
                  11
                  11
                  11
                  11
                  11
                  11
                  11
                  12
                  12
                  12
                  12
                  11
                  11
                  11
                  11
                  11
                  11
                  11
                  11
                  11
                  11
                  11
                  12
                  12
                  12
                  12
                  12
                  12
                  12
                  12
                  12
                  12
                  11
                  11
                  11
                  11
                  11
                  11
                  11
                  11
                  11
                  11
                  11
                  11
                  11
                  11
                  11
                  12
                  12
                  12
                  12
                  12
                  12
                  12
                  12
                  12
                  12
                  12
                  12
                  11
                  11
                  11
                  11
                  12
                  12
                  11
                  11
                  11
                  11
                  11
                  11
                  11
                  11
                  11
                  11
                  11
                  11
                  11
                  11
                  11
                  11
                  11
                  11
                  11
                  11
                  12
                  12
                  12
                  12
                  11
                  11
                  11
                  11
                  11
                  11
                  11
                  11
                  11
                  11
                  11
                  12
                  12
                  12
                  12
                  12
                  12
                  12
                  12
                  12
                  12
                  11
                  11
                  11
                  11
                  11
                  11
                  11
                  11
                  11
                  11
                  11
                  11
                  11
                  11
                  11
                  12
                  12
                  12
                  12
                  12
                  12
                  12
                  12
                  12
                  12
                  12
                  12
                  11
                  11
                  11
                  11
                  12
                  12
                  11
                  11
                  11
                  11
                  11
                  11
                  11
                  11
                  11
                  11
                  11
                  11
                  11
                  11
                  11
                  11
                  11
                  11
                  11
                  11
                  12
                  12
                  12
                  12
                  11
                  11
                  11
                  11
                  11
                  11
                  11
                  11
                  11
                  11
                  11
                  12
                  12
                  12
                  12
                  12
                  12
                  12
                  12
                  12
                  12
                  11
                  11
                  11
                  11
                  11
                  11
                  11
                  11
                  11
                  11
                  11
                  11
                  11
                  11
                  11
                  12
                  12
                  12
                  12
                  12
  
SCALARS                         Jspace  double 1
LOOKUP_TABLE default
                  11
                  12
                  11
                  11
                  11
                  12
                  11
                  11
                  11
                  11
                  11
                  11
                  12
                  12
                  12
                  12
                  11
                  12
                  11
                  12
                  12
                  12
                  12
                  12
                  12
                  12
                  12
                  12
                  12
                  12
                  11
                  11
                  11
                  11
                  11
                  11
                  11
                  11
                  11
                  11
                  11
                  11
                  11
                  11
                  11
                  11
                  11
                  11
                  11
                  11
                  11
                  11
                  12
                  12
                  12
                  12
                  12
                  11
                  12
                  11
                  11
                  11
                  11
                  11
                  11
                  11
                  11
                  11
                  11
                  12
                  11
                  12
                  12
                  12
                  12
                  12
                  12
                  12
                  12
                  12
                  12
                  12
                  12
                  12
                  11
                  11
                  11
                  11
                  11
                  11
                  11
                  11
                  11
                  11
                  11
                  11
                  11
                  11
                  11
                  11
                  11
                  11
                  11
                  11
                  11
                  11
                  11
                  11
                  12
                  12
                  12
                  12
                  12
                  12
                  12
                  12
                  12
                  12
                  12
                  12
                  12
                  12
                  12
                  12
                  12
                  12
                  12
                  12
                  11
                  11
                  11
                  11
                  11
                  11
                  11
                  11
                  11
                  11
                  11
                  11
                  11
                  11
                  11
                  11
                  11
                  11
                  11
                  11
                  11
                  11
                  11
                  11
                  11
                  11
                  11
                  11
                  11
                  12
                  11
                  11
                  11
                  11
                  12
                  12
                  11
                  12
                  12
                  12
                  12
                  12
                  12
                  11
                  11
                  11
                  11
                  11
                  11
                  11
                  11
                  11
                  11
                  11
                  12
                  12
                  12
                  11
                  11
                  11
                  11
                  11
                  11
                  12
                  12
                  12
                  12
                  12
                  12
                  12
                  11
                  11
                  11
                  11
                  11
                  11
                  11
                  11
                  11
                  11
                  11
                  11
                  12
                  12
                  12
                  12
                  12
                  12
                  12
                  12
                  12
                  12
                  11
                  11
                  11
                  11
                  11
                  11
                  11
                  11
                  11
                  11
                  11
                  11
                  11
                  11
                  11
                  12
                  11
                  11
                  11
                  11
                  12
                  12
                  11
                  12
                  12
                  12
                  12
                  12
                  12
                  11
                  11
                  11
                  11
                  11
                  11
                  11
                  11
                  11
                  11
                  11
                  12
                  12
                  12
                  11
                  11
                  11
                  11
                  11
                  11
                  12
                  12
                  12
                  12
                  12
                  12
                  12
                  11
                  11
                  11
                  11
                  11
                  11
                  11
                  11
                  11
                  11
                  11
                  11
                  12
                  12
                  12
                  12
                  12
                  12
                  12
                  12
                  12
                  12
                  11
                  11
                  11
                  11
                  11
                  11
                  11
                  11
                  11
                  11
                  11
                  11
                  11
                  11
                  11
                  12
                  11
                  11
                  11
                  11
                  12
                  12
                  11
                  12
                  12
                  12
                  12
                  12
                  12
                  11
                  11
                  11
                  11
                  11
                  11
                  11
                  11
                  11
                  11
                  11
                  12
                  12
                  12
                  11
                  11
                  11
                  11
                  11
                  11
                  12
                  12
                  12
                  12
                  12
                  12
                  12
                  11
                  11
                  11
                  11
                  11
                  11
                  11
                  11
                  11
                  11
                  11
                  11
                  12
                  12
                  12
                  12
                  12
                  12
                  12
                  12
                  12
                  12
                  11
                  11
                  11
                  11
                  11
                  11
                  11
                  11
                  11
                  11
                  11
                  11
                  11
                  11
                  11
                  12
                  11
                  11
                  11
                  11
                  12
                  12
                  11
                  12
                  12
                  12
                  12
                  12
                  12
                  11
                  11
                  11
                  11
                  11
                  11
                  11
                  11
                  11
                  11
                  11
                  12
                  12
                  12
                  11
                  11
                  11
                  11
                  11
                  11
                  12
                  12
                  12
                  12
                  12
                  12
                  12
                  11
                  11
                  11
                  11
                  11
                  11
                  11
                  11
                  11
                  11
                  11
                  11
                  12
                  12
                  12
                  12
                  12
                  12
                  12
                  12
                  12
                  12
                  11
                  11
                  11
                  11
                  11
                  11
                  11
                  11
                  11
                  11
                  11
                  11
                  11
                  11
                  11
                  12
                  11
                  11
                  11
                  11
                  12
                  12
                  11
                  12
                  12
                  12
                  12
                  12
                  12
                  11
                  11
                  11
                  11
                  11
                  11
                  11
                  11
                  11
                  11
                  11
                  12
                  12
                  12
                  11
                  11
                  11
                  11
                  11
                  11
                  12
                  12
                  12
                  12
                  12
                  12
                  12
                  11
                  11
                  11
                  11
                  11
                  11
                  11
                  11
                  11
                  11
                  11
                  11
                  12
                  12
                  12
                  12
                  12
                  12
                  12
                  12
                  12
                  12
                  11
                  11
                  11
                  11
                  11
                  11
                  11
                  11
                  11
                  11
                  11
                  11
                  11
                  11
                  11
                  12
                  11
                  11
                  11
                  11
                  12
                  12
                  11
                  12
                  12
                  12
                  12
                  12
                  12
                  11
                  11
                  11
                  11
                  11
                  11
                  11
                  11
                  11
                  11
                  11
                  12
                  12
                  12
                  11
                  11
                  11
                  11
                  11
                  11
                  12
                  12
                  12
                  12
                  12
                  12
                  12
                  11
                  11
                  11
                  11
                  11
                  11
                  11
                  11
                  11
                  11
                  11
                  11
                  12
                  12
                  12
                  12
                  12
                  12
                  12
                  12
                  12
                  12
                  11
                  11
                  11
                  11
                  11
                  11
                  11
                  11
                  11
                  11
                  11
                  11
                  11
                  11
                  11
                  12
                  11
                  11
                  11
                  11
                  12
                  12
                  11
                  12
                  12
                  12
                  12
                  12
                  12
                  11
                  11
                  11
                  11
                  11
                  11
                  11
                  11
                  11
                  11
                  11
                  12
                  12
                  12
                  11
                  11
                  11
                  11
                  11
                  11
                  12
                  12
                  12
                  12
                  12
                  12
                  12
                  11
                  11
                  11
                  11
                  11
                  11
                  11
                  11
                  11
                  11
                  11
                  11
                  12
                  12
                  12
                  12
                  12
                  12
                  12
                  12
                  12
                  12
                  11
                  11
                  11
                  11
                  11
                  11
                  11
                  11
                  11
                  11
                  11
                  11
                  11
                  11
                  11
                  12
                  11
                  11
                  11
                  11
                  12
                  12
                  11
                  12
                  12
                  12
                  12
                  12
                  12
                  11
                  11
                  11
                  11
                  11
                  11
                  11
                  11
                  11
                  11
                  11
                  12
                  12
                  12
                  11
                  11
                  11
                  11
                  11
                  11
                  12
                  12
                  12
                  12
                  12
                  12
                  12
                  11
                  11
                  11
                  11
                  11
                  11
                  11
                  11
                  11
                  11
                  11
                  11
                  12
                  12
                  12
                  12
                  12
                  12
                  12
                  12
                  12
                  12
                  11
                  11
                  11
                  11
                  11
                  11
                  11
                  11
                  11
                  11
                  11
                  11
                  11
                  11
                  11
                  12
                  11
                  11
                  11
                  11
                  12
                  12
                  11
                  12
                  12
                  12
                  12
                  12
                  12
                  11
                  11
                  11
                  11
                  11
                  11
                  11
                  11
                  11
                  11
                  11
                  12
                  12
                  12
                  11
                  11
                  11
                  11
                  11
                  11
                  12
                  12
                  12
                  12
                  12
                  12
                  12
                  11
                  11
                  11
                  11
                  11
                  11
                  11
                  11
                  11
                  11
                  11
                  11
                  12
                  12
                  12
                  12
                  12
                  12
                  12
                  12
                  12
                  12
                  11
                  11
                  11
                  11
                  11
                  11
                  11
                  11
                  11
                  11
                  11
                  11
                  11
                  11
                  11
                  12
                  11
                  11
                  11
                  11
                  12
                  12
                  11
                  12
                  12
                  12
                  12
                  12
                  12
                  11
                  11
                  11
                  11
                  11
                  11
                  11
                  11
                  11
                  11
                  11
                  12
                  12
                  12
                  11
                  11
                  11
                  11
                  11
                  11
                  12
                  12
                  12
                  12
                  12
                  12
                  12
                  11
                  11
                  11
                  11
                  11
                  11
                  11
                  11
                  11
                  11
                  11
                  11
                  12
                  12
                  12
                  12
                  12
                  12
                  12
                  12
                  12
                  12
                  11
                  11
                  11
                  11
                  11
                  11
                  11
                  11
                  11
                  11
                  11
                  11
                  11
                  11
                  11
                  12
                  11
                  11
                  11
                  11
                  12
                  12
                  11
                  12
                  12
                  12
                  12
                  12
                  12
                  11
                  11
                  11
                  11
                  11
                  11
                  11
                  11
                  11
                  11
                  11
                  12
                  12
                  12
                  11
                  11
                  11
                  11
                  11
                  11
                  12
                  12
                  12
                  12
                  12
                  12
                  12
                  11
                  11
                  11
                  11
                  11
                  11
                  11
                  11
                  11
                  11
                  11
                  11
                  12
                  12
                  12
                  12
                  12
                  12
                  12
                  12
                  12
                  12
                  11
                  11
                  11
                  11
                  11
                  11
                  11
                  11
                  11
                  11
                  11
                  11
                  11
                  11
                  11
                  12
                  11
                  11
                  11
                  11
                  12
                  12
                  11
                  12
                  12
                  12
                  12
                  12
                  12
                  11
                  11
                  11
                  11
                  11
                  11
                  11
                  11
                  11
                  11
                  11
                  12
                  12
                  12
                  11
                  11
                  11
                  11
                  11
                  11
                  12
                  12
                  12
                  12
                  12
                  12
                  12
                  11
                  11
                  11
                  11
                  11
                  11
                  11
                  11
                  11
                  11
                  11
                  11
                  12
                  12
                  12
                  12
                  12
                  12
                  12
                  12
                  12
                  12
                  11
                  11
                  11
                  11
                  11
                  11
                  11
                  11
                  11
                  11
                  11
                  11
                  11
                  11
                  11
                  12
                  11
                  11
                  11
                  11
                  12
                  12
                  11
                  12
                  12
                  12
                  12
                  12
                  12
                  11
                  11
                  11
                  11
                  11
                  11
                  11
                  11
                  11
                  11
                  11
                  12
                  12
                  12
                  11
                  11
                  11
                  11
                  11
                  11
                  12
                  12
                  12
                  12
                  12
                  12
                  12
                  11
                  11
                  11
                  11
                  11
                  11
                  11
                  11
                  11
                  11
                  11
                  11
                  12
                  12
                  12
                  12
                  12
                  12
                  12
                  12
                  12
                  12
                  11
                  11
                  11
                  11
                  11
                  11
                  11
                  11
                  11
                  11
                  11
                  11
                  11
                  11
                  11
                  12
                  11
                  11
                  11
                  11
                  12
                  12
                  11
                  12
                  12
                  12
                  12
                  12
                  12
                  11
                  11
                  11
                  11
                  11
                  11
                  11
                  11
                  11
                  11
                  11
                  12
                  12
                  12
                  11
                  11
                  11
                  11
                  11
                  11
                  12
                  12
                  12
                  12
                  12
                  12
                  12
                  11
                  11
                  11
                  11
                  11
                  11
                  11
                  11
                  11
                  11
                  11
                  11
                  12
                  12
                  12
                  12
                  12
                  12
                  12
                  12
                  12
                  12
                  11
                  11
                  11
                  11
                  11
                  11
                  11
                  11
                  11
                  11
                  11
                  11
                  11
                  11
                  11
                  12
                  11
                  11
                  11
                  11
                  12
                  12
                  11
                  12
                  12
                  12
                  12
                  12
                  12
                  11
                  11
                  11
                  11
                  11
                  11
                  11
                  11
                  11
                  11
                  11
                  12
                  12
                  12
                  11
                  11
                  11
                  11
                  11
                  11
                  12
                  12
                  12
                  12
                  12
                  12
                  12
                  11
                  11
                  11
                  11
                  11
                  11
                  11
                  11
                  11
                  11
                  11
                  11
                  12
                  12
                  12
                  12
                  12
                  12
                  12
                  12
                  12
                  12
                  11
                  11
                  11
                  11
                  11
                  11
                  11
                  11
                  11
                  11
                  11
                  11
                  11
                  11
                  11
                  12
                  11
                  11
                  11
                  11
                  12
                  12
                  11
                  12
                  12
                  12
                  12
                  12
                  12
                  11
                  11
                  11
                  11
                  11
                  11
                  11
                  11
                  11
                  11
                  11
                  12
                  12
                  12
                  11
                  11
                  11
                  11
                  11
                  11
                  12
                  12
                  12
                  12
                  12
                  12
                  12
                  11
                  11
                  11
                  11
                  11
                  11
                  11
                  11
                  11
                  11
                  11
                  11
                  12
                  12
                  12
                  12
                  12
                  12
                  12
                  12
                  12
                  12
                  11
                  11
                  11
                  11
                  11
                  11
                  11
                  11
                  11
                  11
                  11
                  11
                  11
                  11
                  11
                  12
                  11
                  11
                  11
                  11
                  12
                  12
                  11
                  12
                  12
                  12
                  12
                  12
                  12
                  11
                  11
                  11
                  11
                  11
                  11
                  11
                  11
                  11
                  11
                  11
                  12
                  12
                  12
                  11
                  11
                  11
                  11
                  11
                  11
                  12
                  12
                  12
                  12
                  12
                  12
                  12
                  11
                  11
                  11
                  11
                  11
                  11
                  11
                  11
                  11
                  11
                  11
                  11
                  12
                  12
                  12
                  12
                  12
                  12
                  12
                  12
                  12
                  12
                  11
                  11
                  11
                  11
                  11
                  11
                  11
                  11
                  11
                  11
                  11
                  11
                  11
                  11
                  11
                  12
                  11
                  11
                  11
                  11
                  12
                  12
                  11
                  12
                  12
                  12
                  12
                  12
                  12
                  11
                  11
                  11
                  11
                  11
                  11
                  11
                  11
                  11
                  11
                  11
                  12
                  12
                  12
                  11
                  11
                  11
                  11
                  11
                  11
                  12
                  12
                  12
                  12
                  12
                  12
                  12
                  11
                  11
                  11
                  11
                  11
                  11
                  11
                  11
                  11
                  11
                  11
                  11
                  12
                  12
                  12
                  12
                  12
                  12
                  12
                  12
                  12
                  12
                  11
                  11
                  11
                  11
                  11
                  11
                  11
                  11
                  11
                  11
                  11
                  11
                  11
                  11
                  11
                  12
                  11
                  11
                  11
                  11
                  12
                  12
                  11
                  12
                  12
                  12
                  12
                  12
                  12
                  11
                  11
                  11
                  11
                  11
                  11
                  11
                  11
                  11
                  11
                  11
                  12
                  12
                  12
                  11
                  11
                  11
                  11
                  11
                  11
                  12
                  12
                  12
                  12
                  12
                  12
                  12
                  11
                  11
                  11
                  11
                  11
                  11
                  11
                  11
                  11
                  11
                  11
                  11
                  12
                  12
                  12
                  12
                  12
                  12
                  12
                  12
                  12
                  12
                  11
                  11
                  11
                  11
                  11
                  11
                  11
                  11
                  11
                  11
                  11
                  11
                  11
                  11
                  11
                  12
                  11
                  11
                  11
                  11
                  12
                  12
                  11
                  12
                  12
                  12
                  12
                  12
                  12
                  11
                  11
                  11
                  11
                  11
                  11
                  11
                  11
                  11
                  11
                  11
                  12
                  12
                  12
                  11
                  11
                  11
                  11
                  11
                  11
                  12
                  12
                  12
                  12
                  12
                  12
                  12
                  11
                  11
                  11
                  11
                  11
                  11
                  11
                  11
                  11
                  11
                  11
                  11
                  12
                  12
                  12
                  12
                  12
                  12
                  12
                  12
                  12
                  12
                  11
                  11
                  11
                  11
                  11
                  11
                  11
                  11
                  11
                  11
                  11
                  11
                  11
                  11
                  11
                  12
                  11
                  11
                  11
                  11
                  12
                  12
                  11
                  12
                  12
                  12
                  12
                  12
                  12
                  11
                  11
                  11
                  11
                  11
                  11
                  11
                  11
                  11
                  11
                  11
                  12
                  12
                  12
                  11
                  11
                  11
                  11
                  11
                  11
                  12
                  12
                  12
                  12
                  12
                  12
                  12
                  11
                  11
                  11
                  11
                  11
                  11
                  11
                  11
                  11
                  11
                  11
                  11
                  12
                  12
                  12
                  12
                  12
                  12
                  12
                  12
                  12
                  12
                  11
                  11
                  11
                  11
                  11
                  11
                  11
                  11
                  11
                  11
                  11
                  11
                  11
                  11
                  11
                  12
                  11
                  11
                  11
                  11
                  12
                  12
                  11
                  12
                  12
                  12
                  12
                  12
                  12
                  11
                  11
                  11
                  11
                  11
                  11
                  11
                  11
                  11
                  11
                  11
                  12
                  12
                  12
                  11
                  11
                  11
                  11
                  11
                  11
                  12
                  12
                  12
                  12
                  12
                  12
                  12
                  11
                  11
                  11
                  11
                  11
                  11
                  11
                  11
                  11
                  11
                  11
                  11
                  12
                  12
                  12
                  12
                  12
                  12
                  12
                  12
                  12
                  12
                  11
                  11
                  11
                  11
                  11
                  11
                  11
                  11
                  11
                  11
                  11
                  11
                  11
                  11
                  11
                  12
                  11
                  11
                  11
                  11
                  12
                  12
                  11
                  12
                  12
                  12
                  12
                  12
                  12
                  11
                  11
                  11
                  11
                  11
                  11
                  11
                  11
                  11
                  11
                  11
                  12
                  12
                  12
                  11
                  11
                  11
                  11
                  11
                  11
                  12
                  12
                  12
                  12
                  12
                  12
                  12
                  11
                  11
                  11
                  11
                  11
                  11
                  11
                  11
                  11
                  11
                  11
                  11
                  12
                  12
                  12
                  12
                  12
                  12
                  12
                  12
                  12
                  12
                  11
                  11
                  11
                  11
                  11
                  11
                  11
                  11
                  11
                  11
                  11
                  11
                  11
                  11
  
SCALARS                         Kspace  double 1
LOOKUP_TABLE default
                  11
                  11
                  11
                  11
                  11
                  11
                  11
                  11
                  11
                  11
                  11
                  11
                  11
                  11
                  11
                  11
                  11
                  11
                  11
                  11
                  11
                  11
                  11
                  11
                  11
                  11
                  11
                  11
                  11
                  11
                  11
                  11
                  11
                  11
                  11
                  11
                  11
                  11
                  11
                  11
                  11
                  11
                  11
                  11
                  11
                  11
                  11
                  11
                  11
                  11
                  11
                  11
                  11
                  11
                  11
                  11
                  11
                  11
                  11
                  11
                  11
                  11
                  11
                  11
                  11
                  11
                  11
                  11
                  11
                  11
                  11
                  11
                  11
                  11
                  11
                  11
                  11
                  11
                  11
                  11
                  11
                  11
                  11
                  11
                  11
                  11
                  11
                  11
                  11
                  11
                  11
                  11
                  11
                  11
                  11
                  11
                  11
                  11
                  11
                  11
                  11
                  11
                  11
                  11
                  11
                  11
                  11
                  11
                  11
                  11
                  11
                  11
                  11
                  11
                  11
                  11
                  11
                  11
                  11
                  11
                  11
                  11
                  11
                  11
                  11
                  11
                  11
                  11
                  11
                  11
                  11
                  11
                  11
                  11
                  11
                  11
                  11
                  11
                  11
                  11
                  11
                  11
                  11
                  11
                  11
                  11
                  11
                  11
                  11
                  11
                  11
                  11
                  11
                  11
                  11
                  11
                  11
                  11
                  11
                  11
                  11
                  11
                  11
                  11
                  11
                  11
                  11
                  11
                  11
                  11
                  11
                  11
                  11
                  11
                  11
                  11
                  11
                  11
                  11
                  11
                  11
                  11
                  11
                  11
                  11
                  11
                  11
                  11
                  11
                  11
                  11
                  11
                  11
                  11
                  11
                  11
                  11
                  11
                  11
                  11
                  11
                  11
                  11
                  11
                  11
                  11
                  11
                  11
                  11
                  11
                  11
                  11
                  11
                  11
                  11
                  11
                  11
                  11
                  11
                  11
                  11
                  11
                  11
                  11
                  11
                  11
                  11
                  11
                  11
                  11
                  11
                  11
                  11
                  11
                  11
                  11
                  11
                  11
                  11
                  11
                  11
                  11
                  11
                  11
                  11
                  11
                  11
                  11
                  11
                  11
                  11
                  11
                  11
                  11
                  11
                  11
                  11
                  11
                  11
                  11
                  11
                  11
                  11
                  11
                  11
                  11
                  11
                  11
                  11
                  11
                  11
                  11
                  11
                  11
                  11
                  11
                  11
                  11
                  11
                  11
                  11
                  11
                  11
                  11
                  11
                  11
                  11
                  11
                  11
                  11
                  11
                  11
                  11
                  11
                  11
                  11
                  11
                  11
                  11
                  11
                  11
                  11
                  11
                  11
                  11
                  11
                  11
                  11
                  11
                  11
                  11
                  11
                  12
                  12
                  12
                  12
                  12
                  12
                  12
                  12
                  12
                  12
                  12
                  12
                  12
                  12
                  12
                  12
                  12
                  12
                  12
                  12
                  12
                  12
                  12
                  12
                  12
                  12
                  12
                  12
                  12
                  12
                  12
                  12
                  12
                  12
                  12
                  12
                  12
                  12
                  12
                  12
                  12
                  12
                  12
                  12
                  12
                  12
                  12
                  12
                  12
                  12
                  12
                  12
                  12
                  12
                  12
                  12
                  12
                  12
                  12
                  12
                  12
                  12
                  12
                  12
                  12
                  12
                  12
                  12
                  12
                  12
                  12
                  12
                  12
                  12
                  12
                  12
                  12
                  12
                  12
                  12
                  12
                  12
                  12
                  12
                  12
                  12
                  12
                  12
                  12
                  12
                  12
                  12
                  12
                  12
                  12
                  12
                  12
                  12
                  12
                  12
                  12
                  12
                  12
                  12
                  12
                  12
                  12
                  12
                  12
                  12
                  12
                  12
                  12
                  12
                  12
                  12
                  12
                  12
                  12
                  12
                  12
                  12
                  12
                  12
                  12
                  12
                  12
                  12
                  12
                  12
                  12
                  12
                  12
                  12
                  12
                  12
                  12
                  12
                  12
                  12
                  12
                  12
                  12
                  12
                  12
                  12
                  12
                  12
                  12
                  12
                  12
                  12
                  12
                  12
                  12
                  12
                  12
                  12
                  12
                  12
                  12
                  12
                  12
                  12
                  12
                  12
                  12
                  12
                  12
                  12
                  12
                  12
                  12
                  12
                  12
                  12
                  12
                  12
                  12
                  12
                  12
                  12
                  12
                  12
                  12
                  12
                  12
                  12
                  12
                  12
                  12
                  12
                  12
                  12
                  12
                  12
                  12
                  12
                  12
                  12
                  12
                  12
                  12
                  12
                  12
                  12
                  12
                  12
                  12
                  12
                  12
                  12
                  12
                  12
                  12
                  12
                  12
                  12
                  12
                  12
                  12
                  12
                  12
                  12
                  12
                  12
                  12
                  12
                  12
                  12
                  12
                  12
                  12
                  12
                  13
                  13
                  13
                  13
                  13
                  13
                  13
                  13
                  13
                  13
                  13
                  13
                  13
                  13
                  13
                  13
                  13
                  13
                  13
                  13
                  13
                  13
                  13
                  13
                  13
                  13
                  13
                  13
                  13
                  13
                  13
                  13
                  13
                  13
                  13
                  13
                  13
                  13
                  13
                  13
                  13
                  13
                  13
                  13
                  13
                  13
                  13
                  13
                  13
                  13
                  13
                  13
                  13
                  13
                  13
                  13
                  13
                  13
                  13
                  13
                  13
                  13
                  13
                  13
                  13
                  13
                  13
                  13
                  13
                  13
                  13
                  13
                  13
                  13
                  13
                  13
                  13
                  13
                  13
                  13
                  13
                  13
                  13
                  13
                  13
                  13
                  13
                  13
                  13
                  13
                  13
                  13
                  13
                  13
                  13
                  13
                  13
                  13
                  13
                  13
                  13
                  13
                  13
                  13
                  13
                  13
                  13
                  13
                  13
                  13
                  13
                  13
                  13
                  13
                  13
                  13
                  13
                  13
                  13
                  13
                  13
                  13
                  13
                  13
                  13
                  13
                  13
                  13
                  13
                  13
                  13
                  13
                  13
                  13
                  13
                  13
                  13
                  13
                  13
                  13
                  13
                  13
                  13
                  13
                  13
                  13
                  13
                  13
                  13
                  13
                  13
                  13
                  13
                  13
                  13
                  13
                  13
                  13
                  13
                  13
                  13
                  13
                  13
                  13
                  13
                  13
                  13
                  13
                  13
                  13
                  13
                  13
                  13
                  13
                  13
                  13
                  13
                  13
                  13
                  13
                  13
                  13
                  13
                  13
                  13
                  13
                  13
                  13
                  13
                  13
                  13
                  13
                  13
                  13
                  13
                  13
                  13
                  13
                  13
                  13
                  13
                  13
                  13
                  13
                  13
                  13
                  13
                  13
                  13
                  13
                  13
                  13
                  13
                  13
                  13
                  13
                  13
                  13
                  13
                  13
                  13
                  13
                  13
                  13
                  13
                  13
                  13
                  13
                  13
                  13
                  13
                  13
                  13
                  13
                  14
                  14
                  14
                  14
                  14
                  14
                  14
                  14
                  14
                  14
                  14
                  14
                  14
                  14
                  14
                  14
                  14
                  14
                  14
                  14
                  14
                  14
                  14
                  14
                  14
                  14
                  14
                  14
                  14
                  14
                  14
                  14
                  14
                  14
                  14
                  14
                  14
                  14
                  14
                  14
                  14
                  14
                  14
                  14
                  14
                  14
                  14
                  14
                  14
                  14
                  14
                  14
                  14
                  14
                  14
                  14
                  14
                  14
                  14
                  14
                  14
                  14
                  14
                  14
                  14
                  14
                  14
                  14
                  14
                  14
                  14
                  14
                  14
                  14
                  14
                  14
                  14
                  14
                  14
                  14
                  14
                  14
                  14
                  14
                  14
                  14
                  14
                  14
                  14
                  14
                  14
                  14
                  14
                  14
                  14
                  14
                  14
                  14
                  14
                  14
                  14
                  14
                  14
                  14
                  14
                  14
                  14
                  14
                  14
                  14
                  14
                  14
                  14
                  14
                  14
                  14
                  14
                  14
                  14
                  14
                  14
                  14
                  14
                  14
                  14
                  14
                  14
                  14
                  14
                  14
                  14
                  14
                  14
                  14
                  14
                  14
                  14
                  14
                  14
                  14
                  14
                  14
                  14
                  14
                  14
                  14
                  14
                  14
                  14
                  14
                  14
                  14
                  14
                  14
                  14
                  14
                  14
                  14
                  14
                  14
                  14
                  14
                  14
                  14
                  14
                  14
                  14
                  14
                  14
                  14
                  14
                  14
                  14
                  14
                  14
                  14
                  14
                  14
                  14
                  14
                  14
                  14
                  14
                  14
                  14
                  14
                  14
                  14
                  14
                  14
                  14
                  14
                  14
                  14
                  14
                  14
                  14
                  14
                  14
                  14
                  14
                  14
                  14
                  14
                  14
                  14
                  14
                  14
                  14
                  14
                  14
                  14
                  14
                  14
                  14
                  14
                  14
                  14
                  14
                  14
                  14
                  14
                  14
                  14
                  14
                  14
                  14
                  14
                  14
                  14
                  14
                  14
                  14
                  14
                  15
                  15
                  15
                  15
                  15
                  15
                  15
                  15
                  15
                  15
                  15
                  15
                  15
                  15
                  15
                  15
                  15
                  15
                  15
                  15
                  15
                  15
                  15
                  15
                  15
                  15
                  15
                  15
                  15
                  15
                  15
                  15
                  15
                  15
                  15
                  15
                  15
                  15
                  15
                  15
                  15
                  15
                  15
                  15
                  15
                  15
                  15
                  15
                  15
                  15
                  15
                  15
                  15
                  15
                  15
                  15
                  15
                  15
                  15
                  15
                  15
                  15
                  15
                  15
                  15
                  15
                  15
                  15
                  15
                  15
                  15
                  15
                  15
                  15
                  15
                  15
                  15
                  15
                  15
                  15
                  15
                  15
                  15
                  15
                  15
                  15
                  15
                  15
                  15
                  15
                  15
                  15
                  15
                  15
                  15
                  15
                  15
                  15
                  15
                  15
                  15
                  15
                  15
                  15
                  15
                  15
                  15
                  15
                  15
                  15
                  15
                  15
                  15
                  15
                  15
                  15
                  15
                  15
                  15
                  15
                  15
                  15
                  15
                  15
                  15
                  15
                  15
                  15
                  15
                  15
                  15
                  15
                  15
                  15
                  15
                  15
                  15
                  15
                  15
                  15
                  15
                  15
                  15
                  15
                  15
                  15
                  15
                  15
                  15
                  15
                  15
                  15
                  15
                  15
                  15
                  15
                  15
                  15
                  15
                  15
                  15
                  15
                  15
                  15
                  15
                  15
                  15
                  15
                  15
                  15
                  15
                  15
                  15
                  15
                  15
                  15
                  15
                  15
                  15
                  15
                  15
                  15
                  15
                  15
                  15
                  15
                  15
                  15
                  15
                  15
                  15
                  15
                  15
                  15
                  15
                  15
                  15
                  15
                  15
                  15
                  15
                  15
                  15
                  15
                  15
                  15
                  15
                  15
                  15
                  15
                  15
                  15
                  15
                  15
                  15
                  15
                  15
                  15
                  15
                  15
                  15
                  15
                  15
                  15
                  15
                  15
                  15
                  15
                  15
                  15
                  15
                  15
                  15
                  15
                  15
                  15
                  15
                  15
                  15
                  15
                  15
                  15
                  15
                  15
                  15
                  15
                  15
                  15
                  15
                  15
                  15
                  15
                  15
                  15
                  15
                  15
                  15
                  15
                  15
                  15
                  15
                  15
                  15
                  15
                  15
                  15
                  15
                  15
                  15
                  15
                  15
                  15
                  15
                  15
                  15
                  15
                  15
                  15
                  15
                  15
                  15
                  15
                  15
                  15
                  15
                  15
                  15
                  15
                  15
                  15
                  15
                  15
                  15
                  15
                  15
                  15
                  15
                  15
                  15
                  15
                  15
                  15
                  15
                  15
                  15
                  15
                  15
                  15
                  15
                  15
                  15
                  15
                  16
                  16
                  16
                  16
                  16
                  16
                  16
                  16
                  16
                  16
                  16
                  16
                  16
                  16
                  16
                  16
                  16
                  16
                  16
                  16
                  16
                  16
                  16
                  16
                  16
                  16
                  16
                  16
                  16
                  16
                  16
                  16
                  16
                  16
                  16
                  16
                  16
                  16
                  16
                  16
                  16
                  16
                  16
                  16
                  16
                  16
                  16
                  16
                  16
                  16
                  16
                  16
                  16
                  16
                  16
                  16
                  16
                  16
                  16
                  16
                  16
                  16
                  16
                  16
                  16
                  16
                  16
                  16
                  16
                  16
                  16
                  16
                  16
                  16
                  16
                  16
                  16
                  16
                  16
                  16
                  16
                  16
                  16
                  16
                  16
                  16
                  16
                  16
                  16
                  16
                  16
                  16
                  16
                  16
                  16
                  16
                  16
                  16
                  16
                  16
                  16
                  16
                  16
                  16
                  16
                  16
                  16
                  16
                  16
                  16
                  16
                  16
                  16
                  16
                  16
                  16
                  16
                  16
                  16
                  16
                  16
                  16
                  16
                  16
                  16
                  16
                  16
                  16
                  16
                  16
                  16
                  16
                  16
                  16
                  16
                  16
                  16
                  16
                  16
                  16
                  16
                  16
                  16
                  16
                  16
                  16
                  16
                  16
                  16
                  16
                  16
                  16
                  16
                  16
                  16
                  16
                  16
                  16
                  16
                  16
                  16
                  16
                  16
                  16
                  16
                  16
                  16
                  16
                  16
                  16
                  16
                  16
                  16
                  16
                  16
                  16
                  16
                  16
                  16
                  16
                  16
                  16
                  16
                  16
                  16
                  16
                  16
                  16
                  16
                  16
                  16
                  16
                  16
                  16
                  16
                  16
                  16
                  16
                  16
                  16
                  16
                  16
                  16
                  16
                  16
                  16
                  16
                  16
                  16
                  16
                  16
                  16
                  16
                  16
                  16
                  16
                  16
                  16
                  16
                  16
                  16
                  16
                  16
                  16
                  16
                  16
                  16
                  16
                  16
                  16
                  16
                  16
                  16
                  16
                  17
                  17
                  17
                  17
                  17
                  17
                  17
                  17
                  17
                  17
                  17
                  17
                  17
                  17
                  17
                  17
                  17
                  17
                  17
                  17
                  17
                  17
                  17
                  17
                  17
                  17
                  17
                  17
                  17
                  17
                  17
                  17
                  17
                  17
                  17
                  17
                  17
                  17
                  17
                  17
                  17
                  17
                  17
                  17
                  17
                  17
                  17
                  17
                  17
                  17
                  17
                  17
                  17
                  17
                  17
                  17
                  17
                  17
                  17
                  17
                  17
                  17
                  17
                  17
                  17
                  17
                  17
                  17
                  17
                  17
                  17
                  17
                  17
                  17
                  17
                  17
                  17
                  17
                  17
                  17
                  17
                  17
                  17
                  17
                  17
                  17
                  17
                  17
                  17
                  17
                  17
                  17
                  17
                  17
                  17
                  17
                  17
                  17
                  17
                  17
                  17
                  17
                  17
                  17
                  17
                  17
                  17
                  17
                  17
                  17
                  17
                  17
                  17
                  17
                  17
                  17
                  17
                  17
                  17
                  17
                  17
                  17
                  17
                  17
                  17
                  17
                  17
                  17
                  17
                  17
                  17
                  17
                  17
                  17
                  17
                  17
                  17
                  17
                  17
                  17
                  17
                  17
                  17
                  17
                  17
                  17
                  17
                  17
                  17
                  17
                  17
                  17
                  17
                  17
                  17
                  17
                  17
                  17
                  17
                  17
                  17
                  17
                  17
                  17
                  17
                  17
                  17
                  17
                  17
                  17
                  17
                  17
                  17
                  17
                  17
                  17
                  17
                  17
                  17
                  17
                  17
                  17
                  17
                  17
                  17
                  17
                  17
                  17
                  17
                  17
                  17
                  17
                  17
                  17
                  17
                  17
                  17
                  17
                  17
                  17
                  17
                  17
                  17
                  17
                  17
                  17
                  17
                  17
                  17
                  17
                  17
                  17
                  17
                  17
                  17
                  17
                  17
                  17
                  17
                  17
                  17
                  17
                  17
                  17
                  17
                  17
                  17
                  17
                  17
                  17
                  17
                  17
                  17
                  17
                  18
                  18
                  18
                  18
                  18
                  18
                  18
                  18
                  18
                  18
                  18
                  18
                  18
                  18
                  18
                  18
                  18
                  18
                  18
                  18
                  18
                  18
                  18
                  18
                  18
                  18
                  18
                  18
                  18
                  18
                  18
                  18
                  18
                  18
                  18
                  18
                  18
                  18
                  18
                  18
                  18
                  18
                  18
                  18
                  18
                  18
                  18
                  18
                  18
                  18
                  18
                  18
                  18
                  18
                  18
                  18
                  18
                  18
                  18
                  18
                  18
                  18
                  18
                  18
                  18
                  18
                  18
                  18
                  18
                  18
                  18
                  18
                  18
                  18
                  18
                  18
                  18
                  18
                  18
                  18
                  18
                  18
                  18
                  18
                  18
                  18
                  18
                  18
                  18
                  18
                  18
                  18
                  18
                  18
                  18
                  18
                  18
                  18
                  18
                  18
                  18
                  18
                  18
                  18
                  18
                  18
                  18
                  18
                  18
                  18
                  18
                  18
                  18
                  18
                  18
                  18
                  18
                  18
                  18
                  18
                  18
                  18
                  18
                  18
                  18
                  18
                  18
                  18
                  18
                  18
                  18
                  18
                  18
                  18
                  18
                  18
                  18
                  18
                  18
                  18
                  18
                  18
                  18
                  18
                  18
                  18
                  18
                  18
                  18
                  18
                  18
                  18
                  18
                  18
                  18
                  18
  
SCALARS                 displacement_x  double 1
LOOKUP_TABLE default
         0.00000E+00
         0.00000E+00
         0.00000E+00
         0.00000E+00
         0.00000E+00
         0.00000E+00
         0.00000E+00
         0.00000E+00
         0.00000E+00
         0.00000E+00
         0.00000E+00
         0.00000E+00
         0.00000E+00
         0.00000E+00
         0.00000E+00
         0.00000E+00
         0.00000E+00
         0.00000E+00
         0.00000E+00
         0.00000E+00
         0.00000E+00
         0.00000E+00
         0.00000E+00
         0.00000E+00
         0.00000E+00
         0.00000E+00
         0.00000E+00
         0.00000E+00
         0.00000E+00
         0.00000E+00
         0.00000E+00
         0.00000E+00
         0.00000E+00
         0.00000E+00
         0.00000E+00
         0.00000E+00
         0.00000E+00
         0.00000E+00
         0.00000E+00
         0.00000E+00
         0.00000E+00
         0.00000E+00
         0.00000E+00
         0.00000E+00
         0.00000E+00
         0.00000E+00
         0.00000E+00
         0.00000E+00
         0.00000E+00
         0.00000E+00
         0.00000E+00
         0.00000E+00
         0.00000E+00
         0.00000E+00
         0.00000E+00
         0.00000E+00
         0.00000E+00
         0.00000E+00
         0.00000E+00
         0.00000E+00
         0.00000E+00
         0.00000E+00
         0.00000E+00
         0.00000E+00
         0.00000E+00
         0.00000E+00
         0.00000E+00
         0.00000E+00
         0.00000E+00
         0.00000E+00
         0.00000E+00
         0.00000E+00
         0.00000E+00
         0.00000E+00
         0.00000E+00
         0.00000E+00
         0.00000E+00
         0.00000E+00
         0.00000E+00
         0.00000E+00
         0.00000E+00
         0.00000E+00
         0.00000E+00
         0.00000E+00
         0.00000E+00
         0.00000E+00
         0.00000E+00
         0.00000E+00
         0.00000E+00
         0.00000E+00
         0.00000E+00
         0.00000E+00
         0.00000E+00
         0.00000E+00
         0.00000E+00
         0.00000E+00
         0.00000E+00
         0.00000E+00
         0.00000E+00
         0.00000E+00
         0.00000E+00
         0.00000E+00
         0.00000E+00
         0.00000E+00
         0.00000E+00
         0.00000E+00
         0.00000E+00
         0.00000E+00
         0.00000E+00
         0.00000E+00
         0.00000E+00
         0.00000E+00
         0.00000E+00
         0.00000E+00
         0.00000E+00
         0.00000E+00
         0.00000E+00
         0.00000E+00
         0.00000E+00
         0.00000E+00
         0.00000E+00
         0.00000E+00
         0.00000E+00
         0.00000E+00
         0.00000E+00
         0.00000E+00
         0.00000E+00
         0.00000E+00
         0.00000E+00
         0.00000E+00
         0.00000E+00
         0.00000E+00
         0.00000E+00
         0.00000E+00
         0.00000E+00
         0.00000E+00
         0.00000E+00
         0.00000E+00
         0.00000E+00
         0.00000E+00
         0.00000E+00
         0.00000E+00
         0.00000E+00
         0.00000E+00
         0.00000E+00
         0.00000E+00
         0.00000E+00
         0.00000E+00
         0.00000E+00
         0.00000E+00
         0.00000E+00
         0.00000E+00
         0.00000E+00
         0.00000E+00
         0.00000E+00
         0.00000E+00
         0.00000E+00
         0.00000E+00
         0.00000E+00
         0.00000E+00
         0.00000E+00
         0.00000E+00
         0.00000E+00
         0.00000E+00
         0.00000E+00
         0.00000E+00
         0.00000E+00
         0.00000E+00
         0.00000E+00
         0.00000E+00
         0.00000E+00
         0.00000E+00
         0.00000E+00
         0.00000E+00
         0.00000E+00
         0.00000E+00
         0.00000E+00
         0.00000E+00
         0.00000E+00
         0.00000E+00
         0.00000E+00
         0.00000E+00
         0.00000E+00
         0.00000E+00
         0.00000E+00
         0.00000E+00
         0.00000E+00
         0.00000E+00
         0.00000E+00
         0.00000E+00
         0.00000E+00
         0.00000E+00
         0.00000E+00
         0.00000E+00
         0.00000E+00
         0.00000E+00
         0.00000E+00
         0.00000E+00
         0.00000E+00
         0.00000E+00
         0.00000E+00
         0.00000E+00
         0.00000E+00
         0.00000E+00
         0.00000E+00
         0.00000E+00
         0.00000E+00
         0.00000E+00
         0.00000E+00
         0.00000E+00
         0.00000E+00
         0.00000E+00
         0.00000E+00
         0.00000E+00
         0.00000E+00
         0.00000E+00
         0.00000E+00
         0.00000E+00
         0.00000E+00
         0.00000E+00
         0.00000E+00
         0.00000E+00
         0.00000E+00
         0.00000E+00
         0.00000E+00
         0.00000E+00
         0.00000E+00
         0.00000E+00
         0.00000E+00
         0.00000E+00
         0.00000E+00
         0.00000E+00
         0.00000E+00
         0.00000E+00
         0.00000E+00
         0.00000E+00
         0.00000E+00
         0.00000E+00
         0.00000E+00
         0.00000E+00
         0.00000E+00
         0.00000E+00
         0.00000E+00
         0.00000E+00
         0.00000E+00
         0.00000E+00
         0.00000E+00
         0.00000E+00
         0.00000E+00
         0.00000E+00
         0.00000E+00
         0.00000E+00
         0.00000E+00
         0.00000E+00
         0.00000E+00
         0.00000E+00
         0.00000E+00
         0.00000E+00
         0.00000E+00
         0.00000E+00
         0.00000E+00
         0.00000E+00
         0.00000E+00
         0.00000E+00
         0.00000E+00
         0.00000E+00
         0.00000E+00
         0.00000E+00
         0.00000E+00
         0.00000E+00
         0.00000E+00
         0.00000E+00
         0.00000E+00
         0.00000E+00
         0.00000E+00
         0.00000E+00
         0.00000E+00
         0.00000E+00
         0.00000E+00
         0.00000E+00
         0.00000E+00
         0.00000E+00
         0.00000E+00
         0.00000E+00
         0.00000E+00
         0.00000E+00
         0.00000E+00
         0.00000E+00
         0.00000E+00
         0.00000E+00
         0.00000E+00
         0.00000E+00
         0.00000E+00
         0.00000E+00
         0.00000E+00
         0.00000E+00
         0.00000E+00
         0.00000E+00
         0.00000E+00
         0.00000E+00
         0.00000E+00
         0.00000E+00
         0.00000E+00
         0.00000E+00
         0.00000E+00
         0.00000E+00
         0.00000E+00
         0.00000E+00
         0.00000E+00
         0.00000E+00
         0.00000E+00
         0.00000E+00
         0.00000E+00
         0.00000E+00
         0.00000E+00
         0.00000E+00
         0.00000E+00
         0.00000E+00
         0.00000E+00
         0.00000E+00
         0.00000E+00
         0.00000E+00
         0.00000E+00
         0.00000E+00
         0.00000E+00
         0.00000E+00
         0.00000E+00
         0.00000E+00
         0.00000E+00
         0.00000E+00
         0.00000E+00
         0.00000E+00
         0.00000E+00
         0.00000E+00
         0.00000E+00
         0.00000E+00
         0.00000E+00
         0.00000E+00
         0.00000E+00
         0.00000E+00
         0.00000E+00
         0.00000E+00
         0.00000E+00
         0.00000E+00
         0.00000E+00
         0.00000E+00
         0.00000E+00
         0.00000E+00
         0.00000E+00
         0.00000E+00
         0.00000E+00
         0.00000E+00
         0.00000E+00
         0.00000E+00
         0.00000E+00
         0.00000E+00
         0.00000E+00
         0.00000E+00
         0.00000E+00
         0.00000E+00
         0.00000E+00
         0.00000E+00
         0.00000E+00
         0.00000E+00
         0.00000E+00
         0.00000E+00
         0.00000E+00
         0.00000E+00
         0.00000E+00
         0.00000E+00
         0.00000E+00
         0.00000E+00
         0.00000E+00
         0.00000E+00
         0.00000E+00
         0.00000E+00
         0.00000E+00
         0.00000E+00
         0.00000E+00
         0.00000E+00
         0.00000E+00
         0.00000E+00
         0.00000E+00
         0.00000E+00
         0.00000E+00
         0.00000E+00
         0.00000E+00
         0.00000E+00
         0.00000E+00
         0.00000E+00
         0.00000E+00
         0.00000E+00
         0.00000E+00
         0.00000E+00
         0.00000E+00
         0.00000E+00
         0.00000E+00
         0.00000E+00
         0.00000E+00
         0.00000E+00
         0.00000E+00
         0.00000E+00
         0.00000E+00
         0.00000E+00
         0.00000E+00
         0.00000E+00
         0.00000E+00
         0.00000E+00
         0.00000E+00
         0.00000E+00
         0.00000E+00
         0.00000E+00
         0.00000E+00
         0.00000E+00
         0.00000E+00
         0.00000E+00
         0.00000E+00
         0.00000E+00
         0.00000E+00
         0.00000E+00
         0.00000E+00
         0.00000E+00
         0.00000E+00
         0.00000E+00
         0.00000E+00
         0.00000E+00
         0.00000E+00
         0.00000E+00
         0.00000E+00
         0.00000E+00
         0.00000E+00
         0.00000E+00
         0.00000E+00
         0.00000E+00
         0.00000E+00
         0.00000E+00
         0.00000E+00
         0.00000E+00
         0.00000E+00
         0.00000E+00
         0.00000E+00
         0.00000E+00
         0.00000E+00
         0.00000E+00
         0.00000E+00
         0.00000E+00
         0.00000E+00
         0.00000E+00
         0.00000E+00
         0.00000E+00
         0.00000E+00
         0.00000E+00
         0.00000E+00
         0.00000E+00
         0.00000E+00
         0.00000E+00
         0.00000E+00
         0.00000E+00
         0.00000E+00
         0.00000E+00
         0.00000E+00
         0.00000E+00
         0.00000E+00
         0.00000E+00
         0.00000E+00
         0.00000E+00
         0.00000E+00
         0.00000E+00
         0.00000E+00
         0.00000E+00
         0.00000E+00
         0.00000E+00
         0.00000E+00
         0.00000E+00
         0.00000E+00
         0.00000E+00
         0.00000E+00
         0.00000E+00
         0.00000E+00
         0.00000E+00
         0.00000E+00
         0.00000E+00
         0.00000E+00
         0.00000E+00
         0.00000E+00
         0.00000E+00
         0.00000E+00
         0.00000E+00
         0.00000E+00
         0.00000E+00
         0.00000E+00
         0.00000E+00
         0.00000E+00
         0.00000E+00
         0.00000E+00
         0.00000E+00
         0.00000E+00
         0.00000E+00
         0.00000E+00
         0.00000E+00
         0.00000E+00
         0.00000E+00
         0.00000E+00
         0.00000E+00
         0.00000E+00
         0.00000E+00
         0.00000E+00
         0.00000E+00
         0.00000E+00
         0.00000E+00
         0.00000E+00
         0.00000E+00
         0.00000E+00
         0.00000E+00
         0.00000E+00
         0.00000E+00
         0.00000E+00
         0.00000E+00
         0.00000E+00
         0.00000E+00
         0.00000E+00
         0.00000E+00
         0.00000E+00
         0.00000E+00
         0.00000E+00
         0.00000E+00
         0.00000E+00
         0.00000E+00
         0.00000E+00
         0.00000E+00
         0.00000E+00
         0.00000E+00
         0.00000E+00
         0.00000E+00
         0.00000E+00
         0.00000E+00
         0.00000E+00
         0.00000E+00
         0.00000E+00
         0.00000E+00
         0.00000E+00
         0.00000E+00
         0.00000E+00
         0.00000E+00
         0.00000E+00
         0.00000E+00
         0.00000E+00
         0.00000E+00
         0.00000E+00
         0.00000E+00
         0.00000E+00
         0.00000E+00
         0.00000E+00
         0.00000E+00
         0.00000E+00
         0.00000E+00
         0.00000E+00
         0.00000E+00
         0.00000E+00
         0.00000E+00
         0.00000E+00
         0.00000E+00
         0.00000E+00
         0.00000E+00
         0.00000E+00
         0.00000E+00
         0.00000E+00
         0.00000E+00
         0.00000E+00
         0.00000E+00
         0.00000E+00
         0.00000E+00
         0.00000E+00
         0.00000E+00
         0.00000E+00
         0.00000E+00
         0.00000E+00
         0.00000E+00
         0.00000E+00
         0.00000E+00
         0.00000E+00
         0.00000E+00
         0.00000E+00
         0.00000E+00
         0.00000E+00
         0.00000E+00
         0.00000E+00
         0.00000E+00
         0.00000E+00
         0.00000E+00
         0.00000E+00
         0.00000E+00
         0.00000E+00
         0.00000E+00
         0.00000E+00
         0.00000E+00
         0.00000E+00
         0.00000E+00
         0.00000E+00
         0.00000E+00
         0.00000E+00
         0.00000E+00
         0.00000E+00
         0.00000E+00
         0.00000E+00
         0.00000E+00
         0.00000E+00
         0.00000E+00
         0.00000E+00
         0.00000E+00
         0.00000E+00
         0.00000E+00
         0.00000E+00
         0.00000E+00
         0.00000E+00
         0.00000E+00
         0.00000E+00
         0.00000E+00
         0.00000E+00
         0.00000E+00
         0.00000E+00
         0.00000E+00
         0.00000E+00
         0.00000E+00
         0.00000E+00
         0.00000E+00
         0.00000E+00
         0.00000E+00
         0.00000E+00
         0.00000E+00
         0.00000E+00
         0.00000E+00
         0.00000E+00
         0.00000E+00
         0.00000E+00
         0.00000E+00
         0.00000E+00
         0.00000E+00
         0.00000E+00
         0.00000E+00
         0.00000E+00
         0.00000E+00
         0.00000E+00
         0.00000E+00
         0.00000E+00
         0.00000E+00
         0.00000E+00
         0.00000E+00
         0.00000E+00
         0.00000E+00
         0.00000E+00
         0.00000E+00
         0.00000E+00
         0.00000E+00
         0.00000E+00
         0.00000E+00
         0.00000E+00
         0.00000E+00
         0.00000E+00
         0.00000E+00
         0.00000E+00
         0.00000E+00
         0.00000E+00
         0.00000E+00
         0.00000E+00
         0.00000E+00
         0.00000E+00
         0.00000E+00
         0.00000E+00
         0.00000E+00
         0.00000E+00
         0.00000E+00
         0.00000E+00
         0.00000E+00
         0.00000E+00
         0.00000E+00
         0.00000E+00
         0.00000E+00
         0.00000E+00
         0.00000E+00
         0.00000E+00
         0.00000E+00
         0.00000E+00
         0.00000E+00
         0.00000E+00
         0.00000E+00
         0.00000E+00
         0.00000E+00
         0.00000E+00
         0.00000E+00
         0.00000E+00
         0.00000E+00
         0.00000E+00
         0.00000E+00
         0.00000E+00
         0.00000E+00
         0.00000E+00
         0.00000E+00
         0.00000E+00
         0.00000E+00
         0.00000E+00
         0.00000E+00
         0.00000E+00
         0.00000E+00
         0.00000E+00
         0.00000E+00
         0.00000E+00
         0.00000E+00
         0.00000E+00
         0.00000E+00
         0.00000E+00
         0.00000E+00
         0.00000E+00
         0.00000E+00
         0.00000E+00
         0.00000E+00
         0.00000E+00
         0.00000E+00
         0.00000E+00
         0.00000E+00
         0.00000E+00
         0.00000E+00
         0.00000E+00
         0.00000E+00
         0.00000E+00
         0.00000E+00
         0.00000E+00
         0.00000E+00
         0.00000E+00
         0.00000E+00
         0.00000E+00
         0.00000E+00
         0.00000E+00
         0.00000E+00
         0.00000E+00
         0.00000E+00
         0.00000E+00
         0.00000E+00
         0.00000E+00
         0.00000E+00
         0.00000E+00
         0.00000E+00
         0.00000E+00
         0.00000E+00
         0.00000E+00
         0.00000E+00
         0.00000E+00
         0.00000E+00
         0.00000E+00
         0.00000E+00
         0.00000E+00
         0.00000E+00
         0.00000E+00
         0.00000E+00
         0.00000E+00
         0.00000E+00
         0.00000E+00
         0.00000E+00
         0.00000E+00
         0.00000E+00
         0.00000E+00
         0.00000E+00
         0.00000E+00
         0.00000E+00
         0.00000E+00
         0.00000E+00
         0.00000E+00
         0.00000E+00
         0.00000E+00
         0.00000E+00
         0.00000E+00
         0.00000E+00
         0.00000E+00
         0.00000E+00
         0.00000E+00
         0.00000E+00
         0.00000E+00
         0.00000E+00
         0.00000E+00
         0.00000E+00
         0.00000E+00
         0.00000E+00
         0.00000E+00
         0.00000E+00
         0.00000E+00
         0.00000E+00
         0.00000E+00
         0.00000E+00
         0.00000E+00
         0.00000E+00
         0.00000E+00
         0.00000E+00
         0.00000E+00
         0.00000E+00
         0.00000E+00
         0.00000E+00
         0.00000E+00
         0.00000E+00
         0.00000E+00
         0.00000E+00
         0.00000E+00
         0.00000E+00
         0.00000E+00
         0.00000E+00
         0.00000E+00
         0.00000E+00
         0.00000E+00
         0.00000E+00
         0.00000E+00
         0.00000E+00
         0.00000E+00
         0.00000E+00
         0.00000E+00
         0.00000E+00
         0.00000E+00
         0.00000E+00
         0.00000E+00
         0.00000E+00
         0.00000E+00
         0.00000E+00
         0.00000E+00
         0.00000E+00
         0.00000E+00
         0.00000E+00
         0.00000E+00
         0.00000E+00
         0.00000E+00
         0.00000E+00
         0.00000E+00
         0.00000E+00
         0.00000E+00
         0.00000E+00
         0.00000E+00
         0.00000E+00
         0.00000E+00
         0.00000E+00
         0.00000E+00
         0.00000E+00
         0.00000E+00
         0.00000E+00
         0.00000E+00
         0.00000E+00
         0.00000E+00
         0.00000E+00
         0.00000E+00
         0.00000E+00
         0.00000E+00
         0.00000E+00
         0.00000E+00
         0.00000E+00
         0.00000E+00
         0.00000E+00
         0.00000E+00
         0.00000E+00
         0.00000E+00
         0.00000E+00
         0.00000E+00
         0.00000E+00
         0.00000E+00
         0.00000E+00
         0.00000E+00
         0.00000E+00
         0.00000E+00
         0.00000E+00
         0.00000E+00
         0.00000E+00
         0.00000E+00
         0.00000E+00
         0.00000E+00
         0.00000E+00
         0.00000E+00
         0.00000E+00
         0.00000E+00
         0.00000E+00
         0.00000E+00
         0.00000E+00
         0.00000E+00
         0.00000E+00
         0.00000E+00
         0.00000E+00
         0.00000E+00
         0.00000E+00
         0.00000E+00
         0.00000E+00
         0.00000E+00
         0.00000E+00
         0.00000E+00
         0.00000E+00
         0.00000E+00
         0.00000E+00
         0.00000E+00
         0.00000E+00
         0.00000E+00
         0.00000E+00
         0.00000E+00
         0.00000E+00
         0.00000E+00
         0.00000E+00
         0.00000E+00
         0.00000E+00
         0.00000E+00
         0.00000E+00
         0.00000E+00
         0.00000E+00
         0.00000E+00
         0.00000E+00
         0.00000E+00
         0.00000E+00
         0.00000E+00
         0.00000E+00
         0.00000E+00
         0.00000E+00
         0.00000E+00
         0.00000E+00
         0.00000E+00
         0.00000E+00
         0.00000E+00
         0.00000E+00
         0.00000E+00
         0.00000E+00
         0.00000E+00
         0.00000E+00
         0.00000E+00
         0.00000E+00
         0.00000E+00
         0.00000E+00
         0.00000E+00
         0.00000E+00
         0.00000E+00
         0.00000E+00
         0.00000E+00
         0.00000E+00
         0.00000E+00
         0.00000E+00
         0.00000E+00
         0.00000E+00
         0.00000E+00
         0.00000E+00
         0.00000E+00
         0.00000E+00
         0.00000E+00
         0.00000E+00
         0.00000E+00
         0.00000E+00
         0.00000E+00
         0.00000E+00
         0.00000E+00
         0.00000E+00
         0.00000E+00
         0.00000E+00
         0.00000E+00
         0.00000E+00
         0.00000E+00
         0.00000E+00
         0.00000E+00
         0.00000E+00
         0.00000E+00
         0.00000E+00
         0.00000E+00
         0.00000E+00
         0.00000E+00
         0.00000E+00
         0.00000E+00
         0.00000E+00
         0.00000E+00
         0.00000E+00
         0.00000E+00
         0.00000E+00
         0.00000E+00
         0.00000E+00
         0.00000E+00
         0.00000E+00
         0.00000E+00
         0.00000E+00
         0.00000E+00
         0.00000E+00
         0.00000E+00
         0.00000E+00
         0.00000E+00
         0.00000E+00
         0.00000E+00
         0.00000E+00
         0.00000E+00
         0.00000E+00
         0.00000E+00
         0.00000E+00
         0.00000E+00
         0.00000E+00
         0.00000E+00
         0.00000E+00
         0.00000E+00
         0.00000E+00
         0.00000E+00
         0.00000E+00
         0.00000E+00
         0.00000E+00
         0.00000E+00
         0.00000E+00
         0.00000E+00
         0.00000E+00
         0.00000E+00
         0.00000E+00
         0.00000E+00
         0.00000E+00
         0.00000E+00
         0.00000E+00
         0.00000E+00
         0.00000E+00
         0.00000E+00
         0.00000E+00
         0.00000E+00
         0.00000E+00
         0.00000E+00
         0.00000E+00
         0.00000E+00
         0.00000E+00
         0.00000E+00
         0.00000E+00
         0.00000E+00
         0.00000E+00
         0.00000E+00
         0.00000E+00
         0.00000E+00
         0.00000E+00
         0.00000E+00
         0.00000E+00
         0.00000E+00
         0.00000E+00
         0.00000E+00
         0.00000E+00
         0.00000E+00
         0.00000E+00
         0.00000E+00
         0.00000E+00
         0.00000E+00
         0.00000E+00
         0.00000E+00
         0.00000E+00
         0.00000E+00
         0.00000E+00
         0.00000E+00
         0.00000E+00
         0.00000E+00
         0.00000E+00
         0.00000E+00
         0.00000E+00
         0.00000E+00
         0.00000E+00
         0.00000E+00
         0.00000E+00
         0.00000E+00
         0.00000E+00
         0.00000E+00
         0.00000E+00
         0.00000E+00
         0.00000E+00
         0.00000E+00
         0.00000E+00
         0.00000E+00
         0.00000E+00
         0.00000E+00
         0.00000E+00
         0.00000E+00
         0.00000E+00
         0.00000E+00
         0.00000E+00
         0.00000E+00
         0.00000E+00
         0.00000E+00
         0.00000E+00
         0.00000E+00
         0.00000E+00
         0.00000E+00
         0.00000E+00
         0.00000E+00
         0.00000E+00
         0.00000E+00
         0.00000E+00
         0.00000E+00
         0.00000E+00
         0.00000E+00
         0.00000E+00
         0.00000E+00
         0.00000E+00
         0.00000E+00
         0.00000E+00
         0.00000E+00
         0.00000E+00
         0.00000E+00
         0.00000E+00
         0.00000E+00
         0.00000E+00
         0.00000E+00
         0.00000E+00
         0.00000E+00
         0.00000E+00
         0.00000E+00
         0.00000E+00
         0.00000E+00
         0.00000E+00
         0.00000E+00
         0.00000E+00
         0.00000E+00
         0.00000E+00
         0.00000E+00
         0.00000E+00
         0.00000E+00
         0.00000E+00
         0.00000E+00
         0.00000E+00
         0.00000E+00
         0.00000E+00
         0.00000E+00
         0.00000E+00
         0.00000E+00
         0.00000E+00
         0.00000E+00
         0.00000E+00
         0.00000E+00
         0.00000E+00
         0.00000E+00
         0.00000E+00
         0.00000E+00
         0.00000E+00
         0.00000E+00
         0.00000E+00
         0.00000E+00
         0.00000E+00
         0.00000E+00
         0.00000E+00
         0.00000E+00
         0.00000E+00
         0.00000E+00
         0.00000E+00
         0.00000E+00
         0.00000E+00
         0.00000E+00
         0.00000E+00
         0.00000E+00
         0.00000E+00
         0.00000E+00
         0.00000E+00
         0.00000E+00
         0.00000E+00
         0.00000E+00
         0.00000E+00
         0.00000E+00
         0.00000E+00
         0.00000E+00
         0.00000E+00
         0.00000E+00
         0.00000E+00
         0.00000E+00
         0.00000E+00
         0.00000E+00
         0.00000E+00
         0.00000E+00
         0.00000E+00
         0.00000E+00
         0.00000E+00
         0.00000E+00
         0.00000E+00
         0.00000E+00
         0.00000E+00
         0.00000E+00
         0.00000E+00
         0.00000E+00
         0.00000E+00
         0.00000E+00
         0.00000E+00
         0.00000E+00
         0.00000E+00
         0.00000E+00
         0.00000E+00
         0.00000E+00
         0.00000E+00
         0.00000E+00
         0.00000E+00
         0.00000E+00
         0.00000E+00
         0.00000E+00
         0.00000E+00
         0.00000E+00
         0.00000E+00
         0.00000E+00
         0.00000E+00
         0.00000E+00
         0.00000E+00
         0.00000E+00
         0.00000E+00
         0.00000E+00
         0.00000E+00
         0.00000E+00
         0.00000E+00
         0.00000E+00
         0.00000E+00
         0.00000E+00
         0.00000E+00
         0.00000E+00
         0.00000E+00
         0.00000E+00
         0.00000E+00
         0.00000E+00
         0.00000E+00
         0.00000E+00
         0.00000E+00
         0.00000E+00
         0.00000E+00
         0.00000E+00
         0.00000E+00
         0.00000E+00
         0.00000E+00
         0.00000E+00
         0.00000E+00
         0.00000E+00
         0.00000E+00
         0.00000E+00
         0.00000E+00
         0.00000E+00
         0.00000E+00
         0.00000E+00
         0.00000E+00
         0.00000E+00
         0.00000E+00
         0.00000E+00
         0.00000E+00
         0.00000E+00
         0.00000E+00
         0.00000E+00
         0.00000E+00
         0.00000E+00
         0.00000E+00
         0.00000E+00
         0.00000E+00
         0.00000E+00
         0.00000E+00
         0.00000E+00
         0.00000E+00
         0.00000E+00
         0.00000E+00
         0.00000E+00
         0.00000E+00
         0.00000E+00
         0.00000E+00
         0.00000E+00
         0.00000E+00
         0.00000E+00
         0.00000E+00
         0.00000E+00
         0.00000E+00
         0.00000E+00
         0.00000E+00
         0.00000E+00
         0.00000E+00
         0.00000E+00
         0.00000E+00
         0.00000E+00
         0.00000E+00
         0.00000E+00
         0.00000E+00
         0.00000E+00
         0.00000E+00
         0.00000E+00
         0.00000E+00
         0.00000E+00
         0.00000E+00
         0.00000E+00
         0.00000E+00
         0.00000E+00
         0.00000E+00
         0.00000E+00
         0.00000E+00
         0.00000E+00
         0.00000E+00
         0.00000E+00
         0.00000E+00
         0.00000E+00
         0.00000E+00
         0.00000E+00
         0.00000E+00
         0.00000E+00
         0.00000E+00
         0.00000E+00
         0.00000E+00
         0.00000E+00
         0.00000E+00
         0.00000E+00
         0.00000E+00
         0.00000E+00
         0.00000E+00
         0.00000E+00
         0.00000E+00
         0.00000E+00
         0.00000E+00
         0.00000E+00
         0.00000E+00
         0.00000E+00
         0.00000E+00
         0.00000E+00
         0.00000E+00
         0.00000E+00
         0.00000E+00
         0.00000E+00
         0.00000E+00
         0.00000E+00
         0.00000E+00
         0.00000E+00
         0.00000E+00
         0.00000E+00
         0.00000E+00
         0.00000E+00
         0.00000E+00
         0.00000E+00
         0.00000E+00
         0.00000E+00
         0.00000E+00
         0.00000E+00
         0.00000E+00
         0.00000E+00
         0.00000E+00
         0.00000E+00
         0.00000E+00
         0.00000E+00
         0.00000E+00
         0.00000E+00
         0.00000E+00
         0.00000E+00
         0.00000E+00
         0.00000E+00
         0.00000E+00
         0.00000E+00
         0.00000E+00
         0.00000E+00
         0.00000E+00
         0.00000E+00
         0.00000E+00
         0.00000E+00
         0.00000E+00
         0.00000E+00
         0.00000E+00
         0.00000E+00
         0.00000E+00
         0.00000E+00
         0.00000E+00
         0.00000E+00
         0.00000E+00
         0.00000E+00
         0.00000E+00
         0.00000E+00
         0.00000E+00
         0.00000E+00
         0.00000E+00
         0.00000E+00
         0.00000E+00
         0.00000E+00
         0.00000E+00
         0.00000E+00
         0.00000E+00
         0.00000E+00
         0.00000E+00
         0.00000E+00
         0.00000E+00
         0.00000E+00
         0.00000E+00
         0.00000E+00
         0.00000E+00
         0.00000E+00
         0.00000E+00
         0.00000E+00
         0.00000E+00
         0.00000E+00
         0.00000E+00
         0.00000E+00
         0.00000E+00
         0.00000E+00
         0.00000E+00
         0.00000E+00
         0.00000E+00
         0.00000E+00
         0.00000E+00
         0.00000E+00
         0.00000E+00
         0.00000E+00
         0.00000E+00
         0.00000E+00
         0.00000E+00
         0.00000E+00
         0.00000E+00
         0.00000E+00
         0.00000E+00
         0.00000E+00
         0.00000E+00
         0.00000E+00
         0.00000E+00
         0.00000E+00
         0.00000E+00
         0.00000E+00
         0.00000E+00
         0.00000E+00
         0.00000E+00
         0.00000E+00
         0.00000E+00
         0.00000E+00
         0.00000E+00
         0.00000E+00
         0.00000E+00
         0.00000E+00
         0.00000E+00
         0.00000E+00
         0.00000E+00
         0.00000E+00
         0.00000E+00
         0.00000E+00
         0.00000E+00
         0.00000E+00
         0.00000E+00
         0.00000E+00
         0.00000E+00
         0.00000E+00
         0.00000E+00
         0.00000E+00
         0.00000E+00
         0.00000E+00
         0.00000E+00
         0.00000E+00
         0.00000E+00
         0.00000E+00
         0.00000E+00
         0.00000E+00
         0.00000E+00
         0.00000E+00
         0.00000E+00
         0.00000E+00
         0.00000E+00
         0.00000E+00
         0.00000E+00
         0.00000E+00
         0.00000E+00
         0.00000E+00
         0.00000E+00
         0.00000E+00
         0.00000E+00
         0.00000E+00
         0.00000E+00
         0.00000E+00
         0.00000E+00
         0.00000E+00
         0.00000E+00
         0.00000E+00
         0.00000E+00
         0.00000E+00
         0.00000E+00
         0.00000E+00
         0.00000E+00
         0.00000E+00
         0.00000E+00
         0.00000E+00
         0.00000E+00
         0.00000E+00
         0.00000E+00
         0.00000E+00
         0.00000E+00
         0.00000E+00
         0.00000E+00
         0.00000E+00
         0.00000E+00
         0.00000E+00
         0.00000E+00
         0.00000E+00
         0.00000E+00
         0.00000E+00
         0.00000E+00
         0.00000E+00
         0.00000E+00
         0.00000E+00
         0.00000E+00
         0.00000E+00
         0.00000E+00
         0.00000E+00
         0.00000E+00
         0.00000E+00
         0.00000E+00
         0.00000E+00
         0.00000E+00
         0.00000E+00
         0.00000E+00
         0.00000E+00
         0.00000E+00
         0.00000E+00
         0.00000E+00
         0.00000E+00
         0.00000E+00
         0.00000E+00
         0.00000E+00
         0.00000E+00
         0.00000E+00
         0.00000E+00
         0.00000E+00
         0.00000E+00
         0.00000E+00
         0.00000E+00
         0.00000E+00
         0.00000E+00
         0.00000E+00
         0.00000E+00
         0.00000E+00
         0.00000E+00
         0.00000E+00
         0.00000E+00
         0.00000E+00
         0.00000E+00
         0.00000E+00
         0.00000E+00
         0.00000E+00
         0.00000E+00
         0.00000E+00
         0.00000E+00
         0.00000E+00
         0.00000E+00
         0.00000E+00
         0.00000E+00
         0.00000E+00
         0.00000E+00
         0.00000E+00
         0.00000E+00
         0.00000E+00
         0.00000E+00
         0.00000E+00
         0.00000E+00
         0.00000E+00
         0.00000E+00
         0.00000E+00
         0.00000E+00
         0.00000E+00
         0.00000E+00
         0.00000E+00
         0.00000E+00
         0.00000E+00
         0.00000E+00
         0.00000E+00
         0.00000E+00
         0.00000E+00
         0.00000E+00
         0.00000E+00
         0.00000E+00
         0.00000E+00
         0.00000E+00
         0.00000E+00
         0.00000E+00
         0.00000E+00
         0.00000E+00
         0.00000E+00
         0.00000E+00
         0.00000E+00
         0.00000E+00
         0.00000E+00
         0.00000E+00
         0.00000E+00
         0.00000E+00
         0.00000E+00
         0.00000E+00
         0.00000E+00
         0.00000E+00
         0.00000E+00
         0.00000E+00
         0.00000E+00
         0.00000E+00
         0.00000E+00
         0.00000E+00
         0.00000E+00
         0.00000E+00
         0.00000E+00
         0.00000E+00
         0.00000E+00
         0.00000E+00
         0.00000E+00
         0.00000E+00
         0.00000E+00
         0.00000E+00
         0.00000E+00
         0.00000E+00
         0.00000E+00
         0.00000E+00
         0.00000E+00
         0.00000E+00
         0.00000E+00
         0.00000E+00
         0.00000E+00
         0.00000E+00
         0.00000E+00
         0.00000E+00
         0.00000E+00
         0.00000E+00
         0.00000E+00
         0.00000E+00
         0.00000E+00
         0.00000E+00
         0.00000E+00
         0.00000E+00
         0.00000E+00
         0.00000E+00
         0.00000E+00
         0.00000E+00
         0.00000E+00
         0.00000E+00
         0.00000E+00
         0.00000E+00
         0.00000E+00
         0.00000E+00
         0.00000E+00
         0.00000E+00
         0.00000E+00
         0.00000E+00
         0.00000E+00
         0.00000E+00
         0.00000E+00
         0.00000E+00
         0.00000E+00
         0.00000E+00
         0.00000E+00
         0.00000E+00
         0.00000E+00
         0.00000E+00
         0.00000E+00
         0.00000E+00
         0.00000E+00
         0.00000E+00
         0.00000E+00
         0.00000E+00
         0.00000E+00
         0.00000E+00
         0.00000E+00
         0.00000E+00
         0.00000E+00
         0.00000E+00
         0.00000E+00
         0.00000E+00
         0.00000E+00
         0.00000E+00
         0.00000E+00
         0.00000E+00
         0.00000E+00
         0.00000E+00
         0.00000E+00
         0.00000E+00
         0.00000E+00
         0.00000E+00
         0.00000E+00
         0.00000E+00
         0.00000E+00
         0.00000E+00
         0.00000E+00
         0.00000E+00
         0.00000E+00
         0.00000E+00
         0.00000E+00
         0.00000E+00
         0.00000E+00
         0.00000E+00
         0.00000E+00
         0.00000E+00
         0.00000E+00
         0.00000E+00
         0.00000E+00
         0.00000E+00
         0.00000E+00
         0.00000E+00
         0.00000E+00
         0.00000E+00
         0.00000E+00
         0.00000E+00
         0.00000E+00
         0.00000E+00
         0.00000E+00
         0.00000E+00
         0.00000E+00
         0.00000E+00
         0.00000E+00
         0.00000E+00
         0.00000E+00
         0.00000E+00
         0.00000E+00
         0.00000E+00
         0.00000E+00
         0.00000E+00
         0.00000E+00
         0.00000E+00
         0.00000E+00
         0.00000E+00
         0.00000E+00
         0.00000E+00
         0.00000E+00
         0.00000E+00
         0.00000E+00
         0.00000E+00
         0.00000E+00
         0.00000E+00
         0.00000E+00
         0.00000E+00
         0.00000E+00
         0.00000E+00
         0.00000E+00
         0.00000E+00
         0.00000E+00
         0.00000E+00
         0.00000E+00
         0.00000E+00
         0.00000E+00
         0.00000E+00
         0.00000E+00
         0.00000E+00
         0.00000E+00
         0.00000E+00
         0.00000E+00
         0.00000E+00
         0.00000E+00
         0.00000E+00
         0.00000E+00
         0.00000E+00
         0.00000E+00
         0.00000E+00
         0.00000E+00
         0.00000E+00
         0.00000E+00
         0.00000E+00
         0.00000E+00
         0.00000E+00
         0.00000E+00
         0.00000E+00
         0.00000E+00
         0.00000E+00
         0.00000E+00
         0.00000E+00
         0.00000E+00
         0.00000E+00
         0.00000E+00
         0.00000E+00
         0.00000E+00
         0.00000E+00
         0.00000E+00
         0.00000E+00
         0.00000E+00
         0.00000E+00
         0.00000E+00
         0.00000E+00
         0.00000E+00
         0.00000E+00
         0.00000E+00
         0.00000E+00
         0.00000E+00
         0.00000E+00
         0.00000E+00
         0.00000E+00
         0.00000E+00
         0.00000E+00
         0.00000E+00
         0.00000E+00
         0.00000E+00
         0.00000E+00
         0.00000E+00
         0.00000E+00
         0.00000E+00
         0.00000E+00
         0.00000E+00
         0.00000E+00
         0.00000E+00
         0.00000E+00
         0.00000E+00
         0.00000E+00
         0.00000E+00
         0.00000E+00
         0.00000E+00
         0.00000E+00
         0.00000E+00
         0.00000E+00
         0.00000E+00
         0.00000E+00
         0.00000E+00
         0.00000E+00
         0.00000E+00
         0.00000E+00
         0.00000E+00
         0.00000E+00
         0.00000E+00
         0.00000E+00
         0.00000E+00
         0.00000E+00
         0.00000E+00
         0.00000E+00
         0.00000E+00
         0.00000E+00
         0.00000E+00
         0.00000E+00
         0.00000E+00
         0.00000E+00
         0.00000E+00
         0.00000E+00
         0.00000E+00
         0.00000E+00
         0.00000E+00
         0.00000E+00
         0.00000E+00
         0.00000E+00
         0.00000E+00
         0.00000E+00
         0.00000E+00
         0.00000E+00
         0.00000E+00
         0.00000E+00
         0.00000E+00
         0.00000E+00
         0.00000E+00
         0.00000E+00
         0.00000E+00
         0.00000E+00
         0.00000E+00
         0.00000E+00
         0.00000E+00
         0.00000E+00
         0.00000E+00
         0.00000E+00
         0.00000E+00
         0.00000E+00
         0.00000E+00
         0.00000E+00
         0.00000E+00
         0.00000E+00
         0.00000E+00
         0.00000E+00
         0.00000E+00
         0.00000E+00
         0.00000E+00
         0.00000E+00
         0.00000E+00
         0.00000E+00
         0.00000E+00
         0.00000E+00
         0.00000E+00
         0.00000E+00
         0.00000E+00
         0.00000E+00
         0.00000E+00
         0.00000E+00
         0.00000E+00
         0.00000E+00
         0.00000E+00
         0.00000E+00
         0.00000E+00
         0.00000E+00
         0.00000E+00
         0.00000E+00
         0.00000E+00
         0.00000E+00
         0.00000E+00
         0.00000E+00
         0.00000E+00
         0.00000E+00
         0.00000E+00
         0.00000E+00
         0.00000E+00
         0.00000E+00
         0.00000E+00
         0.00000E+00
         0.00000E+00
         0.00000E+00
         0.00000E+00
         0.00000E+00
         0.00000E+00
         0.00000E+00
         0.00000E+00
         0.00000E+00
         0.00000E+00
         0.00000E+00
         0.00000E+00
         0.00000E+00
         0.00000E+00
         0.00000E+00
         0.00000E+00
         0.00000E+00
         0.00000E+00
         0.00000E+00
         0.00000E+00
         0.00000E+00
         0.00000E+00
         0.00000E+00
         0.00000E+00
         0.00000E+00
         0.00000E+00
         0.00000E+00
         0.00000E+00
         0.00000E+00
         0.00000E+00
         0.00000E+00
         0.00000E+00
         0.00000E+00
         0.00000E+00
         0.00000E+00
         0.00000E+00
         0.00000E+00
         0.00000E+00
         0.00000E+00
         0.00000E+00
         0.00000E+00
         0.00000E+00
         0.00000E+00
         0.00000E+00
         0.00000E+00
         0.00000E+00
         0.00000E+00
         0.00000E+00
         0.00000E+00
         0.00000E+00
         0.00000E+00
         0.00000E+00
         0.00000E+00
         0.00000E+00
         0.00000E+00
         0.00000E+00
         0.00000E+00
         0.00000E+00
         0.00000E+00
         0.00000E+00
         0.00000E+00
         0.00000E+00
         0.00000E+00
         0.00000E+00
         0.00000E+00
         0.00000E+00
         0.00000E+00
         0.00000E+00
         0.00000E+00
         0.00000E+00
         0.00000E+00
         0.00000E+00
         0.00000E+00
         0.00000E+00
         0.00000E+00
         0.00000E+00
         0.00000E+00
         0.00000E+00
         0.00000E+00
         0.00000E+00
         0.00000E+00
         0.00000E+00
         0.00000E+00
         0.00000E+00
         0.00000E+00
         0.00000E+00
         0.00000E+00
         0.00000E+00
  
SCALARS                 displacement_y  double 1
LOOKUP_TABLE default
         0.00000E+00
         0.00000E+00
         0.00000E+00
         0.00000E+00
         0.00000E+00
         0.00000E+00
         0.00000E+00
         0.00000E+00
         0.00000E+00
         0.00000E+00
         0.00000E+00
         0.00000E+00
         0.00000E+00
         0.00000E+00
         0.00000E+00
         0.00000E+00
         0.00000E+00
         0.00000E+00
         0.00000E+00
         0.00000E+00
         0.00000E+00
         0.00000E+00
         0.00000E+00
         0.00000E+00
         0.00000E+00
         0.00000E+00
         0.00000E+00
         0.00000E+00
         0.00000E+00
         0.00000E+00
         0.00000E+00
         0.00000E+00
         0.00000E+00
         0.00000E+00
         0.00000E+00
         0.00000E+00
         0.00000E+00
         0.00000E+00
         0.00000E+00
         0.00000E+00
         0.00000E+00
         0.00000E+00
         0.00000E+00
         0.00000E+00
         0.00000E+00
         0.00000E+00
         0.00000E+00
         0.00000E+00
         0.00000E+00
         0.00000E+00
         0.00000E+00
         0.00000E+00
         0.00000E+00
         0.00000E+00
         0.00000E+00
         0.00000E+00
         0.00000E+00
         0.00000E+00
         0.00000E+00
         0.00000E+00
         0.00000E+00
         0.00000E+00
         0.00000E+00
         0.00000E+00
         0.00000E+00
         0.00000E+00
         0.00000E+00
         0.00000E+00
         0.00000E+00
         0.00000E+00
         0.00000E+00
         0.00000E+00
         0.00000E+00
         0.00000E+00
         0.00000E+00
         0.00000E+00
         0.00000E+00
         0.00000E+00
         0.00000E+00
         0.00000E+00
         0.00000E+00
         0.00000E+00
         0.00000E+00
         0.00000E+00
         0.00000E+00
         0.00000E+00
         0.00000E+00
         0.00000E+00
         0.00000E+00
         0.00000E+00
         0.00000E+00
         0.00000E+00
         0.00000E+00
         0.00000E+00
         0.00000E+00
         0.00000E+00
         0.00000E+00
         0.00000E+00
         0.00000E+00
         0.00000E+00
         0.00000E+00
         0.00000E+00
         0.00000E+00
         0.00000E+00
         0.00000E+00
         0.00000E+00
         0.00000E+00
         0.00000E+00
         0.00000E+00
         0.00000E+00
         0.00000E+00
         0.00000E+00
         0.00000E+00
         0.00000E+00
         0.00000E+00
         0.00000E+00
         0.00000E+00
         0.00000E+00
         0.00000E+00
         0.00000E+00
         0.00000E+00
         0.00000E+00
         0.00000E+00
         0.00000E+00
         0.00000E+00
         0.00000E+00
         0.00000E+00
         0.00000E+00
         0.00000E+00
         0.00000E+00
         0.00000E+00
         0.00000E+00
         0.00000E+00
         0.00000E+00
         0.00000E+00
         0.00000E+00
         0.00000E+00
         0.00000E+00
         0.00000E+00
         0.00000E+00
         0.00000E+00
         0.00000E+00
         0.00000E+00
         0.00000E+00
         0.00000E+00
         0.00000E+00
         0.00000E+00
         0.00000E+00
         0.00000E+00
         0.00000E+00
         0.00000E+00
         0.00000E+00
         0.00000E+00
         0.00000E+00
         0.00000E+00
         0.00000E+00
         0.00000E+00
         0.00000E+00
         0.00000E+00
         0.00000E+00
         0.00000E+00
         0.00000E+00
         0.00000E+00
         0.00000E+00
         0.00000E+00
         0.00000E+00
         0.00000E+00
         0.00000E+00
         0.00000E+00
         0.00000E+00
         0.00000E+00
         0.00000E+00
         0.00000E+00
         0.00000E+00
         0.00000E+00
         0.00000E+00
         0.00000E+00
         0.00000E+00
         0.00000E+00
         0.00000E+00
         0.00000E+00
         0.00000E+00
         0.00000E+00
         0.00000E+00
         0.00000E+00
         0.00000E+00
         0.00000E+00
         0.00000E+00
         0.00000E+00
         0.00000E+00
         0.00000E+00
         0.00000E+00
         0.00000E+00
         0.00000E+00
         0.00000E+00
         0.00000E+00
         0.00000E+00
         0.00000E+00
         0.00000E+00
         0.00000E+00
         0.00000E+00
         0.00000E+00
         0.00000E+00
         0.00000E+00
         0.00000E+00
         0.00000E+00
         0.00000E+00
         0.00000E+00
         0.00000E+00
         0.00000E+00
         0.00000E+00
         0.00000E+00
         0.00000E+00
         0.00000E+00
         0.00000E+00
         0.00000E+00
         0.00000E+00
         0.00000E+00
         0.00000E+00
         0.00000E+00
         0.00000E+00
         0.00000E+00
         0.00000E+00
         0.00000E+00
         0.00000E+00
         0.00000E+00
         0.00000E+00
         0.00000E+00
         0.00000E+00
         0.00000E+00
         0.00000E+00
         0.00000E+00
         0.00000E+00
         0.00000E+00
         0.00000E+00
         0.00000E+00
         0.00000E+00
         0.00000E+00
         0.00000E+00
         0.00000E+00
         0.00000E+00
         0.00000E+00
         0.00000E+00
         0.00000E+00
         0.00000E+00
         0.00000E+00
         0.00000E+00
         0.00000E+00
         0.00000E+00
         0.00000E+00
         0.00000E+00
         0.00000E+00
         0.00000E+00
         0.00000E+00
         0.00000E+00
         0.00000E+00
         0.00000E+00
         0.00000E+00
         0.00000E+00
         0.00000E+00
         0.00000E+00
         0.00000E+00
         0.00000E+00
         0.00000E+00
         0.00000E+00
         0.00000E+00
         0.00000E+00
         0.00000E+00
         0.00000E+00
         0.00000E+00
         0.00000E+00
         0.00000E+00
         0.00000E+00
         0.00000E+00
         0.00000E+00
         0.00000E+00
         0.00000E+00
         0.00000E+00
         0.00000E+00
         0.00000E+00
         0.00000E+00
         0.00000E+00
         0.00000E+00
         0.00000E+00
         0.00000E+00
         0.00000E+00
         0.00000E+00
         0.00000E+00
         0.00000E+00
         0.00000E+00
         0.00000E+00
         0.00000E+00
         0.00000E+00
         0.00000E+00
         0.00000E+00
         0.00000E+00
         0.00000E+00
         0.00000E+00
         0.00000E+00
         0.00000E+00
         0.00000E+00
         0.00000E+00
         0.00000E+00
         0.00000E+00
         0.00000E+00
         0.00000E+00
         0.00000E+00
         0.00000E+00
         0.00000E+00
         0.00000E+00
         0.00000E+00
         0.00000E+00
         0.00000E+00
         0.00000E+00
         0.00000E+00
         0.00000E+00
         0.00000E+00
         0.00000E+00
         0.00000E+00
         0.00000E+00
         0.00000E+00
         0.00000E+00
         0.00000E+00
         0.00000E+00
         0.00000E+00
         0.00000E+00
         0.00000E+00
         0.00000E+00
         0.00000E+00
         0.00000E+00
         0.00000E+00
         0.00000E+00
         0.00000E+00
         0.00000E+00
         0.00000E+00
         0.00000E+00
         0.00000E+00
         0.00000E+00
         0.00000E+00
         0.00000E+00
         0.00000E+00
         0.00000E+00
         0.00000E+00
         0.00000E+00
         0.00000E+00
         0.00000E+00
         0.00000E+00
         0.00000E+00
         0.00000E+00
         0.00000E+00
         0.00000E+00
         0.00000E+00
         0.00000E+00
         0.00000E+00
         0.00000E+00
         0.00000E+00
         0.00000E+00
         0.00000E+00
         0.00000E+00
         0.00000E+00
         0.00000E+00
         0.00000E+00
         0.00000E+00
         0.00000E+00
         0.00000E+00
         0.00000E+00
         0.00000E+00
         0.00000E+00
         0.00000E+00
         0.00000E+00
         0.00000E+00
         0.00000E+00
         0.00000E+00
         0.00000E+00
         0.00000E+00
         0.00000E+00
         0.00000E+00
         0.00000E+00
         0.00000E+00
         0.00000E+00
         0.00000E+00
         0.00000E+00
         0.00000E+00
         0.00000E+00
         0.00000E+00
         0.00000E+00
         0.00000E+00
         0.00000E+00
         0.00000E+00
         0.00000E+00
         0.00000E+00
         0.00000E+00
         0.00000E+00
         0.00000E+00
         0.00000E+00
         0.00000E+00
         0.00000E+00
         0.00000E+00
         0.00000E+00
         0.00000E+00
         0.00000E+00
         0.00000E+00
         0.00000E+00
         0.00000E+00
         0.00000E+00
         0.00000E+00
         0.00000E+00
         0.00000E+00
         0.00000E+00
         0.00000E+00
         0.00000E+00
         0.00000E+00
         0.00000E+00
         0.00000E+00
         0.00000E+00
         0.00000E+00
         0.00000E+00
         0.00000E+00
         0.00000E+00
         0.00000E+00
         0.00000E+00
         0.00000E+00
         0.00000E+00
         0.00000E+00
         0.00000E+00
         0.00000E+00
         0.00000E+00
         0.00000E+00
         0.00000E+00
         0.00000E+00
         0.00000E+00
         0.00000E+00
         0.00000E+00
         0.00000E+00
         0.00000E+00
         0.00000E+00
         0.00000E+00
         0.00000E+00
         0.00000E+00
         0.00000E+00
         0.00000E+00
         0.00000E+00
         0.00000E+00
         0.00000E+00
         0.00000E+00
         0.00000E+00
         0.00000E+00
         0.00000E+00
         0.00000E+00
         0.00000E+00
         0.00000E+00
         0.00000E+00
         0.00000E+00
         0.00000E+00
         0.00000E+00
         0.00000E+00
         0.00000E+00
         0.00000E+00
         0.00000E+00
         0.00000E+00
         0.00000E+00
         0.00000E+00
         0.00000E+00
         0.00000E+00
         0.00000E+00
         0.00000E+00
         0.00000E+00
         0.00000E+00
         0.00000E+00
         0.00000E+00
         0.00000E+00
         0.00000E+00
         0.00000E+00
         0.00000E+00
         0.00000E+00
         0.00000E+00
         0.00000E+00
         0.00000E+00
         0.00000E+00
         0.00000E+00
         0.00000E+00
         0.00000E+00
         0.00000E+00
         0.00000E+00
         0.00000E+00
         0.00000E+00
         0.00000E+00
         0.00000E+00
         0.00000E+00
         0.00000E+00
         0.00000E+00
         0.00000E+00
         0.00000E+00
         0.00000E+00
         0.00000E+00
         0.00000E+00
         0.00000E+00
         0.00000E+00
         0.00000E+00
         0.00000E+00
         0.00000E+00
         0.00000E+00
         0.00000E+00
         0.00000E+00
         0.00000E+00
         0.00000E+00
         0.00000E+00
         0.00000E+00
         0.00000E+00
         0.00000E+00
         0.00000E+00
         0.00000E+00
         0.00000E+00
         0.00000E+00
         0.00000E+00
         0.00000E+00
         0.00000E+00
         0.00000E+00
         0.00000E+00
         0.00000E+00
         0.00000E+00
         0.00000E+00
         0.00000E+00
         0.00000E+00
         0.00000E+00
         0.00000E+00
         0.00000E+00
         0.00000E+00
         0.00000E+00
         0.00000E+00
         0.00000E+00
         0.00000E+00
         0.00000E+00
         0.00000E+00
         0.00000E+00
         0.00000E+00
         0.00000E+00
         0.00000E+00
         0.00000E+00
         0.00000E+00
         0.00000E+00
         0.00000E+00
         0.00000E+00
         0.00000E+00
         0.00000E+00
         0.00000E+00
         0.00000E+00
         0.00000E+00
         0.00000E+00
         0.00000E+00
         0.00000E+00
         0.00000E+00
         0.00000E+00
         0.00000E+00
         0.00000E+00
         0.00000E+00
         0.00000E+00
         0.00000E+00
         0.00000E+00
         0.00000E+00
         0.00000E+00
         0.00000E+00
         0.00000E+00
         0.00000E+00
         0.00000E+00
         0.00000E+00
         0.00000E+00
         0.00000E+00
         0.00000E+00
         0.00000E+00
         0.00000E+00
         0.00000E+00
         0.00000E+00
         0.00000E+00
         0.00000E+00
         0.00000E+00
         0.00000E+00
         0.00000E+00
         0.00000E+00
         0.00000E+00
         0.00000E+00
         0.00000E+00
         0.00000E+00
         0.00000E+00
         0.00000E+00
         0.00000E+00
         0.00000E+00
         0.00000E+00
         0.00000E+00
         0.00000E+00
         0.00000E+00
         0.00000E+00
         0.00000E+00
         0.00000E+00
         0.00000E+00
         0.00000E+00
         0.00000E+00
         0.00000E+00
         0.00000E+00
         0.00000E+00
         0.00000E+00
         0.00000E+00
         0.00000E+00
         0.00000E+00
         0.00000E+00
         0.00000E+00
         0.00000E+00
         0.00000E+00
         0.00000E+00
         0.00000E+00
         0.00000E+00
         0.00000E+00
         0.00000E+00
         0.00000E+00
         0.00000E+00
         0.00000E+00
         0.00000E+00
         0.00000E+00
         0.00000E+00
         0.00000E+00
         0.00000E+00
         0.00000E+00
         0.00000E+00
         0.00000E+00
         0.00000E+00
         0.00000E+00
         0.00000E+00
         0.00000E+00
         0.00000E+00
         0.00000E+00
         0.00000E+00
         0.00000E+00
         0.00000E+00
         0.00000E+00
         0.00000E+00
         0.00000E+00
         0.00000E+00
         0.00000E+00
         0.00000E+00
         0.00000E+00
         0.00000E+00
         0.00000E+00
         0.00000E+00
         0.00000E+00
         0.00000E+00
         0.00000E+00
         0.00000E+00
         0.00000E+00
         0.00000E+00
         0.00000E+00
         0.00000E+00
         0.00000E+00
         0.00000E+00
         0.00000E+00
         0.00000E+00
         0.00000E+00
         0.00000E+00
         0.00000E+00
         0.00000E+00
         0.00000E+00
         0.00000E+00
         0.00000E+00
         0.00000E+00
         0.00000E+00
         0.00000E+00
         0.00000E+00
         0.00000E+00
         0.00000E+00
         0.00000E+00
         0.00000E+00
         0.00000E+00
         0.00000E+00
         0.00000E+00
         0.00000E+00
         0.00000E+00
         0.00000E+00
         0.00000E+00
         0.00000E+00
         0.00000E+00
         0.00000E+00
         0.00000E+00
         0.00000E+00
         0.00000E+00
         0.00000E+00
         0.00000E+00
         0.00000E+00
         0.00000E+00
         0.00000E+00
         0.00000E+00
         0.00000E+00
         0.00000E+00
         0.00000E+00
         0.00000E+00
         0.00000E+00
         0.00000E+00
         0.00000E+00
         0.00000E+00
         0.00000E+00
         0.00000E+00
         0.00000E+00
         0.00000E+00
         0.00000E+00
         0.00000E+00
         0.00000E+00
         0.00000E+00
         0.00000E+00
         0.00000E+00
         0.00000E+00
         0.00000E+00
         0.00000E+00
         0.00000E+00
         0.00000E+00
         0.00000E+00
         0.00000E+00
         0.00000E+00
         0.00000E+00
         0.00000E+00
         0.00000E+00
         0.00000E+00
         0.00000E+00
         0.00000E+00
         0.00000E+00
         0.00000E+00
         0.00000E+00
         0.00000E+00
         0.00000E+00
         0.00000E+00
         0.00000E+00
         0.00000E+00
         0.00000E+00
         0.00000E+00
         0.00000E+00
         0.00000E+00
         0.00000E+00
         0.00000E+00
         0.00000E+00
         0.00000E+00
         0.00000E+00
         0.00000E+00
         0.00000E+00
         0.00000E+00
         0.00000E+00
         0.00000E+00
         0.00000E+00
         0.00000E+00
         0.00000E+00
         0.00000E+00
         0.00000E+00
         0.00000E+00
         0.00000E+00
         0.00000E+00
         0.00000E+00
         0.00000E+00
         0.00000E+00
         0.00000E+00
         0.00000E+00
         0.00000E+00
         0.00000E+00
         0.00000E+00
         0.00000E+00
         0.00000E+00
         0.00000E+00
         0.00000E+00
         0.00000E+00
         0.00000E+00
         0.00000E+00
         0.00000E+00
         0.00000E+00
         0.00000E+00
         0.00000E+00
         0.00000E+00
         0.00000E+00
         0.00000E+00
         0.00000E+00
         0.00000E+00
         0.00000E+00
         0.00000E+00
         0.00000E+00
         0.00000E+00
         0.00000E+00
         0.00000E+00
         0.00000E+00
         0.00000E+00
         0.00000E+00
         0.00000E+00
         0.00000E+00
         0.00000E+00
         0.00000E+00
         0.00000E+00
         0.00000E+00
         0.00000E+00
         0.00000E+00
         0.00000E+00
         0.00000E+00
         0.00000E+00
         0.00000E+00
         0.00000E+00
         0.00000E+00
         0.00000E+00
         0.00000E+00
         0.00000E+00
         0.00000E+00
         0.00000E+00
         0.00000E+00
         0.00000E+00
         0.00000E+00
         0.00000E+00
         0.00000E+00
         0.00000E+00
         0.00000E+00
         0.00000E+00
         0.00000E+00
         0.00000E+00
         0.00000E+00
         0.00000E+00
         0.00000E+00
         0.00000E+00
         0.00000E+00
         0.00000E+00
         0.00000E+00
         0.00000E+00
         0.00000E+00
         0.00000E+00
         0.00000E+00
         0.00000E+00
         0.00000E+00
         0.00000E+00
         0.00000E+00
         0.00000E+00
         0.00000E+00
         0.00000E+00
         0.00000E+00
         0.00000E+00
         0.00000E+00
         0.00000E+00
         0.00000E+00
         0.00000E+00
         0.00000E+00
         0.00000E+00
         0.00000E+00
         0.00000E+00
         0.00000E+00
         0.00000E+00
         0.00000E+00
         0.00000E+00
         0.00000E+00
         0.00000E+00
         0.00000E+00
         0.00000E+00
         0.00000E+00
         0.00000E+00
         0.00000E+00
         0.00000E+00
         0.00000E+00
         0.00000E+00
         0.00000E+00
         0.00000E+00
         0.00000E+00
         0.00000E+00
         0.00000E+00
         0.00000E+00
         0.00000E+00
         0.00000E+00
         0.00000E+00
         0.00000E+00
         0.00000E+00
         0.00000E+00
         0.00000E+00
         0.00000E+00
         0.00000E+00
         0.00000E+00
         0.00000E+00
         0.00000E+00
         0.00000E+00
         0.00000E+00
         0.00000E+00
         0.00000E+00
         0.00000E+00
         0.00000E+00
         0.00000E+00
         0.00000E+00
         0.00000E+00
         0.00000E+00
         0.00000E+00
         0.00000E+00
         0.00000E+00
         0.00000E+00
         0.00000E+00
         0.00000E+00
         0.00000E+00
         0.00000E+00
         0.00000E+00
         0.00000E+00
         0.00000E+00
         0.00000E+00
         0.00000E+00
         0.00000E+00
         0.00000E+00
         0.00000E+00
         0.00000E+00
         0.00000E+00
         0.00000E+00
         0.00000E+00
         0.00000E+00
         0.00000E+00
         0.00000E+00
         0.00000E+00
         0.00000E+00
         0.00000E+00
         0.00000E+00
         0.00000E+00
         0.00000E+00
         0.00000E+00
         0.00000E+00
         0.00000E+00
         0.00000E+00
         0.00000E+00
         0.00000E+00
         0.00000E+00
         0.00000E+00
         0.00000E+00
         0.00000E+00
         0.00000E+00
         0.00000E+00
         0.00000E+00
         0.00000E+00
         0.00000E+00
         0.00000E+00
         0.00000E+00
         0.00000E+00
         0.00000E+00
         0.00000E+00
         0.00000E+00
         0.00000E+00
         0.00000E+00
         0.00000E+00
         0.00000E+00
         0.00000E+00
         0.00000E+00
         0.00000E+00
         0.00000E+00
         0.00000E+00
         0.00000E+00
         0.00000E+00
         0.00000E+00
         0.00000E+00
         0.00000E+00
         0.00000E+00
         0.00000E+00
         0.00000E+00
         0.00000E+00
         0.00000E+00
         0.00000E+00
         0.00000E+00
         0.00000E+00
         0.00000E+00
         0.00000E+00
         0.00000E+00
         0.00000E+00
         0.00000E+00
         0.00000E+00
         0.00000E+00
         0.00000E+00
         0.00000E+00
         0.00000E+00
         0.00000E+00
         0.00000E+00
         0.00000E+00
         0.00000E+00
         0.00000E+00
         0.00000E+00
         0.00000E+00
         0.00000E+00
         0.00000E+00
         0.00000E+00
         0.00000E+00
         0.00000E+00
         0.00000E+00
         0.00000E+00
         0.00000E+00
         0.00000E+00
         0.00000E+00
         0.00000E+00
         0.00000E+00
         0.00000E+00
         0.00000E+00
         0.00000E+00
         0.00000E+00
         0.00000E+00
         0.00000E+00
         0.00000E+00
         0.00000E+00
         0.00000E+00
         0.00000E+00
         0.00000E+00
         0.00000E+00
         0.00000E+00
         0.00000E+00
         0.00000E+00
         0.00000E+00
         0.00000E+00
         0.00000E+00
         0.00000E+00
         0.00000E+00
         0.00000E+00
         0.00000E+00
         0.00000E+00
         0.00000E+00
         0.00000E+00
         0.00000E+00
         0.00000E+00
         0.00000E+00
         0.00000E+00
         0.00000E+00
         0.00000E+00
         0.00000E+00
         0.00000E+00
         0.00000E+00
         0.00000E+00
         0.00000E+00
         0.00000E+00
         0.00000E+00
         0.00000E+00
         0.00000E+00
         0.00000E+00
         0.00000E+00
         0.00000E+00
         0.00000E+00
         0.00000E+00
         0.00000E+00
         0.00000E+00
         0.00000E+00
         0.00000E+00
         0.00000E+00
         0.00000E+00
         0.00000E+00
         0.00000E+00
         0.00000E+00
         0.00000E+00
         0.00000E+00
         0.00000E+00
         0.00000E+00
         0.00000E+00
         0.00000E+00
         0.00000E+00
         0.00000E+00
         0.00000E+00
         0.00000E+00
         0.00000E+00
         0.00000E+00
         0.00000E+00
         0.00000E+00
         0.00000E+00
         0.00000E+00
         0.00000E+00
         0.00000E+00
         0.00000E+00
         0.00000E+00
         0.00000E+00
         0.00000E+00
         0.00000E+00
         0.00000E+00
         0.00000E+00
         0.00000E+00
         0.00000E+00
         0.00000E+00
         0.00000E+00
         0.00000E+00
         0.00000E+00
         0.00000E+00
         0.00000E+00
         0.00000E+00
         0.00000E+00
         0.00000E+00
         0.00000E+00
         0.00000E+00
         0.00000E+00
         0.00000E+00
         0.00000E+00
         0.00000E+00
         0.00000E+00
         0.00000E+00
         0.00000E+00
         0.00000E+00
         0.00000E+00
         0.00000E+00
         0.00000E+00
         0.00000E+00
         0.00000E+00
         0.00000E+00
         0.00000E+00
         0.00000E+00
         0.00000E+00
         0.00000E+00
         0.00000E+00
         0.00000E+00
         0.00000E+00
         0.00000E+00
         0.00000E+00
         0.00000E+00
         0.00000E+00
         0.00000E+00
         0.00000E+00
         0.00000E+00
         0.00000E+00
         0.00000E+00
         0.00000E+00
         0.00000E+00
         0.00000E+00
         0.00000E+00
         0.00000E+00
         0.00000E+00
         0.00000E+00
         0.00000E+00
         0.00000E+00
         0.00000E+00
         0.00000E+00
         0.00000E+00
         0.00000E+00
         0.00000E+00
         0.00000E+00
         0.00000E+00
         0.00000E+00
         0.00000E+00
         0.00000E+00
         0.00000E+00
         0.00000E+00
         0.00000E+00
         0.00000E+00
         0.00000E+00
         0.00000E+00
         0.00000E+00
         0.00000E+00
         0.00000E+00
         0.00000E+00
         0.00000E+00
         0.00000E+00
         0.00000E+00
         0.00000E+00
         0.00000E+00
         0.00000E+00
         0.00000E+00
         0.00000E+00
         0.00000E+00
         0.00000E+00
         0.00000E+00
         0.00000E+00
         0.00000E+00
         0.00000E+00
         0.00000E+00
         0.00000E+00
         0.00000E+00
         0.00000E+00
         0.00000E+00
         0.00000E+00
         0.00000E+00
         0.00000E+00
         0.00000E+00
         0.00000E+00
         0.00000E+00
         0.00000E+00
         0.00000E+00
         0.00000E+00
         0.00000E+00
         0.00000E+00
         0.00000E+00
         0.00000E+00
         0.00000E+00
         0.00000E+00
         0.00000E+00
         0.00000E+00
         0.00000E+00
         0.00000E+00
         0.00000E+00
         0.00000E+00
         0.00000E+00
         0.00000E+00
         0.00000E+00
         0.00000E+00
         0.00000E+00
         0.00000E+00
         0.00000E+00
         0.00000E+00
         0.00000E+00
         0.00000E+00
         0.00000E+00
         0.00000E+00
         0.00000E+00
         0.00000E+00
         0.00000E+00
         0.00000E+00
         0.00000E+00
         0.00000E+00
         0.00000E+00
         0.00000E+00
         0.00000E+00
         0.00000E+00
         0.00000E+00
         0.00000E+00
         0.00000E+00
         0.00000E+00
         0.00000E+00
         0.00000E+00
         0.00000E+00
         0.00000E+00
         0.00000E+00
         0.00000E+00
         0.00000E+00
         0.00000E+00
         0.00000E+00
         0.00000E+00
         0.00000E+00
         0.00000E+00
         0.00000E+00
         0.00000E+00
         0.00000E+00
         0.00000E+00
         0.00000E+00
         0.00000E+00
         0.00000E+00
         0.00000E+00
         0.00000E+00
         0.00000E+00
         0.00000E+00
         0.00000E+00
         0.00000E+00
         0.00000E+00
         0.00000E+00
         0.00000E+00
         0.00000E+00
         0.00000E+00
         0.00000E+00
         0.00000E+00
         0.00000E+00
         0.00000E+00
         0.00000E+00
         0.00000E+00
         0.00000E+00
         0.00000E+00
         0.00000E+00
         0.00000E+00
         0.00000E+00
         0.00000E+00
         0.00000E+00
         0.00000E+00
         0.00000E+00
         0.00000E+00
         0.00000E+00
         0.00000E+00
         0.00000E+00
         0.00000E+00
         0.00000E+00
         0.00000E+00
         0.00000E+00
         0.00000E+00
         0.00000E+00
         0.00000E+00
         0.00000E+00
         0.00000E+00
         0.00000E+00
         0.00000E+00
         0.00000E+00
         0.00000E+00
         0.00000E+00
         0.00000E+00
         0.00000E+00
         0.00000E+00
         0.00000E+00
         0.00000E+00
         0.00000E+00
         0.00000E+00
         0.00000E+00
         0.00000E+00
         0.00000E+00
         0.00000E+00
         0.00000E+00
         0.00000E+00
         0.00000E+00
         0.00000E+00
         0.00000E+00
         0.00000E+00
         0.00000E+00
         0.00000E+00
         0.00000E+00
         0.00000E+00
         0.00000E+00
         0.00000E+00
         0.00000E+00
         0.00000E+00
         0.00000E+00
         0.00000E+00
         0.00000E+00
         0.00000E+00
         0.00000E+00
         0.00000E+00
         0.00000E+00
         0.00000E+00
         0.00000E+00
         0.00000E+00
         0.00000E+00
         0.00000E+00
         0.00000E+00
         0.00000E+00
         0.00000E+00
         0.00000E+00
         0.00000E+00
         0.00000E+00
         0.00000E+00
         0.00000E+00
         0.00000E+00
         0.00000E+00
         0.00000E+00
         0.00000E+00
         0.00000E+00
         0.00000E+00
         0.00000E+00
         0.00000E+00
         0.00000E+00
         0.00000E+00
         0.00000E+00
         0.00000E+00
         0.00000E+00
         0.00000E+00
         0.00000E+00
         0.00000E+00
         0.00000E+00
         0.00000E+00
         0.00000E+00
         0.00000E+00
         0.00000E+00
         0.00000E+00
         0.00000E+00
         0.00000E+00
         0.00000E+00
         0.00000E+00
         0.00000E+00
         0.00000E+00
         0.00000E+00
         0.00000E+00
         0.00000E+00
         0.00000E+00
         0.00000E+00
         0.00000E+00
         0.00000E+00
         0.00000E+00
         0.00000E+00
         0.00000E+00
         0.00000E+00
         0.00000E+00
         0.00000E+00
         0.00000E+00
         0.00000E+00
         0.00000E+00
         0.00000E+00
         0.00000E+00
         0.00000E+00
         0.00000E+00
         0.00000E+00
         0.00000E+00
         0.00000E+00
         0.00000E+00
         0.00000E+00
         0.00000E+00
         0.00000E+00
         0.00000E+00
         0.00000E+00
         0.00000E+00
         0.00000E+00
         0.00000E+00
         0.00000E+00
         0.00000E+00
         0.00000E+00
         0.00000E+00
         0.00000E+00
         0.00000E+00
         0.00000E+00
         0.00000E+00
         0.00000E+00
         0.00000E+00
         0.00000E+00
         0.00000E+00
         0.00000E+00
         0.00000E+00
         0.00000E+00
         0.00000E+00
         0.00000E+00
         0.00000E+00
         0.00000E+00
         0.00000E+00
         0.00000E+00
         0.00000E+00
         0.00000E+00
         0.00000E+00
         0.00000E+00
         0.00000E+00
         0.00000E+00
         0.00000E+00
         0.00000E+00
         0.00000E+00
         0.00000E+00
         0.00000E+00
         0.00000E+00
         0.00000E+00
         0.00000E+00
         0.00000E+00
         0.00000E+00
         0.00000E+00
         0.00000E+00
         0.00000E+00
         0.00000E+00
         0.00000E+00
         0.00000E+00
         0.00000E+00
         0.00000E+00
         0.00000E+00
         0.00000E+00
         0.00000E+00
         0.00000E+00
         0.00000E+00
         0.00000E+00
         0.00000E+00
         0.00000E+00
         0.00000E+00
         0.00000E+00
         0.00000E+00
         0.00000E+00
         0.00000E+00
         0.00000E+00
         0.00000E+00
         0.00000E+00
         0.00000E+00
         0.00000E+00
         0.00000E+00
         0.00000E+00
         0.00000E+00
         0.00000E+00
         0.00000E+00
         0.00000E+00
         0.00000E+00
         0.00000E+00
         0.00000E+00
         0.00000E+00
         0.00000E+00
         0.00000E+00
         0.00000E+00
         0.00000E+00
         0.00000E+00
         0.00000E+00
         0.00000E+00
         0.00000E+00
         0.00000E+00
         0.00000E+00
         0.00000E+00
         0.00000E+00
         0.00000E+00
         0.00000E+00
         0.00000E+00
         0.00000E+00
         0.00000E+00
         0.00000E+00
         0.00000E+00
         0.00000E+00
         0.00000E+00
         0.00000E+00
         0.00000E+00
         0.00000E+00
         0.00000E+00
         0.00000E+00
         0.00000E+00
         0.00000E+00
         0.00000E+00
         0.00000E+00
         0.00000E+00
         0.00000E+00
         0.00000E+00
         0.00000E+00
         0.00000E+00
         0.00000E+00
         0.00000E+00
         0.00000E+00
         0.00000E+00
         0.00000E+00
         0.00000E+00
         0.00000E+00
         0.00000E+00
         0.00000E+00
         0.00000E+00
         0.00000E+00
         0.00000E+00
         0.00000E+00
         0.00000E+00
         0.00000E+00
         0.00000E+00
         0.00000E+00
         0.00000E+00
         0.00000E+00
         0.00000E+00
         0.00000E+00
         0.00000E+00
         0.00000E+00
         0.00000E+00
         0.00000E+00
         0.00000E+00
         0.00000E+00
         0.00000E+00
         0.00000E+00
         0.00000E+00
         0.00000E+00
         0.00000E+00
         0.00000E+00
         0.00000E+00
         0.00000E+00
         0.00000E+00
         0.00000E+00
         0.00000E+00
         0.00000E+00
         0.00000E+00
         0.00000E+00
         0.00000E+00
         0.00000E+00
         0.00000E+00
         0.00000E+00
         0.00000E+00
         0.00000E+00
         0.00000E+00
         0.00000E+00
         0.00000E+00
         0.00000E+00
         0.00000E+00
         0.00000E+00
         0.00000E+00
         0.00000E+00
         0.00000E+00
         0.00000E+00
         0.00000E+00
         0.00000E+00
         0.00000E+00
         0.00000E+00
         0.00000E+00
         0.00000E+00
         0.00000E+00
         0.00000E+00
         0.00000E+00
         0.00000E+00
         0.00000E+00
         0.00000E+00
         0.00000E+00
         0.00000E+00
         0.00000E+00
         0.00000E+00
         0.00000E+00
         0.00000E+00
         0.00000E+00
         0.00000E+00
         0.00000E+00
         0.00000E+00
         0.00000E+00
         0.00000E+00
         0.00000E+00
         0.00000E+00
         0.00000E+00
         0.00000E+00
         0.00000E+00
         0.00000E+00
         0.00000E+00
         0.00000E+00
         0.00000E+00
         0.00000E+00
         0.00000E+00
         0.00000E+00
         0.00000E+00
         0.00000E+00
         0.00000E+00
         0.00000E+00
         0.00000E+00
         0.00000E+00
         0.00000E+00
         0.00000E+00
         0.00000E+00
         0.00000E+00
         0.00000E+00
         0.00000E+00
         0.00000E+00
         0.00000E+00
         0.00000E+00
         0.00000E+00
         0.00000E+00
         0.00000E+00
         0.00000E+00
         0.00000E+00
         0.00000E+00
         0.00000E+00
         0.00000E+00
         0.00000E+00
         0.00000E+00
         0.00000E+00
         0.00000E+00
         0.00000E+00
         0.00000E+00
         0.00000E+00
         0.00000E+00
         0.00000E+00
         0.00000E+00
         0.00000E+00
         0.00000E+00
         0.00000E+00
         0.00000E+00
         0.00000E+00
         0.00000E+00
         0.00000E+00
         0.00000E+00
         0.00000E+00
         0.00000E+00
         0.00000E+00
         0.00000E+00
         0.00000E+00
         0.00000E+00
         0.00000E+00
         0.00000E+00
         0.00000E+00
         0.00000E+00
         0.00000E+00
         0.00000E+00
         0.00000E+00
         0.00000E+00
         0.00000E+00
         0.00000E+00
         0.00000E+00
         0.00000E+00
         0.00000E+00
         0.00000E+00
         0.00000E+00
         0.00000E+00
         0.00000E+00
         0.00000E+00
         0.00000E+00
         0.00000E+00
         0.00000E+00
         0.00000E+00
         0.00000E+00
         0.00000E+00
         0.00000E+00
         0.00000E+00
         0.00000E+00
         0.00000E+00
         0.00000E+00
         0.00000E+00
         0.00000E+00
         0.00000E+00
         0.00000E+00
         0.00000E+00
         0.00000E+00
         0.00000E+00
         0.00000E+00
         0.00000E+00
         0.00000E+00
         0.00000E+00
         0.00000E+00
         0.00000E+00
         0.00000E+00
         0.00000E+00
         0.00000E+00
         0.00000E+00
         0.00000E+00
         0.00000E+00
         0.00000E+00
         0.00000E+00
         0.00000E+00
         0.00000E+00
         0.00000E+00
         0.00000E+00
         0.00000E+00
         0.00000E+00
         0.00000E+00
         0.00000E+00
         0.00000E+00
         0.00000E+00
         0.00000E+00
         0.00000E+00
         0.00000E+00
         0.00000E+00
         0.00000E+00
         0.00000E+00
         0.00000E+00
         0.00000E+00
         0.00000E+00
         0.00000E+00
         0.00000E+00
         0.00000E+00
         0.00000E+00
         0.00000E+00
         0.00000E+00
         0.00000E+00
         0.00000E+00
         0.00000E+00
         0.00000E+00
         0.00000E+00
         0.00000E+00
         0.00000E+00
         0.00000E+00
         0.00000E+00
         0.00000E+00
         0.00000E+00
         0.00000E+00
         0.00000E+00
         0.00000E+00
         0.00000E+00
         0.00000E+00
         0.00000E+00
         0.00000E+00
         0.00000E+00
         0.00000E+00
         0.00000E+00
         0.00000E+00
         0.00000E+00
         0.00000E+00
         0.00000E+00
         0.00000E+00
         0.00000E+00
         0.00000E+00
         0.00000E+00
         0.00000E+00
         0.00000E+00
         0.00000E+00
         0.00000E+00
         0.00000E+00
         0.00000E+00
         0.00000E+00
         0.00000E+00
         0.00000E+00
         0.00000E+00
         0.00000E+00
         0.00000E+00
         0.00000E+00
         0.00000E+00
         0.00000E+00
         0.00000E+00
         0.00000E+00
         0.00000E+00
         0.00000E+00
         0.00000E+00
         0.00000E+00
         0.00000E+00
         0.00000E+00
         0.00000E+00
         0.00000E+00
         0.00000E+00
         0.00000E+00
         0.00000E+00
         0.00000E+00
         0.00000E+00
         0.00000E+00
         0.00000E+00
         0.00000E+00
         0.00000E+00
         0.00000E+00
         0.00000E+00
         0.00000E+00
         0.00000E+00
         0.00000E+00
         0.00000E+00
         0.00000E+00
         0.00000E+00
         0.00000E+00
         0.00000E+00
         0.00000E+00
         0.00000E+00
         0.00000E+00
         0.00000E+00
         0.00000E+00
         0.00000E+00
         0.00000E+00
         0.00000E+00
         0.00000E+00
         0.00000E+00
         0.00000E+00
         0.00000E+00
         0.00000E+00
         0.00000E+00
         0.00000E+00
         0.00000E+00
         0.00000E+00
         0.00000E+00
         0.00000E+00
         0.00000E+00
         0.00000E+00
         0.00000E+00
         0.00000E+00
         0.00000E+00
         0.00000E+00
         0.00000E+00
         0.00000E+00
         0.00000E+00
         0.00000E+00
         0.00000E+00
         0.00000E+00
         0.00000E+00
         0.00000E+00
         0.00000E+00
         0.00000E+00
         0.00000E+00
         0.00000E+00
         0.00000E+00
         0.00000E+00
         0.00000E+00
         0.00000E+00
         0.00000E+00
         0.00000E+00
         0.00000E+00
         0.00000E+00
         0.00000E+00
         0.00000E+00
         0.00000E+00
         0.00000E+00
         0.00000E+00
         0.00000E+00
         0.00000E+00
         0.00000E+00
         0.00000E+00
         0.00000E+00
         0.00000E+00
         0.00000E+00
         0.00000E+00
         0.00000E+00
         0.00000E+00
         0.00000E+00
         0.00000E+00
         0.00000E+00
         0.00000E+00
         0.00000E+00
         0.00000E+00
         0.00000E+00
         0.00000E+00
         0.00000E+00
         0.00000E+00
         0.00000E+00
         0.00000E+00
         0.00000E+00
         0.00000E+00
         0.00000E+00
         0.00000E+00
         0.00000E+00
         0.00000E+00
         0.00000E+00
         0.00000E+00
         0.00000E+00
         0.00000E+00
         0.00000E+00
         0.00000E+00
         0.00000E+00
         0.00000E+00
         0.00000E+00
         0.00000E+00
         0.00000E+00
         0.00000E+00
         0.00000E+00
         0.00000E+00
         0.00000E+00
         0.00000E+00
         0.00000E+00
         0.00000E+00
         0.00000E+00
         0.00000E+00
         0.00000E+00
         0.00000E+00
         0.00000E+00
         0.00000E+00
         0.00000E+00
         0.00000E+00
         0.00000E+00
         0.00000E+00
         0.00000E+00
         0.00000E+00
         0.00000E+00
         0.00000E+00
         0.00000E+00
         0.00000E+00
         0.00000E+00
         0.00000E+00
         0.00000E+00
         0.00000E+00
         0.00000E+00
         0.00000E+00
         0.00000E+00
         0.00000E+00
         0.00000E+00
         0.00000E+00
         0.00000E+00
         0.00000E+00
         0.00000E+00
         0.00000E+00
         0.00000E+00
         0.00000E+00
         0.00000E+00
         0.00000E+00
         0.00000E+00
         0.00000E+00
         0.00000E+00
         0.00000E+00
         0.00000E+00
         0.00000E+00
         0.00000E+00
         0.00000E+00
         0.00000E+00
         0.00000E+00
         0.00000E+00
         0.00000E+00
         0.00000E+00
         0.00000E+00
         0.00000E+00
         0.00000E+00
         0.00000E+00
         0.00000E+00
         0.00000E+00
         0.00000E+00
         0.00000E+00
         0.00000E+00
         0.00000E+00
         0.00000E+00
         0.00000E+00
         0.00000E+00
         0.00000E+00
         0.00000E+00
         0.00000E+00
         0.00000E+00
         0.00000E+00
         0.00000E+00
         0.00000E+00
         0.00000E+00
         0.00000E+00
         0.00000E+00
         0.00000E+00
         0.00000E+00
         0.00000E+00
         0.00000E+00
         0.00000E+00
         0.00000E+00
         0.00000E+00
         0.00000E+00
         0.00000E+00
         0.00000E+00
         0.00000E+00
         0.00000E+00
         0.00000E+00
         0.00000E+00
         0.00000E+00
         0.00000E+00
         0.00000E+00
         0.00000E+00
         0.00000E+00
  
SCALARS                 displacement_z  double 1
LOOKUP_TABLE default
        -0.48816E-02
        -0.48739E-02
        -0.48727E-02
        -0.48871E-02
        -0.29999E-16
        -0.33638E-16
        -0.32210E-16
        -0.29262E-16
        -0.48581E-02
        -0.48753E-02
        -0.30250E-16
        -0.29274E-16
        -0.48654E-02
        -0.48764E-02
        -0.35942E-16
        -0.33794E-16
        -0.48823E-02
        -0.48844E-02
        -0.26558E-16
        -0.29456E-16
        -0.48595E-02
        -0.48529E-02
        -0.48561E-02
        -0.35622E-16
        -0.31110E-16
        -0.32125E-16
        -0.48731E-02
        -0.48688E-02
        -0.34174E-16
        -0.28820E-16
        -0.48885E-02
        -0.48922E-02
        -0.48858E-02
        -0.29164E-16
        -0.27113E-16
        -0.26361E-16
        -0.48729E-02
        -0.48887E-02
        -0.30854E-16
        -0.28155E-16
        -0.48684E-02
        -0.48816E-02
        -0.26667E-16
        -0.23608E-16
        -0.48561E-02
        -0.48623E-02
        -0.29223E-16
        -0.32652E-16
        -0.48933E-02
        -0.28548E-16
        -0.48710E-02
        -0.33546E-16
        -0.48875E-02
        -0.30146E-16
        -0.48923E-02
        -0.28917E-16
        -0.48791E-02
        -0.48896E-02
        -0.29463E-16
        -0.28694E-16
        -0.48849E-02
        -0.48709E-02
        -0.29545E-16
        -0.33400E-16
        -0.48840E-02
        -0.28510E-16
        -0.48782E-02
        -0.31115E-16
        -0.48363E-02
        -0.48533E-02
        -0.29950E-16
        -0.31382E-16
        -0.48596E-02
        -0.31645E-16
        -0.48778E-02
        -0.25002E-16
        -0.48761E-02
        -0.24268E-16
        -0.48602E-02
        -0.25589E-16
        -0.48420E-02
        -0.48647E-02
        -0.24380E-16
        -0.25418E-16
        -0.48832E-02
        -0.23673E-16
        -0.48577E-02
        -0.31044E-16
        -0.48511E-02
        -0.31773E-16
        -0.48346E-02
        -0.48570E-02
        -0.30513E-16
        -0.30869E-16
        -0.48723E-02
        -0.28038E-16
        -0.48701E-02
        -0.27638E-16
        -0.48579E-02
        -0.29587E-16
        -0.48404E-02
        -0.48608E-02
        -0.29014E-16
        -0.29866E-16
        -0.47898E-02
        -0.47979E-02
        -0.22526E-16
        -0.21188E-16
        -0.47970E-02
        -0.21510E-16
        -0.47911E-02
        -0.20624E-16
        -0.47916E-02
        -0.20337E-16
        -0.47909E-02
        -0.19219E-16
        -0.47955E-02
        -0.17074E-16
        -0.47975E-02
        -0.15374E-16
        -0.47963E-02
        -0.15267E-16
        -0.47954E-02
        -0.16556E-16
        -0.47883E-02
        -0.17400E-16
        -0.47973E-02
        -0.15888E-16
        -0.48006E-02
        -0.14322E-16
        -0.47997E-02
        -0.14305E-16
        -0.47961E-02
        -0.15990E-16
        -0.47925E-02
        -0.18232E-16
        -0.47906E-02
        -0.19587E-16
        -0.47962E-02
        -0.21153E-16
        -0.47908E-02
        -0.22663E-16
        -0.47990E-02
        -0.20761E-16
        -0.47962E-02
        -0.18213E-16
        -0.47936E-02
        -0.18156E-16
        -0.47982E-02
        -0.19865E-16
        -0.47917E-02
        -0.21178E-16
        -0.47982E-02
        -0.20098E-16
        -0.47984E-02
        -0.19430E-16
        -0.68805E-02
        -0.68791E-02
        -0.68790E-02
        -0.68811E-02
        -0.68769E-02
        -0.68794E-02
        -0.68778E-02
        -0.68795E-02
        -0.68809E-02
        -0.68811E-02
        -0.68772E-02
        -0.68762E-02
        -0.68764E-02
        -0.68790E-02
        -0.68785E-02
        -0.68812E-02
        -0.68822E-02
        -0.68812E-02
        -0.68791E-02
        -0.68816E-02
        -0.68784E-02
        -0.68806E-02
        -0.68765E-02
        -0.68776E-02
        -0.68823E-02
        -0.68787E-02
        -0.68814E-02
        -0.68819E-02
        -0.68798E-02
        -0.68816E-02
        -0.68810E-02
        -0.68786E-02
        -0.68808E-02
        -0.68797E-02
        -0.68738E-02
        -0.68760E-02
        -0.68769E-02
        -0.68801E-02
        -0.68797E-02
        -0.68770E-02
        -0.68745E-02
        -0.68777E-02
        -0.68807E-02
        -0.68766E-02
        -0.68756E-02
        -0.68736E-02
        -0.68765E-02
        -0.68790E-02
        -0.68786E-02
        -0.68766E-02
        -0.68744E-02
        -0.68772E-02
        -0.68688E-02
        -0.68702E-02
        -0.68700E-02
        -0.68694E-02
        -0.68694E-02
        -0.68695E-02
        -0.68701E-02
        -0.68703E-02
        -0.68699E-02
        -0.68695E-02
        -0.68684E-02
        -0.68700E-02
        -0.68707E-02
        -0.68706E-02
        -0.68701E-02
        -0.68695E-02
        -0.68693E-02
        -0.68700E-02
        -0.68691E-02
        -0.68705E-02
        -0.68704E-02
        -0.68698E-02
        -0.68702E-02
        -0.68691E-02
        -0.68703E-02
        -0.68706E-02
        -0.70443E-02
        -0.70443E-02
        -0.70443E-02
        -0.70443E-02
        -0.70443E-02
        -0.70443E-02
        -0.70443E-02
        -0.70443E-02
        -0.70443E-02
        -0.70443E-02
        -0.70443E-02
        -0.70443E-02
        -0.70443E-02
        -0.70443E-02
        -0.70443E-02
        -0.70443E-02
        -0.70443E-02
        -0.70443E-02
        -0.70443E-02
        -0.70443E-02
        -0.70443E-02
        -0.70443E-02
        -0.70443E-02
        -0.70443E-02
        -0.70443E-02
        -0.70443E-02
        -0.70443E-02
        -0.70443E-02
        -0.70443E-02
        -0.70443E-02
        -0.70443E-02
        -0.70443E-02
        -0.70443E-02
        -0.70443E-02
        -0.70443E-02
        -0.70443E-02
        -0.70443E-02
        -0.70443E-02
        -0.70443E-02
        -0.70443E-02
        -0.70443E-02
        -0.70443E-02
        -0.70443E-02
        -0.70443E-02
        -0.70443E-02
        -0.70443E-02
        -0.70443E-02
        -0.70443E-02
        -0.70443E-02
        -0.70443E-02
        -0.70443E-02
        -0.70443E-02
        -0.70443E-02
        -0.70443E-02
        -0.70443E-02
        -0.70443E-02
        -0.70443E-02
        -0.70443E-02
        -0.70443E-02
        -0.70443E-02
        -0.70443E-02
        -0.70443E-02
        -0.70443E-02
        -0.70443E-02
        -0.70443E-02
        -0.70443E-02
        -0.70443E-02
        -0.70443E-02
        -0.70443E-02
        -0.70443E-02
        -0.70443E-02
        -0.70443E-02
        -0.70443E-02
        -0.70443E-02
        -0.70443E-02
        -0.70443E-02
        -0.70443E-02
        -0.70443E-02
        -0.70443E-02
        -0.70443E-02
        -0.70443E-02
        -0.70443E-02
        -0.70443E-02
        -0.70443E-02
        -0.70443E-02
        -0.70443E-02
        -0.70443E-02
        -0.70443E-02
        -0.70443E-02
        -0.70443E-02
        -0.70443E-02
        -0.70443E-02
        -0.70443E-02
        -0.70443E-02
        -0.70443E-02
        -0.70443E-02
        -0.70443E-02
        -0.70443E-02
        -0.70443E-02
        -0.70443E-02
        -0.70443E-02
        -0.70443E-02
        -0.70443E-02
        -0.70443E-02
        -0.70443E-02
        -0.70443E-02
        -0.70443E-02
        -0.70443E-02
        -0.70443E-02
        -0.70443E-02
        -0.70443E-02
        -0.70443E-02
        -0.70443E-02
        -0.70443E-02
        -0.70443E-02
        -0.70443E-02
        -0.70443E-02
        -0.70443E-02
        -0.70443E-02
        -0.70443E-02
        -0.70443E-02
        -0.70443E-02
        -0.70443E-02
        -0.70443E-02
        -0.70443E-02
        -0.70443E-02
        -0.70443E-02
        -0.70443E-02
        -0.70443E-02
        -0.70443E-02
        -0.70443E-02
        -0.70443E-02
        -0.70443E-02
        -0.70443E-02
        -0.70443E-02
        -0.70443E-02
        -0.70443E-02
        -0.70443E-02
        -0.70443E-02
        -0.70443E-02
        -0.70443E-02
        -0.70443E-02
        -0.70443E-02
        -0.70443E-02
        -0.70443E-02
        -0.70443E-02
        -0.70443E-02
        -0.70443E-02
        -0.70443E-02
        -0.70443E-02
        -0.70443E-02
        -0.70443E-02
        -0.70443E-02
        -0.70443E-02
        -0.70443E-02
        -0.70443E-02
        -0.70443E-02
        -0.70443E-02
        -0.70443E-02
        -0.70443E-02
        -0.70443E-02
        -0.70443E-02
        -0.70443E-02
        -0.70443E-02
        -0.70443E-02
        -0.70443E-02
        -0.70443E-02
        -0.70443E-02
        -0.70443E-02
        -0.70443E-02
        -0.70443E-02
        -0.70443E-02
        -0.70443E-02
        -0.70443E-02
        -0.70443E-02
        -0.70443E-02
        -0.70443E-02
        -0.70443E-02
        -0.70443E-02
        -0.70443E-02
        -0.70443E-02
        -0.70443E-02
        -0.70443E-02
        -0.70443E-02
        -0.70443E-02
        -0.70443E-02
        -0.70443E-02
        -0.70443E-02
        -0.70443E-02
        -0.70443E-02
        -0.70443E-02
        -0.70443E-02
        -0.70443E-02
        -0.70443E-02
        -0.70443E-02
        -0.70443E-02
        -0.70443E-02
        -0.70443E-02
        -0.70443E-02
        -0.70443E-02
        -0.70443E-02
        -0.70443E-02
        -0.70443E-02
        -0.70443E-02
        -0.70443E-02
        -0.70443E-02
        -0.70443E-02
        -0.70443E-02
        -0.70443E-02
        -0.70443E-02
        -0.70443E-02
        -0.70443E-02
        -0.70443E-02
        -0.70443E-02
        -0.70443E-02
        -0.70443E-02
        -0.70443E-02
        -0.70443E-02
        -0.70443E-02
        -0.70443E-02
        -0.70443E-02
        -0.70443E-02
        -0.70443E-02
        -0.70443E-02
        -0.70443E-02
        -0.70443E-02
        -0.70443E-02
        -0.70443E-02
        -0.70443E-02
        -0.70443E-02
        -0.70443E-02
        -0.70443E-02
        -0.70443E-02
        -0.70443E-02
        -0.70443E-02
        -0.70443E-02
        -0.70443E-02
        -0.70443E-02
        -0.70443E-02
        -0.70443E-02
        -0.70443E-02
        -0.70443E-02
        -0.70443E-02
        -0.70443E-02
        -0.70443E-02
        -0.70443E-02
        -0.70443E-02
        -0.70443E-02
        -0.70443E-02
        -0.70443E-02
        -0.70443E-02
        -0.70443E-02
        -0.70443E-02
        -0.70443E-02
        -0.70443E-02
        -0.70443E-02
        -0.70443E-02
        -0.70443E-02
        -0.70443E-02
        -0.70443E-02
        -0.70443E-02
        -0.70443E-02
        -0.70443E-02
        -0.70443E-02
        -0.70443E-02
        -0.70443E-02
        -0.70443E-02
        -0.70443E-02
        -0.70443E-02
        -0.70443E-02
        -0.70443E-02
        -0.70443E-02
        -0.70443E-02
        -0.70443E-02
        -0.70443E-02
        -0.70443E-02
        -0.70443E-02
        -0.70443E-02
        -0.70443E-02
        -0.70443E-02
        -0.70443E-02
        -0.70443E-02
        -0.70443E-02
        -0.70443E-02
        -0.70443E-02
        -0.70443E-02
        -0.70443E-02
        -0.70443E-02
        -0.70443E-02
        -0.70443E-02
        -0.70443E-02
        -0.70443E-02
        -0.70443E-02
        -0.70443E-02
        -0.70443E-02
        -0.70443E-02
        -0.70443E-02
        -0.70443E-02
        -0.70443E-02
        -0.70443E-02
        -0.70443E-02
        -0.70443E-02
        -0.70443E-02
        -0.70443E-02
        -0.70443E-02
        -0.70443E-02
        -0.70443E-02
        -0.70443E-02
        -0.70443E-02
        -0.70443E-02
        -0.70443E-02
        -0.70443E-02
        -0.70443E-02
        -0.70443E-02
        -0.70443E-02
        -0.70443E-02
        -0.70443E-02
        -0.70443E-02
        -0.70443E-02
        -0.70443E-02
        -0.70443E-02
        -0.70443E-02
        -0.70443E-02
        -0.70443E-02
        -0.70443E-02
        -0.70443E-02
        -0.70443E-02
        -0.70443E-02
        -0.70443E-02
        -0.70443E-02
        -0.70443E-02
        -0.70443E-02
        -0.70443E-02
        -0.70443E-02
        -0.70443E-02
        -0.70443E-02
        -0.70443E-02
        -0.70443E-02
        -0.70443E-02
        -0.70443E-02
        -0.70443E-02
        -0.70443E-02
        -0.70443E-02
        -0.70443E-02
        -0.70443E-02
        -0.70443E-02
        -0.70443E-02
        -0.70443E-02
        -0.70443E-02
        -0.70443E-02
        -0.70443E-02
        -0.70443E-02
        -0.70443E-02
        -0.70443E-02
        -0.70443E-02
        -0.70443E-02
        -0.70443E-02
        -0.70443E-02
        -0.70443E-02
        -0.70443E-02
        -0.70443E-02
        -0.70443E-02
        -0.70443E-02
        -0.70443E-02
        -0.70443E-02
        -0.70443E-02
        -0.70443E-02
        -0.70443E-02
        -0.70443E-02
        -0.70443E-02
        -0.70443E-02
        -0.70443E-02
        -0.70443E-02
        -0.70443E-02
        -0.70443E-02
        -0.70443E-02
        -0.70443E-02
        -0.70443E-02
        -0.70443E-02
        -0.70443E-02
        -0.70443E-02
        -0.70443E-02
        -0.70443E-02
        -0.70443E-02
        -0.70443E-02
        -0.70443E-02
        -0.70443E-02
        -0.70443E-02
        -0.70443E-02
        -0.70443E-02
        -0.70443E-02
        -0.70443E-02
        -0.70443E-02
        -0.70443E-02
        -0.70443E-02
        -0.70443E-02
        -0.70443E-02
        -0.70443E-02
        -0.70443E-02
        -0.70443E-02
        -0.70443E-02
        -0.70443E-02
        -0.70443E-02
        -0.70443E-02
        -0.70443E-02
        -0.70443E-02
        -0.70443E-02
        -0.70443E-02
        -0.70443E-02
        -0.70443E-02
        -0.70443E-02
        -0.70443E-02
        -0.70443E-02
        -0.70443E-02
        -0.70443E-02
        -0.70443E-02
        -0.70443E-02
        -0.70443E-02
        -0.70443E-02
        -0.70443E-02
        -0.70443E-02
        -0.70443E-02
        -0.70443E-02
        -0.70443E-02
        -0.70443E-02
        -0.70443E-02
        -0.70443E-02
        -0.70443E-02
        -0.70443E-02
        -0.70443E-02
        -0.70443E-02
        -0.70443E-02
        -0.70443E-02
        -0.70443E-02
        -0.70443E-02
        -0.70443E-02
        -0.70443E-02
        -0.70443E-02
        -0.70443E-02
        -0.70443E-02
        -0.70443E-02
        -0.70443E-02
        -0.70443E-02
        -0.70443E-02
        -0.70443E-02
        -0.70443E-02
        -0.70443E-02
        -0.70443E-02
        -0.70443E-02
        -0.70443E-02
        -0.70443E-02
        -0.70443E-02
        -0.70443E-02
        -0.70443E-02
        -0.70443E-02
        -0.70443E-02
        -0.70443E-02
        -0.70443E-02
        -0.70443E-02
        -0.70443E-02
        -0.70443E-02
        -0.70443E-02
        -0.70443E-02
        -0.70443E-02
        -0.70443E-02
        -0.70443E-02
        -0.70443E-02
        -0.70443E-02
        -0.70443E-02
        -0.70443E-02
        -0.70443E-02
        -0.70443E-02
        -0.70443E-02
        -0.70443E-02
        -0.70443E-02
        -0.70443E-02
        -0.70443E-02
        -0.70443E-02
        -0.70443E-02
        -0.70443E-02
        -0.70443E-02
        -0.70443E-02
        -0.70443E-02
        -0.70443E-02
        -0.70443E-02
        -0.70443E-02
        -0.70443E-02
        -0.70443E-02
        -0.70443E-02
        -0.70443E-02
        -0.70443E-02
        -0.70443E-02
        -0.70443E-02
        -0.70443E-02
        -0.70443E-02
        -0.70443E-02
        -0.70443E-02
        -0.70443E-02
        -0.70443E-02
        -0.70443E-02
        -0.70443E-02
        -0.70443E-02
        -0.70443E-02
        -0.70443E-02
        -0.70443E-02
        -0.70443E-02
        -0.70443E-02
        -0.70443E-02
        -0.70443E-02
        -0.70443E-02
        -0.70443E-02
        -0.70443E-02
        -0.70443E-02
        -0.70443E-02
        -0.70443E-02
        -0.70443E-02
        -0.70443E-02
        -0.70443E-02
        -0.70443E-02
        -0.70443E-02
        -0.70443E-02
        -0.70443E-02
        -0.70443E-02
        -0.70443E-02
        -0.70443E-02
        -0.70443E-02
        -0.70443E-02
        -0.70443E-02
        -0.70443E-02
        -0.70443E-02
        -0.70443E-02
        -0.70443E-02
        -0.70443E-02
        -0.70443E-02
        -0.70443E-02
        -0.70443E-02
        -0.70443E-02
        -0.70443E-02
        -0.70443E-02
        -0.70443E-02
        -0.70443E-02
        -0.70443E-02
        -0.70443E-02
        -0.70443E-02
        -0.70443E-02
        -0.70443E-02
        -0.70443E-02
        -0.70443E-02
        -0.70443E-02
        -0.70443E-02
        -0.70443E-02
        -0.70443E-02
        -0.70443E-02
        -0.70443E-02
        -0.70443E-02
        -0.70443E-02
        -0.70443E-02
        -0.70443E-02
        -0.70443E-02
        -0.70443E-02
        -0.70443E-02
        -0.70443E-02
        -0.70443E-02
        -0.70443E-02
        -0.70443E-02
        -0.70443E-02
        -0.70443E-02
        -0.70443E-02
        -0.70443E-02
        -0.70443E-02
        -0.70443E-02
        -0.70443E-02
        -0.70443E-02
        -0.70443E-02
        -0.70443E-02
        -0.70443E-02
        -0.70443E-02
        -0.70443E-02
        -0.70443E-02
        -0.70443E-02
        -0.70443E-02
        -0.70443E-02
        -0.70443E-02
        -0.70443E-02
        -0.70443E-02
        -0.70443E-02
        -0.70443E-02
        -0.70443E-02
        -0.70443E-02
        -0.70443E-02
        -0.70443E-02
        -0.70443E-02
        -0.70443E-02
        -0.70443E-02
        -0.70443E-02
        -0.70443E-02
        -0.70443E-02
        -0.70443E-02
        -0.70443E-02
        -0.70443E-02
        -0.70443E-02
        -0.70443E-02
        -0.70443E-02
        -0.70443E-02
        -0.70443E-02
        -0.70443E-02
        -0.70443E-02
        -0.70443E-02
        -0.70443E-02
        -0.70443E-02
        -0.70443E-02
        -0.70443E-02
        -0.70443E-02
        -0.70443E-02
        -0.70443E-02
        -0.70443E-02
        -0.70443E-02
        -0.70443E-02
        -0.70443E-02
        -0.70443E-02
        -0.70443E-02
        -0.70443E-02
        -0.70443E-02
        -0.70443E-02
        -0.70443E-02
        -0.70443E-02
        -0.70443E-02
        -0.70443E-02
        -0.70443E-02
        -0.70443E-02
        -0.70443E-02
        -0.70443E-02
        -0.70443E-02
        -0.70443E-02
        -0.70443E-02
        -0.70443E-02
        -0.70443E-02
        -0.70443E-02
        -0.70443E-02
        -0.70443E-02
        -0.70443E-02
        -0.70443E-02
        -0.70443E-02
        -0.70443E-02
        -0.70443E-02
        -0.70443E-02
        -0.70443E-02
        -0.70443E-02
        -0.70443E-02
        -0.70443E-02
        -0.70443E-02
        -0.70443E-02
        -0.70443E-02
        -0.70443E-02
        -0.70443E-02
        -0.70443E-02
        -0.70443E-02
        -0.70443E-02
        -0.70443E-02
        -0.70443E-02
        -0.70443E-02
        -0.70443E-02
        -0.70443E-02
        -0.70443E-02
        -0.70443E-02
        -0.70443E-02
        -0.70443E-02
        -0.70443E-02
        -0.70443E-02
        -0.70443E-02
        -0.70443E-02
        -0.70443E-02
        -0.70443E-02
        -0.70443E-02
        -0.70443E-02
        -0.70443E-02
        -0.70443E-02
        -0.70443E-02
        -0.70443E-02
        -0.70443E-02
        -0.70443E-02
        -0.70443E-02
        -0.70443E-02
        -0.70443E-02
        -0.70443E-02
        -0.70443E-02
        -0.70443E-02
        -0.70443E-02
        -0.70443E-02
        -0.70443E-02
        -0.70443E-02
        -0.70443E-02
        -0.70443E-02
        -0.70443E-02
        -0.70443E-02
        -0.70443E-02
        -0.70443E-02
        -0.70443E-02
        -0.70443E-02
        -0.70443E-02
        -0.70443E-02
        -0.70443E-02
        -0.70443E-02
        -0.70443E-02
        -0.70443E-02
        -0.70443E-02
        -0.70443E-02
        -0.70443E-02
        -0.70443E-02
        -0.70443E-02
        -0.70443E-02
        -0.70443E-02
        -0.70443E-02
        -0.70443E-02
        -0.70443E-02
        -0.70443E-02
        -0.70443E-02
        -0.70443E-02
        -0.70443E-02
        -0.70443E-02
        -0.70443E-02
        -0.70443E-02
        -0.70443E-02
        -0.70443E-02
        -0.70443E-02
        -0.70443E-02
        -0.70443E-02
        -0.70443E-02
        -0.70443E-02
        -0.70443E-02
        -0.70443E-02
        -0.70443E-02
        -0.70443E-02
        -0.70443E-02
        -0.70443E-02
        -0.70443E-02
        -0.70443E-02
        -0.70443E-02
        -0.70443E-02
        -0.70443E-02
        -0.70443E-02
        -0.70443E-02
        -0.70443E-02
        -0.70443E-02
        -0.70443E-02
        -0.70443E-02
        -0.70443E-02
        -0.70443E-02
        -0.70443E-02
        -0.70443E-02
        -0.70443E-02
        -0.70443E-02
        -0.70443E-02
        -0.70443E-02
        -0.70443E-02
        -0.70443E-02
        -0.70443E-02
        -0.70443E-02
        -0.70443E-02
        -0.70443E-02
        -0.70443E-02
        -0.70443E-02
        -0.70443E-02
        -0.70443E-02
        -0.70443E-02
        -0.70443E-02
        -0.70443E-02
        -0.70443E-02
        -0.70443E-02
        -0.70443E-02
        -0.70443E-02
        -0.70443E-02
        -0.70443E-02
        -0.70443E-02
        -0.70443E-02
        -0.70443E-02
        -0.70443E-02
        -0.70443E-02
        -0.70443E-02
        -0.70443E-02
        -0.70443E-02
        -0.70443E-02
        -0.70443E-02
        -0.70443E-02
        -0.70443E-02
        -0.70443E-02
        -0.70443E-02
        -0.70443E-02
        -0.70443E-02
        -0.70443E-02
        -0.70443E-02
        -0.70443E-02
        -0.70443E-02
        -0.70443E-02
        -0.70443E-02
        -0.70443E-02
        -0.70443E-02
        -0.70443E-02
        -0.70443E-02
        -0.70443E-02
        -0.70443E-02
        -0.70443E-02
        -0.70443E-02
        -0.70443E-02
        -0.70443E-02
        -0.70443E-02
        -0.70443E-02
        -0.70443E-02
        -0.70443E-02
        -0.70443E-02
        -0.70443E-02
        -0.70443E-02
        -0.70443E-02
        -0.70443E-02
        -0.70443E-02
        -0.70443E-02
        -0.70443E-02
        -0.70443E-02
        -0.70443E-02
        -0.70443E-02
        -0.70443E-02
        -0.70443E-02
        -0.70443E-02
        -0.70443E-02
        -0.70443E-02
        -0.70443E-02
        -0.70443E-02
        -0.70443E-02
        -0.70443E-02
        -0.70443E-02
        -0.70443E-02
        -0.70443E-02
        -0.70443E-02
        -0.70443E-02
        -0.70443E-02
        -0.70443E-02
        -0.70443E-02
        -0.70443E-02
        -0.70443E-02
        -0.70443E-02
        -0.70443E-02
        -0.70443E-02
        -0.70443E-02
        -0.70443E-02
        -0.70443E-02
        -0.70443E-02
        -0.70443E-02
        -0.70443E-02
        -0.70443E-02
        -0.70443E-02
        -0.70443E-02
        -0.70443E-02
        -0.70443E-02
        -0.70443E-02
        -0.70443E-02
        -0.70443E-02
        -0.70443E-02
        -0.70443E-02
        -0.70443E-02
        -0.70443E-02
        -0.70443E-02
        -0.70443E-02
        -0.70443E-02
        -0.70443E-02
        -0.70443E-02
        -0.70443E-02
        -0.70443E-02
        -0.70443E-02
        -0.70443E-02
        -0.70443E-02
        -0.70443E-02
        -0.70443E-02
        -0.70443E-02
        -0.70443E-02
        -0.70443E-02
        -0.70443E-02
        -0.70443E-02
        -0.70443E-02
        -0.70443E-02
        -0.70443E-02
        -0.70443E-02
        -0.70443E-02
        -0.70443E-02
        -0.70443E-02
        -0.70443E-02
        -0.70443E-02
        -0.70443E-02
        -0.70443E-02
        -0.70443E-02
        -0.70443E-02
        -0.70443E-02
        -0.70443E-02
        -0.70443E-02
        -0.70443E-02
        -0.70443E-02
        -0.70443E-02
        -0.70443E-02
        -0.70443E-02
        -0.70443E-02
        -0.70443E-02
        -0.70443E-02
        -0.70443E-02
        -0.70443E-02
        -0.70443E-02
        -0.70443E-02
        -0.70443E-02
        -0.70443E-02
        -0.70443E-02
        -0.70443E-02
        -0.70443E-02
        -0.70443E-02
        -0.70443E-02
        -0.70443E-02
        -0.70443E-02
        -0.70443E-02
        -0.70443E-02
        -0.70443E-02
        -0.70443E-02
        -0.70443E-02
        -0.70443E-02
        -0.70443E-02
        -0.70443E-02
        -0.70443E-02
        -0.70443E-02
        -0.70443E-02
        -0.70443E-02
        -0.70443E-02
        -0.70443E-02
        -0.70443E-02
        -0.70443E-02
        -0.70443E-02
        -0.70443E-02
        -0.70443E-02
        -0.70443E-02
        -0.70443E-02
        -0.70443E-02
        -0.70443E-02
        -0.70443E-02
        -0.70443E-02
        -0.70443E-02
        -0.70443E-02
        -0.70443E-02
        -0.70443E-02
        -0.70443E-02
        -0.70443E-02
        -0.70443E-02
        -0.70443E-02
        -0.70443E-02
        -0.70443E-02
        -0.70443E-02
        -0.70443E-02
        -0.70443E-02
        -0.70443E-02
        -0.70443E-02
        -0.70443E-02
        -0.70443E-02
        -0.70443E-02
        -0.70443E-02
        -0.70443E-02
        -0.70443E-02
        -0.70443E-02
        -0.70443E-02
        -0.70443E-02
        -0.70443E-02
        -0.70443E-02
        -0.70443E-02
        -0.70443E-02
        -0.70443E-02
        -0.70443E-02
        -0.70443E-02
        -0.70443E-02
        -0.70443E-02
        -0.70443E-02
        -0.70443E-02
        -0.70443E-02
        -0.70443E-02
        -0.70443E-02
        -0.70443E-02
        -0.70443E-02
        -0.70443E-02
        -0.70443E-02
        -0.70443E-02
        -0.70443E-02
        -0.70443E-02
        -0.70443E-02
        -0.70443E-02
        -0.70443E-02
        -0.70443E-02
        -0.70443E-02
        -0.70443E-02
        -0.70443E-02
        -0.70443E-02
        -0.70443E-02
        -0.70443E-02
        -0.70443E-02
        -0.70443E-02
        -0.70443E-02
        -0.70443E-02
        -0.70443E-02
        -0.70443E-02
        -0.70443E-02
        -0.70443E-02
        -0.70443E-02
        -0.70443E-02
        -0.70443E-02
        -0.70443E-02
        -0.70443E-02
        -0.70443E-02
        -0.70443E-02
        -0.70443E-02
        -0.70443E-02
        -0.70443E-02
        -0.70443E-02
        -0.70443E-02
        -0.70443E-02
        -0.70443E-02
        -0.70443E-02
        -0.70443E-02
        -0.70443E-02
        -0.70443E-02
        -0.70443E-02
        -0.70443E-02
        -0.70443E-02
        -0.70443E-02
        -0.70443E-02
        -0.70443E-02
        -0.70443E-02
        -0.70443E-02
        -0.70443E-02
        -0.70443E-02
        -0.70443E-02
        -0.70443E-02
        -0.70443E-02
        -0.70443E-02
        -0.70443E-02
        -0.70443E-02
        -0.70443E-02
        -0.70443E-02
        -0.70443E-02
        -0.70443E-02
        -0.70443E-02
        -0.70443E-02
        -0.70443E-02
        -0.70443E-02
        -0.70443E-02
        -0.70443E-02
        -0.70443E-02
        -0.70443E-02
        -0.70443E-02
        -0.70443E-02
        -0.70443E-02
        -0.70443E-02
        -0.70443E-02
        -0.70443E-02
        -0.70443E-02
        -0.70443E-02
        -0.70443E-02
        -0.70443E-02
        -0.70443E-02
        -0.70443E-02
        -0.70443E-02
        -0.70443E-02
        -0.70443E-02
        -0.70443E-02
        -0.70443E-02
        -0.70443E-02
        -0.70443E-02
        -0.70443E-02
        -0.70443E-02
        -0.70443E-02
        -0.70443E-02
        -0.70443E-02
        -0.70443E-02
        -0.70443E-02
        -0.70443E-02
        -0.70443E-02
        -0.70443E-02
        -0.70443E-02
        -0.70443E-02
        -0.70443E-02
        -0.70443E-02
        -0.70443E-02
        -0.70443E-02
        -0.70443E-02
        -0.70443E-02
        -0.70443E-02
        -0.70443E-02
        -0.70443E-02
        -0.70443E-02
        -0.70443E-02
        -0.70443E-02
        -0.70443E-02
        -0.70443E-02
        -0.70443E-02
        -0.70443E-02
        -0.70443E-02
        -0.70443E-02
        -0.70443E-02
        -0.70443E-02
        -0.70443E-02
        -0.70443E-02
        -0.70443E-02
        -0.70443E-02
        -0.70443E-02
        -0.70443E-02
        -0.70443E-02
        -0.70443E-02
        -0.70443E-02
        -0.70443E-02
        -0.70443E-02
        -0.70443E-02
        -0.70443E-02
        -0.70443E-02
        -0.70443E-02
        -0.70443E-02
        -0.70443E-02
        -0.70443E-02
        -0.70443E-02
        -0.70443E-02
        -0.70443E-02
        -0.70443E-02
        -0.70443E-02
        -0.70443E-02
        -0.70443E-02
        -0.70443E-02
        -0.70443E-02
        -0.70443E-02
        -0.70443E-02
        -0.70443E-02
        -0.70443E-02
        -0.70443E-02
        -0.70443E-02
        -0.70443E-02
        -0.70443E-02
        -0.70443E-02
        -0.70443E-02
        -0.70443E-02
        -0.70443E-02
        -0.70443E-02
        -0.70443E-02
        -0.70443E-02
        -0.70443E-02
        -0.70443E-02
        -0.70443E-02
        -0.70443E-02
        -0.70443E-02
        -0.70443E-02
        -0.70443E-02
        -0.70443E-02
        -0.70443E-02
        -0.70443E-02
        -0.70443E-02
        -0.70443E-02
        -0.70443E-02
        -0.70443E-02
        -0.70443E-02
        -0.70443E-02
        -0.70443E-02
        -0.70443E-02
        -0.70443E-02
        -0.70443E-02
        -0.70443E-02
        -0.70443E-02
        -0.70443E-02
        -0.70443E-02
        -0.70443E-02
        -0.70443E-02
        -0.70443E-02
        -0.70443E-02
        -0.70443E-02
        -0.70443E-02
        -0.70443E-02
        -0.70443E-02
        -0.70443E-02
        -0.70443E-02
        -0.70443E-02
        -0.70443E-02
        -0.70443E-02
        -0.70443E-02
        -0.70443E-02
        -0.70443E-02
        -0.70443E-02
        -0.70443E-02
        -0.70443E-02
        -0.70443E-02
        -0.70443E-02
        -0.70443E-02
        -0.70443E-02
        -0.70443E-02
        -0.70443E-02
        -0.70443E-02
        -0.70443E-02
        -0.70443E-02
        -0.70443E-02
        -0.70443E-02
        -0.70443E-02
        -0.70443E-02
        -0.70443E-02
        -0.70443E-02
        -0.70443E-02
        -0.70443E-02
        -0.70443E-02
        -0.70443E-02
        -0.70443E-02
        -0.70443E-02
        -0.70443E-02
        -0.70443E-02
        -0.70443E-02
        -0.70443E-02
        -0.70443E-02
        -0.70443E-02
        -0.70443E-02
        -0.70443E-02
        -0.70443E-02
        -0.70443E-02
        -0.70443E-02
        -0.70443E-02
        -0.70443E-02
        -0.70443E-02
        -0.70443E-02
        -0.70443E-02
        -0.70443E-02
        -0.70443E-02
        -0.70443E-02
        -0.70443E-02
        -0.70443E-02
        -0.70443E-02
        -0.70443E-02
        -0.70443E-02
        -0.70443E-02
        -0.70443E-02
        -0.70443E-02
        -0.70443E-02
        -0.70443E-02
        -0.70443E-02
        -0.70443E-02
        -0.70443E-02
        -0.70443E-02
        -0.70443E-02
        -0.70443E-02
        -0.70443E-02
        -0.70443E-02
        -0.70443E-02
        -0.70443E-02
        -0.70443E-02
        -0.70443E-02
        -0.70443E-02
        -0.70443E-02
        -0.70443E-02
        -0.70443E-02
        -0.70443E-02
        -0.70443E-02
        -0.70443E-02
        -0.70443E-02
        -0.70443E-02
        -0.70443E-02
        -0.70443E-02
        -0.70443E-02
        -0.70443E-02
        -0.70443E-02
        -0.70443E-02
        -0.70443E-02
        -0.70443E-02
        -0.70443E-02
        -0.70443E-02
        -0.70443E-02
        -0.70443E-02
        -0.70443E-02
        -0.70443E-02
        -0.70443E-02
        -0.70443E-02
        -0.70443E-02
        -0.70443E-02
        -0.70443E-02
        -0.70443E-02
        -0.70443E-02
        -0.70443E-02
        -0.70443E-02
        -0.70443E-02
        -0.70443E-02
        -0.70443E-02
        -0.70443E-02
        -0.70443E-02
        -0.70443E-02
        -0.70443E-02
        -0.70443E-02
        -0.70443E-02
        -0.70443E-02
        -0.70443E-02
        -0.70443E-02
        -0.70443E-02
        -0.70443E-02
        -0.70443E-02
        -0.70443E-02
        -0.70443E-02
        -0.70443E-02
        -0.70443E-02
        -0.70443E-02
        -0.70443E-02
        -0.70443E-02
        -0.70443E-02
        -0.70443E-02
        -0.70443E-02
        -0.70443E-02
        -0.70443E-02
        -0.70443E-02
        -0.70443E-02
        -0.70443E-02
        -0.70443E-02
        -0.70443E-02
        -0.70443E-02
        -0.70443E-02
        -0.70443E-02
        -0.70443E-02
        -0.70443E-02
        -0.70443E-02
        -0.70443E-02
        -0.70443E-02
        -0.70443E-02
        -0.70443E-02
        -0.70443E-02
        -0.70443E-02
        -0.70443E-02
        -0.70443E-02
        -0.70443E-02
        -0.70443E-02
        -0.70443E-02
        -0.70443E-02
        -0.70443E-02
        -0.70443E-02
        -0.70443E-02
        -0.70443E-02
        -0.70443E-02
        -0.70443E-02
        -0.70443E-02
        -0.70443E-02
        -0.70443E-02
        -0.70443E-02
        -0.70443E-02
        -0.70443E-02
        -0.70443E-02
        -0.70443E-02
        -0.70443E-02
        -0.70443E-02
        -0.70443E-02
        -0.70443E-02
        -0.70443E-02
        -0.70443E-02
        -0.70443E-02
        -0.70443E-02
        -0.70443E-02
        -0.70443E-02
        -0.70443E-02
        -0.70443E-02
        -0.70443E-02
        -0.70443E-02
        -0.70443E-02
        -0.70443E-02
        -0.70443E-02
        -0.70443E-02
        -0.70443E-02
        -0.70443E-02
        -0.70443E-02
        -0.70443E-02
        -0.70443E-02
        -0.70443E-02
        -0.70443E-02
        -0.70443E-02
        -0.70443E-02
        -0.70443E-02
        -0.70443E-02
        -0.70443E-02
        -0.70443E-02
        -0.70443E-02
        -0.70443E-02
        -0.70443E-02
        -0.70443E-02
        -0.70443E-02
        -0.70443E-02
        -0.70443E-02
        -0.70443E-02
        -0.70443E-02
        -0.70443E-02
        -0.70443E-02
        -0.70443E-02
        -0.70443E-02
        -0.70443E-02
        -0.70443E-02
        -0.70443E-02
        -0.70443E-02
        -0.70443E-02
        -0.70443E-02
        -0.70443E-02
        -0.70443E-02
        -0.70443E-02
        -0.70443E-02
        -0.70443E-02
        -0.70443E-02
        -0.70443E-02
        -0.70443E-02
        -0.70443E-02
        -0.70443E-02
        -0.70443E-02
        -0.70443E-02
        -0.70443E-02
        -0.70443E-02
        -0.70443E-02
        -0.70443E-02
        -0.70443E-02
        -0.70443E-02
        -0.70443E-02
        -0.70443E-02
        -0.70443E-02
        -0.70443E-02
        -0.70443E-02
        -0.70443E-02
        -0.70443E-02
        -0.70443E-02
        -0.70443E-02
        -0.70443E-02
        -0.70443E-02
        -0.70443E-02
        -0.70443E-02
        -0.70443E-02
        -0.70443E-02
        -0.70443E-02
        -0.70443E-02
        -0.70443E-02
        -0.70443E-02
        -0.70443E-02
        -0.70443E-02
        -0.70443E-02
        -0.70443E-02
        -0.70443E-02
        -0.70443E-02
        -0.70443E-02
        -0.70443E-02
        -0.70443E-02
        -0.70443E-02
        -0.70443E-02
        -0.70443E-02
        -0.70443E-02
        -0.70443E-02
        -0.70443E-02
        -0.70443E-02
        -0.70443E-02
        -0.70443E-02
        -0.70443E-02
        -0.70443E-02
        -0.70443E-02
        -0.70443E-02
        -0.70443E-02
        -0.70443E-02
        -0.70443E-02
        -0.70443E-02
        -0.70443E-02
        -0.70443E-02
        -0.70443E-02
        -0.70443E-02
        -0.70443E-02
        -0.70443E-02
        -0.70443E-02
        -0.70443E-02
        -0.70443E-02
        -0.70443E-02
        -0.70443E-02
        -0.70443E-02
        -0.70443E-02
        -0.70443E-02
        -0.70443E-02
        -0.70443E-02
        -0.70443E-02
        -0.70443E-02
        -0.70443E-02
        -0.70443E-02
        -0.70443E-02
        -0.70443E-02
        -0.70443E-02
        -0.70443E-02
        -0.70443E-02
        -0.70443E-02
        -0.70443E-02
        -0.70443E-02
        -0.70443E-02
        -0.70443E-02
        -0.70443E-02
        -0.70443E-02
        -0.70443E-02
        -0.70443E-02
        -0.70443E-02
        -0.70443E-02
        -0.70443E-02
        -0.70443E-02
        -0.70443E-02
        -0.70443E-02
        -0.70443E-02
        -0.70443E-02
        -0.70443E-02
        -0.70443E-02
        -0.70443E-02
        -0.70443E-02
        -0.70443E-02
        -0.70443E-02
        -0.70443E-02
        -0.70443E-02
        -0.70443E-02
        -0.70443E-02
        -0.70443E-02
        -0.70443E-02
        -0.70443E-02
        -0.70443E-02
        -0.70443E-02
        -0.70443E-02
        -0.70443E-02
        -0.70443E-02
        -0.70443E-02
        -0.70443E-02
        -0.70443E-02
        -0.70443E-02
        -0.70443E-02
        -0.70443E-02
        -0.70443E-02
        -0.70443E-02
        -0.70443E-02
        -0.70443E-02
        -0.70443E-02
        -0.70443E-02
        -0.70443E-02
        -0.70443E-02
        -0.70443E-02
        -0.70443E-02
        -0.70443E-02
        -0.70443E-02
        -0.70443E-02
        -0.70443E-02
        -0.70443E-02
        -0.70443E-02
        -0.70443E-02
        -0.70443E-02
        -0.70443E-02
        -0.70443E-02
        -0.70443E-02
        -0.70443E-02
        -0.70443E-02
        -0.70443E-02
        -0.70443E-02
        -0.70443E-02
        -0.70443E-02
        -0.70443E-02
        -0.70443E-02
        -0.70443E-02
        -0.70443E-02
        -0.70443E-02
        -0.70443E-02
        -0.70443E-02
        -0.70443E-02
        -0.70443E-02
        -0.70443E-02
        -0.70443E-02
        -0.70443E-02
        -0.70443E-02
        -0.70443E-02
        -0.70443E-02
        -0.70443E-02
        -0.70443E-02
        -0.70443E-02
        -0.70443E-02
        -0.70443E-02
        -0.70443E-02
        -0.70443E-02
        -0.70443E-02
        -0.70443E-02
        -0.70443E-02
        -0.70443E-02
        -0.70443E-02
        -0.70443E-02
        -0.70443E-02
        -0.70443E-02
        -0.70443E-02
        -0.70443E-02
        -0.70443E-02
        -0.70443E-02
        -0.70443E-02
        -0.70443E-02
        -0.70443E-02
        -0.70443E-02
        -0.70443E-02
        -0.70443E-02
        -0.70443E-02
        -0.70443E-02
        -0.70443E-02
        -0.70443E-02
        -0.70443E-02
        -0.70443E-02
        -0.70443E-02
        -0.70443E-02
        -0.70443E-02
        -0.70443E-02
        -0.70443E-02
        -0.70443E-02
        -0.70443E-02
        -0.70443E-02
        -0.70443E-02
        -0.70443E-02
        -0.70443E-02
        -0.70443E-02
        -0.70443E-02
        -0.70443E-02
        -0.70443E-02
        -0.70443E-02
        -0.70443E-02
        -0.70443E-02
        -0.70443E-02
        -0.70443E-02
        -0.70443E-02
        -0.70443E-02
        -0.70443E-02
        -0.70443E-02
        -0.70443E-02
        -0.70443E-02
        -0.70443E-02
        -0.70443E-02
        -0.70443E-02
        -0.70443E-02
        -0.70443E-02
        -0.70443E-02
        -0.70443E-02
        -0.70443E-02
        -0.70443E-02
        -0.70443E-02
        -0.70443E-02
        -0.70443E-02
        -0.70443E-02
        -0.70443E-02
        -0.70443E-02
        -0.70443E-02
        -0.70443E-02
        -0.70443E-02
        -0.70443E-02
        -0.70443E-02
        -0.70443E-02
        -0.70443E-02
        -0.70443E-02
        -0.70443E-02
        -0.70443E-02
        -0.70443E-02
        -0.70443E-02
        -0.70443E-02
        -0.70443E-02
        -0.70443E-02
        -0.70443E-02
        -0.70443E-02
        -0.70443E-02
        -0.70443E-02
        -0.70443E-02
        -0.70443E-02
        -0.70443E-02
        -0.70443E-02
        -0.70443E-02
        -0.70443E-02
        -0.70443E-02
        -0.70443E-02
        -0.70443E-02
        -0.70443E-02
        -0.70443E-02
        -0.70443E-02
        -0.70443E-02
        -0.70443E-02
        -0.70443E-02
        -0.70443E-02
        -0.70443E-02
        -0.70443E-02
        -0.70443E-02
        -0.70443E-02
        -0.70443E-02
        -0.70443E-02
        -0.70443E-02
        -0.70443E-02
        -0.70443E-02
        -0.70443E-02
        -0.70443E-02
        -0.70443E-02
        -0.70443E-02
        -0.70443E-02
        -0.70443E-02
        -0.70443E-02
        -0.70443E-02
        -0.70443E-02
        -0.70443E-02
        -0.70443E-02
        -0.70443E-02
        -0.70443E-02
        -0.70443E-02
        -0.70443E-02
        -0.70443E-02
        -0.70443E-02
        -0.70443E-02
        -0.70443E-02
        -0.70443E-02
        -0.70443E-02
        -0.70443E-02
        -0.70443E-02
        -0.70443E-02
        -0.70443E-02
        -0.70443E-02
        -0.70443E-02
        -0.70443E-02
        -0.70443E-02
        -0.70443E-02
        -0.70443E-02
        -0.70443E-02
        -0.70443E-02
        -0.70443E-02
        -0.70443E-02
        -0.70443E-02
        -0.70443E-02
  
SCALARS                     velocity_x  double 1
LOOKUP_TABLE default
         0.00000E+00
         0.00000E+00
         0.00000E+00
         0.00000E+00
         0.00000E+00
         0.00000E+00
         0.00000E+00
         0.00000E+00
         0.00000E+00
         0.00000E+00
         0.00000E+00
         0.00000E+00
         0.00000E+00
         0.00000E+00
         0.00000E+00
         0.00000E+00
         0.00000E+00
         0.00000E+00
         0.00000E+00
         0.00000E+00
         0.00000E+00
         0.00000E+00
         0.00000E+00
         0.00000E+00
         0.00000E+00
         0.00000E+00
         0.00000E+00
         0.00000E+00
         0.00000E+00
         0.00000E+00
         0.00000E+00
         0.00000E+00
         0.00000E+00
         0.00000E+00
         0.00000E+00
         0.00000E+00
         0.00000E+00
         0.00000E+00
         0.00000E+00
         0.00000E+00
         0.00000E+00
         0.00000E+00
         0.00000E+00
         0.00000E+00
         0.00000E+00
         0.00000E+00
         0.00000E+00
         0.00000E+00
         0.00000E+00
         0.00000E+00
         0.00000E+00
         0.00000E+00
         0.00000E+00
         0.00000E+00
         0.00000E+00
         0.00000E+00
         0.00000E+00
         0.00000E+00
         0.00000E+00
         0.00000E+00
         0.00000E+00
         0.00000E+00
         0.00000E+00
         0.00000E+00
         0.00000E+00
         0.00000E+00
         0.00000E+00
         0.00000E+00
         0.00000E+00
         0.00000E+00
         0.00000E+00
         0.00000E+00
         0.00000E+00
         0.00000E+00
         0.00000E+00
         0.00000E+00
         0.00000E+00
         0.00000E+00
         0.00000E+00
         0.00000E+00
         0.00000E+00
         0.00000E+00
         0.00000E+00
         0.00000E+00
         0.00000E+00
         0.00000E+00
         0.00000E+00
         0.00000E+00
         0.00000E+00
         0.00000E+00
         0.00000E+00
         0.00000E+00
         0.00000E+00
         0.00000E+00
         0.00000E+00
         0.00000E+00
         0.00000E+00
         0.00000E+00
         0.00000E+00
         0.00000E+00
         0.00000E+00
         0.00000E+00
         0.00000E+00
         0.00000E+00
         0.00000E+00
         0.00000E+00
         0.00000E+00
         0.00000E+00
         0.00000E+00
         0.00000E+00
         0.00000E+00
         0.00000E+00
         0.00000E+00
         0.00000E+00
         0.00000E+00
         0.00000E+00
         0.00000E+00
         0.00000E+00
         0.00000E+00
         0.00000E+00
         0.00000E+00
         0.00000E+00
         0.00000E+00
         0.00000E+00
         0.00000E+00
         0.00000E+00
         0.00000E+00
         0.00000E+00
         0.00000E+00
         0.00000E+00
         0.00000E+00
         0.00000E+00
         0.00000E+00
         0.00000E+00
         0.00000E+00
         0.00000E+00
         0.00000E+00
         0.00000E+00
         0.00000E+00
         0.00000E+00
         0.00000E+00
         0.00000E+00
         0.00000E+00
         0.00000E+00
         0.00000E+00
         0.00000E+00
         0.00000E+00
         0.00000E+00
         0.00000E+00
         0.00000E+00
         0.00000E+00
         0.00000E+00
         0.00000E+00
         0.00000E+00
         0.00000E+00
         0.00000E+00
         0.00000E+00
         0.00000E+00
         0.00000E+00
         0.00000E+00
         0.00000E+00
         0.00000E+00
         0.00000E+00
         0.00000E+00
         0.00000E+00
         0.00000E+00
         0.00000E+00
         0.00000E+00
         0.00000E+00
         0.00000E+00
         0.00000E+00
         0.00000E+00
         0.00000E+00
         0.00000E+00
         0.00000E+00
         0.00000E+00
         0.00000E+00
         0.00000E+00
         0.00000E+00
         0.00000E+00
         0.00000E+00
         0.00000E+00
         0.00000E+00
         0.00000E+00
         0.00000E+00
         0.00000E+00
         0.00000E+00
         0.00000E+00
         0.00000E+00
         0.00000E+00
         0.00000E+00
         0.00000E+00
         0.00000E+00
         0.00000E+00
         0.00000E+00
         0.00000E+00
         0.00000E+00
         0.00000E+00
         0.00000E+00
         0.00000E+00
         0.00000E+00
         0.00000E+00
         0.00000E+00
         0.00000E+00
         0.00000E+00
         0.00000E+00
         0.00000E+00
         0.00000E+00
         0.00000E+00
         0.00000E+00
         0.00000E+00
         0.00000E+00
         0.00000E+00
         0.00000E+00
         0.00000E+00
         0.00000E+00
         0.00000E+00
         0.00000E+00
         0.00000E+00
         0.00000E+00
         0.00000E+00
         0.00000E+00
         0.00000E+00
         0.00000E+00
         0.00000E+00
         0.00000E+00
         0.00000E+00
         0.00000E+00
         0.00000E+00
         0.00000E+00
         0.00000E+00
         0.00000E+00
         0.00000E+00
         0.00000E+00
         0.00000E+00
         0.00000E+00
         0.00000E+00
         0.00000E+00
         0.00000E+00
         0.00000E+00
         0.00000E+00
         0.00000E+00
         0.00000E+00
         0.00000E+00
         0.00000E+00
         0.00000E+00
         0.00000E+00
         0.00000E+00
         0.00000E+00
         0.00000E+00
         0.00000E+00
         0.00000E+00
         0.00000E+00
         0.00000E+00
         0.00000E+00
         0.00000E+00
         0.00000E+00
         0.00000E+00
         0.00000E+00
         0.00000E+00
         0.00000E+00
         0.00000E+00
         0.00000E+00
         0.00000E+00
         0.00000E+00
         0.00000E+00
         0.00000E+00
         0.00000E+00
         0.00000E+00
         0.00000E+00
         0.00000E+00
         0.00000E+00
         0.00000E+00
         0.00000E+00
         0.00000E+00
         0.00000E+00
         0.00000E+00
         0.00000E+00
         0.00000E+00
         0.00000E+00
         0.00000E+00
         0.00000E+00
         0.00000E+00
         0.00000E+00
         0.00000E+00
         0.00000E+00
         0.00000E+00
         0.00000E+00
         0.00000E+00
         0.00000E+00
         0.00000E+00
         0.00000E+00
         0.00000E+00
         0.00000E+00
         0.00000E+00
         0.00000E+00
         0.00000E+00
         0.00000E+00
         0.00000E+00
         0.00000E+00
         0.00000E+00
         0.00000E+00
         0.00000E+00
         0.00000E+00
         0.00000E+00
         0.00000E+00
         0.00000E+00
         0.00000E+00
         0.00000E+00
         0.00000E+00
         0.00000E+00
         0.00000E+00
         0.00000E+00
         0.00000E+00
         0.00000E+00
         0.00000E+00
         0.00000E+00
         0.00000E+00
         0.00000E+00
         0.00000E+00
         0.00000E+00
         0.00000E+00
         0.00000E+00
         0.00000E+00
         0.00000E+00
         0.00000E+00
         0.00000E+00
         0.00000E+00
         0.00000E+00
         0.00000E+00
         0.00000E+00
         0.00000E+00
         0.00000E+00
         0.00000E+00
         0.00000E+00
         0.00000E+00
         0.00000E+00
         0.00000E+00
         0.00000E+00
         0.00000E+00
         0.00000E+00
         0.00000E+00
         0.00000E+00
         0.00000E+00
         0.00000E+00
         0.00000E+00
         0.00000E+00
         0.00000E+00
         0.00000E+00
         0.00000E+00
         0.00000E+00
         0.00000E+00
         0.00000E+00
         0.00000E+00
         0.00000E+00
         0.00000E+00
         0.00000E+00
         0.00000E+00
         0.00000E+00
         0.00000E+00
         0.00000E+00
         0.00000E+00
         0.00000E+00
         0.00000E+00
         0.00000E+00
         0.00000E+00
         0.00000E+00
         0.00000E+00
         0.00000E+00
         0.00000E+00
         0.00000E+00
         0.00000E+00
         0.00000E+00
         0.00000E+00
         0.00000E+00
         0.00000E+00
         0.00000E+00
         0.00000E+00
         0.00000E+00
         0.00000E+00
         0.00000E+00
         0.00000E+00
         0.00000E+00
         0.00000E+00
         0.00000E+00
         0.00000E+00
         0.00000E+00
         0.00000E+00
         0.00000E+00
         0.00000E+00
         0.00000E+00
         0.00000E+00
         0.00000E+00
         0.00000E+00
         0.00000E+00
         0.00000E+00
         0.00000E+00
         0.00000E+00
         0.00000E+00
         0.00000E+00
         0.00000E+00
         0.00000E+00
         0.00000E+00
         0.00000E+00
         0.00000E+00
         0.00000E+00
         0.00000E+00
         0.00000E+00
         0.00000E+00
         0.00000E+00
         0.00000E+00
         0.00000E+00
         0.00000E+00
         0.00000E+00
         0.00000E+00
         0.00000E+00
         0.00000E+00
         0.00000E+00
         0.00000E+00
         0.00000E+00
         0.00000E+00
         0.00000E+00
         0.00000E+00
         0.00000E+00
         0.00000E+00
         0.00000E+00
         0.00000E+00
         0.00000E+00
         0.00000E+00
         0.00000E+00
         0.00000E+00
         0.00000E+00
         0.00000E+00
         0.00000E+00
         0.00000E+00
         0.00000E+00
         0.00000E+00
         0.00000E+00
         0.00000E+00
         0.00000E+00
         0.00000E+00
         0.00000E+00
         0.00000E+00
         0.00000E+00
         0.00000E+00
         0.00000E+00
         0.00000E+00
         0.00000E+00
         0.00000E+00
         0.00000E+00
         0.00000E+00
         0.00000E+00
         0.00000E+00
         0.00000E+00
         0.00000E+00
         0.00000E+00
         0.00000E+00
         0.00000E+00
         0.00000E+00
         0.00000E+00
         0.00000E+00
         0.00000E+00
         0.00000E+00
         0.00000E+00
         0.00000E+00
         0.00000E+00
         0.00000E+00
         0.00000E+00
         0.00000E+00
         0.00000E+00
         0.00000E+00
         0.00000E+00
         0.00000E+00
         0.00000E+00
         0.00000E+00
         0.00000E+00
         0.00000E+00
         0.00000E+00
         0.00000E+00
         0.00000E+00
         0.00000E+00
         0.00000E+00
         0.00000E+00
         0.00000E+00
         0.00000E+00
         0.00000E+00
         0.00000E+00
         0.00000E+00
         0.00000E+00
         0.00000E+00
         0.00000E+00
         0.00000E+00
         0.00000E+00
         0.00000E+00
         0.00000E+00
         0.00000E+00
         0.00000E+00
         0.00000E+00
         0.00000E+00
         0.00000E+00
         0.00000E+00
         0.00000E+00
         0.00000E+00
         0.00000E+00
         0.00000E+00
         0.00000E+00
         0.00000E+00
         0.00000E+00
         0.00000E+00
         0.00000E+00
         0.00000E+00
         0.00000E+00
         0.00000E+00
         0.00000E+00
         0.00000E+00
         0.00000E+00
         0.00000E+00
         0.00000E+00
         0.00000E+00
         0.00000E+00
         0.00000E+00
         0.00000E+00
         0.00000E+00
         0.00000E+00
         0.00000E+00
         0.00000E+00
         0.00000E+00
         0.00000E+00
         0.00000E+00
         0.00000E+00
         0.00000E+00
         0.00000E+00
         0.00000E+00
         0.00000E+00
         0.00000E+00
         0.00000E+00
         0.00000E+00
         0.00000E+00
         0.00000E+00
         0.00000E+00
         0.00000E+00
         0.00000E+00
         0.00000E+00
         0.00000E+00
         0.00000E+00
         0.00000E+00
         0.00000E+00
         0.00000E+00
         0.00000E+00
         0.00000E+00
         0.00000E+00
         0.00000E+00
         0.00000E+00
         0.00000E+00
         0.00000E+00
         0.00000E+00
         0.00000E+00
         0.00000E+00
         0.00000E+00
         0.00000E+00
         0.00000E+00
         0.00000E+00
         0.00000E+00
         0.00000E+00
         0.00000E+00
         0.00000E+00
         0.00000E+00
         0.00000E+00
         0.00000E+00
         0.00000E+00
         0.00000E+00
         0.00000E+00
         0.00000E+00
         0.00000E+00
         0.00000E+00
         0.00000E+00
         0.00000E+00
         0.00000E+00
         0.00000E+00
         0.00000E+00
         0.00000E+00
         0.00000E+00
         0.00000E+00
         0.00000E+00
         0.00000E+00
         0.00000E+00
         0.00000E+00
         0.00000E+00
         0.00000E+00
         0.00000E+00
         0.00000E+00
         0.00000E+00
         0.00000E+00
         0.00000E+00
         0.00000E+00
         0.00000E+00
         0.00000E+00
         0.00000E+00
         0.00000E+00
         0.00000E+00
         0.00000E+00
         0.00000E+00
         0.00000E+00
         0.00000E+00
         0.00000E+00
         0.00000E+00
         0.00000E+00
         0.00000E+00
         0.00000E+00
         0.00000E+00
         0.00000E+00
         0.00000E+00
         0.00000E+00
         0.00000E+00
         0.00000E+00
         0.00000E+00
         0.00000E+00
         0.00000E+00
         0.00000E+00
         0.00000E+00
         0.00000E+00
         0.00000E+00
         0.00000E+00
         0.00000E+00
         0.00000E+00
         0.00000E+00
         0.00000E+00
         0.00000E+00
         0.00000E+00
         0.00000E+00
         0.00000E+00
         0.00000E+00
         0.00000E+00
         0.00000E+00
         0.00000E+00
         0.00000E+00
         0.00000E+00
         0.00000E+00
         0.00000E+00
         0.00000E+00
         0.00000E+00
         0.00000E+00
         0.00000E+00
         0.00000E+00
         0.00000E+00
         0.00000E+00
         0.00000E+00
         0.00000E+00
         0.00000E+00
         0.00000E+00
         0.00000E+00
         0.00000E+00
         0.00000E+00
         0.00000E+00
         0.00000E+00
         0.00000E+00
         0.00000E+00
         0.00000E+00
         0.00000E+00
         0.00000E+00
         0.00000E+00
         0.00000E+00
         0.00000E+00
         0.00000E+00
         0.00000E+00
         0.00000E+00
         0.00000E+00
         0.00000E+00
         0.00000E+00
         0.00000E+00
         0.00000E+00
         0.00000E+00
         0.00000E+00
         0.00000E+00
         0.00000E+00
         0.00000E+00
         0.00000E+00
         0.00000E+00
         0.00000E+00
         0.00000E+00
         0.00000E+00
         0.00000E+00
         0.00000E+00
         0.00000E+00
         0.00000E+00
         0.00000E+00
         0.00000E+00
         0.00000E+00
         0.00000E+00
         0.00000E+00
         0.00000E+00
         0.00000E+00
         0.00000E+00
         0.00000E+00
         0.00000E+00
         0.00000E+00
         0.00000E+00
         0.00000E+00
         0.00000E+00
         0.00000E+00
         0.00000E+00
         0.00000E+00
         0.00000E+00
         0.00000E+00
         0.00000E+00
         0.00000E+00
         0.00000E+00
         0.00000E+00
         0.00000E+00
         0.00000E+00
         0.00000E+00
         0.00000E+00
         0.00000E+00
         0.00000E+00
         0.00000E+00
         0.00000E+00
         0.00000E+00
         0.00000E+00
         0.00000E+00
         0.00000E+00
         0.00000E+00
         0.00000E+00
         0.00000E+00
         0.00000E+00
         0.00000E+00
         0.00000E+00
         0.00000E+00
         0.00000E+00
         0.00000E+00
         0.00000E+00
         0.00000E+00
         0.00000E+00
         0.00000E+00
         0.00000E+00
         0.00000E+00
         0.00000E+00
         0.00000E+00
         0.00000E+00
         0.00000E+00
         0.00000E+00
         0.00000E+00
         0.00000E+00
         0.00000E+00
         0.00000E+00
         0.00000E+00
         0.00000E+00
         0.00000E+00
         0.00000E+00
         0.00000E+00
         0.00000E+00
         0.00000E+00
         0.00000E+00
         0.00000E+00
         0.00000E+00
         0.00000E+00
         0.00000E+00
         0.00000E+00
         0.00000E+00
         0.00000E+00
         0.00000E+00
         0.00000E+00
         0.00000E+00
         0.00000E+00
         0.00000E+00
         0.00000E+00
         0.00000E+00
         0.00000E+00
         0.00000E+00
         0.00000E+00
         0.00000E+00
         0.00000E+00
         0.00000E+00
         0.00000E+00
         0.00000E+00
         0.00000E+00
         0.00000E+00
         0.00000E+00
         0.00000E+00
         0.00000E+00
         0.00000E+00
         0.00000E+00
         0.00000E+00
         0.00000E+00
         0.00000E+00
         0.00000E+00
         0.00000E+00
         0.00000E+00
         0.00000E+00
         0.00000E+00
         0.00000E+00
         0.00000E+00
         0.00000E+00
         0.00000E+00
         0.00000E+00
         0.00000E+00
         0.00000E+00
         0.00000E+00
         0.00000E+00
         0.00000E+00
         0.00000E+00
         0.00000E+00
         0.00000E+00
         0.00000E+00
         0.00000E+00
         0.00000E+00
         0.00000E+00
         0.00000E+00
         0.00000E+00
         0.00000E+00
         0.00000E+00
         0.00000E+00
         0.00000E+00
         0.00000E+00
         0.00000E+00
         0.00000E+00
         0.00000E+00
         0.00000E+00
         0.00000E+00
         0.00000E+00
         0.00000E+00
         0.00000E+00
         0.00000E+00
         0.00000E+00
         0.00000E+00
         0.00000E+00
         0.00000E+00
         0.00000E+00
         0.00000E+00
         0.00000E+00
         0.00000E+00
         0.00000E+00
         0.00000E+00
         0.00000E+00
         0.00000E+00
         0.00000E+00
         0.00000E+00
         0.00000E+00
         0.00000E+00
         0.00000E+00
         0.00000E+00
         0.00000E+00
         0.00000E+00
         0.00000E+00
         0.00000E+00
         0.00000E+00
         0.00000E+00
         0.00000E+00
         0.00000E+00
         0.00000E+00
         0.00000E+00
         0.00000E+00
         0.00000E+00
         0.00000E+00
         0.00000E+00
         0.00000E+00
         0.00000E+00
         0.00000E+00
         0.00000E+00
         0.00000E+00
         0.00000E+00
         0.00000E+00
         0.00000E+00
         0.00000E+00
         0.00000E+00
         0.00000E+00
         0.00000E+00
         0.00000E+00
         0.00000E+00
         0.00000E+00
         0.00000E+00
         0.00000E+00
         0.00000E+00
         0.00000E+00
         0.00000E+00
         0.00000E+00
         0.00000E+00
         0.00000E+00
         0.00000E+00
         0.00000E+00
         0.00000E+00
         0.00000E+00
         0.00000E+00
         0.00000E+00
         0.00000E+00
         0.00000E+00
         0.00000E+00
         0.00000E+00
         0.00000E+00
         0.00000E+00
         0.00000E+00
         0.00000E+00
         0.00000E+00
         0.00000E+00
         0.00000E+00
         0.00000E+00
         0.00000E+00
         0.00000E+00
         0.00000E+00
         0.00000E+00
         0.00000E+00
         0.00000E+00
         0.00000E+00
         0.00000E+00
         0.00000E+00
         0.00000E+00
         0.00000E+00
         0.00000E+00
         0.00000E+00
         0.00000E+00
         0.00000E+00
         0.00000E+00
         0.00000E+00
         0.00000E+00
         0.00000E+00
         0.00000E+00
         0.00000E+00
         0.00000E+00
         0.00000E+00
         0.00000E+00
         0.00000E+00
         0.00000E+00
         0.00000E+00
         0.00000E+00
         0.00000E+00
         0.00000E+00
         0.00000E+00
         0.00000E+00
         0.00000E+00
         0.00000E+00
         0.00000E+00
         0.00000E+00
         0.00000E+00
         0.00000E+00
         0.00000E+00
         0.00000E+00
         0.00000E+00
         0.00000E+00
         0.00000E+00
         0.00000E+00
         0.00000E+00
         0.00000E+00
         0.00000E+00
         0.00000E+00
         0.00000E+00
         0.00000E+00
         0.00000E+00
         0.00000E+00
         0.00000E+00
         0.00000E+00
         0.00000E+00
         0.00000E+00
         0.00000E+00
         0.00000E+00
         0.00000E+00
         0.00000E+00
         0.00000E+00
         0.00000E+00
         0.00000E+00
         0.00000E+00
         0.00000E+00
         0.00000E+00
         0.00000E+00
         0.00000E+00
         0.00000E+00
         0.00000E+00
         0.00000E+00
         0.00000E+00
         0.00000E+00
         0.00000E+00
         0.00000E+00
         0.00000E+00
         0.00000E+00
         0.00000E+00
         0.00000E+00
         0.00000E+00
         0.00000E+00
         0.00000E+00
         0.00000E+00
         0.00000E+00
         0.00000E+00
         0.00000E+00
         0.00000E+00
         0.00000E+00
         0.00000E+00
         0.00000E+00
         0.00000E+00
         0.00000E+00
         0.00000E+00
         0.00000E+00
         0.00000E+00
         0.00000E+00
         0.00000E+00
         0.00000E+00
         0.00000E+00
         0.00000E+00
         0.00000E+00
         0.00000E+00
         0.00000E+00
         0.00000E+00
         0.00000E+00
         0.00000E+00
         0.00000E+00
         0.00000E+00
         0.00000E+00
         0.00000E+00
         0.00000E+00
         0.00000E+00
         0.00000E+00
         0.00000E+00
         0.00000E+00
         0.00000E+00
         0.00000E+00
         0.00000E+00
         0.00000E+00
         0.00000E+00
         0.00000E+00
         0.00000E+00
         0.00000E+00
         0.00000E+00
         0.00000E+00
         0.00000E+00
         0.00000E+00
         0.00000E+00
         0.00000E+00
         0.00000E+00
         0.00000E+00
         0.00000E+00
         0.00000E+00
         0.00000E+00
         0.00000E+00
         0.00000E+00
         0.00000E+00
         0.00000E+00
         0.00000E+00
         0.00000E+00
         0.00000E+00
         0.00000E+00
         0.00000E+00
         0.00000E+00
         0.00000E+00
         0.00000E+00
         0.00000E+00
         0.00000E+00
         0.00000E+00
         0.00000E+00
         0.00000E+00
         0.00000E+00
         0.00000E+00
         0.00000E+00
         0.00000E+00
         0.00000E+00
         0.00000E+00
         0.00000E+00
         0.00000E+00
         0.00000E+00
         0.00000E+00
         0.00000E+00
         0.00000E+00
         0.00000E+00
         0.00000E+00
         0.00000E+00
         0.00000E+00
         0.00000E+00
         0.00000E+00
         0.00000E+00
         0.00000E+00
         0.00000E+00
         0.00000E+00
         0.00000E+00
         0.00000E+00
         0.00000E+00
         0.00000E+00
         0.00000E+00
         0.00000E+00
         0.00000E+00
         0.00000E+00
         0.00000E+00
         0.00000E+00
         0.00000E+00
         0.00000E+00
         0.00000E+00
         0.00000E+00
         0.00000E+00
         0.00000E+00
         0.00000E+00
         0.00000E+00
         0.00000E+00
         0.00000E+00
         0.00000E+00
         0.00000E+00
         0.00000E+00
         0.00000E+00
         0.00000E+00
         0.00000E+00
         0.00000E+00
         0.00000E+00
         0.00000E+00
         0.00000E+00
         0.00000E+00
         0.00000E+00
         0.00000E+00
         0.00000E+00
         0.00000E+00
         0.00000E+00
         0.00000E+00
         0.00000E+00
         0.00000E+00
         0.00000E+00
         0.00000E+00
         0.00000E+00
         0.00000E+00
         0.00000E+00
         0.00000E+00
         0.00000E+00
         0.00000E+00
         0.00000E+00
         0.00000E+00
         0.00000E+00
         0.00000E+00
         0.00000E+00
         0.00000E+00
         0.00000E+00
         0.00000E+00
         0.00000E+00
         0.00000E+00
         0.00000E+00
         0.00000E+00
         0.00000E+00
         0.00000E+00
         0.00000E+00
         0.00000E+00
         0.00000E+00
         0.00000E+00
         0.00000E+00
         0.00000E+00
         0.00000E+00
         0.00000E+00
         0.00000E+00
         0.00000E+00
         0.00000E+00
         0.00000E+00
         0.00000E+00
         0.00000E+00
         0.00000E+00
         0.00000E+00
         0.00000E+00
         0.00000E+00
         0.00000E+00
         0.00000E+00
         0.00000E+00
         0.00000E+00
         0.00000E+00
         0.00000E+00
         0.00000E+00
         0.00000E+00
         0.00000E+00
         0.00000E+00
         0.00000E+00
         0.00000E+00
         0.00000E+00
         0.00000E+00
         0.00000E+00
         0.00000E+00
         0.00000E+00
         0.00000E+00
         0.00000E+00
         0.00000E+00
         0.00000E+00
         0.00000E+00
         0.00000E+00
         0.00000E+00
         0.00000E+00
         0.00000E+00
         0.00000E+00
         0.00000E+00
         0.00000E+00
         0.00000E+00
         0.00000E+00
         0.00000E+00
         0.00000E+00
         0.00000E+00
         0.00000E+00
         0.00000E+00
         0.00000E+00
         0.00000E+00
         0.00000E+00
         0.00000E+00
         0.00000E+00
         0.00000E+00
         0.00000E+00
         0.00000E+00
         0.00000E+00
         0.00000E+00
         0.00000E+00
         0.00000E+00
         0.00000E+00
         0.00000E+00
         0.00000E+00
         0.00000E+00
         0.00000E+00
         0.00000E+00
         0.00000E+00
         0.00000E+00
         0.00000E+00
         0.00000E+00
         0.00000E+00
         0.00000E+00
         0.00000E+00
         0.00000E+00
         0.00000E+00
         0.00000E+00
         0.00000E+00
         0.00000E+00
         0.00000E+00
         0.00000E+00
         0.00000E+00
         0.00000E+00
         0.00000E+00
         0.00000E+00
         0.00000E+00
         0.00000E+00
         0.00000E+00
         0.00000E+00
         0.00000E+00
         0.00000E+00
         0.00000E+00
         0.00000E+00
         0.00000E+00
         0.00000E+00
         0.00000E+00
         0.00000E+00
         0.00000E+00
         0.00000E+00
         0.00000E+00
         0.00000E+00
         0.00000E+00
         0.00000E+00
         0.00000E+00
         0.00000E+00
         0.00000E+00
         0.00000E+00
         0.00000E+00
         0.00000E+00
         0.00000E+00
         0.00000E+00
         0.00000E+00
         0.00000E+00
         0.00000E+00
         0.00000E+00
         0.00000E+00
         0.00000E+00
         0.00000E+00
         0.00000E+00
         0.00000E+00
         0.00000E+00
         0.00000E+00
         0.00000E+00
         0.00000E+00
         0.00000E+00
         0.00000E+00
         0.00000E+00
         0.00000E+00
         0.00000E+00
         0.00000E+00
         0.00000E+00
         0.00000E+00
         0.00000E+00
         0.00000E+00
         0.00000E+00
         0.00000E+00
         0.00000E+00
         0.00000E+00
         0.00000E+00
         0.00000E+00
         0.00000E+00
         0.00000E+00
         0.00000E+00
         0.00000E+00
         0.00000E+00
         0.00000E+00
         0.00000E+00
         0.00000E+00
         0.00000E+00
         0.00000E+00
         0.00000E+00
         0.00000E+00
         0.00000E+00
         0.00000E+00
         0.00000E+00
         0.00000E+00
         0.00000E+00
         0.00000E+00
         0.00000E+00
         0.00000E+00
         0.00000E+00
         0.00000E+00
         0.00000E+00
         0.00000E+00
         0.00000E+00
         0.00000E+00
         0.00000E+00
         0.00000E+00
         0.00000E+00
         0.00000E+00
         0.00000E+00
         0.00000E+00
         0.00000E+00
         0.00000E+00
         0.00000E+00
         0.00000E+00
         0.00000E+00
         0.00000E+00
         0.00000E+00
         0.00000E+00
         0.00000E+00
         0.00000E+00
         0.00000E+00
         0.00000E+00
         0.00000E+00
         0.00000E+00
         0.00000E+00
         0.00000E+00
         0.00000E+00
         0.00000E+00
         0.00000E+00
         0.00000E+00
         0.00000E+00
         0.00000E+00
         0.00000E+00
         0.00000E+00
         0.00000E+00
         0.00000E+00
         0.00000E+00
         0.00000E+00
         0.00000E+00
         0.00000E+00
         0.00000E+00
         0.00000E+00
         0.00000E+00
         0.00000E+00
         0.00000E+00
         0.00000E+00
         0.00000E+00
         0.00000E+00
         0.00000E+00
         0.00000E+00
         0.00000E+00
         0.00000E+00
         0.00000E+00
         0.00000E+00
         0.00000E+00
         0.00000E+00
         0.00000E+00
         0.00000E+00
         0.00000E+00
         0.00000E+00
         0.00000E+00
         0.00000E+00
         0.00000E+00
         0.00000E+00
         0.00000E+00
         0.00000E+00
         0.00000E+00
         0.00000E+00
         0.00000E+00
         0.00000E+00
         0.00000E+00
         0.00000E+00
         0.00000E+00
         0.00000E+00
         0.00000E+00
         0.00000E+00
         0.00000E+00
         0.00000E+00
         0.00000E+00
         0.00000E+00
         0.00000E+00
         0.00000E+00
         0.00000E+00
         0.00000E+00
         0.00000E+00
         0.00000E+00
         0.00000E+00
         0.00000E+00
         0.00000E+00
         0.00000E+00
         0.00000E+00
         0.00000E+00
         0.00000E+00
         0.00000E+00
         0.00000E+00
         0.00000E+00
         0.00000E+00
         0.00000E+00
         0.00000E+00
         0.00000E+00
         0.00000E+00
         0.00000E+00
         0.00000E+00
         0.00000E+00
         0.00000E+00
         0.00000E+00
         0.00000E+00
         0.00000E+00
         0.00000E+00
         0.00000E+00
         0.00000E+00
         0.00000E+00
         0.00000E+00
         0.00000E+00
         0.00000E+00
         0.00000E+00
         0.00000E+00
         0.00000E+00
         0.00000E+00
         0.00000E+00
         0.00000E+00
         0.00000E+00
         0.00000E+00
         0.00000E+00
         0.00000E+00
         0.00000E+00
         0.00000E+00
         0.00000E+00
         0.00000E+00
         0.00000E+00
         0.00000E+00
         0.00000E+00
         0.00000E+00
         0.00000E+00
         0.00000E+00
         0.00000E+00
         0.00000E+00
         0.00000E+00
         0.00000E+00
         0.00000E+00
         0.00000E+00
         0.00000E+00
         0.00000E+00
         0.00000E+00
         0.00000E+00
         0.00000E+00
         0.00000E+00
         0.00000E+00
         0.00000E+00
         0.00000E+00
         0.00000E+00
         0.00000E+00
         0.00000E+00
         0.00000E+00
         0.00000E+00
         0.00000E+00
         0.00000E+00
         0.00000E+00
         0.00000E+00
         0.00000E+00
         0.00000E+00
         0.00000E+00
         0.00000E+00
         0.00000E+00
         0.00000E+00
         0.00000E+00
         0.00000E+00
         0.00000E+00
         0.00000E+00
         0.00000E+00
         0.00000E+00
         0.00000E+00
         0.00000E+00
         0.00000E+00
         0.00000E+00
         0.00000E+00
         0.00000E+00
         0.00000E+00
         0.00000E+00
         0.00000E+00
         0.00000E+00
         0.00000E+00
         0.00000E+00
         0.00000E+00
         0.00000E+00
         0.00000E+00
         0.00000E+00
         0.00000E+00
         0.00000E+00
         0.00000E+00
         0.00000E+00
         0.00000E+00
         0.00000E+00
         0.00000E+00
         0.00000E+00
         0.00000E+00
         0.00000E+00
         0.00000E+00
         0.00000E+00
         0.00000E+00
         0.00000E+00
         0.00000E+00
         0.00000E+00
         0.00000E+00
         0.00000E+00
         0.00000E+00
         0.00000E+00
         0.00000E+00
         0.00000E+00
         0.00000E+00
         0.00000E+00
         0.00000E+00
         0.00000E+00
         0.00000E+00
         0.00000E+00
         0.00000E+00
         0.00000E+00
         0.00000E+00
         0.00000E+00
         0.00000E+00
         0.00000E+00
         0.00000E+00
         0.00000E+00
         0.00000E+00
         0.00000E+00
         0.00000E+00
         0.00000E+00
         0.00000E+00
         0.00000E+00
         0.00000E+00
         0.00000E+00
         0.00000E+00
         0.00000E+00
         0.00000E+00
         0.00000E+00
         0.00000E+00
         0.00000E+00
         0.00000E+00
         0.00000E+00
         0.00000E+00
         0.00000E+00
         0.00000E+00
         0.00000E+00
         0.00000E+00
         0.00000E+00
         0.00000E+00
         0.00000E+00
         0.00000E+00
         0.00000E+00
         0.00000E+00
         0.00000E+00
         0.00000E+00
         0.00000E+00
         0.00000E+00
         0.00000E+00
         0.00000E+00
         0.00000E+00
         0.00000E+00
         0.00000E+00
         0.00000E+00
         0.00000E+00
         0.00000E+00
         0.00000E+00
         0.00000E+00
         0.00000E+00
         0.00000E+00
         0.00000E+00
         0.00000E+00
         0.00000E+00
         0.00000E+00
         0.00000E+00
         0.00000E+00
         0.00000E+00
         0.00000E+00
         0.00000E+00
         0.00000E+00
         0.00000E+00
         0.00000E+00
         0.00000E+00
         0.00000E+00
         0.00000E+00
         0.00000E+00
         0.00000E+00
         0.00000E+00
         0.00000E+00
         0.00000E+00
         0.00000E+00
         0.00000E+00
         0.00000E+00
         0.00000E+00
         0.00000E+00
         0.00000E+00
         0.00000E+00
         0.00000E+00
         0.00000E+00
         0.00000E+00
         0.00000E+00
         0.00000E+00
         0.00000E+00
         0.00000E+00
         0.00000E+00
         0.00000E+00
         0.00000E+00
         0.00000E+00
         0.00000E+00
         0.00000E+00
         0.00000E+00
         0.00000E+00
         0.00000E+00
         0.00000E+00
         0.00000E+00
         0.00000E+00
         0.00000E+00
         0.00000E+00
         0.00000E+00
         0.00000E+00
         0.00000E+00
         0.00000E+00
         0.00000E+00
         0.00000E+00
         0.00000E+00
         0.00000E+00
         0.00000E+00
         0.00000E+00
         0.00000E+00
         0.00000E+00
         0.00000E+00
         0.00000E+00
         0.00000E+00
         0.00000E+00
         0.00000E+00
         0.00000E+00
         0.00000E+00
         0.00000E+00
         0.00000E+00
         0.00000E+00
         0.00000E+00
         0.00000E+00
         0.00000E+00
         0.00000E+00
         0.00000E+00
         0.00000E+00
         0.00000E+00
         0.00000E+00
         0.00000E+00
         0.00000E+00
         0.00000E+00
         0.00000E+00
         0.00000E+00
         0.00000E+00
         0.00000E+00
         0.00000E+00
         0.00000E+00
         0.00000E+00
         0.00000E+00
         0.00000E+00
         0.00000E+00
         0.00000E+00
         0.00000E+00
         0.00000E+00
         0.00000E+00
         0.00000E+00
         0.00000E+00
         0.00000E+00
         0.00000E+00
         0.00000E+00
         0.00000E+00
         0.00000E+00
         0.00000E+00
         0.00000E+00
         0.00000E+00
         0.00000E+00
         0.00000E+00
         0.00000E+00
         0.00000E+00
         0.00000E+00
         0.00000E+00
         0.00000E+00
         0.00000E+00
         0.00000E+00
         0.00000E+00
         0.00000E+00
         0.00000E+00
         0.00000E+00
         0.00000E+00
         0.00000E+00
         0.00000E+00
         0.00000E+00
         0.00000E+00
         0.00000E+00
         0.00000E+00
         0.00000E+00
         0.00000E+00
         0.00000E+00
         0.00000E+00
         0.00000E+00
         0.00000E+00
         0.00000E+00
         0.00000E+00
         0.00000E+00
         0.00000E+00
         0.00000E+00
         0.00000E+00
         0.00000E+00
         0.00000E+00
         0.00000E+00
         0.00000E+00
         0.00000E+00
         0.00000E+00
         0.00000E+00
         0.00000E+00
         0.00000E+00
         0.00000E+00
         0.00000E+00
         0.00000E+00
         0.00000E+00
         0.00000E+00
         0.00000E+00
         0.00000E+00
         0.00000E+00
         0.00000E+00
         0.00000E+00
         0.00000E+00
         0.00000E+00
         0.00000E+00
         0.00000E+00
         0.00000E+00
         0.00000E+00
         0.00000E+00
         0.00000E+00
         0.00000E+00
         0.00000E+00
         0.00000E+00
         0.00000E+00
         0.00000E+00
         0.00000E+00
         0.00000E+00
         0.00000E+00
         0.00000E+00
         0.00000E+00
         0.00000E+00
         0.00000E+00
         0.00000E+00
         0.00000E+00
         0.00000E+00
         0.00000E+00
         0.00000E+00
         0.00000E+00
         0.00000E+00
         0.00000E+00
         0.00000E+00
         0.00000E+00
         0.00000E+00
         0.00000E+00
         0.00000E+00
         0.00000E+00
         0.00000E+00
         0.00000E+00
         0.00000E+00
         0.00000E+00
         0.00000E+00
         0.00000E+00
         0.00000E+00
         0.00000E+00
         0.00000E+00
         0.00000E+00
         0.00000E+00
         0.00000E+00
         0.00000E+00
         0.00000E+00
         0.00000E+00
         0.00000E+00
         0.00000E+00
         0.00000E+00
         0.00000E+00
         0.00000E+00
         0.00000E+00
         0.00000E+00
         0.00000E+00
         0.00000E+00
         0.00000E+00
         0.00000E+00
         0.00000E+00
         0.00000E+00
         0.00000E+00
         0.00000E+00
         0.00000E+00
         0.00000E+00
         0.00000E+00
         0.00000E+00
         0.00000E+00
         0.00000E+00
         0.00000E+00
         0.00000E+00
         0.00000E+00
         0.00000E+00
         0.00000E+00
         0.00000E+00
         0.00000E+00
         0.00000E+00
         0.00000E+00
         0.00000E+00
         0.00000E+00
         0.00000E+00
         0.00000E+00
         0.00000E+00
         0.00000E+00
         0.00000E+00
         0.00000E+00
         0.00000E+00
         0.00000E+00
         0.00000E+00
         0.00000E+00
         0.00000E+00
         0.00000E+00
         0.00000E+00
         0.00000E+00
         0.00000E+00
         0.00000E+00
         0.00000E+00
         0.00000E+00
         0.00000E+00
         0.00000E+00
         0.00000E+00
         0.00000E+00
         0.00000E+00
         0.00000E+00
         0.00000E+00
         0.00000E+00
         0.00000E+00
         0.00000E+00
         0.00000E+00
         0.00000E+00
         0.00000E+00
         0.00000E+00
         0.00000E+00
         0.00000E+00
         0.00000E+00
         0.00000E+00
         0.00000E+00
         0.00000E+00
         0.00000E+00
         0.00000E+00
         0.00000E+00
         0.00000E+00
         0.00000E+00
         0.00000E+00
         0.00000E+00
         0.00000E+00
         0.00000E+00
         0.00000E+00
         0.00000E+00
         0.00000E+00
         0.00000E+00
         0.00000E+00
         0.00000E+00
         0.00000E+00
         0.00000E+00
         0.00000E+00
         0.00000E+00
         0.00000E+00
         0.00000E+00
         0.00000E+00
         0.00000E+00
         0.00000E+00
         0.00000E+00
         0.00000E+00
         0.00000E+00
         0.00000E+00
         0.00000E+00
         0.00000E+00
         0.00000E+00
         0.00000E+00
         0.00000E+00
         0.00000E+00
         0.00000E+00
         0.00000E+00
         0.00000E+00
         0.00000E+00
         0.00000E+00
         0.00000E+00
         0.00000E+00
         0.00000E+00
         0.00000E+00
         0.00000E+00
         0.00000E+00
         0.00000E+00
         0.00000E+00
         0.00000E+00
         0.00000E+00
         0.00000E+00
         0.00000E+00
         0.00000E+00
         0.00000E+00
         0.00000E+00
         0.00000E+00
         0.00000E+00
         0.00000E+00
         0.00000E+00
         0.00000E+00
         0.00000E+00
         0.00000E+00
         0.00000E+00
         0.00000E+00
         0.00000E+00
         0.00000E+00
         0.00000E+00
         0.00000E+00
         0.00000E+00
         0.00000E+00
         0.00000E+00
         0.00000E+00
         0.00000E+00
         0.00000E+00
         0.00000E+00
         0.00000E+00
         0.00000E+00
         0.00000E+00
         0.00000E+00
         0.00000E+00
         0.00000E+00
         0.00000E+00
         0.00000E+00
         0.00000E+00
         0.00000E+00
         0.00000E+00
         0.00000E+00
         0.00000E+00
         0.00000E+00
         0.00000E+00
         0.00000E+00
         0.00000E+00
         0.00000E+00
         0.00000E+00
         0.00000E+00
         0.00000E+00
         0.00000E+00
         0.00000E+00
         0.00000E+00
         0.00000E+00
         0.00000E+00
         0.00000E+00
         0.00000E+00
         0.00000E+00
         0.00000E+00
         0.00000E+00
         0.00000E+00
         0.00000E+00
         0.00000E+00
         0.00000E+00
         0.00000E+00
         0.00000E+00
         0.00000E+00
         0.00000E+00
  
SCALARS                     velocity_y  double 1
LOOKUP_TABLE default
         0.00000E+00
         0.00000E+00
         0.00000E+00
         0.00000E+00
         0.00000E+00
         0.00000E+00
         0.00000E+00
         0.00000E+00
         0.00000E+00
         0.00000E+00
         0.00000E+00
         0.00000E+00
         0.00000E+00
         0.00000E+00
         0.00000E+00
         0.00000E+00
         0.00000E+00
         0.00000E+00
         0.00000E+00
         0.00000E+00
         0.00000E+00
         0.00000E+00
         0.00000E+00
         0.00000E+00
         0.00000E+00
         0.00000E+00
         0.00000E+00
         0.00000E+00
         0.00000E+00
         0.00000E+00
         0.00000E+00
         0.00000E+00
         0.00000E+00
         0.00000E+00
         0.00000E+00
         0.00000E+00
         0.00000E+00
         0.00000E+00
         0.00000E+00
         0.00000E+00
         0.00000E+00
         0.00000E+00
         0.00000E+00
         0.00000E+00
         0.00000E+00
         0.00000E+00
         0.00000E+00
         0.00000E+00
         0.00000E+00
         0.00000E+00
         0.00000E+00
         0.00000E+00
         0.00000E+00
         0.00000E+00
         0.00000E+00
         0.00000E+00
         0.00000E+00
         0.00000E+00
         0.00000E+00
         0.00000E+00
         0.00000E+00
         0.00000E+00
         0.00000E+00
         0.00000E+00
         0.00000E+00
         0.00000E+00
         0.00000E+00
         0.00000E+00
         0.00000E+00
         0.00000E+00
         0.00000E+00
         0.00000E+00
         0.00000E+00
         0.00000E+00
         0.00000E+00
         0.00000E+00
         0.00000E+00
         0.00000E+00
         0.00000E+00
         0.00000E+00
         0.00000E+00
         0.00000E+00
         0.00000E+00
         0.00000E+00
         0.00000E+00
         0.00000E+00
         0.00000E+00
         0.00000E+00
         0.00000E+00
         0.00000E+00
         0.00000E+00
         0.00000E+00
         0.00000E+00
         0.00000E+00
         0.00000E+00
         0.00000E+00
         0.00000E+00
         0.00000E+00
         0.00000E+00
         0.00000E+00
         0.00000E+00
         0.00000E+00
         0.00000E+00
         0.00000E+00
         0.00000E+00
         0.00000E+00
         0.00000E+00
         0.00000E+00
         0.00000E+00
         0.00000E+00
         0.00000E+00
         0.00000E+00
         0.00000E+00
         0.00000E+00
         0.00000E+00
         0.00000E+00
         0.00000E+00
         0.00000E+00
         0.00000E+00
         0.00000E+00
         0.00000E+00
         0.00000E+00
         0.00000E+00
         0.00000E+00
         0.00000E+00
         0.00000E+00
         0.00000E+00
         0.00000E+00
         0.00000E+00
         0.00000E+00
         0.00000E+00
         0.00000E+00
         0.00000E+00
         0.00000E+00
         0.00000E+00
         0.00000E+00
         0.00000E+00
         0.00000E+00
         0.00000E+00
         0.00000E+00
         0.00000E+00
         0.00000E+00
         0.00000E+00
         0.00000E+00
         0.00000E+00
         0.00000E+00
         0.00000E+00
         0.00000E+00
         0.00000E+00
         0.00000E+00
         0.00000E+00
         0.00000E+00
         0.00000E+00
         0.00000E+00
         0.00000E+00
         0.00000E+00
         0.00000E+00
         0.00000E+00
         0.00000E+00
         0.00000E+00
         0.00000E+00
         0.00000E+00
         0.00000E+00
         0.00000E+00
         0.00000E+00
         0.00000E+00
         0.00000E+00
         0.00000E+00
         0.00000E+00
         0.00000E+00
         0.00000E+00
         0.00000E+00
         0.00000E+00
         0.00000E+00
         0.00000E+00
         0.00000E+00
         0.00000E+00
         0.00000E+00
         0.00000E+00
         0.00000E+00
         0.00000E+00
         0.00000E+00
         0.00000E+00
         0.00000E+00
         0.00000E+00
         0.00000E+00
         0.00000E+00
         0.00000E+00
         0.00000E+00
         0.00000E+00
         0.00000E+00
         0.00000E+00
         0.00000E+00
         0.00000E+00
         0.00000E+00
         0.00000E+00
         0.00000E+00
         0.00000E+00
         0.00000E+00
         0.00000E+00
         0.00000E+00
         0.00000E+00
         0.00000E+00
         0.00000E+00
         0.00000E+00
         0.00000E+00
         0.00000E+00
         0.00000E+00
         0.00000E+00
         0.00000E+00
         0.00000E+00
         0.00000E+00
         0.00000E+00
         0.00000E+00
         0.00000E+00
         0.00000E+00
         0.00000E+00
         0.00000E+00
         0.00000E+00
         0.00000E+00
         0.00000E+00
         0.00000E+00
         0.00000E+00
         0.00000E+00
         0.00000E+00
         0.00000E+00
         0.00000E+00
         0.00000E+00
         0.00000E+00
         0.00000E+00
         0.00000E+00
         0.00000E+00
         0.00000E+00
         0.00000E+00
         0.00000E+00
         0.00000E+00
         0.00000E+00
         0.00000E+00
         0.00000E+00
         0.00000E+00
         0.00000E+00
         0.00000E+00
         0.00000E+00
         0.00000E+00
         0.00000E+00
         0.00000E+00
         0.00000E+00
         0.00000E+00
         0.00000E+00
         0.00000E+00
         0.00000E+00
         0.00000E+00
         0.00000E+00
         0.00000E+00
         0.00000E+00
         0.00000E+00
         0.00000E+00
         0.00000E+00
         0.00000E+00
         0.00000E+00
         0.00000E+00
         0.00000E+00
         0.00000E+00
         0.00000E+00
         0.00000E+00
         0.00000E+00
         0.00000E+00
         0.00000E+00
         0.00000E+00
         0.00000E+00
         0.00000E+00
         0.00000E+00
         0.00000E+00
         0.00000E+00
         0.00000E+00
         0.00000E+00
         0.00000E+00
         0.00000E+00
         0.00000E+00
         0.00000E+00
         0.00000E+00
         0.00000E+00
         0.00000E+00
         0.00000E+00
         0.00000E+00
         0.00000E+00
         0.00000E+00
         0.00000E+00
         0.00000E+00
         0.00000E+00
         0.00000E+00
         0.00000E+00
         0.00000E+00
         0.00000E+00
         0.00000E+00
         0.00000E+00
         0.00000E+00
         0.00000E+00
         0.00000E+00
         0.00000E+00
         0.00000E+00
         0.00000E+00
         0.00000E+00
         0.00000E+00
         0.00000E+00
         0.00000E+00
         0.00000E+00
         0.00000E+00
         0.00000E+00
         0.00000E+00
         0.00000E+00
         0.00000E+00
         0.00000E+00
         0.00000E+00
         0.00000E+00
         0.00000E+00
         0.00000E+00
         0.00000E+00
         0.00000E+00
         0.00000E+00
         0.00000E+00
         0.00000E+00
         0.00000E+00
         0.00000E+00
         0.00000E+00
         0.00000E+00
         0.00000E+00
         0.00000E+00
         0.00000E+00
         0.00000E+00
         0.00000E+00
         0.00000E+00
         0.00000E+00
         0.00000E+00
         0.00000E+00
         0.00000E+00
         0.00000E+00
         0.00000E+00
         0.00000E+00
         0.00000E+00
         0.00000E+00
         0.00000E+00
         0.00000E+00
         0.00000E+00
         0.00000E+00
         0.00000E+00
         0.00000E+00
         0.00000E+00
         0.00000E+00
         0.00000E+00
         0.00000E+00
         0.00000E+00
         0.00000E+00
         0.00000E+00
         0.00000E+00
         0.00000E+00
         0.00000E+00
         0.00000E+00
         0.00000E+00
         0.00000E+00
         0.00000E+00
         0.00000E+00
         0.00000E+00
         0.00000E+00
         0.00000E+00
         0.00000E+00
         0.00000E+00
         0.00000E+00
         0.00000E+00
         0.00000E+00
         0.00000E+00
         0.00000E+00
         0.00000E+00
         0.00000E+00
         0.00000E+00
         0.00000E+00
         0.00000E+00
         0.00000E+00
         0.00000E+00
         0.00000E+00
         0.00000E+00
         0.00000E+00
         0.00000E+00
         0.00000E+00
         0.00000E+00
         0.00000E+00
         0.00000E+00
         0.00000E+00
         0.00000E+00
         0.00000E+00
         0.00000E+00
         0.00000E+00
         0.00000E+00
         0.00000E+00
         0.00000E+00
         0.00000E+00
         0.00000E+00
         0.00000E+00
         0.00000E+00
         0.00000E+00
         0.00000E+00
         0.00000E+00
         0.00000E+00
         0.00000E+00
         0.00000E+00
         0.00000E+00
         0.00000E+00
         0.00000E+00
         0.00000E+00
         0.00000E+00
         0.00000E+00
         0.00000E+00
         0.00000E+00
         0.00000E+00
         0.00000E+00
         0.00000E+00
         0.00000E+00
         0.00000E+00
         0.00000E+00
         0.00000E+00
         0.00000E+00
         0.00000E+00
         0.00000E+00
         0.00000E+00
         0.00000E+00
         0.00000E+00
         0.00000E+00
         0.00000E+00
         0.00000E+00
         0.00000E+00
         0.00000E+00
         0.00000E+00
         0.00000E+00
         0.00000E+00
         0.00000E+00
         0.00000E+00
         0.00000E+00
         0.00000E+00
         0.00000E+00
         0.00000E+00
         0.00000E+00
         0.00000E+00
         0.00000E+00
         0.00000E+00
         0.00000E+00
         0.00000E+00
         0.00000E+00
         0.00000E+00
         0.00000E+00
         0.00000E+00
         0.00000E+00
         0.00000E+00
         0.00000E+00
         0.00000E+00
         0.00000E+00
         0.00000E+00
         0.00000E+00
         0.00000E+00
         0.00000E+00
         0.00000E+00
         0.00000E+00
         0.00000E+00
         0.00000E+00
         0.00000E+00
         0.00000E+00
         0.00000E+00
         0.00000E+00
         0.00000E+00
         0.00000E+00
         0.00000E+00
         0.00000E+00
         0.00000E+00
         0.00000E+00
         0.00000E+00
         0.00000E+00
         0.00000E+00
         0.00000E+00
         0.00000E+00
         0.00000E+00
         0.00000E+00
         0.00000E+00
         0.00000E+00
         0.00000E+00
         0.00000E+00
         0.00000E+00
         0.00000E+00
         0.00000E+00
         0.00000E+00
         0.00000E+00
         0.00000E+00
         0.00000E+00
         0.00000E+00
         0.00000E+00
         0.00000E+00
         0.00000E+00
         0.00000E+00
         0.00000E+00
         0.00000E+00
         0.00000E+00
         0.00000E+00
         0.00000E+00
         0.00000E+00
         0.00000E+00
         0.00000E+00
         0.00000E+00
         0.00000E+00
         0.00000E+00
         0.00000E+00
         0.00000E+00
         0.00000E+00
         0.00000E+00
         0.00000E+00
         0.00000E+00
         0.00000E+00
         0.00000E+00
         0.00000E+00
         0.00000E+00
         0.00000E+00
         0.00000E+00
         0.00000E+00
         0.00000E+00
         0.00000E+00
         0.00000E+00
         0.00000E+00
         0.00000E+00
         0.00000E+00
         0.00000E+00
         0.00000E+00
         0.00000E+00
         0.00000E+00
         0.00000E+00
         0.00000E+00
         0.00000E+00
         0.00000E+00
         0.00000E+00
         0.00000E+00
         0.00000E+00
         0.00000E+00
         0.00000E+00
         0.00000E+00
         0.00000E+00
         0.00000E+00
         0.00000E+00
         0.00000E+00
         0.00000E+00
         0.00000E+00
         0.00000E+00
         0.00000E+00
         0.00000E+00
         0.00000E+00
         0.00000E+00
         0.00000E+00
         0.00000E+00
         0.00000E+00
         0.00000E+00
         0.00000E+00
         0.00000E+00
         0.00000E+00
         0.00000E+00
         0.00000E+00
         0.00000E+00
         0.00000E+00
         0.00000E+00
         0.00000E+00
         0.00000E+00
         0.00000E+00
         0.00000E+00
         0.00000E+00
         0.00000E+00
         0.00000E+00
         0.00000E+00
         0.00000E+00
         0.00000E+00
         0.00000E+00
         0.00000E+00
         0.00000E+00
         0.00000E+00
         0.00000E+00
         0.00000E+00
         0.00000E+00
         0.00000E+00
         0.00000E+00
         0.00000E+00
         0.00000E+00
         0.00000E+00
         0.00000E+00
         0.00000E+00
         0.00000E+00
         0.00000E+00
         0.00000E+00
         0.00000E+00
         0.00000E+00
         0.00000E+00
         0.00000E+00
         0.00000E+00
         0.00000E+00
         0.00000E+00
         0.00000E+00
         0.00000E+00
         0.00000E+00
         0.00000E+00
         0.00000E+00
         0.00000E+00
         0.00000E+00
         0.00000E+00
         0.00000E+00
         0.00000E+00
         0.00000E+00
         0.00000E+00
         0.00000E+00
         0.00000E+00
         0.00000E+00
         0.00000E+00
         0.00000E+00
         0.00000E+00
         0.00000E+00
         0.00000E+00
         0.00000E+00
         0.00000E+00
         0.00000E+00
         0.00000E+00
         0.00000E+00
         0.00000E+00
         0.00000E+00
         0.00000E+00
         0.00000E+00
         0.00000E+00
         0.00000E+00
         0.00000E+00
         0.00000E+00
         0.00000E+00
         0.00000E+00
         0.00000E+00
         0.00000E+00
         0.00000E+00
         0.00000E+00
         0.00000E+00
         0.00000E+00
         0.00000E+00
         0.00000E+00
         0.00000E+00
         0.00000E+00
         0.00000E+00
         0.00000E+00
         0.00000E+00
         0.00000E+00
         0.00000E+00
         0.00000E+00
         0.00000E+00
         0.00000E+00
         0.00000E+00
         0.00000E+00
         0.00000E+00
         0.00000E+00
         0.00000E+00
         0.00000E+00
         0.00000E+00
         0.00000E+00
         0.00000E+00
         0.00000E+00
         0.00000E+00
         0.00000E+00
         0.00000E+00
         0.00000E+00
         0.00000E+00
         0.00000E+00
         0.00000E+00
         0.00000E+00
         0.00000E+00
         0.00000E+00
         0.00000E+00
         0.00000E+00
         0.00000E+00
         0.00000E+00
         0.00000E+00
         0.00000E+00
         0.00000E+00
         0.00000E+00
         0.00000E+00
         0.00000E+00
         0.00000E+00
         0.00000E+00
         0.00000E+00
         0.00000E+00
         0.00000E+00
         0.00000E+00
         0.00000E+00
         0.00000E+00
         0.00000E+00
         0.00000E+00
         0.00000E+00
         0.00000E+00
         0.00000E+00
         0.00000E+00
         0.00000E+00
         0.00000E+00
         0.00000E+00
         0.00000E+00
         0.00000E+00
         0.00000E+00
         0.00000E+00
         0.00000E+00
         0.00000E+00
         0.00000E+00
         0.00000E+00
         0.00000E+00
         0.00000E+00
         0.00000E+00
         0.00000E+00
         0.00000E+00
         0.00000E+00
         0.00000E+00
         0.00000E+00
         0.00000E+00
         0.00000E+00
         0.00000E+00
         0.00000E+00
         0.00000E+00
         0.00000E+00
         0.00000E+00
         0.00000E+00
         0.00000E+00
         0.00000E+00
         0.00000E+00
         0.00000E+00
         0.00000E+00
         0.00000E+00
         0.00000E+00
         0.00000E+00
         0.00000E+00
         0.00000E+00
         0.00000E+00
         0.00000E+00
         0.00000E+00
         0.00000E+00
         0.00000E+00
         0.00000E+00
         0.00000E+00
         0.00000E+00
         0.00000E+00
         0.00000E+00
         0.00000E+00
         0.00000E+00
         0.00000E+00
         0.00000E+00
         0.00000E+00
         0.00000E+00
         0.00000E+00
         0.00000E+00
         0.00000E+00
         0.00000E+00
         0.00000E+00
         0.00000E+00
         0.00000E+00
         0.00000E+00
         0.00000E+00
         0.00000E+00
         0.00000E+00
         0.00000E+00
         0.00000E+00
         0.00000E+00
         0.00000E+00
         0.00000E+00
         0.00000E+00
         0.00000E+00
         0.00000E+00
         0.00000E+00
         0.00000E+00
         0.00000E+00
         0.00000E+00
         0.00000E+00
         0.00000E+00
         0.00000E+00
         0.00000E+00
         0.00000E+00
         0.00000E+00
         0.00000E+00
         0.00000E+00
         0.00000E+00
         0.00000E+00
         0.00000E+00
         0.00000E+00
         0.00000E+00
         0.00000E+00
         0.00000E+00
         0.00000E+00
         0.00000E+00
         0.00000E+00
         0.00000E+00
         0.00000E+00
         0.00000E+00
         0.00000E+00
         0.00000E+00
         0.00000E+00
         0.00000E+00
         0.00000E+00
         0.00000E+00
         0.00000E+00
         0.00000E+00
         0.00000E+00
         0.00000E+00
         0.00000E+00
         0.00000E+00
         0.00000E+00
         0.00000E+00
         0.00000E+00
         0.00000E+00
         0.00000E+00
         0.00000E+00
         0.00000E+00
         0.00000E+00
         0.00000E+00
         0.00000E+00
         0.00000E+00
         0.00000E+00
         0.00000E+00
         0.00000E+00
         0.00000E+00
         0.00000E+00
         0.00000E+00
         0.00000E+00
         0.00000E+00
         0.00000E+00
         0.00000E+00
         0.00000E+00
         0.00000E+00
         0.00000E+00
         0.00000E+00
         0.00000E+00
         0.00000E+00
         0.00000E+00
         0.00000E+00
         0.00000E+00
         0.00000E+00
         0.00000E+00
         0.00000E+00
         0.00000E+00
         0.00000E+00
         0.00000E+00
         0.00000E+00
         0.00000E+00
         0.00000E+00
         0.00000E+00
         0.00000E+00
         0.00000E+00
         0.00000E+00
         0.00000E+00
         0.00000E+00
         0.00000E+00
         0.00000E+00
         0.00000E+00
         0.00000E+00
         0.00000E+00
         0.00000E+00
         0.00000E+00
         0.00000E+00
         0.00000E+00
         0.00000E+00
         0.00000E+00
         0.00000E+00
         0.00000E+00
         0.00000E+00
         0.00000E+00
         0.00000E+00
         0.00000E+00
         0.00000E+00
         0.00000E+00
         0.00000E+00
         0.00000E+00
         0.00000E+00
         0.00000E+00
         0.00000E+00
         0.00000E+00
         0.00000E+00
         0.00000E+00
         0.00000E+00
         0.00000E+00
         0.00000E+00
         0.00000E+00
         0.00000E+00
         0.00000E+00
         0.00000E+00
         0.00000E+00
         0.00000E+00
         0.00000E+00
         0.00000E+00
         0.00000E+00
         0.00000E+00
         0.00000E+00
         0.00000E+00
         0.00000E+00
         0.00000E+00
         0.00000E+00
         0.00000E+00
         0.00000E+00
         0.00000E+00
         0.00000E+00
         0.00000E+00
         0.00000E+00
         0.00000E+00
         0.00000E+00
         0.00000E+00
         0.00000E+00
         0.00000E+00
         0.00000E+00
         0.00000E+00
         0.00000E+00
         0.00000E+00
         0.00000E+00
         0.00000E+00
         0.00000E+00
         0.00000E+00
         0.00000E+00
         0.00000E+00
         0.00000E+00
         0.00000E+00
         0.00000E+00
         0.00000E+00
         0.00000E+00
         0.00000E+00
         0.00000E+00
         0.00000E+00
         0.00000E+00
         0.00000E+00
         0.00000E+00
         0.00000E+00
         0.00000E+00
         0.00000E+00
         0.00000E+00
         0.00000E+00
         0.00000E+00
         0.00000E+00
         0.00000E+00
         0.00000E+00
         0.00000E+00
         0.00000E+00
         0.00000E+00
         0.00000E+00
         0.00000E+00
         0.00000E+00
         0.00000E+00
         0.00000E+00
         0.00000E+00
         0.00000E+00
         0.00000E+00
         0.00000E+00
         0.00000E+00
         0.00000E+00
         0.00000E+00
         0.00000E+00
         0.00000E+00
         0.00000E+00
         0.00000E+00
         0.00000E+00
         0.00000E+00
         0.00000E+00
         0.00000E+00
         0.00000E+00
         0.00000E+00
         0.00000E+00
         0.00000E+00
         0.00000E+00
         0.00000E+00
         0.00000E+00
         0.00000E+00
         0.00000E+00
         0.00000E+00
         0.00000E+00
         0.00000E+00
         0.00000E+00
         0.00000E+00
         0.00000E+00
         0.00000E+00
         0.00000E+00
         0.00000E+00
         0.00000E+00
         0.00000E+00
         0.00000E+00
         0.00000E+00
         0.00000E+00
         0.00000E+00
         0.00000E+00
         0.00000E+00
         0.00000E+00
         0.00000E+00
         0.00000E+00
         0.00000E+00
         0.00000E+00
         0.00000E+00
         0.00000E+00
         0.00000E+00
         0.00000E+00
         0.00000E+00
         0.00000E+00
         0.00000E+00
         0.00000E+00
         0.00000E+00
         0.00000E+00
         0.00000E+00
         0.00000E+00
         0.00000E+00
         0.00000E+00
         0.00000E+00
         0.00000E+00
         0.00000E+00
         0.00000E+00
         0.00000E+00
         0.00000E+00
         0.00000E+00
         0.00000E+00
         0.00000E+00
         0.00000E+00
         0.00000E+00
         0.00000E+00
         0.00000E+00
         0.00000E+00
         0.00000E+00
         0.00000E+00
         0.00000E+00
         0.00000E+00
         0.00000E+00
         0.00000E+00
         0.00000E+00
         0.00000E+00
         0.00000E+00
         0.00000E+00
         0.00000E+00
         0.00000E+00
         0.00000E+00
         0.00000E+00
         0.00000E+00
         0.00000E+00
         0.00000E+00
         0.00000E+00
         0.00000E+00
         0.00000E+00
         0.00000E+00
         0.00000E+00
         0.00000E+00
         0.00000E+00
         0.00000E+00
         0.00000E+00
         0.00000E+00
         0.00000E+00
         0.00000E+00
         0.00000E+00
         0.00000E+00
         0.00000E+00
         0.00000E+00
         0.00000E+00
         0.00000E+00
         0.00000E+00
         0.00000E+00
         0.00000E+00
         0.00000E+00
         0.00000E+00
         0.00000E+00
         0.00000E+00
         0.00000E+00
         0.00000E+00
         0.00000E+00
         0.00000E+00
         0.00000E+00
         0.00000E+00
         0.00000E+00
         0.00000E+00
         0.00000E+00
         0.00000E+00
         0.00000E+00
         0.00000E+00
         0.00000E+00
         0.00000E+00
         0.00000E+00
         0.00000E+00
         0.00000E+00
         0.00000E+00
         0.00000E+00
         0.00000E+00
         0.00000E+00
         0.00000E+00
         0.00000E+00
         0.00000E+00
         0.00000E+00
         0.00000E+00
         0.00000E+00
         0.00000E+00
         0.00000E+00
         0.00000E+00
         0.00000E+00
         0.00000E+00
         0.00000E+00
         0.00000E+00
         0.00000E+00
         0.00000E+00
         0.00000E+00
         0.00000E+00
         0.00000E+00
         0.00000E+00
         0.00000E+00
         0.00000E+00
         0.00000E+00
         0.00000E+00
         0.00000E+00
         0.00000E+00
         0.00000E+00
         0.00000E+00
         0.00000E+00
         0.00000E+00
         0.00000E+00
         0.00000E+00
         0.00000E+00
         0.00000E+00
         0.00000E+00
         0.00000E+00
         0.00000E+00
         0.00000E+00
         0.00000E+00
         0.00000E+00
         0.00000E+00
         0.00000E+00
         0.00000E+00
         0.00000E+00
         0.00000E+00
         0.00000E+00
         0.00000E+00
         0.00000E+00
         0.00000E+00
         0.00000E+00
         0.00000E+00
         0.00000E+00
         0.00000E+00
         0.00000E+00
         0.00000E+00
         0.00000E+00
         0.00000E+00
         0.00000E+00
         0.00000E+00
         0.00000E+00
         0.00000E+00
         0.00000E+00
         0.00000E+00
         0.00000E+00
         0.00000E+00
         0.00000E+00
         0.00000E+00
         0.00000E+00
         0.00000E+00
         0.00000E+00
         0.00000E+00
         0.00000E+00
         0.00000E+00
         0.00000E+00
         0.00000E+00
         0.00000E+00
         0.00000E+00
         0.00000E+00
         0.00000E+00
         0.00000E+00
         0.00000E+00
         0.00000E+00
         0.00000E+00
         0.00000E+00
         0.00000E+00
         0.00000E+00
         0.00000E+00
         0.00000E+00
         0.00000E+00
         0.00000E+00
         0.00000E+00
         0.00000E+00
         0.00000E+00
         0.00000E+00
         0.00000E+00
         0.00000E+00
         0.00000E+00
         0.00000E+00
         0.00000E+00
         0.00000E+00
         0.00000E+00
         0.00000E+00
         0.00000E+00
         0.00000E+00
         0.00000E+00
         0.00000E+00
         0.00000E+00
         0.00000E+00
         0.00000E+00
         0.00000E+00
         0.00000E+00
         0.00000E+00
         0.00000E+00
         0.00000E+00
         0.00000E+00
         0.00000E+00
         0.00000E+00
         0.00000E+00
         0.00000E+00
         0.00000E+00
         0.00000E+00
         0.00000E+00
         0.00000E+00
         0.00000E+00
         0.00000E+00
         0.00000E+00
         0.00000E+00
         0.00000E+00
         0.00000E+00
         0.00000E+00
         0.00000E+00
         0.00000E+00
         0.00000E+00
         0.00000E+00
         0.00000E+00
         0.00000E+00
         0.00000E+00
         0.00000E+00
         0.00000E+00
         0.00000E+00
         0.00000E+00
         0.00000E+00
         0.00000E+00
         0.00000E+00
         0.00000E+00
         0.00000E+00
         0.00000E+00
         0.00000E+00
         0.00000E+00
         0.00000E+00
         0.00000E+00
         0.00000E+00
         0.00000E+00
         0.00000E+00
         0.00000E+00
         0.00000E+00
         0.00000E+00
         0.00000E+00
         0.00000E+00
         0.00000E+00
         0.00000E+00
         0.00000E+00
         0.00000E+00
         0.00000E+00
         0.00000E+00
         0.00000E+00
         0.00000E+00
         0.00000E+00
         0.00000E+00
         0.00000E+00
         0.00000E+00
         0.00000E+00
         0.00000E+00
         0.00000E+00
         0.00000E+00
         0.00000E+00
         0.00000E+00
         0.00000E+00
         0.00000E+00
         0.00000E+00
         0.00000E+00
         0.00000E+00
         0.00000E+00
         0.00000E+00
         0.00000E+00
         0.00000E+00
         0.00000E+00
         0.00000E+00
         0.00000E+00
         0.00000E+00
         0.00000E+00
         0.00000E+00
         0.00000E+00
         0.00000E+00
         0.00000E+00
         0.00000E+00
         0.00000E+00
         0.00000E+00
         0.00000E+00
         0.00000E+00
         0.00000E+00
         0.00000E+00
         0.00000E+00
         0.00000E+00
         0.00000E+00
         0.00000E+00
         0.00000E+00
         0.00000E+00
         0.00000E+00
         0.00000E+00
         0.00000E+00
         0.00000E+00
         0.00000E+00
         0.00000E+00
         0.00000E+00
         0.00000E+00
         0.00000E+00
         0.00000E+00
         0.00000E+00
         0.00000E+00
         0.00000E+00
         0.00000E+00
         0.00000E+00
         0.00000E+00
         0.00000E+00
         0.00000E+00
         0.00000E+00
         0.00000E+00
         0.00000E+00
         0.00000E+00
         0.00000E+00
         0.00000E+00
         0.00000E+00
         0.00000E+00
         0.00000E+00
         0.00000E+00
         0.00000E+00
         0.00000E+00
         0.00000E+00
         0.00000E+00
         0.00000E+00
         0.00000E+00
         0.00000E+00
         0.00000E+00
         0.00000E+00
         0.00000E+00
         0.00000E+00
         0.00000E+00
         0.00000E+00
         0.00000E+00
         0.00000E+00
         0.00000E+00
         0.00000E+00
         0.00000E+00
         0.00000E+00
         0.00000E+00
         0.00000E+00
         0.00000E+00
         0.00000E+00
         0.00000E+00
         0.00000E+00
         0.00000E+00
         0.00000E+00
         0.00000E+00
         0.00000E+00
         0.00000E+00
         0.00000E+00
         0.00000E+00
         0.00000E+00
         0.00000E+00
         0.00000E+00
         0.00000E+00
         0.00000E+00
         0.00000E+00
         0.00000E+00
         0.00000E+00
         0.00000E+00
         0.00000E+00
         0.00000E+00
         0.00000E+00
         0.00000E+00
         0.00000E+00
         0.00000E+00
         0.00000E+00
         0.00000E+00
         0.00000E+00
         0.00000E+00
         0.00000E+00
         0.00000E+00
         0.00000E+00
         0.00000E+00
         0.00000E+00
         0.00000E+00
         0.00000E+00
         0.00000E+00
         0.00000E+00
         0.00000E+00
         0.00000E+00
         0.00000E+00
         0.00000E+00
         0.00000E+00
         0.00000E+00
         0.00000E+00
         0.00000E+00
         0.00000E+00
         0.00000E+00
         0.00000E+00
         0.00000E+00
         0.00000E+00
         0.00000E+00
         0.00000E+00
         0.00000E+00
         0.00000E+00
         0.00000E+00
         0.00000E+00
         0.00000E+00
         0.00000E+00
         0.00000E+00
         0.00000E+00
         0.00000E+00
         0.00000E+00
         0.00000E+00
         0.00000E+00
         0.00000E+00
         0.00000E+00
         0.00000E+00
         0.00000E+00
         0.00000E+00
         0.00000E+00
         0.00000E+00
         0.00000E+00
         0.00000E+00
         0.00000E+00
         0.00000E+00
         0.00000E+00
         0.00000E+00
         0.00000E+00
         0.00000E+00
         0.00000E+00
         0.00000E+00
         0.00000E+00
         0.00000E+00
         0.00000E+00
         0.00000E+00
         0.00000E+00
         0.00000E+00
         0.00000E+00
         0.00000E+00
         0.00000E+00
         0.00000E+00
         0.00000E+00
         0.00000E+00
         0.00000E+00
         0.00000E+00
         0.00000E+00
         0.00000E+00
         0.00000E+00
         0.00000E+00
         0.00000E+00
         0.00000E+00
         0.00000E+00
         0.00000E+00
         0.00000E+00
         0.00000E+00
         0.00000E+00
         0.00000E+00
         0.00000E+00
         0.00000E+00
         0.00000E+00
         0.00000E+00
         0.00000E+00
         0.00000E+00
         0.00000E+00
         0.00000E+00
         0.00000E+00
         0.00000E+00
         0.00000E+00
         0.00000E+00
         0.00000E+00
         0.00000E+00
         0.00000E+00
         0.00000E+00
         0.00000E+00
         0.00000E+00
         0.00000E+00
         0.00000E+00
         0.00000E+00
         0.00000E+00
         0.00000E+00
         0.00000E+00
         0.00000E+00
         0.00000E+00
         0.00000E+00
         0.00000E+00
         0.00000E+00
         0.00000E+00
         0.00000E+00
         0.00000E+00
         0.00000E+00
         0.00000E+00
         0.00000E+00
         0.00000E+00
         0.00000E+00
         0.00000E+00
         0.00000E+00
         0.00000E+00
         0.00000E+00
         0.00000E+00
         0.00000E+00
         0.00000E+00
         0.00000E+00
         0.00000E+00
         0.00000E+00
         0.00000E+00
         0.00000E+00
         0.00000E+00
         0.00000E+00
         0.00000E+00
         0.00000E+00
         0.00000E+00
         0.00000E+00
         0.00000E+00
         0.00000E+00
         0.00000E+00
         0.00000E+00
         0.00000E+00
         0.00000E+00
         0.00000E+00
         0.00000E+00
         0.00000E+00
         0.00000E+00
         0.00000E+00
         0.00000E+00
         0.00000E+00
         0.00000E+00
         0.00000E+00
         0.00000E+00
         0.00000E+00
         0.00000E+00
         0.00000E+00
         0.00000E+00
         0.00000E+00
         0.00000E+00
         0.00000E+00
         0.00000E+00
         0.00000E+00
         0.00000E+00
         0.00000E+00
         0.00000E+00
         0.00000E+00
         0.00000E+00
         0.00000E+00
         0.00000E+00
         0.00000E+00
         0.00000E+00
         0.00000E+00
         0.00000E+00
         0.00000E+00
         0.00000E+00
         0.00000E+00
         0.00000E+00
         0.00000E+00
         0.00000E+00
         0.00000E+00
         0.00000E+00
         0.00000E+00
         0.00000E+00
         0.00000E+00
         0.00000E+00
         0.00000E+00
         0.00000E+00
         0.00000E+00
         0.00000E+00
         0.00000E+00
         0.00000E+00
         0.00000E+00
         0.00000E+00
         0.00000E+00
         0.00000E+00
         0.00000E+00
         0.00000E+00
         0.00000E+00
         0.00000E+00
         0.00000E+00
         0.00000E+00
         0.00000E+00
         0.00000E+00
         0.00000E+00
         0.00000E+00
         0.00000E+00
         0.00000E+00
         0.00000E+00
         0.00000E+00
         0.00000E+00
         0.00000E+00
         0.00000E+00
         0.00000E+00
         0.00000E+00
         0.00000E+00
         0.00000E+00
         0.00000E+00
         0.00000E+00
         0.00000E+00
         0.00000E+00
         0.00000E+00
         0.00000E+00
         0.00000E+00
         0.00000E+00
         0.00000E+00
         0.00000E+00
         0.00000E+00
         0.00000E+00
         0.00000E+00
         0.00000E+00
         0.00000E+00
         0.00000E+00
         0.00000E+00
         0.00000E+00
         0.00000E+00
         0.00000E+00
         0.00000E+00
         0.00000E+00
         0.00000E+00
         0.00000E+00
         0.00000E+00
         0.00000E+00
         0.00000E+00
         0.00000E+00
         0.00000E+00
         0.00000E+00
         0.00000E+00
         0.00000E+00
         0.00000E+00
         0.00000E+00
         0.00000E+00
         0.00000E+00
         0.00000E+00
         0.00000E+00
         0.00000E+00
         0.00000E+00
         0.00000E+00
         0.00000E+00
         0.00000E+00
         0.00000E+00
         0.00000E+00
         0.00000E+00
         0.00000E+00
         0.00000E+00
         0.00000E+00
         0.00000E+00
         0.00000E+00
         0.00000E+00
         0.00000E+00
         0.00000E+00
         0.00000E+00
         0.00000E+00
         0.00000E+00
         0.00000E+00
         0.00000E+00
         0.00000E+00
         0.00000E+00
         0.00000E+00
         0.00000E+00
         0.00000E+00
         0.00000E+00
         0.00000E+00
         0.00000E+00
         0.00000E+00
         0.00000E+00
         0.00000E+00
         0.00000E+00
         0.00000E+00
         0.00000E+00
         0.00000E+00
         0.00000E+00
         0.00000E+00
         0.00000E+00
         0.00000E+00
         0.00000E+00
         0.00000E+00
         0.00000E+00
         0.00000E+00
         0.00000E+00
         0.00000E+00
         0.00000E+00
         0.00000E+00
         0.00000E+00
         0.00000E+00
         0.00000E+00
         0.00000E+00
         0.00000E+00
         0.00000E+00
         0.00000E+00
         0.00000E+00
         0.00000E+00
         0.00000E+00
         0.00000E+00
         0.00000E+00
         0.00000E+00
         0.00000E+00
         0.00000E+00
         0.00000E+00
         0.00000E+00
         0.00000E+00
         0.00000E+00
         0.00000E+00
         0.00000E+00
         0.00000E+00
         0.00000E+00
         0.00000E+00
         0.00000E+00
         0.00000E+00
         0.00000E+00
         0.00000E+00
         0.00000E+00
         0.00000E+00
         0.00000E+00
         0.00000E+00
         0.00000E+00
         0.00000E+00
         0.00000E+00
         0.00000E+00
         0.00000E+00
         0.00000E+00
         0.00000E+00
         0.00000E+00
         0.00000E+00
         0.00000E+00
         0.00000E+00
         0.00000E+00
         0.00000E+00
         0.00000E+00
         0.00000E+00
         0.00000E+00
         0.00000E+00
         0.00000E+00
         0.00000E+00
         0.00000E+00
         0.00000E+00
         0.00000E+00
         0.00000E+00
         0.00000E+00
         0.00000E+00
         0.00000E+00
         0.00000E+00
         0.00000E+00
         0.00000E+00
         0.00000E+00
         0.00000E+00
         0.00000E+00
         0.00000E+00
         0.00000E+00
         0.00000E+00
         0.00000E+00
         0.00000E+00
         0.00000E+00
         0.00000E+00
         0.00000E+00
         0.00000E+00
         0.00000E+00
         0.00000E+00
         0.00000E+00
         0.00000E+00
         0.00000E+00
         0.00000E+00
         0.00000E+00
         0.00000E+00
         0.00000E+00
         0.00000E+00
         0.00000E+00
         0.00000E+00
         0.00000E+00
         0.00000E+00
         0.00000E+00
         0.00000E+00
         0.00000E+00
         0.00000E+00
         0.00000E+00
         0.00000E+00
         0.00000E+00
         0.00000E+00
         0.00000E+00
         0.00000E+00
         0.00000E+00
         0.00000E+00
         0.00000E+00
         0.00000E+00
         0.00000E+00
         0.00000E+00
         0.00000E+00
         0.00000E+00
         0.00000E+00
         0.00000E+00
         0.00000E+00
         0.00000E+00
         0.00000E+00
         0.00000E+00
         0.00000E+00
         0.00000E+00
         0.00000E+00
         0.00000E+00
         0.00000E+00
         0.00000E+00
         0.00000E+00
         0.00000E+00
         0.00000E+00
         0.00000E+00
         0.00000E+00
         0.00000E+00
         0.00000E+00
         0.00000E+00
         0.00000E+00
         0.00000E+00
         0.00000E+00
         0.00000E+00
         0.00000E+00
         0.00000E+00
         0.00000E+00
         0.00000E+00
         0.00000E+00
         0.00000E+00
         0.00000E+00
         0.00000E+00
         0.00000E+00
         0.00000E+00
         0.00000E+00
         0.00000E+00
         0.00000E+00
         0.00000E+00
         0.00000E+00
         0.00000E+00
         0.00000E+00
         0.00000E+00
         0.00000E+00
         0.00000E+00
         0.00000E+00
         0.00000E+00
         0.00000E+00
         0.00000E+00
         0.00000E+00
         0.00000E+00
         0.00000E+00
         0.00000E+00
         0.00000E+00
         0.00000E+00
         0.00000E+00
         0.00000E+00
         0.00000E+00
         0.00000E+00
         0.00000E+00
         0.00000E+00
         0.00000E+00
         0.00000E+00
         0.00000E+00
         0.00000E+00
         0.00000E+00
         0.00000E+00
         0.00000E+00
         0.00000E+00
         0.00000E+00
         0.00000E+00
         0.00000E+00
         0.00000E+00
         0.00000E+00
         0.00000E+00
         0.00000E+00
         0.00000E+00
         0.00000E+00
         0.00000E+00
         0.00000E+00
         0.00000E+00
         0.00000E+00
         0.00000E+00
         0.00000E+00
         0.00000E+00
         0.00000E+00
         0.00000E+00
         0.00000E+00
         0.00000E+00
         0.00000E+00
         0.00000E+00
         0.00000E+00
         0.00000E+00
         0.00000E+00
         0.00000E+00
         0.00000E+00
         0.00000E+00
         0.00000E+00
         0.00000E+00
         0.00000E+00
         0.00000E+00
         0.00000E+00
         0.00000E+00
         0.00000E+00
         0.00000E+00
         0.00000E+00
         0.00000E+00
         0.00000E+00
         0.00000E+00
         0.00000E+00
         0.00000E+00
         0.00000E+00
         0.00000E+00
         0.00000E+00
         0.00000E+00
         0.00000E+00
         0.00000E+00
         0.00000E+00
         0.00000E+00
         0.00000E+00
         0.00000E+00
         0.00000E+00
         0.00000E+00
         0.00000E+00
         0.00000E+00
         0.00000E+00
         0.00000E+00
         0.00000E+00
         0.00000E+00
         0.00000E+00
         0.00000E+00
         0.00000E+00
         0.00000E+00
         0.00000E+00
         0.00000E+00
         0.00000E+00
         0.00000E+00
         0.00000E+00
         0.00000E+00
         0.00000E+00
         0.00000E+00
         0.00000E+00
         0.00000E+00
         0.00000E+00
         0.00000E+00
         0.00000E+00
         0.00000E+00
         0.00000E+00
         0.00000E+00
         0.00000E+00
         0.00000E+00
         0.00000E+00
         0.00000E+00
         0.00000E+00
         0.00000E+00
         0.00000E+00
         0.00000E+00
         0.00000E+00
         0.00000E+00
         0.00000E+00
         0.00000E+00
         0.00000E+00
         0.00000E+00
         0.00000E+00
         0.00000E+00
         0.00000E+00
         0.00000E+00
         0.00000E+00
         0.00000E+00
         0.00000E+00
         0.00000E+00
         0.00000E+00
         0.00000E+00
         0.00000E+00
         0.00000E+00
         0.00000E+00
         0.00000E+00
         0.00000E+00
         0.00000E+00
         0.00000E+00
         0.00000E+00
         0.00000E+00
  
SCALARS                     velocity_z  double 1
LOOKUP_TABLE default
        -0.37300E+03
        -0.37300E+03
        -0.37300E+03
        -0.37300E+03
         0.00000E+00
         0.00000E+00
         0.00000E+00
         0.00000E+00
        -0.37300E+03
        -0.37300E+03
         0.00000E+00
         0.00000E+00
        -0.37300E+03
        -0.37300E+03
         0.00000E+00
         0.00000E+00
        -0.37300E+03
        -0.37300E+03
         0.00000E+00
         0.00000E+00
        -0.37300E+03
        -0.37300E+03
        -0.37300E+03
         0.00000E+00
         0.00000E+00
         0.00000E+00
        -0.37300E+03
        -0.37300E+03
         0.00000E+00
         0.00000E+00
        -0.37300E+03
        -0.37300E+03
        -0.37300E+03
         0.00000E+00
         0.00000E+00
         0.00000E+00
        -0.37300E+03
        -0.37300E+03
         0.00000E+00
         0.00000E+00
        -0.37300E+03
        -0.37300E+03
         0.00000E+00
         0.00000E+00
        -0.37300E+03
        -0.37300E+03
         0.00000E+00
         0.00000E+00
        -0.37300E+03
         0.00000E+00
        -0.37300E+03
         0.00000E+00
        -0.37300E+03
         0.00000E+00
        -0.37300E+03
         0.00000E+00
        -0.37300E+03
        -0.37300E+03
         0.00000E+00
         0.00000E+00
        -0.37300E+03
        -0.37300E+03
         0.00000E+00
         0.00000E+00
        -0.37300E+03
         0.00000E+00
        -0.37300E+03
         0.00000E+00
        -0.37300E+03
        -0.37300E+03
         0.00000E+00
         0.00000E+00
        -0.37300E+03
         0.00000E+00
        -0.37300E+03
         0.00000E+00
        -0.37300E+03
         0.00000E+00
        -0.37300E+03
         0.00000E+00
        -0.37300E+03
        -0.37300E+03
         0.00000E+00
         0.00000E+00
        -0.37300E+03
         0.00000E+00
        -0.37300E+03
         0.00000E+00
        -0.37300E+03
         0.00000E+00
        -0.37300E+03
        -0.37300E+03
         0.00000E+00
         0.00000E+00
        -0.37300E+03
         0.00000E+00
        -0.37300E+03
         0.00000E+00
        -0.37300E+03
         0.00000E+00
        -0.37300E+03
        -0.37300E+03
         0.00000E+00
         0.00000E+00
        -0.37300E+03
        -0.37300E+03
         0.00000E+00
         0.00000E+00
        -0.37300E+03
         0.00000E+00
        -0.37300E+03
         0.00000E+00
        -0.37300E+03
         0.00000E+00
        -0.37300E+03
         0.00000E+00
        -0.37300E+03
         0.00000E+00
        -0.37300E+03
         0.00000E+00
        -0.37300E+03
         0.00000E+00
        -0.37300E+03
         0.00000E+00
        -0.37300E+03
         0.00000E+00
        -0.37300E+03
         0.00000E+00
        -0.37300E+03
         0.00000E+00
        -0.37300E+03
         0.00000E+00
        -0.37300E+03
         0.00000E+00
        -0.37300E+03
         0.00000E+00
        -0.37300E+03
         0.00000E+00
        -0.37300E+03
         0.00000E+00
        -0.37300E+03
         0.00000E+00
        -0.37300E+03
         0.00000E+00
        -0.37300E+03
         0.00000E+00
        -0.37300E+03
         0.00000E+00
        -0.37300E+03
         0.00000E+00
        -0.37300E+03
         0.00000E+00
        -0.37300E+03
         0.00000E+00
        -0.37300E+03
         0.00000E+00
        -0.37300E+03
        -0.37300E+03
        -0.37300E+03
        -0.37300E+03
        -0.37300E+03
        -0.37300E+03
        -0.37300E+03
        -0.37300E+03
        -0.37300E+03
        -0.37300E+03
        -0.37300E+03
        -0.37300E+03
        -0.37300E+03
        -0.37300E+03
        -0.37300E+03
        -0.37300E+03
        -0.37300E+03
        -0.37300E+03
        -0.37300E+03
        -0.37300E+03
        -0.37300E+03
        -0.37300E+03
        -0.37300E+03
        -0.37300E+03
        -0.37300E+03
        -0.37300E+03
        -0.37300E+03
        -0.37300E+03
        -0.37300E+03
        -0.37300E+03
        -0.37300E+03
        -0.37300E+03
        -0.37300E+03
        -0.37300E+03
        -0.37300E+03
        -0.37300E+03
        -0.37300E+03
        -0.37300E+03
        -0.37300E+03
        -0.37300E+03
        -0.37300E+03
        -0.37300E+03
        -0.37300E+03
        -0.37300E+03
        -0.37300E+03
        -0.37300E+03
        -0.37300E+03
        -0.37300E+03
        -0.37300E+03
        -0.37300E+03
        -0.37300E+03
        -0.37300E+03
        -0.37300E+03
        -0.37300E+03
        -0.37300E+03
        -0.37300E+03
        -0.37300E+03
        -0.37300E+03
        -0.37300E+03
        -0.37300E+03
        -0.37300E+03
        -0.37300E+03
        -0.37300E+03
        -0.37300E+03
        -0.37300E+03
        -0.37300E+03
        -0.37300E+03
        -0.37300E+03
        -0.37300E+03
        -0.37300E+03
        -0.37300E+03
        -0.37300E+03
        -0.37300E+03
        -0.37300E+03
        -0.37300E+03
        -0.37300E+03
        -0.37300E+03
        -0.37300E+03
        -0.37300E+03
        -0.37300E+03
        -0.37300E+03
        -0.37300E+03
        -0.37300E+03
        -0.37300E+03
        -0.37300E+03
        -0.37300E+03
        -0.37300E+03
        -0.37300E+03
        -0.37300E+03
        -0.37300E+03
        -0.37300E+03
        -0.37300E+03
        -0.37300E+03
        -0.37300E+03
        -0.37300E+03
        -0.37300E+03
        -0.37300E+03
        -0.37300E+03
        -0.37300E+03
        -0.37300E+03
        -0.37300E+03
        -0.37300E+03
        -0.37300E+03
        -0.37300E+03
        -0.37300E+03
        -0.37300E+03
        -0.37300E+03
        -0.37300E+03
        -0.37300E+03
        -0.37300E+03
        -0.37300E+03
        -0.37300E+03
        -0.37300E+03
        -0.37300E+03
        -0.37300E+03
        -0.37300E+03
        -0.37300E+03
        -0.37300E+03
        -0.37300E+03
        -0.37300E+03
        -0.37300E+03
        -0.37300E+03
        -0.37300E+03
        -0.37300E+03
        -0.37300E+03
        -0.37300E+03
        -0.37300E+03
        -0.37300E+03
        -0.37300E+03
        -0.37300E+03
        -0.37300E+03
        -0.37300E+03
        -0.37300E+03
        -0.37300E+03
        -0.37300E+03
        -0.37300E+03
        -0.37300E+03
        -0.37300E+03
        -0.37300E+03
        -0.37300E+03
        -0.37300E+03
        -0.37300E+03
        -0.37300E+03
        -0.37300E+03
        -0.37300E+03
        -0.37300E+03
        -0.37300E+03
        -0.37300E+03
        -0.37300E+03
        -0.37300E+03
        -0.37300E+03
        -0.37300E+03
        -0.37300E+03
        -0.37300E+03
        -0.37300E+03
        -0.37300E+03
        -0.37300E+03
        -0.37300E+03
        -0.37300E+03
        -0.37300E+03
        -0.37300E+03
        -0.37300E+03
        -0.37300E+03
        -0.37300E+03
        -0.37300E+03
        -0.37300E+03
        -0.37300E+03
        -0.37300E+03
        -0.37300E+03
        -0.37300E+03
        -0.37300E+03
        -0.37300E+03
        -0.37300E+03
        -0.37300E+03
        -0.37300E+03
        -0.37300E+03
        -0.37300E+03
        -0.37300E+03
        -0.37300E+03
        -0.37300E+03
        -0.37300E+03
        -0.37300E+03
        -0.37300E+03
        -0.37300E+03
        -0.37300E+03
        -0.37300E+03
        -0.37300E+03
        -0.37300E+03
        -0.37300E+03
        -0.37300E+03
        -0.37300E+03
        -0.37300E+03
        -0.37300E+03
        -0.37300E+03
        -0.37300E+03
        -0.37300E+03
        -0.37300E+03
        -0.37300E+03
        -0.37300E+03
        -0.37300E+03
        -0.37300E+03
        -0.37300E+03
        -0.37300E+03
        -0.37300E+03
        -0.37300E+03
        -0.37300E+03
        -0.37300E+03
        -0.37300E+03
        -0.37300E+03
        -0.37300E+03
        -0.37300E+03
        -0.37300E+03
        -0.37300E+03
        -0.37300E+03
        -0.37300E+03
        -0.37300E+03
        -0.37300E+03
        -0.37300E+03
        -0.37300E+03
        -0.37300E+03
        -0.37300E+03
        -0.37300E+03
        -0.37300E+03
        -0.37300E+03
        -0.37300E+03
        -0.37300E+03
        -0.37300E+03
        -0.37300E+03
        -0.37300E+03
        -0.37300E+03
        -0.37300E+03
        -0.37300E+03
        -0.37300E+03
        -0.37300E+03
        -0.37300E+03
        -0.37300E+03
        -0.37300E+03
        -0.37300E+03
        -0.37300E+03
        -0.37300E+03
        -0.37300E+03
        -0.37300E+03
        -0.37300E+03
        -0.37300E+03
        -0.37300E+03
        -0.37300E+03
        -0.37300E+03
        -0.37300E+03
        -0.37300E+03
        -0.37300E+03
        -0.37300E+03
        -0.37300E+03
        -0.37300E+03
        -0.37300E+03
        -0.37300E+03
        -0.37300E+03
        -0.37300E+03
        -0.37300E+03
        -0.37300E+03
        -0.37300E+03
        -0.37300E+03
        -0.37300E+03
        -0.37300E+03
        -0.37300E+03
        -0.37300E+03
        -0.37300E+03
        -0.37300E+03
        -0.37300E+03
        -0.37300E+03
        -0.37300E+03
        -0.37300E+03
        -0.37300E+03
        -0.37300E+03
        -0.37300E+03
        -0.37300E+03
        -0.37300E+03
        -0.37300E+03
        -0.37300E+03
        -0.37300E+03
        -0.37300E+03
        -0.37300E+03
        -0.37300E+03
        -0.37300E+03
        -0.37300E+03
        -0.37300E+03
        -0.37300E+03
        -0.37300E+03
        -0.37300E+03
        -0.37300E+03
        -0.37300E+03
        -0.37300E+03
        -0.37300E+03
        -0.37300E+03
        -0.37300E+03
        -0.37300E+03
        -0.37300E+03
        -0.37300E+03
        -0.37300E+03
        -0.37300E+03
        -0.37300E+03
        -0.37300E+03
        -0.37300E+03
        -0.37300E+03
        -0.37300E+03
        -0.37300E+03
        -0.37300E+03
        -0.37300E+03
        -0.37300E+03
        -0.37300E+03
        -0.37300E+03
        -0.37300E+03
        -0.37300E+03
        -0.37300E+03
        -0.37300E+03
        -0.37300E+03
        -0.37300E+03
        -0.37300E+03
        -0.37300E+03
        -0.37300E+03
        -0.37300E+03
        -0.37300E+03
        -0.37300E+03
        -0.37300E+03
        -0.37300E+03
        -0.37300E+03
        -0.37300E+03
        -0.37300E+03
        -0.37300E+03
        -0.37300E+03
        -0.37300E+03
        -0.37300E+03
        -0.37300E+03
        -0.37300E+03
        -0.37300E+03
        -0.37300E+03
        -0.37300E+03
        -0.37300E+03
        -0.37300E+03
        -0.37300E+03
        -0.37300E+03
        -0.37300E+03
        -0.37300E+03
        -0.37300E+03
        -0.37300E+03
        -0.37300E+03
        -0.37300E+03
        -0.37300E+03
        -0.37300E+03
        -0.37300E+03
        -0.37300E+03
        -0.37300E+03
        -0.37300E+03
        -0.37300E+03
        -0.37300E+03
        -0.37300E+03
        -0.37300E+03
        -0.37300E+03
        -0.37300E+03
        -0.37300E+03
        -0.37300E+03
        -0.37300E+03
        -0.37300E+03
        -0.37300E+03
        -0.37300E+03
        -0.37300E+03
        -0.37300E+03
        -0.37300E+03
        -0.37300E+03
        -0.37300E+03
        -0.37300E+03
        -0.37300E+03
        -0.37300E+03
        -0.37300E+03
        -0.37300E+03
        -0.37300E+03
        -0.37300E+03
        -0.37300E+03
        -0.37300E+03
        -0.37300E+03
        -0.37300E+03
        -0.37300E+03
        -0.37300E+03
        -0.37300E+03
        -0.37300E+03
        -0.37300E+03
        -0.37300E+03
        -0.37300E+03
        -0.37300E+03
        -0.37300E+03
        -0.37300E+03
        -0.37300E+03
        -0.37300E+03
        -0.37300E+03
        -0.37300E+03
        -0.37300E+03
        -0.37300E+03
        -0.37300E+03
        -0.37300E+03
        -0.37300E+03
        -0.37300E+03
        -0.37300E+03
        -0.37300E+03
        -0.37300E+03
        -0.37300E+03
        -0.37300E+03
        -0.37300E+03
        -0.37300E+03
        -0.37300E+03
        -0.37300E+03
        -0.37300E+03
        -0.37300E+03
        -0.37300E+03
        -0.37300E+03
        -0.37300E+03
        -0.37300E+03
        -0.37300E+03
        -0.37300E+03
        -0.37300E+03
        -0.37300E+03
        -0.37300E+03
        -0.37300E+03
        -0.37300E+03
        -0.37300E+03
        -0.37300E+03
        -0.37300E+03
        -0.37300E+03
        -0.37300E+03
        -0.37300E+03
        -0.37300E+03
        -0.37300E+03
        -0.37300E+03
        -0.37300E+03
        -0.37300E+03
        -0.37300E+03
        -0.37300E+03
        -0.37300E+03
        -0.37300E+03
        -0.37300E+03
        -0.37300E+03
        -0.37300E+03
        -0.37300E+03
        -0.37300E+03
        -0.37300E+03
        -0.37300E+03
        -0.37300E+03
        -0.37300E+03
        -0.37300E+03
        -0.37300E+03
        -0.37300E+03
        -0.37300E+03
        -0.37300E+03
        -0.37300E+03
        -0.37300E+03
        -0.37300E+03
        -0.37300E+03
        -0.37300E+03
        -0.37300E+03
        -0.37300E+03
        -0.37300E+03
        -0.37300E+03
        -0.37300E+03
        -0.37300E+03
        -0.37300E+03
        -0.37300E+03
        -0.37300E+03
        -0.37300E+03
        -0.37300E+03
        -0.37300E+03
        -0.37300E+03
        -0.37300E+03
        -0.37300E+03
        -0.37300E+03
        -0.37300E+03
        -0.37300E+03
        -0.37300E+03
        -0.37300E+03
        -0.37300E+03
        -0.37300E+03
        -0.37300E+03
        -0.37300E+03
        -0.37300E+03
        -0.37300E+03
        -0.37300E+03
        -0.37300E+03
        -0.37300E+03
        -0.37300E+03
        -0.37300E+03
        -0.37300E+03
        -0.37300E+03
        -0.37300E+03
        -0.37300E+03
        -0.37300E+03
        -0.37300E+03
        -0.37300E+03
        -0.37300E+03
        -0.37300E+03
        -0.37300E+03
        -0.37300E+03
        -0.37300E+03
        -0.37300E+03
        -0.37300E+03
        -0.37300E+03
        -0.37300E+03
        -0.37300E+03
        -0.37300E+03
        -0.37300E+03
        -0.37300E+03
        -0.37300E+03
        -0.37300E+03
        -0.37300E+03
        -0.37300E+03
        -0.37300E+03
        -0.37300E+03
        -0.37300E+03
        -0.37300E+03
        -0.37300E+03
        -0.37300E+03
        -0.37300E+03
        -0.37300E+03
        -0.37300E+03
        -0.37300E+03
        -0.37300E+03
        -0.37300E+03
        -0.37300E+03
        -0.37300E+03
        -0.37300E+03
        -0.37300E+03
        -0.37300E+03
        -0.37300E+03
        -0.37300E+03
        -0.37300E+03
        -0.37300E+03
        -0.37300E+03
        -0.37300E+03
        -0.37300E+03
        -0.37300E+03
        -0.37300E+03
        -0.37300E+03
        -0.37300E+03
        -0.37300E+03
        -0.37300E+03
        -0.37300E+03
        -0.37300E+03
        -0.37300E+03
        -0.37300E+03
        -0.37300E+03
        -0.37300E+03
        -0.37300E+03
        -0.37300E+03
        -0.37300E+03
        -0.37300E+03
        -0.37300E+03
        -0.37300E+03
        -0.37300E+03
        -0.37300E+03
        -0.37300E+03
        -0.37300E+03
        -0.37300E+03
        -0.37300E+03
        -0.37300E+03
        -0.37300E+03
        -0.37300E+03
        -0.37300E+03
        -0.37300E+03
        -0.37300E+03
        -0.37300E+03
        -0.37300E+03
        -0.37300E+03
        -0.37300E+03
        -0.37300E+03
        -0.37300E+03
        -0.37300E+03
        -0.37300E+03
        -0.37300E+03
        -0.37300E+03
        -0.37300E+03
        -0.37300E+03
        -0.37300E+03
        -0.37300E+03
        -0.37300E+03
        -0.37300E+03
        -0.37300E+03
        -0.37300E+03
        -0.37300E+03
        -0.37300E+03
        -0.37300E+03
        -0.37300E+03
        -0.37300E+03
        -0.37300E+03
        -0.37300E+03
        -0.37300E+03
        -0.37300E+03
        -0.37300E+03
        -0.37300E+03
        -0.37300E+03
        -0.37300E+03
        -0.37300E+03
        -0.37300E+03
        -0.37300E+03
        -0.37300E+03
        -0.37300E+03
        -0.37300E+03
        -0.37300E+03
        -0.37300E+03
        -0.37300E+03
        -0.37300E+03
        -0.37300E+03
        -0.37300E+03
        -0.37300E+03
        -0.37300E+03
        -0.37300E+03
        -0.37300E+03
        -0.37300E+03
        -0.37300E+03
        -0.37300E+03
        -0.37300E+03
        -0.37300E+03
        -0.37300E+03
        -0.37300E+03
        -0.37300E+03
        -0.37300E+03
        -0.37300E+03
        -0.37300E+03
        -0.37300E+03
        -0.37300E+03
        -0.37300E+03
        -0.37300E+03
        -0.37300E+03
        -0.37300E+03
        -0.37300E+03
        -0.37300E+03
        -0.37300E+03
        -0.37300E+03
        -0.37300E+03
        -0.37300E+03
        -0.37300E+03
        -0.37300E+03
        -0.37300E+03
        -0.37300E+03
        -0.37300E+03
        -0.37300E+03
        -0.37300E+03
        -0.37300E+03
        -0.37300E+03
        -0.37300E+03
        -0.37300E+03
        -0.37300E+03
        -0.37300E+03
        -0.37300E+03
        -0.37300E+03
        -0.37300E+03
        -0.37300E+03
        -0.37300E+03
        -0.37300E+03
        -0.37300E+03
        -0.37300E+03
        -0.37300E+03
        -0.37300E+03
        -0.37300E+03
        -0.37300E+03
        -0.37300E+03
        -0.37300E+03
        -0.37300E+03
        -0.37300E+03
        -0.37300E+03
        -0.37300E+03
        -0.37300E+03
        -0.37300E+03
        -0.37300E+03
        -0.37300E+03
        -0.37300E+03
        -0.37300E+03
        -0.37300E+03
        -0.37300E+03
        -0.37300E+03
        -0.37300E+03
        -0.37300E+03
        -0.37300E+03
        -0.37300E+03
        -0.37300E+03
        -0.37300E+03
        -0.37300E+03
        -0.37300E+03
        -0.37300E+03
        -0.37300E+03
        -0.37300E+03
        -0.37300E+03
        -0.37300E+03
        -0.37300E+03
        -0.37300E+03
        -0.37300E+03
        -0.37300E+03
        -0.37300E+03
        -0.37300E+03
        -0.37300E+03
        -0.37300E+03
        -0.37300E+03
        -0.37300E+03
        -0.37300E+03
        -0.37300E+03
        -0.37300E+03
        -0.37300E+03
        -0.37300E+03
        -0.37300E+03
        -0.37300E+03
        -0.37300E+03
        -0.37300E+03
        -0.37300E+03
        -0.37300E+03
        -0.37300E+03
        -0.37300E+03
        -0.37300E+03
        -0.37300E+03
        -0.37300E+03
        -0.37300E+03
        -0.37300E+03
        -0.37300E+03
        -0.37300E+03
        -0.37300E+03
        -0.37300E+03
        -0.37300E+03
        -0.37300E+03
        -0.37300E+03
        -0.37300E+03
        -0.37300E+03
        -0.37300E+03
        -0.37300E+03
        -0.37300E+03
        -0.37300E+03
        -0.37300E+03
        -0.37300E+03
        -0.37300E+03
        -0.37300E+03
        -0.37300E+03
        -0.37300E+03
        -0.37300E+03
        -0.37300E+03
        -0.37300E+03
        -0.37300E+03
        -0.37300E+03
        -0.37300E+03
        -0.37300E+03
        -0.37300E+03
        -0.37300E+03
        -0.37300E+03
        -0.37300E+03
        -0.37300E+03
        -0.37300E+03
        -0.37300E+03
        -0.37300E+03
        -0.37300E+03
        -0.37300E+03
        -0.37300E+03
        -0.37300E+03
        -0.37300E+03
        -0.37300E+03
        -0.37300E+03
        -0.37300E+03
        -0.37300E+03
        -0.37300E+03
        -0.37300E+03
        -0.37300E+03
        -0.37300E+03
        -0.37300E+03
        -0.37300E+03
        -0.37300E+03
        -0.37300E+03
        -0.37300E+03
        -0.37300E+03
        -0.37300E+03
        -0.37300E+03
        -0.37300E+03
        -0.37300E+03
        -0.37300E+03
        -0.37300E+03
        -0.37300E+03
        -0.37300E+03
        -0.37300E+03
        -0.37300E+03
        -0.37300E+03
        -0.37300E+03
        -0.37300E+03
        -0.37300E+03
        -0.37300E+03
        -0.37300E+03
        -0.37300E+03
        -0.37300E+03
        -0.37300E+03
        -0.37300E+03
        -0.37300E+03
        -0.37300E+03
        -0.37300E+03
        -0.37300E+03
        -0.37300E+03
        -0.37300E+03
        -0.37300E+03
        -0.37300E+03
        -0.37300E+03
        -0.37300E+03
        -0.37300E+03
        -0.37300E+03
        -0.37300E+03
        -0.37300E+03
        -0.37300E+03
        -0.37300E+03
        -0.37300E+03
        -0.37300E+03
        -0.37300E+03
        -0.37300E+03
        -0.37300E+03
        -0.37300E+03
        -0.37300E+03
        -0.37300E+03
        -0.37300E+03
        -0.37300E+03
        -0.37300E+03
        -0.37300E+03
        -0.37300E+03
        -0.37300E+03
        -0.37300E+03
        -0.37300E+03
        -0.37300E+03
        -0.37300E+03
        -0.37300E+03
        -0.37300E+03
        -0.37300E+03
        -0.37300E+03
        -0.37300E+03
        -0.37300E+03
        -0.37300E+03
        -0.37300E+03
        -0.37300E+03
        -0.37300E+03
        -0.37300E+03
        -0.37300E+03
        -0.37300E+03
        -0.37300E+03
        -0.37300E+03
        -0.37300E+03
        -0.37300E+03
        -0.37300E+03
        -0.37300E+03
        -0.37300E+03
        -0.37300E+03
        -0.37300E+03
        -0.37300E+03
        -0.37300E+03
        -0.37300E+03
        -0.37300E+03
        -0.37300E+03
        -0.37300E+03
        -0.37300E+03
        -0.37300E+03
        -0.37300E+03
        -0.37300E+03
        -0.37300E+03
        -0.37300E+03
        -0.37300E+03
        -0.37300E+03
        -0.37300E+03
        -0.37300E+03
        -0.37300E+03
        -0.37300E+03
        -0.37300E+03
        -0.37300E+03
        -0.37300E+03
        -0.37300E+03
        -0.37300E+03
        -0.37300E+03
        -0.37300E+03
        -0.37300E+03
        -0.37300E+03
        -0.37300E+03
        -0.37300E+03
        -0.37300E+03
        -0.37300E+03
        -0.37300E+03
        -0.37300E+03
        -0.37300E+03
        -0.37300E+03
        -0.37300E+03
        -0.37300E+03
        -0.37300E+03
        -0.37300E+03
        -0.37300E+03
        -0.37300E+03
        -0.37300E+03
        -0.37300E+03
        -0.37300E+03
        -0.37300E+03
        -0.37300E+03
        -0.37300E+03
        -0.37300E+03
        -0.37300E+03
        -0.37300E+03
        -0.37300E+03
        -0.37300E+03
        -0.37300E+03
        -0.37300E+03
        -0.37300E+03
        -0.37300E+03
        -0.37300E+03
        -0.37300E+03
        -0.37300E+03
        -0.37300E+03
        -0.37300E+03
        -0.37300E+03
        -0.37300E+03
        -0.37300E+03
        -0.37300E+03
        -0.37300E+03
        -0.37300E+03
        -0.37300E+03
        -0.37300E+03
        -0.37300E+03
        -0.37300E+03
        -0.37300E+03
        -0.37300E+03
        -0.37300E+03
        -0.37300E+03
        -0.37300E+03
        -0.37300E+03
        -0.37300E+03
        -0.37300E+03
        -0.37300E+03
        -0.37300E+03
        -0.37300E+03
        -0.37300E+03
        -0.37300E+03
        -0.37300E+03
        -0.37300E+03
        -0.37300E+03
        -0.37300E+03
        -0.37300E+03
        -0.37300E+03
        -0.37300E+03
        -0.37300E+03
        -0.37300E+03
        -0.37300E+03
        -0.37300E+03
        -0.37300E+03
        -0.37300E+03
        -0.37300E+03
        -0.37300E+03
        -0.37300E+03
        -0.37300E+03
        -0.37300E+03
        -0.37300E+03
        -0.37300E+03
        -0.37300E+03
        -0.37300E+03
        -0.37300E+03
        -0.37300E+03
        -0.37300E+03
        -0.37300E+03
        -0.37300E+03
        -0.37300E+03
        -0.37300E+03
        -0.37300E+03
        -0.37300E+03
        -0.37300E+03
        -0.37300E+03
        -0.37300E+03
        -0.37300E+03
        -0.37300E+03
        -0.37300E+03
        -0.37300E+03
        -0.37300E+03
        -0.37300E+03
        -0.37300E+03
        -0.37300E+03
        -0.37300E+03
        -0.37300E+03
        -0.37300E+03
        -0.37300E+03
        -0.37300E+03
        -0.37300E+03
        -0.37300E+03
        -0.37300E+03
        -0.37300E+03
        -0.37300E+03
        -0.37300E+03
        -0.37300E+03
        -0.37300E+03
        -0.37300E+03
        -0.37300E+03
        -0.37300E+03
        -0.37300E+03
        -0.37300E+03
        -0.37300E+03
        -0.37300E+03
        -0.37300E+03
        -0.37300E+03
        -0.37300E+03
        -0.37300E+03
        -0.37300E+03
        -0.37300E+03
        -0.37300E+03
        -0.37300E+03
        -0.37300E+03
        -0.37300E+03
        -0.37300E+03
        -0.37300E+03
        -0.37300E+03
        -0.37300E+03
        -0.37300E+03
        -0.37300E+03
        -0.37300E+03
        -0.37300E+03
        -0.37300E+03
        -0.37300E+03
        -0.37300E+03
        -0.37300E+03
        -0.37300E+03
        -0.37300E+03
        -0.37300E+03
        -0.37300E+03
        -0.37300E+03
        -0.37300E+03
        -0.37300E+03
        -0.37300E+03
        -0.37300E+03
        -0.37300E+03
        -0.37300E+03
        -0.37300E+03
        -0.37300E+03
        -0.37300E+03
        -0.37300E+03
        -0.37300E+03
        -0.37300E+03
        -0.37300E+03
        -0.37300E+03
        -0.37300E+03
        -0.37300E+03
        -0.37300E+03
        -0.37300E+03
        -0.37300E+03
        -0.37300E+03
        -0.37300E+03
        -0.37300E+03
        -0.37300E+03
        -0.37300E+03
        -0.37300E+03
        -0.37300E+03
        -0.37300E+03
        -0.37300E+03
        -0.37300E+03
        -0.37300E+03
        -0.37300E+03
        -0.37300E+03
        -0.37300E+03
        -0.37300E+03
        -0.37300E+03
        -0.37300E+03
        -0.37300E+03
        -0.37300E+03
        -0.37300E+03
        -0.37300E+03
        -0.37300E+03
        -0.37300E+03
        -0.37300E+03
        -0.37300E+03
        -0.37300E+03
        -0.37300E+03
        -0.37300E+03
        -0.37300E+03
        -0.37300E+03
        -0.37300E+03
        -0.37300E+03
        -0.37300E+03
        -0.37300E+03
        -0.37300E+03
        -0.37300E+03
        -0.37300E+03
        -0.37300E+03
        -0.37300E+03
        -0.37300E+03
        -0.37300E+03
        -0.37300E+03
        -0.37300E+03
        -0.37300E+03
        -0.37300E+03
        -0.37300E+03
        -0.37300E+03
        -0.37300E+03
        -0.37300E+03
        -0.37300E+03
        -0.37300E+03
        -0.37300E+03
        -0.37300E+03
        -0.37300E+03
        -0.37300E+03
        -0.37300E+03
        -0.37300E+03
        -0.37300E+03
        -0.37300E+03
        -0.37300E+03
        -0.37300E+03
        -0.37300E+03
        -0.37300E+03
        -0.37300E+03
        -0.37300E+03
        -0.37300E+03
        -0.37300E+03
        -0.37300E+03
        -0.37300E+03
        -0.37300E+03
        -0.37300E+03
        -0.37300E+03
        -0.37300E+03
        -0.37300E+03
        -0.37300E+03
        -0.37300E+03
        -0.37300E+03
        -0.37300E+03
        -0.37300E+03
        -0.37300E+03
        -0.37300E+03
        -0.37300E+03
        -0.37300E+03
        -0.37300E+03
        -0.37300E+03
        -0.37300E+03
        -0.37300E+03
        -0.37300E+03
        -0.37300E+03
        -0.37300E+03
        -0.37300E+03
        -0.37300E+03
        -0.37300E+03
        -0.37300E+03
        -0.37300E+03
        -0.37300E+03
        -0.37300E+03
        -0.37300E+03
        -0.37300E+03
        -0.37300E+03
        -0.37300E+03
        -0.37300E+03
        -0.37300E+03
        -0.37300E+03
        -0.37300E+03
        -0.37300E+03
        -0.37300E+03
        -0.37300E+03
        -0.37300E+03
        -0.37300E+03
        -0.37300E+03
        -0.37300E+03
        -0.37300E+03
        -0.37300E+03
        -0.37300E+03
        -0.37300E+03
        -0.37300E+03
        -0.37300E+03
        -0.37300E+03
        -0.37300E+03
        -0.37300E+03
        -0.37300E+03
        -0.37300E+03
        -0.37300E+03
        -0.37300E+03
        -0.37300E+03
        -0.37300E+03
        -0.37300E+03
        -0.37300E+03
        -0.37300E+03
        -0.37300E+03
        -0.37300E+03
        -0.37300E+03
        -0.37300E+03
        -0.37300E+03
        -0.37300E+03
        -0.37300E+03
        -0.37300E+03
        -0.37300E+03
        -0.37300E+03
        -0.37300E+03
        -0.37300E+03
        -0.37300E+03
        -0.37300E+03
        -0.37300E+03
        -0.37300E+03
        -0.37300E+03
        -0.37300E+03
        -0.37300E+03
        -0.37300E+03
        -0.37300E+03
        -0.37300E+03
        -0.37300E+03
        -0.37300E+03
        -0.37300E+03
        -0.37300E+03
        -0.37300E+03
        -0.37300E+03
        -0.37300E+03
        -0.37300E+03
        -0.37300E+03
        -0.37300E+03
        -0.37300E+03
        -0.37300E+03
        -0.37300E+03
        -0.37300E+03
        -0.37300E+03
        -0.37300E+03
        -0.37300E+03
        -0.37300E+03
        -0.37300E+03
        -0.37300E+03
        -0.37300E+03
        -0.37300E+03
        -0.37300E+03
        -0.37300E+03
        -0.37300E+03
        -0.37300E+03
        -0.37300E+03
        -0.37300E+03
        -0.37300E+03
        -0.37300E+03
        -0.37300E+03
        -0.37300E+03
        -0.37300E+03
        -0.37300E+03
        -0.37300E+03
        -0.37300E+03
        -0.37300E+03
        -0.37300E+03
        -0.37300E+03
        -0.37300E+03
        -0.37300E+03
        -0.37300E+03
        -0.37300E+03
        -0.37300E+03
        -0.37300E+03
        -0.37300E+03
        -0.37300E+03
        -0.37300E+03
        -0.37300E+03
        -0.37300E+03
        -0.37300E+03
        -0.37300E+03
        -0.37300E+03
        -0.37300E+03
        -0.37300E+03
        -0.37300E+03
        -0.37300E+03
        -0.37300E+03
        -0.37300E+03
        -0.37300E+03
        -0.37300E+03
        -0.37300E+03
        -0.37300E+03
        -0.37300E+03
        -0.37300E+03
        -0.37300E+03
        -0.37300E+03
        -0.37300E+03
        -0.37300E+03
        -0.37300E+03
        -0.37300E+03
        -0.37300E+03
        -0.37300E+03
        -0.37300E+03
        -0.37300E+03
        -0.37300E+03
        -0.37300E+03
        -0.37300E+03
        -0.37300E+03
        -0.37300E+03
        -0.37300E+03
        -0.37300E+03
        -0.37300E+03
        -0.37300E+03
        -0.37300E+03
        -0.37300E+03
        -0.37300E+03
        -0.37300E+03
        -0.37300E+03
        -0.37300E+03
        -0.37300E+03
        -0.37300E+03
        -0.37300E+03
        -0.37300E+03
        -0.37300E+03
        -0.37300E+03
        -0.37300E+03
        -0.37300E+03
        -0.37300E+03
        -0.37300E+03
        -0.37300E+03
        -0.37300E+03
        -0.37300E+03
        -0.37300E+03
        -0.37300E+03
        -0.37300E+03
        -0.37300E+03
        -0.37300E+03
        -0.37300E+03
        -0.37300E+03
        -0.37300E+03
        -0.37300E+03
        -0.37300E+03
        -0.37300E+03
        -0.37300E+03
        -0.37300E+03
        -0.37300E+03
        -0.37300E+03
        -0.37300E+03
        -0.37300E+03
        -0.37300E+03
        -0.37300E+03
        -0.37300E+03
        -0.37300E+03
        -0.37300E+03
        -0.37300E+03
        -0.37300E+03
        -0.37300E+03
        -0.37300E+03
        -0.37300E+03
        -0.37300E+03
        -0.37300E+03
        -0.37300E+03
        -0.37300E+03
        -0.37300E+03
        -0.37300E+03
        -0.37300E+03
        -0.37300E+03
        -0.37300E+03
        -0.37300E+03
        -0.37300E+03
        -0.37300E+03
        -0.37300E+03
        -0.37300E+03
        -0.37300E+03
        -0.37300E+03
        -0.37300E+03
        -0.37300E+03
        -0.37300E+03
        -0.37300E+03
        -0.37300E+03
        -0.37300E+03
        -0.37300E+03
        -0.37300E+03
        -0.37300E+03
        -0.37300E+03
        -0.37300E+03
        -0.37300E+03
        -0.37300E+03
        -0.37300E+03
        -0.37300E+03
        -0.37300E+03
        -0.37300E+03
        -0.37300E+03
        -0.37300E+03
        -0.37300E+03
        -0.37300E+03
        -0.37300E+03
        -0.37300E+03
        -0.37300E+03
        -0.37300E+03
        -0.37300E+03
        -0.37300E+03
        -0.37300E+03
        -0.37300E+03
        -0.37300E+03
        -0.37300E+03
        -0.37300E+03
        -0.37300E+03
        -0.37300E+03
        -0.37300E+03
        -0.37300E+03
        -0.37300E+03
        -0.37300E+03
        -0.37300E+03
        -0.37300E+03
        -0.37300E+03
        -0.37300E+03
        -0.37300E+03
        -0.37300E+03
        -0.37300E+03
        -0.37300E+03
        -0.37300E+03
        -0.37300E+03
        -0.37300E+03
        -0.37300E+03
        -0.37300E+03
        -0.37300E+03
        -0.37300E+03
        -0.37300E+03
        -0.37300E+03
        -0.37300E+03
        -0.37300E+03
        -0.37300E+03
        -0.37300E+03
        -0.37300E+03
        -0.37300E+03
        -0.37300E+03
        -0.37300E+03
        -0.37300E+03
        -0.37300E+03
        -0.37300E+03
        -0.37300E+03
        -0.37300E+03
        -0.37300E+03
        -0.37300E+03
        -0.37300E+03
        -0.37300E+03
        -0.37300E+03
        -0.37300E+03
        -0.37300E+03
        -0.37300E+03
        -0.37300E+03
        -0.37300E+03
        -0.37300E+03
        -0.37300E+03
        -0.37300E+03
        -0.37300E+03
        -0.37300E+03
        -0.37300E+03
        -0.37300E+03
        -0.37300E+03
        -0.37300E+03
        -0.37300E+03
        -0.37300E+03
        -0.37300E+03
        -0.37300E+03
        -0.37300E+03
        -0.37300E+03
        -0.37300E+03
        -0.37300E+03
        -0.37300E+03
        -0.37300E+03
        -0.37300E+03
        -0.37300E+03
        -0.37300E+03
        -0.37300E+03
        -0.37300E+03
        -0.37300E+03
        -0.37300E+03
        -0.37300E+03
        -0.37300E+03
        -0.37300E+03
        -0.37300E+03
        -0.37300E+03
        -0.37300E+03
        -0.37300E+03
        -0.37300E+03
        -0.37300E+03
        -0.37300E+03
        -0.37300E+03
        -0.37300E+03
        -0.37300E+03
        -0.37300E+03
        -0.37300E+03
        -0.37300E+03
        -0.37300E+03
        -0.37300E+03
        -0.37300E+03
        -0.37300E+03
        -0.37300E+03
        -0.37300E+03
        -0.37300E+03
        -0.37300E+03
        -0.37300E+03
        -0.37300E+03
        -0.37300E+03
        -0.37300E+03
        -0.37300E+03
        -0.37300E+03
        -0.37300E+03
        -0.37300E+03
        -0.37300E+03
        -0.37300E+03
        -0.37300E+03
        -0.37300E+03
        -0.37300E+03
        -0.37300E+03
        -0.37300E+03
        -0.37300E+03
        -0.37300E+03
        -0.37300E+03
        -0.37300E+03
        -0.37300E+03
        -0.37300E+03
        -0.37300E+03
        -0.37300E+03
        -0.37300E+03
        -0.37300E+03
        -0.37300E+03
        -0.37300E+03
        -0.37300E+03
        -0.37300E+03
        -0.37300E+03
        -0.37300E+03
        -0.37300E+03
        -0.37300E+03
        -0.37300E+03
        -0.37300E+03
        -0.37300E+03
        -0.37300E+03
        -0.37300E+03
        -0.37300E+03
        -0.37300E+03
        -0.37300E+03
        -0.37300E+03
        -0.37300E+03
        -0.37300E+03
        -0.37300E+03
        -0.37300E+03
        -0.37300E+03
        -0.37300E+03
        -0.37300E+03
        -0.37300E+03
        -0.37300E+03
        -0.37300E+03
        -0.37300E+03
        -0.37300E+03
        -0.37300E+03
        -0.37300E+03
        -0.37300E+03
        -0.37300E+03
        -0.37300E+03
        -0.37300E+03
        -0.37300E+03
        -0.37300E+03
        -0.37300E+03
        -0.37300E+03
        -0.37300E+03
        -0.37300E+03
        -0.37300E+03
        -0.37300E+03
        -0.37300E+03
        -0.37300E+03
        -0.37300E+03
        -0.37300E+03
        -0.37300E+03
        -0.37300E+03
        -0.37300E+03
        -0.37300E+03
        -0.37300E+03
        -0.37300E+03
        -0.37300E+03
        -0.37300E+03
        -0.37300E+03
        -0.37300E+03
        -0.37300E+03
        -0.37300E+03
        -0.37300E+03
        -0.37300E+03
        -0.37300E+03
        -0.37300E+03
        -0.37300E+03
        -0.37300E+03
        -0.37300E+03
        -0.37300E+03
        -0.37300E+03
        -0.37300E+03
        -0.37300E+03
        -0.37300E+03
        -0.37300E+03
        -0.37300E+03
        -0.37300E+03
        -0.37300E+03
        -0.37300E+03
        -0.37300E+03
        -0.37300E+03
        -0.37300E+03
        -0.37300E+03
        -0.37300E+03
        -0.37300E+03
        -0.37300E+03
        -0.37300E+03
        -0.37300E+03
        -0.37300E+03
        -0.37300E+03
        -0.37300E+03
        -0.37300E+03
        -0.37300E+03
        -0.37300E+03
        -0.37300E+03
        -0.37300E+03
        -0.37300E+03
        -0.37300E+03
        -0.37300E+03
        -0.37300E+03
        -0.37300E+03
        -0.37300E+03
        -0.37300E+03
        -0.37300E+03
        -0.37300E+03
        -0.37300E+03
        -0.37300E+03
        -0.37300E+03
        -0.37300E+03
        -0.37300E+03
        -0.37300E+03
        -0.37300E+03
        -0.37300E+03
        -0.37300E+03
        -0.37300E+03
        -0.37300E+03
        -0.37300E+03
        -0.37300E+03
        -0.37300E+03
        -0.37300E+03
        -0.37300E+03
        -0.37300E+03
        -0.37300E+03
        -0.37300E+03
        -0.37300E+03
        -0.37300E+03
        -0.37300E+03
        -0.37300E+03
        -0.37300E+03
        -0.37300E+03
        -0.37300E+03
        -0.37300E+03
        -0.37300E+03
        -0.37300E+03
        -0.37300E+03
        -0.37300E+03
        -0.37300E+03
        -0.37300E+03
        -0.37300E+03
        -0.37300E+03
        -0.37300E+03
        -0.37300E+03
        -0.37300E+03
        -0.37300E+03
        -0.37300E+03
        -0.37300E+03
        -0.37300E+03
        -0.37300E+03
        -0.37300E+03
        -0.37300E+03
        -0.37300E+03
        -0.37300E+03
        -0.37300E+03
        -0.37300E+03
        -0.37300E+03
        -0.37300E+03
        -0.37300E+03
        -0.37300E+03
        -0.37300E+03
        -0.37300E+03
        -0.37300E+03
        -0.37300E+03
        -0.37300E+03
        -0.37300E+03
        -0.37300E+03
        -0.37300E+03
        -0.37300E+03
        -0.37300E+03
        -0.37300E+03
        -0.37300E+03
        -0.37300E+03
        -0.37300E+03
        -0.37300E+03
        -0.37300E+03
        -0.37300E+03
        -0.37300E+03
        -0.37300E+03
        -0.37300E+03
        -0.37300E+03
        -0.37300E+03
        -0.37300E+03
        -0.37300E+03
        -0.37300E+03
        -0.37300E+03
        -0.37300E+03
        -0.37300E+03
        -0.37300E+03
        -0.37300E+03
        -0.37300E+03
        -0.37300E+03
        -0.37300E+03
        -0.37300E+03
        -0.37300E+03
        -0.37300E+03
        -0.37300E+03
        -0.37300E+03
        -0.37300E+03
        -0.37300E+03
        -0.37300E+03
        -0.37300E+03
        -0.37300E+03
        -0.37300E+03
        -0.37300E+03
        -0.37300E+03
        -0.37300E+03
        -0.37300E+03
        -0.37300E+03
        -0.37300E+03
        -0.37300E+03
        -0.37300E+03
        -0.37300E+03
        -0.37300E+03
        -0.37300E+03
        -0.37300E+03
        -0.37300E+03
        -0.37300E+03
        -0.37300E+03
        -0.37300E+03
        -0.37300E+03
        -0.37300E+03
        -0.37300E+03
        -0.37300E+03
        -0.37300E+03
        -0.37300E+03
        -0.37300E+03
        -0.37300E+03
        -0.37300E+03
        -0.37300E+03
        -0.37300E+03
        -0.37300E+03
        -0.37300E+03
        -0.37300E+03
        -0.37300E+03
        -0.37300E+03
        -0.37300E+03
        -0.37300E+03
        -0.37300E+03
        -0.37300E+03
        -0.37300E+03
        -0.37300E+03
        -0.37300E+03
        -0.37300E+03
        -0.37300E+03
        -0.37300E+03
        -0.37300E+03
        -0.37300E+03
        -0.37300E+03
        -0.37300E+03
        -0.37300E+03
        -0.37300E+03
        -0.37300E+03
        -0.37300E+03
        -0.37300E+03
        -0.37300E+03
        -0.37300E+03
        -0.37300E+03
        -0.37300E+03
        -0.37300E+03
        -0.37300E+03
        -0.37300E+03
        -0.37300E+03
        -0.37300E+03
        -0.37300E+03
        -0.37300E+03
        -0.37300E+03
        -0.37300E+03
        -0.37300E+03
        -0.37300E+03
        -0.37300E+03
        -0.37300E+03
        -0.37300E+03
        -0.37300E+03
        -0.37300E+03
        -0.37300E+03
        -0.37300E+03
        -0.37300E+03
        -0.37300E+03
        -0.37300E+03
        -0.37300E+03
        -0.37300E+03
        -0.37300E+03
        -0.37300E+03
        -0.37300E+03
        -0.37300E+03
        -0.37300E+03
        -0.37300E+03
        -0.37300E+03
        -0.37300E+03
        -0.37300E+03
        -0.37300E+03
        -0.37300E+03
        -0.37300E+03
        -0.37300E+03
        -0.37300E+03
        -0.37300E+03
        -0.37300E+03
        -0.37300E+03
        -0.37300E+03
        -0.37300E+03
        -0.37300E+03
        -0.37300E+03
        -0.37300E+03
        -0.37300E+03
        -0.37300E+03
        -0.37300E+03
        -0.37300E+03
        -0.37300E+03
        -0.37300E+03
        -0.37300E+03
  
SCALARS                 acceleration_x  double 1
LOOKUP_TABLE default
         0.00000E+00
         0.00000E+00
         0.00000E+00
         0.00000E+00
         0.00000E+00
         0.00000E+00
         0.00000E+00
         0.00000E+00
         0.00000E+00
         0.00000E+00
         0.00000E+00
         0.00000E+00
         0.00000E+00
         0.00000E+00
         0.00000E+00
         0.00000E+00
         0.00000E+00
         0.00000E+00
         0.00000E+00
         0.00000E+00
         0.00000E+00
         0.00000E+00
         0.00000E+00
         0.00000E+00
         0.00000E+00
         0.00000E+00
         0.00000E+00
         0.00000E+00
         0.00000E+00
         0.00000E+00
         0.00000E+00
         0.00000E+00
         0.00000E+00
         0.00000E+00
         0.00000E+00
         0.00000E+00
         0.00000E+00
         0.00000E+00
         0.00000E+00
         0.00000E+00
         0.00000E+00
         0.00000E+00
         0.00000E+00
         0.00000E+00
         0.00000E+00
         0.00000E+00
         0.00000E+00
         0.00000E+00
         0.00000E+00
         0.00000E+00
         0.00000E+00
         0.00000E+00
         0.00000E+00
         0.00000E+00
         0.00000E+00
         0.00000E+00
         0.00000E+00
         0.00000E+00
         0.00000E+00
         0.00000E+00
         0.00000E+00
         0.00000E+00
         0.00000E+00
         0.00000E+00
         0.00000E+00
         0.00000E+00
         0.00000E+00
         0.00000E+00
         0.00000E+00
         0.00000E+00
         0.00000E+00
         0.00000E+00
         0.00000E+00
         0.00000E+00
         0.00000E+00
         0.00000E+00
         0.00000E+00
         0.00000E+00
         0.00000E+00
         0.00000E+00
         0.00000E+00
         0.00000E+00
         0.00000E+00
         0.00000E+00
         0.00000E+00
         0.00000E+00
         0.00000E+00
         0.00000E+00
         0.00000E+00
         0.00000E+00
         0.00000E+00
         0.00000E+00
         0.00000E+00
         0.00000E+00
         0.00000E+00
         0.00000E+00
         0.00000E+00
         0.00000E+00
         0.00000E+00
         0.00000E+00
         0.00000E+00
         0.00000E+00
         0.00000E+00
         0.00000E+00
         0.00000E+00
         0.00000E+00
         0.00000E+00
         0.00000E+00
         0.00000E+00
         0.00000E+00
         0.00000E+00
         0.00000E+00
         0.00000E+00
         0.00000E+00
         0.00000E+00
         0.00000E+00
         0.00000E+00
         0.00000E+00
         0.00000E+00
         0.00000E+00
         0.00000E+00
         0.00000E+00
         0.00000E+00
         0.00000E+00
         0.00000E+00
         0.00000E+00
         0.00000E+00
         0.00000E+00
         0.00000E+00
         0.00000E+00
         0.00000E+00
         0.00000E+00
         0.00000E+00
         0.00000E+00
         0.00000E+00
         0.00000E+00
         0.00000E+00
         0.00000E+00
         0.00000E+00
         0.00000E+00
         0.00000E+00
         0.00000E+00
         0.00000E+00
         0.00000E+00
         0.00000E+00
         0.00000E+00
         0.00000E+00
         0.00000E+00
         0.00000E+00
         0.00000E+00
         0.00000E+00
         0.00000E+00
         0.00000E+00
         0.00000E+00
         0.00000E+00
         0.00000E+00
         0.00000E+00
         0.00000E+00
         0.00000E+00
         0.00000E+00
         0.00000E+00
         0.00000E+00
         0.00000E+00
         0.00000E+00
         0.00000E+00
         0.00000E+00
         0.00000E+00
         0.00000E+00
         0.00000E+00
         0.00000E+00
         0.00000E+00
         0.00000E+00
         0.00000E+00
         0.00000E+00
         0.00000E+00
         0.00000E+00
         0.00000E+00
         0.00000E+00
         0.00000E+00
         0.00000E+00
         0.00000E+00
         0.00000E+00
         0.00000E+00
         0.00000E+00
         0.00000E+00
         0.00000E+00
         0.00000E+00
         0.00000E+00
         0.00000E+00
         0.00000E+00
         0.00000E+00
         0.00000E+00
         0.00000E+00
         0.00000E+00
         0.00000E+00
         0.00000E+00
         0.00000E+00
         0.00000E+00
         0.00000E+00
         0.00000E+00
         0.00000E+00
         0.00000E+00
         0.00000E+00
         0.00000E+00
         0.00000E+00
         0.00000E+00
         0.00000E+00
         0.00000E+00
         0.00000E+00
         0.00000E+00
         0.00000E+00
         0.00000E+00
         0.00000E+00
         0.00000E+00
         0.00000E+00
         0.00000E+00
         0.00000E+00
         0.00000E+00
         0.00000E+00
         0.00000E+00
         0.00000E+00
         0.00000E+00
         0.00000E+00
         0.00000E+00
         0.00000E+00
         0.00000E+00
         0.00000E+00
         0.00000E+00
         0.00000E+00
         0.00000E+00
         0.00000E+00
         0.00000E+00
         0.00000E+00
         0.00000E+00
         0.00000E+00
         0.00000E+00
         0.00000E+00
         0.00000E+00
         0.00000E+00
         0.00000E+00
         0.00000E+00
         0.00000E+00
         0.00000E+00
         0.00000E+00
         0.00000E+00
         0.00000E+00
         0.00000E+00
         0.00000E+00
         0.00000E+00
         0.00000E+00
         0.00000E+00
         0.00000E+00
         0.00000E+00
         0.00000E+00
         0.00000E+00
         0.00000E+00
         0.00000E+00
         0.00000E+00
         0.00000E+00
         0.00000E+00
         0.00000E+00
         0.00000E+00
         0.00000E+00
         0.00000E+00
         0.00000E+00
         0.00000E+00
         0.00000E+00
         0.00000E+00
         0.00000E+00
         0.00000E+00
         0.00000E+00
         0.00000E+00
         0.00000E+00
         0.00000E+00
         0.00000E+00
         0.00000E+00
         0.00000E+00
         0.00000E+00
         0.00000E+00
         0.00000E+00
         0.00000E+00
         0.00000E+00
         0.00000E+00
         0.00000E+00
         0.00000E+00
         0.00000E+00
         0.00000E+00
         0.00000E+00
         0.00000E+00
         0.00000E+00
         0.00000E+00
         0.00000E+00
         0.00000E+00
         0.00000E+00
         0.00000E+00
         0.00000E+00
         0.00000E+00
         0.00000E+00
         0.00000E+00
         0.00000E+00
         0.00000E+00
         0.00000E+00
         0.00000E+00
         0.00000E+00
         0.00000E+00
         0.00000E+00
         0.00000E+00
         0.00000E+00
         0.00000E+00
         0.00000E+00
         0.00000E+00
         0.00000E+00
         0.00000E+00
         0.00000E+00
         0.00000E+00
         0.00000E+00
         0.00000E+00
         0.00000E+00
         0.00000E+00
         0.00000E+00
         0.00000E+00
         0.00000E+00
         0.00000E+00
         0.00000E+00
         0.00000E+00
         0.00000E+00
         0.00000E+00
         0.00000E+00
         0.00000E+00
         0.00000E+00
         0.00000E+00
         0.00000E+00
         0.00000E+00
         0.00000E+00
         0.00000E+00
         0.00000E+00
         0.00000E+00
         0.00000E+00
         0.00000E+00
         0.00000E+00
         0.00000E+00
         0.00000E+00
         0.00000E+00
         0.00000E+00
         0.00000E+00
         0.00000E+00
         0.00000E+00
         0.00000E+00
         0.00000E+00
         0.00000E+00
         0.00000E+00
         0.00000E+00
         0.00000E+00
         0.00000E+00
         0.00000E+00
         0.00000E+00
         0.00000E+00
         0.00000E+00
         0.00000E+00
         0.00000E+00
         0.00000E+00
         0.00000E+00
         0.00000E+00
         0.00000E+00
         0.00000E+00
         0.00000E+00
         0.00000E+00
         0.00000E+00
         0.00000E+00
         0.00000E+00
         0.00000E+00
         0.00000E+00
         0.00000E+00
         0.00000E+00
         0.00000E+00
         0.00000E+00
         0.00000E+00
         0.00000E+00
         0.00000E+00
         0.00000E+00
         0.00000E+00
         0.00000E+00
         0.00000E+00
         0.00000E+00
         0.00000E+00
         0.00000E+00
         0.00000E+00
         0.00000E+00
         0.00000E+00
         0.00000E+00
         0.00000E+00
         0.00000E+00
         0.00000E+00
         0.00000E+00
         0.00000E+00
         0.00000E+00
         0.00000E+00
         0.00000E+00
         0.00000E+00
         0.00000E+00
         0.00000E+00
         0.00000E+00
         0.00000E+00
         0.00000E+00
         0.00000E+00
         0.00000E+00
         0.00000E+00
         0.00000E+00
         0.00000E+00
         0.00000E+00
         0.00000E+00
         0.00000E+00
         0.00000E+00
         0.00000E+00
         0.00000E+00
         0.00000E+00
         0.00000E+00
         0.00000E+00
         0.00000E+00
         0.00000E+00
         0.00000E+00
         0.00000E+00
         0.00000E+00
         0.00000E+00
         0.00000E+00
         0.00000E+00
         0.00000E+00
         0.00000E+00
         0.00000E+00
         0.00000E+00
         0.00000E+00
         0.00000E+00
         0.00000E+00
         0.00000E+00
         0.00000E+00
         0.00000E+00
         0.00000E+00
         0.00000E+00
         0.00000E+00
         0.00000E+00
         0.00000E+00
         0.00000E+00
         0.00000E+00
         0.00000E+00
         0.00000E+00
         0.00000E+00
         0.00000E+00
         0.00000E+00
         0.00000E+00
         0.00000E+00
         0.00000E+00
         0.00000E+00
         0.00000E+00
         0.00000E+00
         0.00000E+00
         0.00000E+00
         0.00000E+00
         0.00000E+00
         0.00000E+00
         0.00000E+00
         0.00000E+00
         0.00000E+00
         0.00000E+00
         0.00000E+00
         0.00000E+00
         0.00000E+00
         0.00000E+00
         0.00000E+00
         0.00000E+00
         0.00000E+00
         0.00000E+00
         0.00000E+00
         0.00000E+00
         0.00000E+00
         0.00000E+00
         0.00000E+00
         0.00000E+00
         0.00000E+00
         0.00000E+00
         0.00000E+00
         0.00000E+00
         0.00000E+00
         0.00000E+00
         0.00000E+00
         0.00000E+00
         0.00000E+00
         0.00000E+00
         0.00000E+00
         0.00000E+00
         0.00000E+00
         0.00000E+00
         0.00000E+00
         0.00000E+00
         0.00000E+00
         0.00000E+00
         0.00000E+00
         0.00000E+00
         0.00000E+00
         0.00000E+00
         0.00000E+00
         0.00000E+00
         0.00000E+00
         0.00000E+00
         0.00000E+00
         0.00000E+00
         0.00000E+00
         0.00000E+00
         0.00000E+00
         0.00000E+00
         0.00000E+00
         0.00000E+00
         0.00000E+00
         0.00000E+00
         0.00000E+00
         0.00000E+00
         0.00000E+00
         0.00000E+00
         0.00000E+00
         0.00000E+00
         0.00000E+00
         0.00000E+00
         0.00000E+00
         0.00000E+00
         0.00000E+00
         0.00000E+00
         0.00000E+00
         0.00000E+00
         0.00000E+00
         0.00000E+00
         0.00000E+00
         0.00000E+00
         0.00000E+00
         0.00000E+00
         0.00000E+00
         0.00000E+00
         0.00000E+00
         0.00000E+00
         0.00000E+00
         0.00000E+00
         0.00000E+00
         0.00000E+00
         0.00000E+00
         0.00000E+00
         0.00000E+00
         0.00000E+00
         0.00000E+00
         0.00000E+00
         0.00000E+00
         0.00000E+00
         0.00000E+00
         0.00000E+00
         0.00000E+00
         0.00000E+00
         0.00000E+00
         0.00000E+00
         0.00000E+00
         0.00000E+00
         0.00000E+00
         0.00000E+00
         0.00000E+00
         0.00000E+00
         0.00000E+00
         0.00000E+00
         0.00000E+00
         0.00000E+00
         0.00000E+00
         0.00000E+00
         0.00000E+00
         0.00000E+00
         0.00000E+00
         0.00000E+00
         0.00000E+00
         0.00000E+00
         0.00000E+00
         0.00000E+00
         0.00000E+00
         0.00000E+00
         0.00000E+00
         0.00000E+00
         0.00000E+00
         0.00000E+00
         0.00000E+00
         0.00000E+00
         0.00000E+00
         0.00000E+00
         0.00000E+00
         0.00000E+00
         0.00000E+00
         0.00000E+00
         0.00000E+00
         0.00000E+00
         0.00000E+00
         0.00000E+00
         0.00000E+00
         0.00000E+00
         0.00000E+00
         0.00000E+00
         0.00000E+00
         0.00000E+00
         0.00000E+00
         0.00000E+00
         0.00000E+00
         0.00000E+00
         0.00000E+00
         0.00000E+00
         0.00000E+00
         0.00000E+00
         0.00000E+00
         0.00000E+00
         0.00000E+00
         0.00000E+00
         0.00000E+00
         0.00000E+00
         0.00000E+00
         0.00000E+00
         0.00000E+00
         0.00000E+00
         0.00000E+00
         0.00000E+00
         0.00000E+00
         0.00000E+00
         0.00000E+00
         0.00000E+00
         0.00000E+00
         0.00000E+00
         0.00000E+00
         0.00000E+00
         0.00000E+00
         0.00000E+00
         0.00000E+00
         0.00000E+00
         0.00000E+00
         0.00000E+00
         0.00000E+00
         0.00000E+00
         0.00000E+00
         0.00000E+00
         0.00000E+00
         0.00000E+00
         0.00000E+00
         0.00000E+00
         0.00000E+00
         0.00000E+00
         0.00000E+00
         0.00000E+00
         0.00000E+00
         0.00000E+00
         0.00000E+00
         0.00000E+00
         0.00000E+00
         0.00000E+00
         0.00000E+00
         0.00000E+00
         0.00000E+00
         0.00000E+00
         0.00000E+00
         0.00000E+00
         0.00000E+00
         0.00000E+00
         0.00000E+00
         0.00000E+00
         0.00000E+00
         0.00000E+00
         0.00000E+00
         0.00000E+00
         0.00000E+00
         0.00000E+00
         0.00000E+00
         0.00000E+00
         0.00000E+00
         0.00000E+00
         0.00000E+00
         0.00000E+00
         0.00000E+00
         0.00000E+00
         0.00000E+00
         0.00000E+00
         0.00000E+00
         0.00000E+00
         0.00000E+00
         0.00000E+00
         0.00000E+00
         0.00000E+00
         0.00000E+00
         0.00000E+00
         0.00000E+00
         0.00000E+00
         0.00000E+00
         0.00000E+00
         0.00000E+00
         0.00000E+00
         0.00000E+00
         0.00000E+00
         0.00000E+00
         0.00000E+00
         0.00000E+00
         0.00000E+00
         0.00000E+00
         0.00000E+00
         0.00000E+00
         0.00000E+00
         0.00000E+00
         0.00000E+00
         0.00000E+00
         0.00000E+00
         0.00000E+00
         0.00000E+00
         0.00000E+00
         0.00000E+00
         0.00000E+00
         0.00000E+00
         0.00000E+00
         0.00000E+00
         0.00000E+00
         0.00000E+00
         0.00000E+00
         0.00000E+00
         0.00000E+00
         0.00000E+00
         0.00000E+00
         0.00000E+00
         0.00000E+00
         0.00000E+00
         0.00000E+00
         0.00000E+00
         0.00000E+00
         0.00000E+00
         0.00000E+00
         0.00000E+00
         0.00000E+00
         0.00000E+00
         0.00000E+00
         0.00000E+00
         0.00000E+00
         0.00000E+00
         0.00000E+00
         0.00000E+00
         0.00000E+00
         0.00000E+00
         0.00000E+00
         0.00000E+00
         0.00000E+00
         0.00000E+00
         0.00000E+00
         0.00000E+00
         0.00000E+00
         0.00000E+00
         0.00000E+00
         0.00000E+00
         0.00000E+00
         0.00000E+00
         0.00000E+00
         0.00000E+00
         0.00000E+00
         0.00000E+00
         0.00000E+00
         0.00000E+00
         0.00000E+00
         0.00000E+00
         0.00000E+00
         0.00000E+00
         0.00000E+00
         0.00000E+00
         0.00000E+00
         0.00000E+00
         0.00000E+00
         0.00000E+00
         0.00000E+00
         0.00000E+00
         0.00000E+00
         0.00000E+00
         0.00000E+00
         0.00000E+00
         0.00000E+00
         0.00000E+00
         0.00000E+00
         0.00000E+00
         0.00000E+00
         0.00000E+00
         0.00000E+00
         0.00000E+00
         0.00000E+00
         0.00000E+00
         0.00000E+00
         0.00000E+00
         0.00000E+00
         0.00000E+00
         0.00000E+00
         0.00000E+00
         0.00000E+00
         0.00000E+00
         0.00000E+00
         0.00000E+00
         0.00000E+00
         0.00000E+00
         0.00000E+00
         0.00000E+00
         0.00000E+00
         0.00000E+00
         0.00000E+00
         0.00000E+00
         0.00000E+00
         0.00000E+00
         0.00000E+00
         0.00000E+00
         0.00000E+00
         0.00000E+00
         0.00000E+00
         0.00000E+00
         0.00000E+00
         0.00000E+00
         0.00000E+00
         0.00000E+00
         0.00000E+00
         0.00000E+00
         0.00000E+00
         0.00000E+00
         0.00000E+00
         0.00000E+00
         0.00000E+00
         0.00000E+00
         0.00000E+00
         0.00000E+00
         0.00000E+00
         0.00000E+00
         0.00000E+00
         0.00000E+00
         0.00000E+00
         0.00000E+00
         0.00000E+00
         0.00000E+00
         0.00000E+00
         0.00000E+00
         0.00000E+00
         0.00000E+00
         0.00000E+00
         0.00000E+00
         0.00000E+00
         0.00000E+00
         0.00000E+00
         0.00000E+00
         0.00000E+00
         0.00000E+00
         0.00000E+00
         0.00000E+00
         0.00000E+00
         0.00000E+00
         0.00000E+00
         0.00000E+00
         0.00000E+00
         0.00000E+00
         0.00000E+00
         0.00000E+00
         0.00000E+00
         0.00000E+00
         0.00000E+00
         0.00000E+00
         0.00000E+00
         0.00000E+00
         0.00000E+00
         0.00000E+00
         0.00000E+00
         0.00000E+00
         0.00000E+00
         0.00000E+00
         0.00000E+00
         0.00000E+00
         0.00000E+00
         0.00000E+00
         0.00000E+00
         0.00000E+00
         0.00000E+00
         0.00000E+00
         0.00000E+00
         0.00000E+00
         0.00000E+00
         0.00000E+00
         0.00000E+00
         0.00000E+00
         0.00000E+00
         0.00000E+00
         0.00000E+00
         0.00000E+00
         0.00000E+00
         0.00000E+00
         0.00000E+00
         0.00000E+00
         0.00000E+00
         0.00000E+00
         0.00000E+00
         0.00000E+00
         0.00000E+00
         0.00000E+00
         0.00000E+00
         0.00000E+00
         0.00000E+00
         0.00000E+00
         0.00000E+00
         0.00000E+00
         0.00000E+00
         0.00000E+00
         0.00000E+00
         0.00000E+00
         0.00000E+00
         0.00000E+00
         0.00000E+00
         0.00000E+00
         0.00000E+00
         0.00000E+00
         0.00000E+00
         0.00000E+00
         0.00000E+00
         0.00000E+00
         0.00000E+00
         0.00000E+00
         0.00000E+00
         0.00000E+00
         0.00000E+00
         0.00000E+00
         0.00000E+00
         0.00000E+00
         0.00000E+00
         0.00000E+00
         0.00000E+00
         0.00000E+00
         0.00000E+00
         0.00000E+00
         0.00000E+00
         0.00000E+00
         0.00000E+00
         0.00000E+00
         0.00000E+00
         0.00000E+00
         0.00000E+00
         0.00000E+00
         0.00000E+00
         0.00000E+00
         0.00000E+00
         0.00000E+00
         0.00000E+00
         0.00000E+00
         0.00000E+00
         0.00000E+00
         0.00000E+00
         0.00000E+00
         0.00000E+00
         0.00000E+00
         0.00000E+00
         0.00000E+00
         0.00000E+00
         0.00000E+00
         0.00000E+00
         0.00000E+00
         0.00000E+00
         0.00000E+00
         0.00000E+00
         0.00000E+00
         0.00000E+00
         0.00000E+00
         0.00000E+00
         0.00000E+00
         0.00000E+00
         0.00000E+00
         0.00000E+00
         0.00000E+00
         0.00000E+00
         0.00000E+00
         0.00000E+00
         0.00000E+00
         0.00000E+00
         0.00000E+00
         0.00000E+00
         0.00000E+00
         0.00000E+00
         0.00000E+00
         0.00000E+00
         0.00000E+00
         0.00000E+00
         0.00000E+00
         0.00000E+00
         0.00000E+00
         0.00000E+00
         0.00000E+00
         0.00000E+00
         0.00000E+00
         0.00000E+00
         0.00000E+00
         0.00000E+00
         0.00000E+00
         0.00000E+00
         0.00000E+00
         0.00000E+00
         0.00000E+00
         0.00000E+00
         0.00000E+00
         0.00000E+00
         0.00000E+00
         0.00000E+00
         0.00000E+00
         0.00000E+00
         0.00000E+00
         0.00000E+00
         0.00000E+00
         0.00000E+00
         0.00000E+00
         0.00000E+00
         0.00000E+00
         0.00000E+00
         0.00000E+00
         0.00000E+00
         0.00000E+00
         0.00000E+00
         0.00000E+00
         0.00000E+00
         0.00000E+00
         0.00000E+00
         0.00000E+00
         0.00000E+00
         0.00000E+00
         0.00000E+00
         0.00000E+00
         0.00000E+00
         0.00000E+00
         0.00000E+00
         0.00000E+00
         0.00000E+00
         0.00000E+00
         0.00000E+00
         0.00000E+00
         0.00000E+00
         0.00000E+00
         0.00000E+00
         0.00000E+00
         0.00000E+00
         0.00000E+00
         0.00000E+00
         0.00000E+00
         0.00000E+00
         0.00000E+00
         0.00000E+00
         0.00000E+00
         0.00000E+00
         0.00000E+00
         0.00000E+00
         0.00000E+00
         0.00000E+00
         0.00000E+00
         0.00000E+00
         0.00000E+00
         0.00000E+00
         0.00000E+00
         0.00000E+00
         0.00000E+00
         0.00000E+00
         0.00000E+00
         0.00000E+00
         0.00000E+00
         0.00000E+00
         0.00000E+00
         0.00000E+00
         0.00000E+00
         0.00000E+00
         0.00000E+00
         0.00000E+00
         0.00000E+00
         0.00000E+00
         0.00000E+00
         0.00000E+00
         0.00000E+00
         0.00000E+00
         0.00000E+00
         0.00000E+00
         0.00000E+00
         0.00000E+00
         0.00000E+00
         0.00000E+00
         0.00000E+00
         0.00000E+00
         0.00000E+00
         0.00000E+00
         0.00000E+00
         0.00000E+00
         0.00000E+00
         0.00000E+00
         0.00000E+00
         0.00000E+00
         0.00000E+00
         0.00000E+00
         0.00000E+00
         0.00000E+00
         0.00000E+00
         0.00000E+00
         0.00000E+00
         0.00000E+00
         0.00000E+00
         0.00000E+00
         0.00000E+00
         0.00000E+00
         0.00000E+00
         0.00000E+00
         0.00000E+00
         0.00000E+00
         0.00000E+00
         0.00000E+00
         0.00000E+00
         0.00000E+00
         0.00000E+00
         0.00000E+00
         0.00000E+00
         0.00000E+00
         0.00000E+00
         0.00000E+00
         0.00000E+00
         0.00000E+00
         0.00000E+00
         0.00000E+00
         0.00000E+00
         0.00000E+00
         0.00000E+00
         0.00000E+00
         0.00000E+00
         0.00000E+00
         0.00000E+00
         0.00000E+00
         0.00000E+00
         0.00000E+00
         0.00000E+00
         0.00000E+00
         0.00000E+00
         0.00000E+00
         0.00000E+00
         0.00000E+00
         0.00000E+00
         0.00000E+00
         0.00000E+00
         0.00000E+00
         0.00000E+00
         0.00000E+00
         0.00000E+00
         0.00000E+00
         0.00000E+00
         0.00000E+00
         0.00000E+00
         0.00000E+00
         0.00000E+00
         0.00000E+00
         0.00000E+00
         0.00000E+00
         0.00000E+00
         0.00000E+00
         0.00000E+00
         0.00000E+00
         0.00000E+00
         0.00000E+00
         0.00000E+00
         0.00000E+00
         0.00000E+00
         0.00000E+00
         0.00000E+00
         0.00000E+00
         0.00000E+00
         0.00000E+00
         0.00000E+00
         0.00000E+00
         0.00000E+00
         0.00000E+00
         0.00000E+00
         0.00000E+00
         0.00000E+00
         0.00000E+00
         0.00000E+00
         0.00000E+00
         0.00000E+00
         0.00000E+00
         0.00000E+00
         0.00000E+00
         0.00000E+00
         0.00000E+00
         0.00000E+00
         0.00000E+00
         0.00000E+00
         0.00000E+00
         0.00000E+00
         0.00000E+00
         0.00000E+00
         0.00000E+00
         0.00000E+00
         0.00000E+00
         0.00000E+00
         0.00000E+00
         0.00000E+00
         0.00000E+00
         0.00000E+00
         0.00000E+00
         0.00000E+00
         0.00000E+00
         0.00000E+00
         0.00000E+00
         0.00000E+00
         0.00000E+00
         0.00000E+00
         0.00000E+00
         0.00000E+00
         0.00000E+00
         0.00000E+00
         0.00000E+00
         0.00000E+00
         0.00000E+00
         0.00000E+00
         0.00000E+00
         0.00000E+00
         0.00000E+00
         0.00000E+00
         0.00000E+00
         0.00000E+00
         0.00000E+00
         0.00000E+00
         0.00000E+00
         0.00000E+00
         0.00000E+00
         0.00000E+00
         0.00000E+00
         0.00000E+00
         0.00000E+00
         0.00000E+00
         0.00000E+00
         0.00000E+00
         0.00000E+00
         0.00000E+00
         0.00000E+00
         0.00000E+00
         0.00000E+00
         0.00000E+00
         0.00000E+00
         0.00000E+00
         0.00000E+00
         0.00000E+00
         0.00000E+00
         0.00000E+00
         0.00000E+00
         0.00000E+00
         0.00000E+00
         0.00000E+00
         0.00000E+00
         0.00000E+00
         0.00000E+00
         0.00000E+00
         0.00000E+00
         0.00000E+00
         0.00000E+00
         0.00000E+00
         0.00000E+00
         0.00000E+00
         0.00000E+00
         0.00000E+00
         0.00000E+00
         0.00000E+00
         0.00000E+00
         0.00000E+00
         0.00000E+00
         0.00000E+00
         0.00000E+00
         0.00000E+00
         0.00000E+00
         0.00000E+00
         0.00000E+00
         0.00000E+00
         0.00000E+00
         0.00000E+00
         0.00000E+00
         0.00000E+00
         0.00000E+00
         0.00000E+00
         0.00000E+00
         0.00000E+00
         0.00000E+00
         0.00000E+00
         0.00000E+00
         0.00000E+00
         0.00000E+00
         0.00000E+00
         0.00000E+00
         0.00000E+00
         0.00000E+00
         0.00000E+00
         0.00000E+00
         0.00000E+00
         0.00000E+00
         0.00000E+00
         0.00000E+00
         0.00000E+00
         0.00000E+00
         0.00000E+00
         0.00000E+00
         0.00000E+00
         0.00000E+00
         0.00000E+00
         0.00000E+00
         0.00000E+00
         0.00000E+00
         0.00000E+00
         0.00000E+00
         0.00000E+00
         0.00000E+00
         0.00000E+00
         0.00000E+00
         0.00000E+00
         0.00000E+00
         0.00000E+00
         0.00000E+00
         0.00000E+00
         0.00000E+00
         0.00000E+00
         0.00000E+00
         0.00000E+00
         0.00000E+00
         0.00000E+00
         0.00000E+00
         0.00000E+00
         0.00000E+00
         0.00000E+00
         0.00000E+00
         0.00000E+00
         0.00000E+00
         0.00000E+00
         0.00000E+00
         0.00000E+00
         0.00000E+00
         0.00000E+00
         0.00000E+00
         0.00000E+00
         0.00000E+00
         0.00000E+00
         0.00000E+00
         0.00000E+00
         0.00000E+00
         0.00000E+00
         0.00000E+00
         0.00000E+00
         0.00000E+00
         0.00000E+00
         0.00000E+00
         0.00000E+00
         0.00000E+00
         0.00000E+00
         0.00000E+00
         0.00000E+00
         0.00000E+00
         0.00000E+00
         0.00000E+00
         0.00000E+00
         0.00000E+00
         0.00000E+00
         0.00000E+00
         0.00000E+00
         0.00000E+00
         0.00000E+00
         0.00000E+00
         0.00000E+00
         0.00000E+00
         0.00000E+00
         0.00000E+00
         0.00000E+00
         0.00000E+00
         0.00000E+00
         0.00000E+00
         0.00000E+00
         0.00000E+00
         0.00000E+00
         0.00000E+00
         0.00000E+00
         0.00000E+00
         0.00000E+00
         0.00000E+00
         0.00000E+00
         0.00000E+00
         0.00000E+00
         0.00000E+00
         0.00000E+00
         0.00000E+00
         0.00000E+00
         0.00000E+00
         0.00000E+00
         0.00000E+00
         0.00000E+00
         0.00000E+00
         0.00000E+00
         0.00000E+00
         0.00000E+00
         0.00000E+00
         0.00000E+00
         0.00000E+00
         0.00000E+00
         0.00000E+00
         0.00000E+00
         0.00000E+00
         0.00000E+00
         0.00000E+00
         0.00000E+00
         0.00000E+00
         0.00000E+00
         0.00000E+00
         0.00000E+00
         0.00000E+00
         0.00000E+00
         0.00000E+00
         0.00000E+00
         0.00000E+00
         0.00000E+00
         0.00000E+00
         0.00000E+00
         0.00000E+00
         0.00000E+00
         0.00000E+00
         0.00000E+00
         0.00000E+00
         0.00000E+00
         0.00000E+00
         0.00000E+00
         0.00000E+00
         0.00000E+00
         0.00000E+00
         0.00000E+00
         0.00000E+00
         0.00000E+00
         0.00000E+00
         0.00000E+00
         0.00000E+00
         0.00000E+00
         0.00000E+00
         0.00000E+00
         0.00000E+00
         0.00000E+00
         0.00000E+00
         0.00000E+00
         0.00000E+00
         0.00000E+00
         0.00000E+00
         0.00000E+00
         0.00000E+00
         0.00000E+00
         0.00000E+00
         0.00000E+00
         0.00000E+00
         0.00000E+00
         0.00000E+00
         0.00000E+00
         0.00000E+00
         0.00000E+00
         0.00000E+00
         0.00000E+00
         0.00000E+00
         0.00000E+00
         0.00000E+00
         0.00000E+00
         0.00000E+00
         0.00000E+00
         0.00000E+00
         0.00000E+00
         0.00000E+00
         0.00000E+00
         0.00000E+00
         0.00000E+00
         0.00000E+00
         0.00000E+00
         0.00000E+00
         0.00000E+00
         0.00000E+00
         0.00000E+00
         0.00000E+00
         0.00000E+00
         0.00000E+00
         0.00000E+00
         0.00000E+00
         0.00000E+00
         0.00000E+00
         0.00000E+00
         0.00000E+00
         0.00000E+00
         0.00000E+00
         0.00000E+00
         0.00000E+00
         0.00000E+00
         0.00000E+00
         0.00000E+00
         0.00000E+00
         0.00000E+00
         0.00000E+00
         0.00000E+00
         0.00000E+00
         0.00000E+00
         0.00000E+00
         0.00000E+00
         0.00000E+00
         0.00000E+00
         0.00000E+00
         0.00000E+00
         0.00000E+00
         0.00000E+00
         0.00000E+00
         0.00000E+00
         0.00000E+00
         0.00000E+00
         0.00000E+00
         0.00000E+00
         0.00000E+00
         0.00000E+00
         0.00000E+00
         0.00000E+00
         0.00000E+00
         0.00000E+00
         0.00000E+00
         0.00000E+00
         0.00000E+00
         0.00000E+00
         0.00000E+00
         0.00000E+00
         0.00000E+00
         0.00000E+00
         0.00000E+00
         0.00000E+00
         0.00000E+00
         0.00000E+00
         0.00000E+00
         0.00000E+00
         0.00000E+00
         0.00000E+00
         0.00000E+00
         0.00000E+00
         0.00000E+00
         0.00000E+00
         0.00000E+00
         0.00000E+00
         0.00000E+00
         0.00000E+00
         0.00000E+00
         0.00000E+00
         0.00000E+00
         0.00000E+00
         0.00000E+00
         0.00000E+00
         0.00000E+00
         0.00000E+00
         0.00000E+00
         0.00000E+00
         0.00000E+00
         0.00000E+00
         0.00000E+00
         0.00000E+00
         0.00000E+00
         0.00000E+00
         0.00000E+00
         0.00000E+00
         0.00000E+00
         0.00000E+00
         0.00000E+00
         0.00000E+00
         0.00000E+00
         0.00000E+00
         0.00000E+00
         0.00000E+00
         0.00000E+00
         0.00000E+00
         0.00000E+00
         0.00000E+00
         0.00000E+00
         0.00000E+00
         0.00000E+00
         0.00000E+00
         0.00000E+00
         0.00000E+00
         0.00000E+00
         0.00000E+00
         0.00000E+00
         0.00000E+00
         0.00000E+00
         0.00000E+00
         0.00000E+00
         0.00000E+00
         0.00000E+00
         0.00000E+00
         0.00000E+00
         0.00000E+00
         0.00000E+00
         0.00000E+00
         0.00000E+00
         0.00000E+00
         0.00000E+00
         0.00000E+00
         0.00000E+00
         0.00000E+00
         0.00000E+00
         0.00000E+00
         0.00000E+00
         0.00000E+00
         0.00000E+00
         0.00000E+00
         0.00000E+00
         0.00000E+00
         0.00000E+00
         0.00000E+00
         0.00000E+00
         0.00000E+00
         0.00000E+00
         0.00000E+00
         0.00000E+00
         0.00000E+00
         0.00000E+00
         0.00000E+00
         0.00000E+00
         0.00000E+00
         0.00000E+00
         0.00000E+00
         0.00000E+00
         0.00000E+00
         0.00000E+00
         0.00000E+00
         0.00000E+00
         0.00000E+00
         0.00000E+00
         0.00000E+00
         0.00000E+00
         0.00000E+00
         0.00000E+00
         0.00000E+00
         0.00000E+00
         0.00000E+00
         0.00000E+00
         0.00000E+00
         0.00000E+00
         0.00000E+00
         0.00000E+00
         0.00000E+00
         0.00000E+00
         0.00000E+00
         0.00000E+00
         0.00000E+00
         0.00000E+00
         0.00000E+00
         0.00000E+00
         0.00000E+00
         0.00000E+00
         0.00000E+00
         0.00000E+00
         0.00000E+00
         0.00000E+00
         0.00000E+00
         0.00000E+00
         0.00000E+00
         0.00000E+00
         0.00000E+00
         0.00000E+00
         0.00000E+00
         0.00000E+00
         0.00000E+00
         0.00000E+00
         0.00000E+00
         0.00000E+00
         0.00000E+00
         0.00000E+00
         0.00000E+00
         0.00000E+00
         0.00000E+00
         0.00000E+00
         0.00000E+00
         0.00000E+00
         0.00000E+00
         0.00000E+00
         0.00000E+00
         0.00000E+00
         0.00000E+00
         0.00000E+00
         0.00000E+00
         0.00000E+00
         0.00000E+00
         0.00000E+00
         0.00000E+00
         0.00000E+00
         0.00000E+00
         0.00000E+00
         0.00000E+00
         0.00000E+00
         0.00000E+00
         0.00000E+00
         0.00000E+00
         0.00000E+00
         0.00000E+00
         0.00000E+00
         0.00000E+00
         0.00000E+00
         0.00000E+00
         0.00000E+00
         0.00000E+00
         0.00000E+00
         0.00000E+00
         0.00000E+00
         0.00000E+00
         0.00000E+00
         0.00000E+00
         0.00000E+00
         0.00000E+00
         0.00000E+00
         0.00000E+00
         0.00000E+00
         0.00000E+00
         0.00000E+00
         0.00000E+00
         0.00000E+00
         0.00000E+00
         0.00000E+00
         0.00000E+00
         0.00000E+00
         0.00000E+00
         0.00000E+00
         0.00000E+00
         0.00000E+00
         0.00000E+00
         0.00000E+00
         0.00000E+00
         0.00000E+00
         0.00000E+00
         0.00000E+00
         0.00000E+00
         0.00000E+00
         0.00000E+00
         0.00000E+00
         0.00000E+00
         0.00000E+00
         0.00000E+00
         0.00000E+00
         0.00000E+00
         0.00000E+00
         0.00000E+00
         0.00000E+00
         0.00000E+00
         0.00000E+00
         0.00000E+00
         0.00000E+00
         0.00000E+00
         0.00000E+00
         0.00000E+00
         0.00000E+00
         0.00000E+00
         0.00000E+00
         0.00000E+00
         0.00000E+00
         0.00000E+00
         0.00000E+00
         0.00000E+00
         0.00000E+00
         0.00000E+00
         0.00000E+00
         0.00000E+00
         0.00000E+00
         0.00000E+00
         0.00000E+00
         0.00000E+00
         0.00000E+00
         0.00000E+00
         0.00000E+00
         0.00000E+00
         0.00000E+00
         0.00000E+00
         0.00000E+00
         0.00000E+00
         0.00000E+00
         0.00000E+00
         0.00000E+00
         0.00000E+00
         0.00000E+00
         0.00000E+00
         0.00000E+00
         0.00000E+00
         0.00000E+00
         0.00000E+00
         0.00000E+00
         0.00000E+00
         0.00000E+00
         0.00000E+00
         0.00000E+00
         0.00000E+00
         0.00000E+00
         0.00000E+00
         0.00000E+00
         0.00000E+00
         0.00000E+00
         0.00000E+00
         0.00000E+00
         0.00000E+00
         0.00000E+00
         0.00000E+00
         0.00000E+00
         0.00000E+00
         0.00000E+00
         0.00000E+00
         0.00000E+00
         0.00000E+00
         0.00000E+00
         0.00000E+00
         0.00000E+00
         0.00000E+00
         0.00000E+00
         0.00000E+00
         0.00000E+00
         0.00000E+00
         0.00000E+00
         0.00000E+00
         0.00000E+00
         0.00000E+00
         0.00000E+00
         0.00000E+00
         0.00000E+00
         0.00000E+00
         0.00000E+00
         0.00000E+00
         0.00000E+00
         0.00000E+00
         0.00000E+00
         0.00000E+00
         0.00000E+00
         0.00000E+00
         0.00000E+00
         0.00000E+00
         0.00000E+00
         0.00000E+00
         0.00000E+00
         0.00000E+00
         0.00000E+00
         0.00000E+00
         0.00000E+00
         0.00000E+00
         0.00000E+00
         0.00000E+00
         0.00000E+00
         0.00000E+00
         0.00000E+00
         0.00000E+00
         0.00000E+00
         0.00000E+00
         0.00000E+00
         0.00000E+00
         0.00000E+00
         0.00000E+00
         0.00000E+00
         0.00000E+00
         0.00000E+00
         0.00000E+00
         0.00000E+00
         0.00000E+00
         0.00000E+00
         0.00000E+00
         0.00000E+00
         0.00000E+00
         0.00000E+00
         0.00000E+00
         0.00000E+00
         0.00000E+00
         0.00000E+00
         0.00000E+00
         0.00000E+00
         0.00000E+00
         0.00000E+00
         0.00000E+00
         0.00000E+00
         0.00000E+00
         0.00000E+00
         0.00000E+00
         0.00000E+00
         0.00000E+00
         0.00000E+00
         0.00000E+00
         0.00000E+00
         0.00000E+00
         0.00000E+00
         0.00000E+00
         0.00000E+00
         0.00000E+00
         0.00000E+00
         0.00000E+00
         0.00000E+00
         0.00000E+00
         0.00000E+00
         0.00000E+00
         0.00000E+00
         0.00000E+00
         0.00000E+00
         0.00000E+00
         0.00000E+00
         0.00000E+00
         0.00000E+00
         0.00000E+00
         0.00000E+00
         0.00000E+00
         0.00000E+00
         0.00000E+00
         0.00000E+00
         0.00000E+00
         0.00000E+00
         0.00000E+00
         0.00000E+00
         0.00000E+00
         0.00000E+00
         0.00000E+00
         0.00000E+00
         0.00000E+00
         0.00000E+00
         0.00000E+00
         0.00000E+00
         0.00000E+00
         0.00000E+00
         0.00000E+00
         0.00000E+00
         0.00000E+00
         0.00000E+00
         0.00000E+00
         0.00000E+00
         0.00000E+00
         0.00000E+00
         0.00000E+00
         0.00000E+00
         0.00000E+00
         0.00000E+00
         0.00000E+00
         0.00000E+00
         0.00000E+00
         0.00000E+00
         0.00000E+00
         0.00000E+00
         0.00000E+00
         0.00000E+00
         0.00000E+00
         0.00000E+00
         0.00000E+00
         0.00000E+00
         0.00000E+00
         0.00000E+00
         0.00000E+00
         0.00000E+00
         0.00000E+00
         0.00000E+00
         0.00000E+00
         0.00000E+00
         0.00000E+00
         0.00000E+00
         0.00000E+00
         0.00000E+00
         0.00000E+00
         0.00000E+00
         0.00000E+00
         0.00000E+00
  
SCALARS                 acceleration_y  double 1
LOOKUP_TABLE default
         0.00000E+00
         0.00000E+00
         0.00000E+00
         0.00000E+00
         0.00000E+00
         0.00000E+00
         0.00000E+00
         0.00000E+00
         0.00000E+00
         0.00000E+00
         0.00000E+00
         0.00000E+00
         0.00000E+00
         0.00000E+00
         0.00000E+00
         0.00000E+00
         0.00000E+00
         0.00000E+00
         0.00000E+00
         0.00000E+00
         0.00000E+00
         0.00000E+00
         0.00000E+00
         0.00000E+00
         0.00000E+00
         0.00000E+00
         0.00000E+00
         0.00000E+00
         0.00000E+00
         0.00000E+00
         0.00000E+00
         0.00000E+00
         0.00000E+00
         0.00000E+00
         0.00000E+00
         0.00000E+00
         0.00000E+00
         0.00000E+00
         0.00000E+00
         0.00000E+00
         0.00000E+00
         0.00000E+00
         0.00000E+00
         0.00000E+00
         0.00000E+00
         0.00000E+00
         0.00000E+00
         0.00000E+00
         0.00000E+00
         0.00000E+00
         0.00000E+00
         0.00000E+00
         0.00000E+00
         0.00000E+00
         0.00000E+00
         0.00000E+00
         0.00000E+00
         0.00000E+00
         0.00000E+00
         0.00000E+00
         0.00000E+00
         0.00000E+00
         0.00000E+00
         0.00000E+00
         0.00000E+00
         0.00000E+00
         0.00000E+00
         0.00000E+00
         0.00000E+00
         0.00000E+00
         0.00000E+00
         0.00000E+00
         0.00000E+00
         0.00000E+00
         0.00000E+00
         0.00000E+00
         0.00000E+00
         0.00000E+00
         0.00000E+00
         0.00000E+00
         0.00000E+00
         0.00000E+00
         0.00000E+00
         0.00000E+00
         0.00000E+00
         0.00000E+00
         0.00000E+00
         0.00000E+00
         0.00000E+00
         0.00000E+00
         0.00000E+00
         0.00000E+00
         0.00000E+00
         0.00000E+00
         0.00000E+00
         0.00000E+00
         0.00000E+00
         0.00000E+00
         0.00000E+00
         0.00000E+00
         0.00000E+00
         0.00000E+00
         0.00000E+00
         0.00000E+00
         0.00000E+00
         0.00000E+00
         0.00000E+00
         0.00000E+00
         0.00000E+00
         0.00000E+00
         0.00000E+00
         0.00000E+00
         0.00000E+00
         0.00000E+00
         0.00000E+00
         0.00000E+00
         0.00000E+00
         0.00000E+00
         0.00000E+00
         0.00000E+00
         0.00000E+00
         0.00000E+00
         0.00000E+00
         0.00000E+00
         0.00000E+00
         0.00000E+00
         0.00000E+00
         0.00000E+00
         0.00000E+00
         0.00000E+00
         0.00000E+00
         0.00000E+00
         0.00000E+00
         0.00000E+00
         0.00000E+00
         0.00000E+00
         0.00000E+00
         0.00000E+00
         0.00000E+00
         0.00000E+00
         0.00000E+00
         0.00000E+00
         0.00000E+00
         0.00000E+00
         0.00000E+00
         0.00000E+00
         0.00000E+00
         0.00000E+00
         0.00000E+00
         0.00000E+00
         0.00000E+00
         0.00000E+00
         0.00000E+00
         0.00000E+00
         0.00000E+00
         0.00000E+00
         0.00000E+00
         0.00000E+00
         0.00000E+00
         0.00000E+00
         0.00000E+00
         0.00000E+00
         0.00000E+00
         0.00000E+00
         0.00000E+00
         0.00000E+00
         0.00000E+00
         0.00000E+00
         0.00000E+00
         0.00000E+00
         0.00000E+00
         0.00000E+00
         0.00000E+00
         0.00000E+00
         0.00000E+00
         0.00000E+00
         0.00000E+00
         0.00000E+00
         0.00000E+00
         0.00000E+00
         0.00000E+00
         0.00000E+00
         0.00000E+00
         0.00000E+00
         0.00000E+00
         0.00000E+00
         0.00000E+00
         0.00000E+00
         0.00000E+00
         0.00000E+00
         0.00000E+00
         0.00000E+00
         0.00000E+00
         0.00000E+00
         0.00000E+00
         0.00000E+00
         0.00000E+00
         0.00000E+00
         0.00000E+00
         0.00000E+00
         0.00000E+00
         0.00000E+00
         0.00000E+00
         0.00000E+00
         0.00000E+00
         0.00000E+00
         0.00000E+00
         0.00000E+00
         0.00000E+00
         0.00000E+00
         0.00000E+00
         0.00000E+00
         0.00000E+00
         0.00000E+00
         0.00000E+00
         0.00000E+00
         0.00000E+00
         0.00000E+00
         0.00000E+00
         0.00000E+00
         0.00000E+00
         0.00000E+00
         0.00000E+00
         0.00000E+00
         0.00000E+00
         0.00000E+00
         0.00000E+00
         0.00000E+00
         0.00000E+00
         0.00000E+00
         0.00000E+00
         0.00000E+00
         0.00000E+00
         0.00000E+00
         0.00000E+00
         0.00000E+00
         0.00000E+00
         0.00000E+00
         0.00000E+00
         0.00000E+00
         0.00000E+00
         0.00000E+00
         0.00000E+00
         0.00000E+00
         0.00000E+00
         0.00000E+00
         0.00000E+00
         0.00000E+00
         0.00000E+00
         0.00000E+00
         0.00000E+00
         0.00000E+00
         0.00000E+00
         0.00000E+00
         0.00000E+00
         0.00000E+00
         0.00000E+00
         0.00000E+00
         0.00000E+00
         0.00000E+00
         0.00000E+00
         0.00000E+00
         0.00000E+00
         0.00000E+00
         0.00000E+00
         0.00000E+00
         0.00000E+00
         0.00000E+00
         0.00000E+00
         0.00000E+00
         0.00000E+00
         0.00000E+00
         0.00000E+00
         0.00000E+00
         0.00000E+00
         0.00000E+00
         0.00000E+00
         0.00000E+00
         0.00000E+00
         0.00000E+00
         0.00000E+00
         0.00000E+00
         0.00000E+00
         0.00000E+00
         0.00000E+00
         0.00000E+00
         0.00000E+00
         0.00000E+00
         0.00000E+00
         0.00000E+00
         0.00000E+00
         0.00000E+00
         0.00000E+00
         0.00000E+00
         0.00000E+00
         0.00000E+00
         0.00000E+00
         0.00000E+00
         0.00000E+00
         0.00000E+00
         0.00000E+00
         0.00000E+00
         0.00000E+00
         0.00000E+00
         0.00000E+00
         0.00000E+00
         0.00000E+00
         0.00000E+00
         0.00000E+00
         0.00000E+00
         0.00000E+00
         0.00000E+00
         0.00000E+00
         0.00000E+00
         0.00000E+00
         0.00000E+00
         0.00000E+00
         0.00000E+00
         0.00000E+00
         0.00000E+00
         0.00000E+00
         0.00000E+00
         0.00000E+00
         0.00000E+00
         0.00000E+00
         0.00000E+00
         0.00000E+00
         0.00000E+00
         0.00000E+00
         0.00000E+00
         0.00000E+00
         0.00000E+00
         0.00000E+00
         0.00000E+00
         0.00000E+00
         0.00000E+00
         0.00000E+00
         0.00000E+00
         0.00000E+00
         0.00000E+00
         0.00000E+00
         0.00000E+00
         0.00000E+00
         0.00000E+00
         0.00000E+00
         0.00000E+00
         0.00000E+00
         0.00000E+00
         0.00000E+00
         0.00000E+00
         0.00000E+00
         0.00000E+00
         0.00000E+00
         0.00000E+00
         0.00000E+00
         0.00000E+00
         0.00000E+00
         0.00000E+00
         0.00000E+00
         0.00000E+00
         0.00000E+00
         0.00000E+00
         0.00000E+00
         0.00000E+00
         0.00000E+00
         0.00000E+00
         0.00000E+00
         0.00000E+00
         0.00000E+00
         0.00000E+00
         0.00000E+00
         0.00000E+00
         0.00000E+00
         0.00000E+00
         0.00000E+00
         0.00000E+00
         0.00000E+00
         0.00000E+00
         0.00000E+00
         0.00000E+00
         0.00000E+00
         0.00000E+00
         0.00000E+00
         0.00000E+00
         0.00000E+00
         0.00000E+00
         0.00000E+00
         0.00000E+00
         0.00000E+00
         0.00000E+00
         0.00000E+00
         0.00000E+00
         0.00000E+00
         0.00000E+00
         0.00000E+00
         0.00000E+00
         0.00000E+00
         0.00000E+00
         0.00000E+00
         0.00000E+00
         0.00000E+00
         0.00000E+00
         0.00000E+00
         0.00000E+00
         0.00000E+00
         0.00000E+00
         0.00000E+00
         0.00000E+00
         0.00000E+00
         0.00000E+00
         0.00000E+00
         0.00000E+00
         0.00000E+00
         0.00000E+00
         0.00000E+00
         0.00000E+00
         0.00000E+00
         0.00000E+00
         0.00000E+00
         0.00000E+00
         0.00000E+00
         0.00000E+00
         0.00000E+00
         0.00000E+00
         0.00000E+00
         0.00000E+00
         0.00000E+00
         0.00000E+00
         0.00000E+00
         0.00000E+00
         0.00000E+00
         0.00000E+00
         0.00000E+00
         0.00000E+00
         0.00000E+00
         0.00000E+00
         0.00000E+00
         0.00000E+00
         0.00000E+00
         0.00000E+00
         0.00000E+00
         0.00000E+00
         0.00000E+00
         0.00000E+00
         0.00000E+00
         0.00000E+00
         0.00000E+00
         0.00000E+00
         0.00000E+00
         0.00000E+00
         0.00000E+00
         0.00000E+00
         0.00000E+00
         0.00000E+00
         0.00000E+00
         0.00000E+00
         0.00000E+00
         0.00000E+00
         0.00000E+00
         0.00000E+00
         0.00000E+00
         0.00000E+00
         0.00000E+00
         0.00000E+00
         0.00000E+00
         0.00000E+00
         0.00000E+00
         0.00000E+00
         0.00000E+00
         0.00000E+00
         0.00000E+00
         0.00000E+00
         0.00000E+00
         0.00000E+00
         0.00000E+00
         0.00000E+00
         0.00000E+00
         0.00000E+00
         0.00000E+00
         0.00000E+00
         0.00000E+00
         0.00000E+00
         0.00000E+00
         0.00000E+00
         0.00000E+00
         0.00000E+00
         0.00000E+00
         0.00000E+00
         0.00000E+00
         0.00000E+00
         0.00000E+00
         0.00000E+00
         0.00000E+00
         0.00000E+00
         0.00000E+00
         0.00000E+00
         0.00000E+00
         0.00000E+00
         0.00000E+00
         0.00000E+00
         0.00000E+00
         0.00000E+00
         0.00000E+00
         0.00000E+00
         0.00000E+00
         0.00000E+00
         0.00000E+00
         0.00000E+00
         0.00000E+00
         0.00000E+00
         0.00000E+00
         0.00000E+00
         0.00000E+00
         0.00000E+00
         0.00000E+00
         0.00000E+00
         0.00000E+00
         0.00000E+00
         0.00000E+00
         0.00000E+00
         0.00000E+00
         0.00000E+00
         0.00000E+00
         0.00000E+00
         0.00000E+00
         0.00000E+00
         0.00000E+00
         0.00000E+00
         0.00000E+00
         0.00000E+00
         0.00000E+00
         0.00000E+00
         0.00000E+00
         0.00000E+00
         0.00000E+00
         0.00000E+00
         0.00000E+00
         0.00000E+00
         0.00000E+00
         0.00000E+00
         0.00000E+00
         0.00000E+00
         0.00000E+00
         0.00000E+00
         0.00000E+00
         0.00000E+00
         0.00000E+00
         0.00000E+00
         0.00000E+00
         0.00000E+00
         0.00000E+00
         0.00000E+00
         0.00000E+00
         0.00000E+00
         0.00000E+00
         0.00000E+00
         0.00000E+00
         0.00000E+00
         0.00000E+00
         0.00000E+00
         0.00000E+00
         0.00000E+00
         0.00000E+00
         0.00000E+00
         0.00000E+00
         0.00000E+00
         0.00000E+00
         0.00000E+00
         0.00000E+00
         0.00000E+00
         0.00000E+00
         0.00000E+00
         0.00000E+00
         0.00000E+00
         0.00000E+00
         0.00000E+00
         0.00000E+00
         0.00000E+00
         0.00000E+00
         0.00000E+00
         0.00000E+00
         0.00000E+00
         0.00000E+00
         0.00000E+00
         0.00000E+00
         0.00000E+00
         0.00000E+00
         0.00000E+00
         0.00000E+00
         0.00000E+00
         0.00000E+00
         0.00000E+00
         0.00000E+00
         0.00000E+00
         0.00000E+00
         0.00000E+00
         0.00000E+00
         0.00000E+00
         0.00000E+00
         0.00000E+00
         0.00000E+00
         0.00000E+00
         0.00000E+00
         0.00000E+00
         0.00000E+00
         0.00000E+00
         0.00000E+00
         0.00000E+00
         0.00000E+00
         0.00000E+00
         0.00000E+00
         0.00000E+00
         0.00000E+00
         0.00000E+00
         0.00000E+00
         0.00000E+00
         0.00000E+00
         0.00000E+00
         0.00000E+00
         0.00000E+00
         0.00000E+00
         0.00000E+00
         0.00000E+00
         0.00000E+00
         0.00000E+00
         0.00000E+00
         0.00000E+00
         0.00000E+00
         0.00000E+00
         0.00000E+00
         0.00000E+00
         0.00000E+00
         0.00000E+00
         0.00000E+00
         0.00000E+00
         0.00000E+00
         0.00000E+00
         0.00000E+00
         0.00000E+00
         0.00000E+00
         0.00000E+00
         0.00000E+00
         0.00000E+00
         0.00000E+00
         0.00000E+00
         0.00000E+00
         0.00000E+00
         0.00000E+00
         0.00000E+00
         0.00000E+00
         0.00000E+00
         0.00000E+00
         0.00000E+00
         0.00000E+00
         0.00000E+00
         0.00000E+00
         0.00000E+00
         0.00000E+00
         0.00000E+00
         0.00000E+00
         0.00000E+00
         0.00000E+00
         0.00000E+00
         0.00000E+00
         0.00000E+00
         0.00000E+00
         0.00000E+00
         0.00000E+00
         0.00000E+00
         0.00000E+00
         0.00000E+00
         0.00000E+00
         0.00000E+00
         0.00000E+00
         0.00000E+00
         0.00000E+00
         0.00000E+00
         0.00000E+00
         0.00000E+00
         0.00000E+00
         0.00000E+00
         0.00000E+00
         0.00000E+00
         0.00000E+00
         0.00000E+00
         0.00000E+00
         0.00000E+00
         0.00000E+00
         0.00000E+00
         0.00000E+00
         0.00000E+00
         0.00000E+00
         0.00000E+00
         0.00000E+00
         0.00000E+00
         0.00000E+00
         0.00000E+00
         0.00000E+00
         0.00000E+00
         0.00000E+00
         0.00000E+00
         0.00000E+00
         0.00000E+00
         0.00000E+00
         0.00000E+00
         0.00000E+00
         0.00000E+00
         0.00000E+00
         0.00000E+00
         0.00000E+00
         0.00000E+00
         0.00000E+00
         0.00000E+00
         0.00000E+00
         0.00000E+00
         0.00000E+00
         0.00000E+00
         0.00000E+00
         0.00000E+00
         0.00000E+00
         0.00000E+00
         0.00000E+00
         0.00000E+00
         0.00000E+00
         0.00000E+00
         0.00000E+00
         0.00000E+00
         0.00000E+00
         0.00000E+00
         0.00000E+00
         0.00000E+00
         0.00000E+00
         0.00000E+00
         0.00000E+00
         0.00000E+00
         0.00000E+00
         0.00000E+00
         0.00000E+00
         0.00000E+00
         0.00000E+00
         0.00000E+00
         0.00000E+00
         0.00000E+00
         0.00000E+00
         0.00000E+00
         0.00000E+00
         0.00000E+00
         0.00000E+00
         0.00000E+00
         0.00000E+00
         0.00000E+00
         0.00000E+00
         0.00000E+00
         0.00000E+00
         0.00000E+00
         0.00000E+00
         0.00000E+00
         0.00000E+00
         0.00000E+00
         0.00000E+00
         0.00000E+00
         0.00000E+00
         0.00000E+00
         0.00000E+00
         0.00000E+00
         0.00000E+00
         0.00000E+00
         0.00000E+00
         0.00000E+00
         0.00000E+00
         0.00000E+00
         0.00000E+00
         0.00000E+00
         0.00000E+00
         0.00000E+00
         0.00000E+00
         0.00000E+00
         0.00000E+00
         0.00000E+00
         0.00000E+00
         0.00000E+00
         0.00000E+00
         0.00000E+00
         0.00000E+00
         0.00000E+00
         0.00000E+00
         0.00000E+00
         0.00000E+00
         0.00000E+00
         0.00000E+00
         0.00000E+00
         0.00000E+00
         0.00000E+00
         0.00000E+00
         0.00000E+00
         0.00000E+00
         0.00000E+00
         0.00000E+00
         0.00000E+00
         0.00000E+00
         0.00000E+00
         0.00000E+00
         0.00000E+00
         0.00000E+00
         0.00000E+00
         0.00000E+00
         0.00000E+00
         0.00000E+00
         0.00000E+00
         0.00000E+00
         0.00000E+00
         0.00000E+00
         0.00000E+00
         0.00000E+00
         0.00000E+00
         0.00000E+00
         0.00000E+00
         0.00000E+00
         0.00000E+00
         0.00000E+00
         0.00000E+00
         0.00000E+00
         0.00000E+00
         0.00000E+00
         0.00000E+00
         0.00000E+00
         0.00000E+00
         0.00000E+00
         0.00000E+00
         0.00000E+00
         0.00000E+00
         0.00000E+00
         0.00000E+00
         0.00000E+00
         0.00000E+00
         0.00000E+00
         0.00000E+00
         0.00000E+00
         0.00000E+00
         0.00000E+00
         0.00000E+00
         0.00000E+00
         0.00000E+00
         0.00000E+00
         0.00000E+00
         0.00000E+00
         0.00000E+00
         0.00000E+00
         0.00000E+00
         0.00000E+00
         0.00000E+00
         0.00000E+00
         0.00000E+00
         0.00000E+00
         0.00000E+00
         0.00000E+00
         0.00000E+00
         0.00000E+00
         0.00000E+00
         0.00000E+00
         0.00000E+00
         0.00000E+00
         0.00000E+00
         0.00000E+00
         0.00000E+00
         0.00000E+00
         0.00000E+00
         0.00000E+00
         0.00000E+00
         0.00000E+00
         0.00000E+00
         0.00000E+00
         0.00000E+00
         0.00000E+00
         0.00000E+00
         0.00000E+00
         0.00000E+00
         0.00000E+00
         0.00000E+00
         0.00000E+00
         0.00000E+00
         0.00000E+00
         0.00000E+00
         0.00000E+00
         0.00000E+00
         0.00000E+00
         0.00000E+00
         0.00000E+00
         0.00000E+00
         0.00000E+00
         0.00000E+00
         0.00000E+00
         0.00000E+00
         0.00000E+00
         0.00000E+00
         0.00000E+00
         0.00000E+00
         0.00000E+00
         0.00000E+00
         0.00000E+00
         0.00000E+00
         0.00000E+00
         0.00000E+00
         0.00000E+00
         0.00000E+00
         0.00000E+00
         0.00000E+00
         0.00000E+00
         0.00000E+00
         0.00000E+00
         0.00000E+00
         0.00000E+00
         0.00000E+00
         0.00000E+00
         0.00000E+00
         0.00000E+00
         0.00000E+00
         0.00000E+00
         0.00000E+00
         0.00000E+00
         0.00000E+00
         0.00000E+00
         0.00000E+00
         0.00000E+00
         0.00000E+00
         0.00000E+00
         0.00000E+00
         0.00000E+00
         0.00000E+00
         0.00000E+00
         0.00000E+00
         0.00000E+00
         0.00000E+00
         0.00000E+00
         0.00000E+00
         0.00000E+00
         0.00000E+00
         0.00000E+00
         0.00000E+00
         0.00000E+00
         0.00000E+00
         0.00000E+00
         0.00000E+00
         0.00000E+00
         0.00000E+00
         0.00000E+00
         0.00000E+00
         0.00000E+00
         0.00000E+00
         0.00000E+00
         0.00000E+00
         0.00000E+00
         0.00000E+00
         0.00000E+00
         0.00000E+00
         0.00000E+00
         0.00000E+00
         0.00000E+00
         0.00000E+00
         0.00000E+00
         0.00000E+00
         0.00000E+00
         0.00000E+00
         0.00000E+00
         0.00000E+00
         0.00000E+00
         0.00000E+00
         0.00000E+00
         0.00000E+00
         0.00000E+00
         0.00000E+00
         0.00000E+00
         0.00000E+00
         0.00000E+00
         0.00000E+00
         0.00000E+00
         0.00000E+00
         0.00000E+00
         0.00000E+00
         0.00000E+00
         0.00000E+00
         0.00000E+00
         0.00000E+00
         0.00000E+00
         0.00000E+00
         0.00000E+00
         0.00000E+00
         0.00000E+00
         0.00000E+00
         0.00000E+00
         0.00000E+00
         0.00000E+00
         0.00000E+00
         0.00000E+00
         0.00000E+00
         0.00000E+00
         0.00000E+00
         0.00000E+00
         0.00000E+00
         0.00000E+00
         0.00000E+00
         0.00000E+00
         0.00000E+00
         0.00000E+00
         0.00000E+00
         0.00000E+00
         0.00000E+00
         0.00000E+00
         0.00000E+00
         0.00000E+00
         0.00000E+00
         0.00000E+00
         0.00000E+00
         0.00000E+00
         0.00000E+00
         0.00000E+00
         0.00000E+00
         0.00000E+00
         0.00000E+00
         0.00000E+00
         0.00000E+00
         0.00000E+00
         0.00000E+00
         0.00000E+00
         0.00000E+00
         0.00000E+00
         0.00000E+00
         0.00000E+00
         0.00000E+00
         0.00000E+00
         0.00000E+00
         0.00000E+00
         0.00000E+00
         0.00000E+00
         0.00000E+00
         0.00000E+00
         0.00000E+00
         0.00000E+00
         0.00000E+00
         0.00000E+00
         0.00000E+00
         0.00000E+00
         0.00000E+00
         0.00000E+00
         0.00000E+00
         0.00000E+00
         0.00000E+00
         0.00000E+00
         0.00000E+00
         0.00000E+00
         0.00000E+00
         0.00000E+00
         0.00000E+00
         0.00000E+00
         0.00000E+00
         0.00000E+00
         0.00000E+00
         0.00000E+00
         0.00000E+00
         0.00000E+00
         0.00000E+00
         0.00000E+00
         0.00000E+00
         0.00000E+00
         0.00000E+00
         0.00000E+00
         0.00000E+00
         0.00000E+00
         0.00000E+00
         0.00000E+00
         0.00000E+00
         0.00000E+00
         0.00000E+00
         0.00000E+00
         0.00000E+00
         0.00000E+00
         0.00000E+00
         0.00000E+00
         0.00000E+00
         0.00000E+00
         0.00000E+00
         0.00000E+00
         0.00000E+00
         0.00000E+00
         0.00000E+00
         0.00000E+00
         0.00000E+00
         0.00000E+00
         0.00000E+00
         0.00000E+00
         0.00000E+00
         0.00000E+00
         0.00000E+00
         0.00000E+00
         0.00000E+00
         0.00000E+00
         0.00000E+00
         0.00000E+00
         0.00000E+00
         0.00000E+00
         0.00000E+00
         0.00000E+00
         0.00000E+00
         0.00000E+00
         0.00000E+00
         0.00000E+00
         0.00000E+00
         0.00000E+00
         0.00000E+00
         0.00000E+00
         0.00000E+00
         0.00000E+00
         0.00000E+00
         0.00000E+00
         0.00000E+00
         0.00000E+00
         0.00000E+00
         0.00000E+00
         0.00000E+00
         0.00000E+00
         0.00000E+00
         0.00000E+00
         0.00000E+00
         0.00000E+00
         0.00000E+00
         0.00000E+00
         0.00000E+00
         0.00000E+00
         0.00000E+00
         0.00000E+00
         0.00000E+00
         0.00000E+00
         0.00000E+00
         0.00000E+00
         0.00000E+00
         0.00000E+00
         0.00000E+00
         0.00000E+00
         0.00000E+00
         0.00000E+00
         0.00000E+00
         0.00000E+00
         0.00000E+00
         0.00000E+00
         0.00000E+00
         0.00000E+00
         0.00000E+00
         0.00000E+00
         0.00000E+00
         0.00000E+00
         0.00000E+00
         0.00000E+00
         0.00000E+00
         0.00000E+00
         0.00000E+00
         0.00000E+00
         0.00000E+00
         0.00000E+00
         0.00000E+00
         0.00000E+00
         0.00000E+00
         0.00000E+00
         0.00000E+00
         0.00000E+00
         0.00000E+00
         0.00000E+00
         0.00000E+00
         0.00000E+00
         0.00000E+00
         0.00000E+00
         0.00000E+00
         0.00000E+00
         0.00000E+00
         0.00000E+00
         0.00000E+00
         0.00000E+00
         0.00000E+00
         0.00000E+00
         0.00000E+00
         0.00000E+00
         0.00000E+00
         0.00000E+00
         0.00000E+00
         0.00000E+00
         0.00000E+00
         0.00000E+00
         0.00000E+00
         0.00000E+00
         0.00000E+00
         0.00000E+00
         0.00000E+00
         0.00000E+00
         0.00000E+00
         0.00000E+00
         0.00000E+00
         0.00000E+00
         0.00000E+00
         0.00000E+00
         0.00000E+00
         0.00000E+00
         0.00000E+00
         0.00000E+00
         0.00000E+00
         0.00000E+00
         0.00000E+00
         0.00000E+00
         0.00000E+00
         0.00000E+00
         0.00000E+00
         0.00000E+00
         0.00000E+00
         0.00000E+00
         0.00000E+00
         0.00000E+00
         0.00000E+00
         0.00000E+00
         0.00000E+00
         0.00000E+00
         0.00000E+00
         0.00000E+00
         0.00000E+00
         0.00000E+00
         0.00000E+00
         0.00000E+00
         0.00000E+00
         0.00000E+00
         0.00000E+00
         0.00000E+00
         0.00000E+00
         0.00000E+00
         0.00000E+00
         0.00000E+00
         0.00000E+00
         0.00000E+00
         0.00000E+00
         0.00000E+00
         0.00000E+00
         0.00000E+00
         0.00000E+00
         0.00000E+00
         0.00000E+00
         0.00000E+00
         0.00000E+00
         0.00000E+00
         0.00000E+00
         0.00000E+00
         0.00000E+00
         0.00000E+00
         0.00000E+00
         0.00000E+00
         0.00000E+00
         0.00000E+00
         0.00000E+00
         0.00000E+00
         0.00000E+00
         0.00000E+00
         0.00000E+00
         0.00000E+00
         0.00000E+00
         0.00000E+00
         0.00000E+00
         0.00000E+00
         0.00000E+00
         0.00000E+00
         0.00000E+00
         0.00000E+00
         0.00000E+00
         0.00000E+00
         0.00000E+00
         0.00000E+00
         0.00000E+00
         0.00000E+00
         0.00000E+00
         0.00000E+00
         0.00000E+00
         0.00000E+00
         0.00000E+00
         0.00000E+00
         0.00000E+00
         0.00000E+00
         0.00000E+00
         0.00000E+00
         0.00000E+00
         0.00000E+00
         0.00000E+00
         0.00000E+00
         0.00000E+00
         0.00000E+00
         0.00000E+00
         0.00000E+00
         0.00000E+00
         0.00000E+00
         0.00000E+00
         0.00000E+00
         0.00000E+00
         0.00000E+00
         0.00000E+00
         0.00000E+00
         0.00000E+00
         0.00000E+00
         0.00000E+00
         0.00000E+00
         0.00000E+00
         0.00000E+00
         0.00000E+00
         0.00000E+00
         0.00000E+00
         0.00000E+00
         0.00000E+00
         0.00000E+00
         0.00000E+00
         0.00000E+00
         0.00000E+00
         0.00000E+00
         0.00000E+00
         0.00000E+00
         0.00000E+00
         0.00000E+00
         0.00000E+00
         0.00000E+00
         0.00000E+00
         0.00000E+00
         0.00000E+00
         0.00000E+00
         0.00000E+00
         0.00000E+00
         0.00000E+00
         0.00000E+00
         0.00000E+00
         0.00000E+00
         0.00000E+00
         0.00000E+00
         0.00000E+00
         0.00000E+00
         0.00000E+00
         0.00000E+00
         0.00000E+00
         0.00000E+00
         0.00000E+00
         0.00000E+00
         0.00000E+00
         0.00000E+00
         0.00000E+00
         0.00000E+00
         0.00000E+00
         0.00000E+00
         0.00000E+00
         0.00000E+00
         0.00000E+00
         0.00000E+00
         0.00000E+00
         0.00000E+00
         0.00000E+00
         0.00000E+00
         0.00000E+00
         0.00000E+00
         0.00000E+00
         0.00000E+00
         0.00000E+00
         0.00000E+00
         0.00000E+00
         0.00000E+00
         0.00000E+00
         0.00000E+00
         0.00000E+00
         0.00000E+00
         0.00000E+00
         0.00000E+00
         0.00000E+00
         0.00000E+00
         0.00000E+00
         0.00000E+00
         0.00000E+00
         0.00000E+00
         0.00000E+00
         0.00000E+00
         0.00000E+00
         0.00000E+00
         0.00000E+00
         0.00000E+00
         0.00000E+00
         0.00000E+00
         0.00000E+00
         0.00000E+00
         0.00000E+00
         0.00000E+00
         0.00000E+00
         0.00000E+00
         0.00000E+00
         0.00000E+00
         0.00000E+00
         0.00000E+00
         0.00000E+00
         0.00000E+00
         0.00000E+00
         0.00000E+00
         0.00000E+00
         0.00000E+00
         0.00000E+00
         0.00000E+00
         0.00000E+00
         0.00000E+00
         0.00000E+00
         0.00000E+00
         0.00000E+00
         0.00000E+00
         0.00000E+00
         0.00000E+00
         0.00000E+00
         0.00000E+00
         0.00000E+00
         0.00000E+00
         0.00000E+00
         0.00000E+00
         0.00000E+00
         0.00000E+00
         0.00000E+00
         0.00000E+00
         0.00000E+00
         0.00000E+00
         0.00000E+00
         0.00000E+00
         0.00000E+00
         0.00000E+00
         0.00000E+00
         0.00000E+00
         0.00000E+00
         0.00000E+00
         0.00000E+00
         0.00000E+00
         0.00000E+00
         0.00000E+00
         0.00000E+00
         0.00000E+00
         0.00000E+00
         0.00000E+00
         0.00000E+00
         0.00000E+00
         0.00000E+00
         0.00000E+00
         0.00000E+00
         0.00000E+00
         0.00000E+00
         0.00000E+00
         0.00000E+00
         0.00000E+00
         0.00000E+00
         0.00000E+00
         0.00000E+00
         0.00000E+00
         0.00000E+00
         0.00000E+00
         0.00000E+00
         0.00000E+00
         0.00000E+00
         0.00000E+00
         0.00000E+00
         0.00000E+00
         0.00000E+00
         0.00000E+00
         0.00000E+00
         0.00000E+00
         0.00000E+00
         0.00000E+00
         0.00000E+00
         0.00000E+00
         0.00000E+00
         0.00000E+00
         0.00000E+00
         0.00000E+00
         0.00000E+00
         0.00000E+00
         0.00000E+00
         0.00000E+00
         0.00000E+00
         0.00000E+00
         0.00000E+00
         0.00000E+00
         0.00000E+00
         0.00000E+00
         0.00000E+00
         0.00000E+00
         0.00000E+00
         0.00000E+00
         0.00000E+00
         0.00000E+00
         0.00000E+00
         0.00000E+00
         0.00000E+00
         0.00000E+00
         0.00000E+00
         0.00000E+00
         0.00000E+00
         0.00000E+00
         0.00000E+00
         0.00000E+00
         0.00000E+00
         0.00000E+00
         0.00000E+00
         0.00000E+00
         0.00000E+00
         0.00000E+00
         0.00000E+00
         0.00000E+00
         0.00000E+00
         0.00000E+00
         0.00000E+00
         0.00000E+00
         0.00000E+00
         0.00000E+00
         0.00000E+00
         0.00000E+00
         0.00000E+00
         0.00000E+00
         0.00000E+00
         0.00000E+00
         0.00000E+00
         0.00000E+00
         0.00000E+00
         0.00000E+00
         0.00000E+00
         0.00000E+00
         0.00000E+00
         0.00000E+00
         0.00000E+00
         0.00000E+00
         0.00000E+00
         0.00000E+00
         0.00000E+00
         0.00000E+00
         0.00000E+00
         0.00000E+00
         0.00000E+00
         0.00000E+00
         0.00000E+00
         0.00000E+00
         0.00000E+00
         0.00000E+00
         0.00000E+00
         0.00000E+00
         0.00000E+00
         0.00000E+00
         0.00000E+00
         0.00000E+00
         0.00000E+00
         0.00000E+00
         0.00000E+00
         0.00000E+00
         0.00000E+00
         0.00000E+00
         0.00000E+00
         0.00000E+00
         0.00000E+00
         0.00000E+00
         0.00000E+00
         0.00000E+00
         0.00000E+00
         0.00000E+00
         0.00000E+00
         0.00000E+00
         0.00000E+00
         0.00000E+00
         0.00000E+00
         0.00000E+00
         0.00000E+00
         0.00000E+00
         0.00000E+00
         0.00000E+00
         0.00000E+00
         0.00000E+00
         0.00000E+00
         0.00000E+00
         0.00000E+00
         0.00000E+00
         0.00000E+00
         0.00000E+00
         0.00000E+00
         0.00000E+00
         0.00000E+00
         0.00000E+00
         0.00000E+00
         0.00000E+00
         0.00000E+00
         0.00000E+00
         0.00000E+00
         0.00000E+00
         0.00000E+00
         0.00000E+00
         0.00000E+00
         0.00000E+00
         0.00000E+00
         0.00000E+00
         0.00000E+00
         0.00000E+00
         0.00000E+00
         0.00000E+00
         0.00000E+00
         0.00000E+00
         0.00000E+00
         0.00000E+00
         0.00000E+00
         0.00000E+00
         0.00000E+00
         0.00000E+00
         0.00000E+00
         0.00000E+00
         0.00000E+00
         0.00000E+00
         0.00000E+00
         0.00000E+00
         0.00000E+00
         0.00000E+00
         0.00000E+00
         0.00000E+00
         0.00000E+00
         0.00000E+00
         0.00000E+00
         0.00000E+00
         0.00000E+00
         0.00000E+00
         0.00000E+00
         0.00000E+00
         0.00000E+00
         0.00000E+00
         0.00000E+00
         0.00000E+00
         0.00000E+00
         0.00000E+00
         0.00000E+00
         0.00000E+00
         0.00000E+00
         0.00000E+00
         0.00000E+00
         0.00000E+00
         0.00000E+00
         0.00000E+00
         0.00000E+00
         0.00000E+00
         0.00000E+00
         0.00000E+00
         0.00000E+00
         0.00000E+00
         0.00000E+00
         0.00000E+00
         0.00000E+00
         0.00000E+00
         0.00000E+00
         0.00000E+00
         0.00000E+00
         0.00000E+00
         0.00000E+00
         0.00000E+00
         0.00000E+00
         0.00000E+00
         0.00000E+00
         0.00000E+00
         0.00000E+00
         0.00000E+00
         0.00000E+00
         0.00000E+00
         0.00000E+00
         0.00000E+00
         0.00000E+00
         0.00000E+00
         0.00000E+00
         0.00000E+00
         0.00000E+00
         0.00000E+00
         0.00000E+00
         0.00000E+00
         0.00000E+00
         0.00000E+00
         0.00000E+00
         0.00000E+00
         0.00000E+00
         0.00000E+00
         0.00000E+00
         0.00000E+00
         0.00000E+00
         0.00000E+00
         0.00000E+00
         0.00000E+00
         0.00000E+00
         0.00000E+00
         0.00000E+00
         0.00000E+00
         0.00000E+00
         0.00000E+00
         0.00000E+00
         0.00000E+00
         0.00000E+00
         0.00000E+00
         0.00000E+00
         0.00000E+00
         0.00000E+00
         0.00000E+00
         0.00000E+00
         0.00000E+00
         0.00000E+00
         0.00000E+00
         0.00000E+00
         0.00000E+00
         0.00000E+00
         0.00000E+00
         0.00000E+00
         0.00000E+00
         0.00000E+00
         0.00000E+00
         0.00000E+00
         0.00000E+00
         0.00000E+00
         0.00000E+00
         0.00000E+00
         0.00000E+00
         0.00000E+00
         0.00000E+00
         0.00000E+00
         0.00000E+00
         0.00000E+00
         0.00000E+00
         0.00000E+00
         0.00000E+00
         0.00000E+00
         0.00000E+00
         0.00000E+00
         0.00000E+00
         0.00000E+00
         0.00000E+00
         0.00000E+00
         0.00000E+00
         0.00000E+00
         0.00000E+00
         0.00000E+00
         0.00000E+00
         0.00000E+00
         0.00000E+00
         0.00000E+00
         0.00000E+00
         0.00000E+00
         0.00000E+00
         0.00000E+00
         0.00000E+00
         0.00000E+00
         0.00000E+00
         0.00000E+00
         0.00000E+00
         0.00000E+00
         0.00000E+00
         0.00000E+00
         0.00000E+00
         0.00000E+00
         0.00000E+00
         0.00000E+00
         0.00000E+00
         0.00000E+00
         0.00000E+00
         0.00000E+00
         0.00000E+00
         0.00000E+00
         0.00000E+00
         0.00000E+00
         0.00000E+00
         0.00000E+00
         0.00000E+00
         0.00000E+00
         0.00000E+00
         0.00000E+00
         0.00000E+00
         0.00000E+00
         0.00000E+00
         0.00000E+00
         0.00000E+00
         0.00000E+00
         0.00000E+00
         0.00000E+00
         0.00000E+00
         0.00000E+00
         0.00000E+00
         0.00000E+00
         0.00000E+00
         0.00000E+00
         0.00000E+00
         0.00000E+00
         0.00000E+00
         0.00000E+00
         0.00000E+00
         0.00000E+00
         0.00000E+00
         0.00000E+00
         0.00000E+00
         0.00000E+00
         0.00000E+00
         0.00000E+00
         0.00000E+00
         0.00000E+00
         0.00000E+00
         0.00000E+00
         0.00000E+00
         0.00000E+00
         0.00000E+00
         0.00000E+00
         0.00000E+00
         0.00000E+00
         0.00000E+00
         0.00000E+00
         0.00000E+00
         0.00000E+00
         0.00000E+00
         0.00000E+00
         0.00000E+00
         0.00000E+00
         0.00000E+00
         0.00000E+00
         0.00000E+00
         0.00000E+00
         0.00000E+00
         0.00000E+00
         0.00000E+00
         0.00000E+00
         0.00000E+00
         0.00000E+00
         0.00000E+00
         0.00000E+00
         0.00000E+00
         0.00000E+00
         0.00000E+00
         0.00000E+00
         0.00000E+00
         0.00000E+00
         0.00000E+00
         0.00000E+00
         0.00000E+00
         0.00000E+00
         0.00000E+00
         0.00000E+00
         0.00000E+00
         0.00000E+00
         0.00000E+00
         0.00000E+00
         0.00000E+00
         0.00000E+00
         0.00000E+00
         0.00000E+00
         0.00000E+00
         0.00000E+00
         0.00000E+00
         0.00000E+00
         0.00000E+00
         0.00000E+00
         0.00000E+00
         0.00000E+00
         0.00000E+00
         0.00000E+00
         0.00000E+00
         0.00000E+00
         0.00000E+00
         0.00000E+00
         0.00000E+00
         0.00000E+00
         0.00000E+00
         0.00000E+00
         0.00000E+00
         0.00000E+00
         0.00000E+00
         0.00000E+00
         0.00000E+00
         0.00000E+00
         0.00000E+00
         0.00000E+00
         0.00000E+00
         0.00000E+00
         0.00000E+00
         0.00000E+00
         0.00000E+00
         0.00000E+00
         0.00000E+00
         0.00000E+00
         0.00000E+00
         0.00000E+00
         0.00000E+00
         0.00000E+00
         0.00000E+00
         0.00000E+00
         0.00000E+00
         0.00000E+00
         0.00000E+00
         0.00000E+00
         0.00000E+00
         0.00000E+00
         0.00000E+00
         0.00000E+00
         0.00000E+00
         0.00000E+00
         0.00000E+00
         0.00000E+00
         0.00000E+00
         0.00000E+00
         0.00000E+00
         0.00000E+00
         0.00000E+00
         0.00000E+00
         0.00000E+00
         0.00000E+00
         0.00000E+00
         0.00000E+00
         0.00000E+00
         0.00000E+00
         0.00000E+00
         0.00000E+00
         0.00000E+00
         0.00000E+00
         0.00000E+00
         0.00000E+00
         0.00000E+00
         0.00000E+00
         0.00000E+00
         0.00000E+00
         0.00000E+00
         0.00000E+00
         0.00000E+00
         0.00000E+00
         0.00000E+00
         0.00000E+00
         0.00000E+00
         0.00000E+00
         0.00000E+00
         0.00000E+00
         0.00000E+00
         0.00000E+00
         0.00000E+00
         0.00000E+00
         0.00000E+00
         0.00000E+00
         0.00000E+00
         0.00000E+00
         0.00000E+00
         0.00000E+00
         0.00000E+00
         0.00000E+00
         0.00000E+00
         0.00000E+00
         0.00000E+00
         0.00000E+00
         0.00000E+00
         0.00000E+00
         0.00000E+00
         0.00000E+00
         0.00000E+00
         0.00000E+00
         0.00000E+00
  
SCALARS                 acceleration_z  double 1
LOOKUP_TABLE default
         0.00000E+00
         0.00000E+00
         0.00000E+00
         0.00000E+00
         0.00000E+00
         0.00000E+00
         0.00000E+00
         0.00000E+00
         0.00000E+00
         0.00000E+00
         0.00000E+00
         0.00000E+00
         0.00000E+00
         0.00000E+00
         0.00000E+00
         0.00000E+00
         0.00000E+00
         0.00000E+00
         0.00000E+00
         0.00000E+00
         0.00000E+00
         0.00000E+00
         0.00000E+00
         0.00000E+00
         0.00000E+00
         0.00000E+00
         0.00000E+00
         0.00000E+00
         0.00000E+00
         0.00000E+00
         0.00000E+00
         0.00000E+00
         0.00000E+00
         0.00000E+00
         0.00000E+00
         0.00000E+00
         0.00000E+00
         0.00000E+00
         0.00000E+00
         0.00000E+00
         0.00000E+00
         0.00000E+00
         0.00000E+00
         0.00000E+00
         0.00000E+00
         0.00000E+00
         0.00000E+00
         0.00000E+00
         0.00000E+00
         0.00000E+00
         0.00000E+00
         0.00000E+00
         0.00000E+00
         0.00000E+00
         0.00000E+00
         0.00000E+00
         0.00000E+00
         0.00000E+00
         0.00000E+00
         0.00000E+00
         0.00000E+00
         0.00000E+00
         0.00000E+00
         0.00000E+00
         0.00000E+00
         0.00000E+00
         0.00000E+00
         0.00000E+00
         0.00000E+00
         0.00000E+00
         0.00000E+00
         0.00000E+00
         0.00000E+00
         0.00000E+00
         0.00000E+00
         0.00000E+00
         0.00000E+00
         0.00000E+00
         0.00000E+00
         0.00000E+00
         0.00000E+00
         0.00000E+00
         0.00000E+00
         0.00000E+00
         0.00000E+00
         0.00000E+00
         0.00000E+00
         0.00000E+00
         0.00000E+00
         0.00000E+00
         0.00000E+00
         0.00000E+00
         0.00000E+00
         0.00000E+00
         0.00000E+00
         0.00000E+00
         0.00000E+00
         0.00000E+00
         0.00000E+00
         0.00000E+00
         0.00000E+00
         0.00000E+00
         0.00000E+00
         0.00000E+00
         0.00000E+00
         0.00000E+00
         0.00000E+00
         0.00000E+00
         0.00000E+00
         0.00000E+00
         0.00000E+00
         0.00000E+00
         0.00000E+00
         0.00000E+00
         0.00000E+00
         0.00000E+00
         0.00000E+00
         0.00000E+00
         0.00000E+00
         0.00000E+00
         0.00000E+00
         0.00000E+00
         0.00000E+00
         0.00000E+00
         0.00000E+00
         0.00000E+00
         0.00000E+00
         0.00000E+00
         0.00000E+00
         0.00000E+00
         0.00000E+00
         0.00000E+00
         0.00000E+00
         0.00000E+00
         0.00000E+00
         0.00000E+00
         0.00000E+00
         0.00000E+00
         0.00000E+00
         0.00000E+00
         0.00000E+00
         0.00000E+00
         0.00000E+00
         0.00000E+00
         0.00000E+00
         0.00000E+00
         0.00000E+00
         0.00000E+00
         0.00000E+00
         0.00000E+00
         0.00000E+00
         0.00000E+00
         0.00000E+00
         0.00000E+00
         0.00000E+00
         0.00000E+00
         0.00000E+00
         0.00000E+00
         0.00000E+00
         0.00000E+00
         0.00000E+00
         0.00000E+00
         0.00000E+00
         0.00000E+00
         0.00000E+00
         0.00000E+00
         0.00000E+00
         0.00000E+00
         0.00000E+00
         0.00000E+00
         0.00000E+00
         0.00000E+00
         0.00000E+00
         0.00000E+00
         0.00000E+00
         0.00000E+00
         0.00000E+00
         0.00000E+00
         0.00000E+00
         0.00000E+00
         0.00000E+00
         0.00000E+00
         0.00000E+00
         0.00000E+00
         0.00000E+00
         0.00000E+00
         0.00000E+00
         0.00000E+00
         0.00000E+00
         0.00000E+00
         0.00000E+00
         0.00000E+00
         0.00000E+00
         0.00000E+00
         0.00000E+00
         0.00000E+00
         0.00000E+00
         0.00000E+00
         0.00000E+00
         0.00000E+00
         0.00000E+00
         0.00000E+00
         0.00000E+00
         0.00000E+00
         0.00000E+00
         0.00000E+00
         0.00000E+00
         0.00000E+00
         0.00000E+00
         0.00000E+00
         0.00000E+00
         0.00000E+00
         0.00000E+00
         0.00000E+00
         0.00000E+00
         0.00000E+00
         0.00000E+00
         0.00000E+00
         0.00000E+00
         0.00000E+00
         0.00000E+00
         0.00000E+00
         0.00000E+00
         0.00000E+00
         0.00000E+00
         0.00000E+00
         0.00000E+00
         0.00000E+00
         0.00000E+00
         0.00000E+00
         0.00000E+00
         0.00000E+00
         0.00000E+00
         0.00000E+00
         0.00000E+00
         0.00000E+00
         0.00000E+00
         0.00000E+00
         0.00000E+00
         0.00000E+00
         0.00000E+00
         0.00000E+00
         0.00000E+00
         0.00000E+00
         0.00000E+00
         0.00000E+00
         0.00000E+00
         0.00000E+00
         0.00000E+00
         0.00000E+00
         0.00000E+00
         0.00000E+00
         0.00000E+00
         0.00000E+00
         0.00000E+00
         0.00000E+00
         0.00000E+00
         0.00000E+00
         0.00000E+00
         0.00000E+00
         0.00000E+00
         0.00000E+00
         0.00000E+00
         0.00000E+00
         0.00000E+00
         0.00000E+00
         0.00000E+00
         0.00000E+00
         0.00000E+00
         0.00000E+00
         0.00000E+00
         0.00000E+00
         0.00000E+00
         0.00000E+00
         0.00000E+00
         0.00000E+00
         0.00000E+00
         0.00000E+00
         0.00000E+00
         0.00000E+00
         0.00000E+00
         0.00000E+00
         0.00000E+00
         0.00000E+00
         0.00000E+00
         0.00000E+00
         0.00000E+00
         0.00000E+00
         0.00000E+00
         0.00000E+00
         0.00000E+00
         0.00000E+00
         0.00000E+00
         0.00000E+00
         0.00000E+00
         0.00000E+00
         0.00000E+00
         0.00000E+00
         0.00000E+00
         0.00000E+00
         0.00000E+00
         0.00000E+00
         0.00000E+00
         0.00000E+00
         0.00000E+00
         0.00000E+00
         0.00000E+00
         0.00000E+00
         0.00000E+00
         0.00000E+00
         0.00000E+00
         0.00000E+00
         0.00000E+00
         0.00000E+00
         0.00000E+00
         0.00000E+00
         0.00000E+00
         0.00000E+00
         0.00000E+00
         0.00000E+00
         0.00000E+00
         0.00000E+00
         0.00000E+00
         0.00000E+00
         0.00000E+00
         0.00000E+00
         0.00000E+00
         0.00000E+00
         0.00000E+00
         0.00000E+00
         0.00000E+00
         0.00000E+00
         0.00000E+00
         0.00000E+00
         0.00000E+00
         0.00000E+00
         0.00000E+00
         0.00000E+00
         0.00000E+00
         0.00000E+00
         0.00000E+00
         0.00000E+00
         0.00000E+00
         0.00000E+00
         0.00000E+00
         0.00000E+00
         0.00000E+00
         0.00000E+00
         0.00000E+00
         0.00000E+00
         0.00000E+00
         0.00000E+00
         0.00000E+00
         0.00000E+00
         0.00000E+00
         0.00000E+00
         0.00000E+00
         0.00000E+00
         0.00000E+00
         0.00000E+00
         0.00000E+00
         0.00000E+00
         0.00000E+00
         0.00000E+00
         0.00000E+00
         0.00000E+00
         0.00000E+00
         0.00000E+00
         0.00000E+00
         0.00000E+00
         0.00000E+00
         0.00000E+00
         0.00000E+00
         0.00000E+00
         0.00000E+00
         0.00000E+00
         0.00000E+00
         0.00000E+00
         0.00000E+00
         0.00000E+00
         0.00000E+00
         0.00000E+00
         0.00000E+00
         0.00000E+00
         0.00000E+00
         0.00000E+00
         0.00000E+00
         0.00000E+00
         0.00000E+00
         0.00000E+00
         0.00000E+00
         0.00000E+00
         0.00000E+00
         0.00000E+00
         0.00000E+00
         0.00000E+00
         0.00000E+00
         0.00000E+00
         0.00000E+00
         0.00000E+00
         0.00000E+00
         0.00000E+00
         0.00000E+00
         0.00000E+00
         0.00000E+00
         0.00000E+00
         0.00000E+00
         0.00000E+00
         0.00000E+00
         0.00000E+00
         0.00000E+00
         0.00000E+00
         0.00000E+00
         0.00000E+00
         0.00000E+00
         0.00000E+00
         0.00000E+00
         0.00000E+00
         0.00000E+00
         0.00000E+00
         0.00000E+00
         0.00000E+00
         0.00000E+00
         0.00000E+00
         0.00000E+00
         0.00000E+00
         0.00000E+00
         0.00000E+00
         0.00000E+00
         0.00000E+00
         0.00000E+00
         0.00000E+00
         0.00000E+00
         0.00000E+00
         0.00000E+00
         0.00000E+00
         0.00000E+00
         0.00000E+00
         0.00000E+00
         0.00000E+00
         0.00000E+00
         0.00000E+00
         0.00000E+00
         0.00000E+00
         0.00000E+00
         0.00000E+00
         0.00000E+00
         0.00000E+00
         0.00000E+00
         0.00000E+00
         0.00000E+00
         0.00000E+00
         0.00000E+00
         0.00000E+00
         0.00000E+00
         0.00000E+00
         0.00000E+00
         0.00000E+00
         0.00000E+00
         0.00000E+00
         0.00000E+00
         0.00000E+00
         0.00000E+00
         0.00000E+00
         0.00000E+00
         0.00000E+00
         0.00000E+00
         0.00000E+00
         0.00000E+00
         0.00000E+00
         0.00000E+00
         0.00000E+00
         0.00000E+00
         0.00000E+00
         0.00000E+00
         0.00000E+00
         0.00000E+00
         0.00000E+00
         0.00000E+00
         0.00000E+00
         0.00000E+00
         0.00000E+00
         0.00000E+00
         0.00000E+00
         0.00000E+00
         0.00000E+00
         0.00000E+00
         0.00000E+00
         0.00000E+00
         0.00000E+00
         0.00000E+00
         0.00000E+00
         0.00000E+00
         0.00000E+00
         0.00000E+00
         0.00000E+00
         0.00000E+00
         0.00000E+00
         0.00000E+00
         0.00000E+00
         0.00000E+00
         0.00000E+00
         0.00000E+00
         0.00000E+00
         0.00000E+00
         0.00000E+00
         0.00000E+00
         0.00000E+00
         0.00000E+00
         0.00000E+00
         0.00000E+00
         0.00000E+00
         0.00000E+00
         0.00000E+00
         0.00000E+00
         0.00000E+00
         0.00000E+00
         0.00000E+00
         0.00000E+00
         0.00000E+00
         0.00000E+00
         0.00000E+00
         0.00000E+00
         0.00000E+00
         0.00000E+00
         0.00000E+00
         0.00000E+00
         0.00000E+00
         0.00000E+00
         0.00000E+00
         0.00000E+00
         0.00000E+00
         0.00000E+00
         0.00000E+00
         0.00000E+00
         0.00000E+00
         0.00000E+00
         0.00000E+00
         0.00000E+00
         0.00000E+00
         0.00000E+00
         0.00000E+00
         0.00000E+00
         0.00000E+00
         0.00000E+00
         0.00000E+00
         0.00000E+00
         0.00000E+00
         0.00000E+00
         0.00000E+00
         0.00000E+00
         0.00000E+00
         0.00000E+00
         0.00000E+00
         0.00000E+00
         0.00000E+00
         0.00000E+00
         0.00000E+00
         0.00000E+00
         0.00000E+00
         0.00000E+00
         0.00000E+00
         0.00000E+00
         0.00000E+00
         0.00000E+00
         0.00000E+00
         0.00000E+00
         0.00000E+00
         0.00000E+00
         0.00000E+00
         0.00000E+00
         0.00000E+00
         0.00000E+00
         0.00000E+00
         0.00000E+00
         0.00000E+00
         0.00000E+00
         0.00000E+00
         0.00000E+00
         0.00000E+00
         0.00000E+00
         0.00000E+00
         0.00000E+00
         0.00000E+00
         0.00000E+00
         0.00000E+00
         0.00000E+00
         0.00000E+00
         0.00000E+00
         0.00000E+00
         0.00000E+00
         0.00000E+00
         0.00000E+00
         0.00000E+00
         0.00000E+00
         0.00000E+00
         0.00000E+00
         0.00000E+00
         0.00000E+00
         0.00000E+00
         0.00000E+00
         0.00000E+00
         0.00000E+00
         0.00000E+00
         0.00000E+00
         0.00000E+00
         0.00000E+00
         0.00000E+00
         0.00000E+00
         0.00000E+00
         0.00000E+00
         0.00000E+00
         0.00000E+00
         0.00000E+00
         0.00000E+00
         0.00000E+00
         0.00000E+00
         0.00000E+00
         0.00000E+00
         0.00000E+00
         0.00000E+00
         0.00000E+00
         0.00000E+00
         0.00000E+00
         0.00000E+00
         0.00000E+00
         0.00000E+00
         0.00000E+00
         0.00000E+00
         0.00000E+00
         0.00000E+00
         0.00000E+00
         0.00000E+00
         0.00000E+00
         0.00000E+00
         0.00000E+00
         0.00000E+00
         0.00000E+00
         0.00000E+00
         0.00000E+00
         0.00000E+00
         0.00000E+00
         0.00000E+00
         0.00000E+00
         0.00000E+00
         0.00000E+00
         0.00000E+00
         0.00000E+00
         0.00000E+00
         0.00000E+00
         0.00000E+00
         0.00000E+00
         0.00000E+00
         0.00000E+00
         0.00000E+00
         0.00000E+00
         0.00000E+00
         0.00000E+00
         0.00000E+00
         0.00000E+00
         0.00000E+00
         0.00000E+00
         0.00000E+00
         0.00000E+00
         0.00000E+00
         0.00000E+00
         0.00000E+00
         0.00000E+00
         0.00000E+00
         0.00000E+00
         0.00000E+00
         0.00000E+00
         0.00000E+00
         0.00000E+00
         0.00000E+00
         0.00000E+00
         0.00000E+00
         0.00000E+00
         0.00000E+00
         0.00000E+00
         0.00000E+00
         0.00000E+00
         0.00000E+00
         0.00000E+00
         0.00000E+00
         0.00000E+00
         0.00000E+00
         0.00000E+00
         0.00000E+00
         0.00000E+00
         0.00000E+00
         0.00000E+00
         0.00000E+00
         0.00000E+00
         0.00000E+00
         0.00000E+00
         0.00000E+00
         0.00000E+00
         0.00000E+00
         0.00000E+00
         0.00000E+00
         0.00000E+00
         0.00000E+00
         0.00000E+00
         0.00000E+00
         0.00000E+00
         0.00000E+00
         0.00000E+00
         0.00000E+00
         0.00000E+00
         0.00000E+00
         0.00000E+00
         0.00000E+00
         0.00000E+00
         0.00000E+00
         0.00000E+00
         0.00000E+00
         0.00000E+00
         0.00000E+00
         0.00000E+00
         0.00000E+00
         0.00000E+00
         0.00000E+00
         0.00000E+00
         0.00000E+00
         0.00000E+00
         0.00000E+00
         0.00000E+00
         0.00000E+00
         0.00000E+00
         0.00000E+00
         0.00000E+00
         0.00000E+00
         0.00000E+00
         0.00000E+00
         0.00000E+00
         0.00000E+00
         0.00000E+00
         0.00000E+00
         0.00000E+00
         0.00000E+00
         0.00000E+00
         0.00000E+00
         0.00000E+00
         0.00000E+00
         0.00000E+00
         0.00000E+00
         0.00000E+00
         0.00000E+00
         0.00000E+00
         0.00000E+00
         0.00000E+00
         0.00000E+00
         0.00000E+00
         0.00000E+00
         0.00000E+00
         0.00000E+00
         0.00000E+00
         0.00000E+00
         0.00000E+00
         0.00000E+00
         0.00000E+00
         0.00000E+00
         0.00000E+00
         0.00000E+00
         0.00000E+00
         0.00000E+00
         0.00000E+00
         0.00000E+00
         0.00000E+00
         0.00000E+00
         0.00000E+00
         0.00000E+00
         0.00000E+00
         0.00000E+00
         0.00000E+00
         0.00000E+00
         0.00000E+00
         0.00000E+00
         0.00000E+00
         0.00000E+00
         0.00000E+00
         0.00000E+00
         0.00000E+00
         0.00000E+00
         0.00000E+00
         0.00000E+00
         0.00000E+00
         0.00000E+00
         0.00000E+00
         0.00000E+00
         0.00000E+00
         0.00000E+00
         0.00000E+00
         0.00000E+00
         0.00000E+00
         0.00000E+00
         0.00000E+00
         0.00000E+00
         0.00000E+00
         0.00000E+00
         0.00000E+00
         0.00000E+00
         0.00000E+00
         0.00000E+00
         0.00000E+00
         0.00000E+00
         0.00000E+00
         0.00000E+00
         0.00000E+00
         0.00000E+00
         0.00000E+00
         0.00000E+00
         0.00000E+00
         0.00000E+00
         0.00000E+00
         0.00000E+00
         0.00000E+00
         0.00000E+00
         0.00000E+00
         0.00000E+00
         0.00000E+00
         0.00000E+00
         0.00000E+00
         0.00000E+00
         0.00000E+00
         0.00000E+00
         0.00000E+00
         0.00000E+00
         0.00000E+00
         0.00000E+00
         0.00000E+00
         0.00000E+00
         0.00000E+00
         0.00000E+00
         0.00000E+00
         0.00000E+00
         0.00000E+00
         0.00000E+00
         0.00000E+00
         0.00000E+00
         0.00000E+00
         0.00000E+00
         0.00000E+00
         0.00000E+00
         0.00000E+00
         0.00000E+00
         0.00000E+00
         0.00000E+00
         0.00000E+00
         0.00000E+00
         0.00000E+00
         0.00000E+00
         0.00000E+00
         0.00000E+00
         0.00000E+00
         0.00000E+00
         0.00000E+00
         0.00000E+00
         0.00000E+00
         0.00000E+00
         0.00000E+00
         0.00000E+00
         0.00000E+00
         0.00000E+00
         0.00000E+00
         0.00000E+00
         0.00000E+00
         0.00000E+00
         0.00000E+00
         0.00000E+00
         0.00000E+00
         0.00000E+00
         0.00000E+00
         0.00000E+00
         0.00000E+00
         0.00000E+00
         0.00000E+00
         0.00000E+00
         0.00000E+00
         0.00000E+00
         0.00000E+00
         0.00000E+00
         0.00000E+00
         0.00000E+00
         0.00000E+00
         0.00000E+00
         0.00000E+00
         0.00000E+00
         0.00000E+00
         0.00000E+00
         0.00000E+00
         0.00000E+00
         0.00000E+00
         0.00000E+00
         0.00000E+00
         0.00000E+00
         0.00000E+00
         0.00000E+00
         0.00000E+00
         0.00000E+00
         0.00000E+00
         0.00000E+00
         0.00000E+00
         0.00000E+00
         0.00000E+00
         0.00000E+00
         0.00000E+00
         0.00000E+00
         0.00000E+00
         0.00000E+00
         0.00000E+00
         0.00000E+00
         0.00000E+00
         0.00000E+00
         0.00000E+00
         0.00000E+00
         0.00000E+00
         0.00000E+00
         0.00000E+00
         0.00000E+00
         0.00000E+00
         0.00000E+00
         0.00000E+00
         0.00000E+00
         0.00000E+00
         0.00000E+00
         0.00000E+00
         0.00000E+00
         0.00000E+00
         0.00000E+00
         0.00000E+00
         0.00000E+00
         0.00000E+00
         0.00000E+00
         0.00000E+00
         0.00000E+00
         0.00000E+00
         0.00000E+00
         0.00000E+00
         0.00000E+00
         0.00000E+00
         0.00000E+00
         0.00000E+00
         0.00000E+00
         0.00000E+00
         0.00000E+00
         0.00000E+00
         0.00000E+00
         0.00000E+00
         0.00000E+00
         0.00000E+00
         0.00000E+00
         0.00000E+00
         0.00000E+00
         0.00000E+00
         0.00000E+00
         0.00000E+00
         0.00000E+00
         0.00000E+00
         0.00000E+00
         0.00000E+00
         0.00000E+00
         0.00000E+00
         0.00000E+00
         0.00000E+00
         0.00000E+00
         0.00000E+00
         0.00000E+00
         0.00000E+00
         0.00000E+00
         0.00000E+00
         0.00000E+00
         0.00000E+00
         0.00000E+00
         0.00000E+00
         0.00000E+00
         0.00000E+00
         0.00000E+00
         0.00000E+00
         0.00000E+00
         0.00000E+00
         0.00000E+00
         0.00000E+00
         0.00000E+00
         0.00000E+00
         0.00000E+00
         0.00000E+00
         0.00000E+00
         0.00000E+00
         0.00000E+00
         0.00000E+00
         0.00000E+00
         0.00000E+00
         0.00000E+00
         0.00000E+00
         0.00000E+00
         0.00000E+00
         0.00000E+00
         0.00000E+00
         0.00000E+00
         0.00000E+00
         0.00000E+00
         0.00000E+00
         0.00000E+00
         0.00000E+00
         0.00000E+00
         0.00000E+00
         0.00000E+00
         0.00000E+00
         0.00000E+00
         0.00000E+00
         0.00000E+00
         0.00000E+00
         0.00000E+00
         0.00000E+00
         0.00000E+00
         0.00000E+00
         0.00000E+00
         0.00000E+00
         0.00000E+00
         0.00000E+00
         0.00000E+00
         0.00000E+00
         0.00000E+00
         0.00000E+00
         0.00000E+00
         0.00000E+00
         0.00000E+00
         0.00000E+00
         0.00000E+00
         0.00000E+00
         0.00000E+00
         0.00000E+00
         0.00000E+00
         0.00000E+00
         0.00000E+00
         0.00000E+00
         0.00000E+00
         0.00000E+00
         0.00000E+00
         0.00000E+00
         0.00000E+00
         0.00000E+00
         0.00000E+00
         0.00000E+00
         0.00000E+00
         0.00000E+00
         0.00000E+00
         0.00000E+00
         0.00000E+00
         0.00000E+00
         0.00000E+00
         0.00000E+00
         0.00000E+00
         0.00000E+00
         0.00000E+00
         0.00000E+00
         0.00000E+00
         0.00000E+00
         0.00000E+00
         0.00000E+00
         0.00000E+00
         0.00000E+00
         0.00000E+00
         0.00000E+00
         0.00000E+00
         0.00000E+00
         0.00000E+00
         0.00000E+00
         0.00000E+00
         0.00000E+00
         0.00000E+00
         0.00000E+00
         0.00000E+00
         0.00000E+00
         0.00000E+00
         0.00000E+00
         0.00000E+00
         0.00000E+00
         0.00000E+00
         0.00000E+00
         0.00000E+00
         0.00000E+00
         0.00000E+00
         0.00000E+00
         0.00000E+00
         0.00000E+00
         0.00000E+00
         0.00000E+00
         0.00000E+00
         0.00000E+00
         0.00000E+00
         0.00000E+00
         0.00000E+00
         0.00000E+00
         0.00000E+00
         0.00000E+00
         0.00000E+00
         0.00000E+00
         0.00000E+00
         0.00000E+00
         0.00000E+00
         0.00000E+00
         0.00000E+00
         0.00000E+00
         0.00000E+00
         0.00000E+00
         0.00000E+00
         0.00000E+00
         0.00000E+00
         0.00000E+00
         0.00000E+00
         0.00000E+00
         0.00000E+00
         0.00000E+00
         0.00000E+00
         0.00000E+00
         0.00000E+00
         0.00000E+00
         0.00000E+00
         0.00000E+00
         0.00000E+00
         0.00000E+00
         0.00000E+00
         0.00000E+00
         0.00000E+00
         0.00000E+00
         0.00000E+00
         0.00000E+00
         0.00000E+00
         0.00000E+00
         0.00000E+00
         0.00000E+00
         0.00000E+00
         0.00000E+00
         0.00000E+00
         0.00000E+00
         0.00000E+00
         0.00000E+00
         0.00000E+00
         0.00000E+00
         0.00000E+00
         0.00000E+00
         0.00000E+00
         0.00000E+00
         0.00000E+00
         0.00000E+00
         0.00000E+00
         0.00000E+00
         0.00000E+00
         0.00000E+00
         0.00000E+00
         0.00000E+00
         0.00000E+00
         0.00000E+00
         0.00000E+00
         0.00000E+00
         0.00000E+00
         0.00000E+00
         0.00000E+00
         0.00000E+00
         0.00000E+00
         0.00000E+00
         0.00000E+00
         0.00000E+00
         0.00000E+00
         0.00000E+00
         0.00000E+00
         0.00000E+00
         0.00000E+00
         0.00000E+00
         0.00000E+00
         0.00000E+00
         0.00000E+00
         0.00000E+00
         0.00000E+00
         0.00000E+00
         0.00000E+00
         0.00000E+00
         0.00000E+00
         0.00000E+00
         0.00000E+00
         0.00000E+00
         0.00000E+00
         0.00000E+00
         0.00000E+00
         0.00000E+00
         0.00000E+00
         0.00000E+00
         0.00000E+00
         0.00000E+00
         0.00000E+00
         0.00000E+00
         0.00000E+00
         0.00000E+00
         0.00000E+00
         0.00000E+00
         0.00000E+00
         0.00000E+00
         0.00000E+00
         0.00000E+00
         0.00000E+00
         0.00000E+00
         0.00000E+00
         0.00000E+00
         0.00000E+00
         0.00000E+00
         0.00000E+00
         0.00000E+00
         0.00000E+00
         0.00000E+00
         0.00000E+00
         0.00000E+00
         0.00000E+00
         0.00000E+00
         0.00000E+00
         0.00000E+00
         0.00000E+00
         0.00000E+00
         0.00000E+00
         0.00000E+00
         0.00000E+00
         0.00000E+00
         0.00000E+00
         0.00000E+00
         0.00000E+00
         0.00000E+00
         0.00000E+00
         0.00000E+00
         0.00000E+00
         0.00000E+00
         0.00000E+00
         0.00000E+00
         0.00000E+00
         0.00000E+00
         0.00000E+00
         0.00000E+00
         0.00000E+00
         0.00000E+00
         0.00000E+00
         0.00000E+00
         0.00000E+00
         0.00000E+00
         0.00000E+00
         0.00000E+00
         0.00000E+00
         0.00000E+00
         0.00000E+00
         0.00000E+00
         0.00000E+00
         0.00000E+00
         0.00000E+00
         0.00000E+00
         0.00000E+00
         0.00000E+00
         0.00000E+00
         0.00000E+00
         0.00000E+00
         0.00000E+00
         0.00000E+00
         0.00000E+00
         0.00000E+00
         0.00000E+00
         0.00000E+00
         0.00000E+00
         0.00000E+00
         0.00000E+00
         0.00000E+00
         0.00000E+00
         0.00000E+00
         0.00000E+00
         0.00000E+00
         0.00000E+00
         0.00000E+00
         0.00000E+00
         0.00000E+00
         0.00000E+00
         0.00000E+00
         0.00000E+00
         0.00000E+00
         0.00000E+00
         0.00000E+00
         0.00000E+00
         0.00000E+00
         0.00000E+00
         0.00000E+00
         0.00000E+00
         0.00000E+00
         0.00000E+00
         0.00000E+00
         0.00000E+00
         0.00000E+00
         0.00000E+00
         0.00000E+00
         0.00000E+00
         0.00000E+00
         0.00000E+00
         0.00000E+00
         0.00000E+00
         0.00000E+00
         0.00000E+00
         0.00000E+00
         0.00000E+00
         0.00000E+00
         0.00000E+00
         0.00000E+00
         0.00000E+00
         0.00000E+00
         0.00000E+00
         0.00000E+00
         0.00000E+00
         0.00000E+00
         0.00000E+00
         0.00000E+00
         0.00000E+00
         0.00000E+00
         0.00000E+00
         0.00000E+00
         0.00000E+00
         0.00000E+00
         0.00000E+00
         0.00000E+00
         0.00000E+00
         0.00000E+00
         0.00000E+00
         0.00000E+00
         0.00000E+00
         0.00000E+00
         0.00000E+00
         0.00000E+00
         0.00000E+00
         0.00000E+00
         0.00000E+00
         0.00000E+00
         0.00000E+00
         0.00000E+00
         0.00000E+00
         0.00000E+00
         0.00000E+00
         0.00000E+00
         0.00000E+00
         0.00000E+00
         0.00000E+00
         0.00000E+00
         0.00000E+00
         0.00000E+00
         0.00000E+00
         0.00000E+00
         0.00000E+00
         0.00000E+00
         0.00000E+00
         0.00000E+00
         0.00000E+00
         0.00000E+00
         0.00000E+00
         0.00000E+00
         0.00000E+00
         0.00000E+00
         0.00000E+00
         0.00000E+00
         0.00000E+00
         0.00000E+00
         0.00000E+00
         0.00000E+00
         0.00000E+00
         0.00000E+00
         0.00000E+00
         0.00000E+00
         0.00000E+00
         0.00000E+00
         0.00000E+00
         0.00000E+00
         0.00000E+00
         0.00000E+00
         0.00000E+00
         0.00000E+00
         0.00000E+00
         0.00000E+00
         0.00000E+00
         0.00000E+00
         0.00000E+00
         0.00000E+00
         0.00000E+00
         0.00000E+00
         0.00000E+00
         0.00000E+00
         0.00000E+00
         0.00000E+00
         0.00000E+00
         0.00000E+00
         0.00000E+00
         0.00000E+00
         0.00000E+00
         0.00000E+00
         0.00000E+00
         0.00000E+00
         0.00000E+00
         0.00000E+00
         0.00000E+00
         0.00000E+00
         0.00000E+00
         0.00000E+00
         0.00000E+00
         0.00000E+00
         0.00000E+00
         0.00000E+00
         0.00000E+00
         0.00000E+00
         0.00000E+00
         0.00000E+00
         0.00000E+00
         0.00000E+00
         0.00000E+00
         0.00000E+00
         0.00000E+00
         0.00000E+00
         0.00000E+00
         0.00000E+00
         0.00000E+00
         0.00000E+00
         0.00000E+00
         0.00000E+00
         0.00000E+00
         0.00000E+00
         0.00000E+00
         0.00000E+00
         0.00000E+00
         0.00000E+00
         0.00000E+00
         0.00000E+00
         0.00000E+00
         0.00000E+00
         0.00000E+00
         0.00000E+00
         0.00000E+00
         0.00000E+00
         0.00000E+00
         0.00000E+00
         0.00000E+00
         0.00000E+00
         0.00000E+00
         0.00000E+00
         0.00000E+00
         0.00000E+00
         0.00000E+00
         0.00000E+00
         0.00000E+00
         0.00000E+00
         0.00000E+00
         0.00000E+00
         0.00000E+00
         0.00000E+00
         0.00000E+00
         0.00000E+00
         0.00000E+00
         0.00000E+00
         0.00000E+00
         0.00000E+00
         0.00000E+00
         0.00000E+00
         0.00000E+00
         0.00000E+00
         0.00000E+00
         0.00000E+00
         0.00000E+00
         0.00000E+00
         0.00000E+00
         0.00000E+00
         0.00000E+00
         0.00000E+00
         0.00000E+00
         0.00000E+00
         0.00000E+00
         0.00000E+00
         0.00000E+00
         0.00000E+00
         0.00000E+00
         0.00000E+00
         0.00000E+00
         0.00000E+00
         0.00000E+00
         0.00000E+00
         0.00000E+00
         0.00000E+00
         0.00000E+00
         0.00000E+00
         0.00000E+00
         0.00000E+00
         0.00000E+00
         0.00000E+00
         0.00000E+00
         0.00000E+00
         0.00000E+00
         0.00000E+00
         0.00000E+00
         0.00000E+00
         0.00000E+00
         0.00000E+00
         0.00000E+00
         0.00000E+00
         0.00000E+00
         0.00000E+00
         0.00000E+00
         0.00000E+00
         0.00000E+00
         0.00000E+00
         0.00000E+00
         0.00000E+00
         0.00000E+00
         0.00000E+00
         0.00000E+00
         0.00000E+00
         0.00000E+00
         0.00000E+00
         0.00000E+00
         0.00000E+00
         0.00000E+00
         0.00000E+00
         0.00000E+00
         0.00000E+00
         0.00000E+00
         0.00000E+00
         0.00000E+00
         0.00000E+00
         0.00000E+00
         0.00000E+00
         0.00000E+00
         0.00000E+00
         0.00000E+00
         0.00000E+00
         0.00000E+00
         0.00000E+00
         0.00000E+00
         0.00000E+00
         0.00000E+00
         0.00000E+00
         0.00000E+00
         0.00000E+00
         0.00000E+00
         0.00000E+00
         0.00000E+00
         0.00000E+00
         0.00000E+00
         0.00000E+00
         0.00000E+00
         0.00000E+00
         0.00000E+00
         0.00000E+00
         0.00000E+00
         0.00000E+00
         0.00000E+00
         0.00000E+00
         0.00000E+00
         0.00000E+00
         0.00000E+00
         0.00000E+00
         0.00000E+00
         0.00000E+00
         0.00000E+00
         0.00000E+00
         0.00000E+00
         0.00000E+00
         0.00000E+00
         0.00000E+00
         0.00000E+00
         0.00000E+00
         0.00000E+00
         0.00000E+00
         0.00000E+00
         0.00000E+00
         0.00000E+00
         0.00000E+00
         0.00000E+00
         0.00000E+00
         0.00000E+00
         0.00000E+00
         0.00000E+00
         0.00000E+00
         0.00000E+00
         0.00000E+00
         0.00000E+00
         0.00000E+00
         0.00000E+00
         0.00000E+00
         0.00000E+00
         0.00000E+00
         0.00000E+00
         0.00000E+00
         0.00000E+00
         0.00000E+00
         0.00000E+00
         0.00000E+00
         0.00000E+00
         0.00000E+00
         0.00000E+00
         0.00000E+00
         0.00000E+00
         0.00000E+00
         0.00000E+00
         0.00000E+00
         0.00000E+00
         0.00000E+00
         0.00000E+00
         0.00000E+00
         0.00000E+00
         0.00000E+00
         0.00000E+00
         0.00000E+00
         0.00000E+00
         0.00000E+00
         0.00000E+00
         0.00000E+00
         0.00000E+00
         0.00000E+00
         0.00000E+00
         0.00000E+00
         0.00000E+00
         0.00000E+00
         0.00000E+00
         0.00000E+00
         0.00000E+00
         0.00000E+00
         0.00000E+00
         0.00000E+00
         0.00000E+00
         0.00000E+00
         0.00000E+00
         0.00000E+00
         0.00000E+00
         0.00000E+00
         0.00000E+00
         0.00000E+00
         0.00000E+00
         0.00000E+00
         0.00000E+00
         0.00000E+00
         0.00000E+00
         0.00000E+00
         0.00000E+00
         0.00000E+00
         0.00000E+00
         0.00000E+00
         0.00000E+00
         0.00000E+00
         0.00000E+00
         0.00000E+00
         0.00000E+00
         0.00000E+00
         0.00000E+00
         0.00000E+00
         0.00000E+00
         0.00000E+00
         0.00000E+00
         0.00000E+00
         0.00000E+00
         0.00000E+00
         0.00000E+00
         0.00000E+00
         0.00000E+00
         0.00000E+00
         0.00000E+00
         0.00000E+00
         0.00000E+00
         0.00000E+00
         0.00000E+00
         0.00000E+00
         0.00000E+00
         0.00000E+00
         0.00000E+00
         0.00000E+00
         0.00000E+00
         0.00000E+00
         0.00000E+00
         0.00000E+00
         0.00000E+00
         0.00000E+00
         0.00000E+00
         0.00000E+00
         0.00000E+00
         0.00000E+00
         0.00000E+00
         0.00000E+00
         0.00000E+00
         0.00000E+00
         0.00000E+00
         0.00000E+00
         0.00000E+00
         0.00000E+00
         0.00000E+00
         0.00000E+00
         0.00000E+00
         0.00000E+00
         0.00000E+00
         0.00000E+00
         0.00000E+00
         0.00000E+00
         0.00000E+00
         0.00000E+00
         0.00000E+00
         0.00000E+00
         0.00000E+00
         0.00000E+00
         0.00000E+00
         0.00000E+00
         0.00000E+00
         0.00000E+00
         0.00000E+00
         0.00000E+00
         0.00000E+00
         0.00000E+00
         0.00000E+00
         0.00000E+00
         0.00000E+00
         0.00000E+00
         0.00000E+00
         0.00000E+00
         0.00000E+00
         0.00000E+00
         0.00000E+00
         0.00000E+00
         0.00000E+00
         0.00000E+00
         0.00000E+00
         0.00000E+00
         0.00000E+00
         0.00000E+00
         0.00000E+00
         0.00000E+00
         0.00000E+00
         0.00000E+00
         0.00000E+00
         0.00000E+00
         0.00000E+00
         0.00000E+00
         0.00000E+00
         0.00000E+00
         0.00000E+00
         0.00000E+00
         0.00000E+00
         0.00000E+00
         0.00000E+00
         0.00000E+00
         0.00000E+00
         0.00000E+00
         0.00000E+00
         0.00000E+00
         0.00000E+00
         0.00000E+00
         0.00000E+00
         0.00000E+00
         0.00000E+00
         0.00000E+00
         0.00000E+00
         0.00000E+00
         0.00000E+00
         0.00000E+00
         0.00000E+00
         0.00000E+00
         0.00000E+00
         0.00000E+00
         0.00000E+00
         0.00000E+00
         0.00000E+00
         0.00000E+00
         0.00000E+00
         0.00000E+00
         0.00000E+00
         0.00000E+00
         0.00000E+00
         0.00000E+00
         0.00000E+00
         0.00000E+00
         0.00000E+00
         0.00000E+00
         0.00000E+00
         0.00000E+00
         0.00000E+00
         0.00000E+00
         0.00000E+00
         0.00000E+00
         0.00000E+00
         0.00000E+00
         0.00000E+00
         0.00000E+00
         0.00000E+00
         0.00000E+00
         0.00000E+00
         0.00000E+00
         0.00000E+00
         0.00000E+00
         0.00000E+00
         0.00000E+00
         0.00000E+00
         0.00000E+00
         0.00000E+00
         0.00000E+00
         0.00000E+00
         0.00000E+00
         0.00000E+00
         0.00000E+00
         0.00000E+00
         0.00000E+00
         0.00000E+00
         0.00000E+00
         0.00000E+00
         0.00000E+00
         0.00000E+00
         0.00000E+00
         0.00000E+00
         0.00000E+00
         0.00000E+00
         0.00000E+00
         0.00000E+00
         0.00000E+00
         0.00000E+00
         0.00000E+00
         0.00000E+00
         0.00000E+00
         0.00000E+00
         0.00000E+00
         0.00000E+00
         0.00000E+00
         0.00000E+00
         0.00000E+00
         0.00000E+00
         0.00000E+00
         0.00000E+00
         0.00000E+00
         0.00000E+00
         0.00000E+00
         0.00000E+00
         0.00000E+00
         0.00000E+00
         0.00000E+00
         0.00000E+00
         0.00000E+00
         0.00000E+00
         0.00000E+00
         0.00000E+00
         0.00000E+00
         0.00000E+00
         0.00000E+00
         0.00000E+00
         0.00000E+00
         0.00000E+00
         0.00000E+00
         0.00000E+00
         0.00000E+00
         0.00000E+00
         0.00000E+00
         0.00000E+00
         0.00000E+00
         0.00000E+00
         0.00000E+00
         0.00000E+00
         0.00000E+00
         0.00000E+00
         0.00000E+00
         0.00000E+00
         0.00000E+00
         0.00000E+00
         0.00000E+00
         0.00000E+00
         0.00000E+00
         0.00000E+00
         0.00000E+00
         0.00000E+00
         0.00000E+00
         0.00000E+00
         0.00000E+00
         0.00000E+00
         0.00000E+00
         0.00000E+00
         0.00000E+00
         0.00000E+00
         0.00000E+00
         0.00000E+00
         0.00000E+00
         0.00000E+00
         0.00000E+00
         0.00000E+00
         0.00000E+00
         0.00000E+00
         0.00000E+00
         0.00000E+00
         0.00000E+00
         0.00000E+00
         0.00000E+00
         0.00000E+00
         0.00000E+00
         0.00000E+00
         0.00000E+00
         0.00000E+00
         0.00000E+00
         0.00000E+00
         0.00000E+00
         0.00000E+00
         0.00000E+00
         0.00000E+00
         0.00000E+00
         0.00000E+00
         0.00000E+00
         0.00000E+00
         0.00000E+00
         0.00000E+00
         0.00000E+00
         0.00000E+00
         0.00000E+00
         0.00000E+00
         0.00000E+00
         0.00000E+00
         0.00000E+00
         0.00000E+00
         0.00000E+00
         0.00000E+00
         0.00000E+00
         0.00000E+00
         0.00000E+00
         0.00000E+00
         0.00000E+00
         0.00000E+00
         0.00000E+00
         0.00000E+00
         0.00000E+00
         0.00000E+00
         0.00000E+00
         0.00000E+00
         0.00000E+00
         0.00000E+00
         0.00000E+00
         0.00000E+00
         0.00000E+00
         0.00000E+00
         0.00000E+00
         0.00000E+00
         0.00000E+00
         0.00000E+00
         0.00000E+00
         0.00000E+00
         0.00000E+00
         0.00000E+00
         0.00000E+00
         0.00000E+00
         0.00000E+00
         0.00000E+00
         0.00000E+00
         0.00000E+00
         0.00000E+00
         0.00000E+00
  
SCALARS                         fint_x  double 1
LOOKUP_TABLE default
         0.00000E+00
         0.00000E+00
         0.00000E+00
         0.00000E+00
         0.00000E+00
         0.00000E+00
         0.00000E+00
         0.00000E+00
         0.00000E+00
         0.00000E+00
         0.00000E+00
         0.00000E+00
         0.00000E+00
         0.00000E+00
         0.00000E+00
         0.00000E+00
         0.00000E+00
         0.00000E+00
         0.00000E+00
         0.00000E+00
         0.00000E+00
         0.00000E+00
         0.00000E+00
         0.00000E+00
         0.00000E+00
         0.00000E+00
         0.00000E+00
         0.00000E+00
         0.00000E+00
         0.00000E+00
         0.00000E+00
         0.00000E+00
         0.00000E+00
         0.00000E+00
         0.00000E+00
         0.00000E+00
         0.00000E+00
         0.00000E+00
         0.00000E+00
         0.00000E+00
         0.00000E+00
         0.00000E+00
         0.00000E+00
         0.00000E+00
         0.00000E+00
         0.00000E+00
         0.00000E+00
         0.00000E+00
         0.00000E+00
         0.00000E+00
         0.00000E+00
         0.00000E+00
         0.00000E+00
         0.00000E+00
         0.00000E+00
         0.00000E+00
         0.00000E+00
         0.00000E+00
         0.00000E+00
         0.00000E+00
         0.00000E+00
         0.00000E+00
         0.00000E+00
         0.00000E+00
         0.00000E+00
         0.00000E+00
         0.00000E+00
         0.00000E+00
         0.00000E+00
         0.00000E+00
         0.00000E+00
         0.00000E+00
         0.00000E+00
         0.00000E+00
         0.00000E+00
         0.00000E+00
         0.00000E+00
         0.00000E+00
         0.00000E+00
         0.00000E+00
         0.00000E+00
         0.00000E+00
         0.00000E+00
         0.00000E+00
         0.00000E+00
         0.00000E+00
         0.00000E+00
         0.00000E+00
         0.00000E+00
         0.00000E+00
         0.00000E+00
         0.00000E+00
         0.00000E+00
         0.00000E+00
         0.00000E+00
         0.00000E+00
         0.00000E+00
         0.00000E+00
         0.00000E+00
         0.00000E+00
         0.00000E+00
         0.00000E+00
         0.00000E+00
         0.00000E+00
         0.00000E+00
         0.00000E+00
         0.00000E+00
         0.00000E+00
         0.00000E+00
         0.00000E+00
         0.00000E+00
         0.00000E+00
         0.00000E+00
         0.00000E+00
         0.00000E+00
         0.00000E+00
         0.00000E+00
         0.00000E+00
         0.00000E+00
         0.00000E+00
         0.00000E+00
         0.00000E+00
         0.00000E+00
         0.00000E+00
         0.00000E+00
         0.00000E+00
         0.00000E+00
         0.00000E+00
         0.00000E+00
         0.00000E+00
         0.00000E+00
         0.00000E+00
         0.00000E+00
         0.00000E+00
         0.00000E+00
         0.00000E+00
         0.00000E+00
         0.00000E+00
         0.00000E+00
         0.00000E+00
         0.00000E+00
         0.00000E+00
         0.00000E+00
         0.00000E+00
         0.00000E+00
         0.00000E+00
         0.00000E+00
         0.00000E+00
         0.00000E+00
         0.00000E+00
         0.00000E+00
         0.00000E+00
         0.00000E+00
         0.00000E+00
         0.00000E+00
         0.00000E+00
         0.00000E+00
         0.00000E+00
         0.00000E+00
         0.00000E+00
         0.00000E+00
         0.00000E+00
         0.00000E+00
         0.00000E+00
         0.00000E+00
         0.00000E+00
         0.00000E+00
         0.00000E+00
         0.00000E+00
         0.00000E+00
         0.00000E+00
         0.00000E+00
         0.00000E+00
         0.00000E+00
         0.00000E+00
         0.00000E+00
         0.00000E+00
         0.00000E+00
         0.00000E+00
         0.00000E+00
         0.00000E+00
         0.00000E+00
         0.00000E+00
         0.00000E+00
         0.00000E+00
         0.00000E+00
         0.00000E+00
         0.00000E+00
         0.00000E+00
         0.00000E+00
         0.00000E+00
         0.00000E+00
         0.00000E+00
         0.00000E+00
         0.00000E+00
         0.00000E+00
         0.00000E+00
         0.00000E+00
         0.00000E+00
         0.00000E+00
         0.00000E+00
         0.00000E+00
         0.00000E+00
         0.00000E+00
         0.00000E+00
         0.00000E+00
         0.00000E+00
         0.00000E+00
         0.00000E+00
         0.00000E+00
         0.00000E+00
         0.00000E+00
         0.00000E+00
         0.00000E+00
         0.00000E+00
         0.00000E+00
         0.00000E+00
         0.00000E+00
         0.00000E+00
         0.00000E+00
         0.00000E+00
         0.00000E+00
         0.00000E+00
         0.00000E+00
         0.00000E+00
         0.00000E+00
         0.00000E+00
         0.00000E+00
         0.00000E+00
         0.00000E+00
         0.00000E+00
         0.00000E+00
         0.00000E+00
         0.00000E+00
         0.00000E+00
         0.00000E+00
         0.00000E+00
         0.00000E+00
         0.00000E+00
         0.00000E+00
         0.00000E+00
         0.00000E+00
         0.00000E+00
         0.00000E+00
         0.00000E+00
         0.00000E+00
         0.00000E+00
         0.00000E+00
         0.00000E+00
         0.00000E+00
         0.00000E+00
         0.00000E+00
         0.00000E+00
         0.00000E+00
         0.00000E+00
         0.00000E+00
         0.00000E+00
         0.00000E+00
         0.00000E+00
         0.00000E+00
         0.00000E+00
         0.00000E+00
         0.00000E+00
         0.00000E+00
         0.00000E+00
         0.00000E+00
         0.00000E+00
         0.00000E+00
         0.00000E+00
         0.00000E+00
         0.00000E+00
         0.00000E+00
         0.00000E+00
         0.00000E+00
         0.00000E+00
         0.00000E+00
         0.00000E+00
         0.00000E+00
         0.00000E+00
         0.00000E+00
         0.00000E+00
         0.00000E+00
         0.00000E+00
         0.00000E+00
         0.00000E+00
         0.00000E+00
         0.00000E+00
         0.00000E+00
         0.00000E+00
         0.00000E+00
         0.00000E+00
         0.00000E+00
         0.00000E+00
         0.00000E+00
         0.00000E+00
         0.00000E+00
         0.00000E+00
         0.00000E+00
         0.00000E+00
         0.00000E+00
         0.00000E+00
         0.00000E+00
         0.00000E+00
         0.00000E+00
         0.00000E+00
         0.00000E+00
         0.00000E+00
         0.00000E+00
         0.00000E+00
         0.00000E+00
         0.00000E+00
         0.00000E+00
         0.00000E+00
         0.00000E+00
         0.00000E+00
         0.00000E+00
         0.00000E+00
         0.00000E+00
         0.00000E+00
         0.00000E+00
         0.00000E+00
         0.00000E+00
         0.00000E+00
         0.00000E+00
         0.00000E+00
         0.00000E+00
         0.00000E+00
         0.00000E+00
         0.00000E+00
         0.00000E+00
         0.00000E+00
         0.00000E+00
         0.00000E+00
         0.00000E+00
         0.00000E+00
         0.00000E+00
         0.00000E+00
         0.00000E+00
         0.00000E+00
         0.00000E+00
         0.00000E+00
         0.00000E+00
         0.00000E+00
         0.00000E+00
         0.00000E+00
         0.00000E+00
         0.00000E+00
         0.00000E+00
         0.00000E+00
         0.00000E+00
         0.00000E+00
         0.00000E+00
         0.00000E+00
         0.00000E+00
         0.00000E+00
         0.00000E+00
         0.00000E+00
         0.00000E+00
         0.00000E+00
         0.00000E+00
         0.00000E+00
         0.00000E+00
         0.00000E+00
         0.00000E+00
         0.00000E+00
         0.00000E+00
         0.00000E+00
         0.00000E+00
         0.00000E+00
         0.00000E+00
         0.00000E+00
         0.00000E+00
         0.00000E+00
         0.00000E+00
         0.00000E+00
         0.00000E+00
         0.00000E+00
         0.00000E+00
         0.00000E+00
         0.00000E+00
         0.00000E+00
         0.00000E+00
         0.00000E+00
         0.00000E+00
         0.00000E+00
         0.00000E+00
         0.00000E+00
         0.00000E+00
         0.00000E+00
         0.00000E+00
         0.00000E+00
         0.00000E+00
         0.00000E+00
         0.00000E+00
         0.00000E+00
         0.00000E+00
         0.00000E+00
         0.00000E+00
         0.00000E+00
         0.00000E+00
         0.00000E+00
         0.00000E+00
         0.00000E+00
         0.00000E+00
         0.00000E+00
         0.00000E+00
         0.00000E+00
         0.00000E+00
         0.00000E+00
         0.00000E+00
         0.00000E+00
         0.00000E+00
         0.00000E+00
         0.00000E+00
         0.00000E+00
         0.00000E+00
         0.00000E+00
         0.00000E+00
         0.00000E+00
         0.00000E+00
         0.00000E+00
         0.00000E+00
         0.00000E+00
         0.00000E+00
         0.00000E+00
         0.00000E+00
         0.00000E+00
         0.00000E+00
         0.00000E+00
         0.00000E+00
         0.00000E+00
         0.00000E+00
         0.00000E+00
         0.00000E+00
         0.00000E+00
         0.00000E+00
         0.00000E+00
         0.00000E+00
         0.00000E+00
         0.00000E+00
         0.00000E+00
         0.00000E+00
         0.00000E+00
         0.00000E+00
         0.00000E+00
         0.00000E+00
         0.00000E+00
         0.00000E+00
         0.00000E+00
         0.00000E+00
         0.00000E+00
         0.00000E+00
         0.00000E+00
         0.00000E+00
         0.00000E+00
         0.00000E+00
         0.00000E+00
         0.00000E+00
         0.00000E+00
         0.00000E+00
         0.00000E+00
         0.00000E+00
         0.00000E+00
         0.00000E+00
         0.00000E+00
         0.00000E+00
         0.00000E+00
         0.00000E+00
         0.00000E+00
         0.00000E+00
         0.00000E+00
         0.00000E+00
         0.00000E+00
         0.00000E+00
         0.00000E+00
         0.00000E+00
         0.00000E+00
         0.00000E+00
         0.00000E+00
         0.00000E+00
         0.00000E+00
         0.00000E+00
         0.00000E+00
         0.00000E+00
         0.00000E+00
         0.00000E+00
         0.00000E+00
         0.00000E+00
         0.00000E+00
         0.00000E+00
         0.00000E+00
         0.00000E+00
         0.00000E+00
         0.00000E+00
         0.00000E+00
         0.00000E+00
         0.00000E+00
         0.00000E+00
         0.00000E+00
         0.00000E+00
         0.00000E+00
         0.00000E+00
         0.00000E+00
         0.00000E+00
         0.00000E+00
         0.00000E+00
         0.00000E+00
         0.00000E+00
         0.00000E+00
         0.00000E+00
         0.00000E+00
         0.00000E+00
         0.00000E+00
         0.00000E+00
         0.00000E+00
         0.00000E+00
         0.00000E+00
         0.00000E+00
         0.00000E+00
         0.00000E+00
         0.00000E+00
         0.00000E+00
         0.00000E+00
         0.00000E+00
         0.00000E+00
         0.00000E+00
         0.00000E+00
         0.00000E+00
         0.00000E+00
         0.00000E+00
         0.00000E+00
         0.00000E+00
         0.00000E+00
         0.00000E+00
         0.00000E+00
         0.00000E+00
         0.00000E+00
         0.00000E+00
         0.00000E+00
         0.00000E+00
         0.00000E+00
         0.00000E+00
         0.00000E+00
         0.00000E+00
         0.00000E+00
         0.00000E+00
         0.00000E+00
         0.00000E+00
         0.00000E+00
         0.00000E+00
         0.00000E+00
         0.00000E+00
         0.00000E+00
         0.00000E+00
         0.00000E+00
         0.00000E+00
         0.00000E+00
         0.00000E+00
         0.00000E+00
         0.00000E+00
         0.00000E+00
         0.00000E+00
         0.00000E+00
         0.00000E+00
         0.00000E+00
         0.00000E+00
         0.00000E+00
         0.00000E+00
         0.00000E+00
         0.00000E+00
         0.00000E+00
         0.00000E+00
         0.00000E+00
         0.00000E+00
         0.00000E+00
         0.00000E+00
         0.00000E+00
         0.00000E+00
         0.00000E+00
         0.00000E+00
         0.00000E+00
         0.00000E+00
         0.00000E+00
         0.00000E+00
         0.00000E+00
         0.00000E+00
         0.00000E+00
         0.00000E+00
         0.00000E+00
         0.00000E+00
         0.00000E+00
         0.00000E+00
         0.00000E+00
         0.00000E+00
         0.00000E+00
         0.00000E+00
         0.00000E+00
         0.00000E+00
         0.00000E+00
         0.00000E+00
         0.00000E+00
         0.00000E+00
         0.00000E+00
         0.00000E+00
         0.00000E+00
         0.00000E+00
         0.00000E+00
         0.00000E+00
         0.00000E+00
         0.00000E+00
         0.00000E+00
         0.00000E+00
         0.00000E+00
         0.00000E+00
         0.00000E+00
         0.00000E+00
         0.00000E+00
         0.00000E+00
         0.00000E+00
         0.00000E+00
         0.00000E+00
         0.00000E+00
         0.00000E+00
         0.00000E+00
         0.00000E+00
         0.00000E+00
         0.00000E+00
         0.00000E+00
         0.00000E+00
         0.00000E+00
         0.00000E+00
         0.00000E+00
         0.00000E+00
         0.00000E+00
         0.00000E+00
         0.00000E+00
         0.00000E+00
         0.00000E+00
         0.00000E+00
         0.00000E+00
         0.00000E+00
         0.00000E+00
         0.00000E+00
         0.00000E+00
         0.00000E+00
         0.00000E+00
         0.00000E+00
         0.00000E+00
         0.00000E+00
         0.00000E+00
         0.00000E+00
         0.00000E+00
         0.00000E+00
         0.00000E+00
         0.00000E+00
         0.00000E+00
         0.00000E+00
         0.00000E+00
         0.00000E+00
         0.00000E+00
         0.00000E+00
         0.00000E+00
         0.00000E+00
         0.00000E+00
         0.00000E+00
         0.00000E+00
         0.00000E+00
         0.00000E+00
         0.00000E+00
         0.00000E+00
         0.00000E+00
         0.00000E+00
         0.00000E+00
         0.00000E+00
         0.00000E+00
         0.00000E+00
         0.00000E+00
         0.00000E+00
         0.00000E+00
         0.00000E+00
         0.00000E+00
         0.00000E+00
         0.00000E+00
         0.00000E+00
         0.00000E+00
         0.00000E+00
         0.00000E+00
         0.00000E+00
         0.00000E+00
         0.00000E+00
         0.00000E+00
         0.00000E+00
         0.00000E+00
         0.00000E+00
         0.00000E+00
         0.00000E+00
         0.00000E+00
         0.00000E+00
         0.00000E+00
         0.00000E+00
         0.00000E+00
         0.00000E+00
         0.00000E+00
         0.00000E+00
         0.00000E+00
         0.00000E+00
         0.00000E+00
         0.00000E+00
         0.00000E+00
         0.00000E+00
         0.00000E+00
         0.00000E+00
         0.00000E+00
         0.00000E+00
         0.00000E+00
         0.00000E+00
         0.00000E+00
         0.00000E+00
         0.00000E+00
         0.00000E+00
         0.00000E+00
         0.00000E+00
         0.00000E+00
         0.00000E+00
         0.00000E+00
         0.00000E+00
         0.00000E+00
         0.00000E+00
         0.00000E+00
         0.00000E+00
         0.00000E+00
         0.00000E+00
         0.00000E+00
         0.00000E+00
         0.00000E+00
         0.00000E+00
         0.00000E+00
         0.00000E+00
         0.00000E+00
         0.00000E+00
         0.00000E+00
         0.00000E+00
         0.00000E+00
         0.00000E+00
         0.00000E+00
         0.00000E+00
         0.00000E+00
         0.00000E+00
         0.00000E+00
         0.00000E+00
         0.00000E+00
         0.00000E+00
         0.00000E+00
         0.00000E+00
         0.00000E+00
         0.00000E+00
         0.00000E+00
         0.00000E+00
         0.00000E+00
         0.00000E+00
         0.00000E+00
         0.00000E+00
         0.00000E+00
         0.00000E+00
         0.00000E+00
         0.00000E+00
         0.00000E+00
         0.00000E+00
         0.00000E+00
         0.00000E+00
         0.00000E+00
         0.00000E+00
         0.00000E+00
         0.00000E+00
         0.00000E+00
         0.00000E+00
         0.00000E+00
         0.00000E+00
         0.00000E+00
         0.00000E+00
         0.00000E+00
         0.00000E+00
         0.00000E+00
         0.00000E+00
         0.00000E+00
         0.00000E+00
         0.00000E+00
         0.00000E+00
         0.00000E+00
         0.00000E+00
         0.00000E+00
         0.00000E+00
         0.00000E+00
         0.00000E+00
         0.00000E+00
         0.00000E+00
         0.00000E+00
         0.00000E+00
         0.00000E+00
         0.00000E+00
         0.00000E+00
         0.00000E+00
         0.00000E+00
         0.00000E+00
         0.00000E+00
         0.00000E+00
         0.00000E+00
         0.00000E+00
         0.00000E+00
         0.00000E+00
         0.00000E+00
         0.00000E+00
         0.00000E+00
         0.00000E+00
         0.00000E+00
         0.00000E+00
         0.00000E+00
         0.00000E+00
         0.00000E+00
         0.00000E+00
         0.00000E+00
         0.00000E+00
         0.00000E+00
         0.00000E+00
         0.00000E+00
         0.00000E+00
         0.00000E+00
         0.00000E+00
         0.00000E+00
         0.00000E+00
         0.00000E+00
         0.00000E+00
         0.00000E+00
         0.00000E+00
         0.00000E+00
         0.00000E+00
         0.00000E+00
         0.00000E+00
         0.00000E+00
         0.00000E+00
         0.00000E+00
         0.00000E+00
         0.00000E+00
         0.00000E+00
         0.00000E+00
         0.00000E+00
         0.00000E+00
         0.00000E+00
         0.00000E+00
         0.00000E+00
         0.00000E+00
         0.00000E+00
         0.00000E+00
         0.00000E+00
         0.00000E+00
         0.00000E+00
         0.00000E+00
         0.00000E+00
         0.00000E+00
         0.00000E+00
         0.00000E+00
         0.00000E+00
         0.00000E+00
         0.00000E+00
         0.00000E+00
         0.00000E+00
         0.00000E+00
         0.00000E+00
         0.00000E+00
         0.00000E+00
         0.00000E+00
         0.00000E+00
         0.00000E+00
         0.00000E+00
         0.00000E+00
         0.00000E+00
         0.00000E+00
         0.00000E+00
         0.00000E+00
         0.00000E+00
         0.00000E+00
         0.00000E+00
         0.00000E+00
         0.00000E+00
         0.00000E+00
         0.00000E+00
         0.00000E+00
         0.00000E+00
         0.00000E+00
         0.00000E+00
         0.00000E+00
         0.00000E+00
         0.00000E+00
         0.00000E+00
         0.00000E+00
         0.00000E+00
         0.00000E+00
         0.00000E+00
         0.00000E+00
         0.00000E+00
         0.00000E+00
         0.00000E+00
         0.00000E+00
         0.00000E+00
         0.00000E+00
         0.00000E+00
         0.00000E+00
         0.00000E+00
         0.00000E+00
         0.00000E+00
         0.00000E+00
         0.00000E+00
         0.00000E+00
         0.00000E+00
         0.00000E+00
         0.00000E+00
         0.00000E+00
         0.00000E+00
         0.00000E+00
         0.00000E+00
         0.00000E+00
         0.00000E+00
         0.00000E+00
         0.00000E+00
         0.00000E+00
         0.00000E+00
         0.00000E+00
         0.00000E+00
         0.00000E+00
         0.00000E+00
         0.00000E+00
         0.00000E+00
         0.00000E+00
         0.00000E+00
         0.00000E+00
         0.00000E+00
         0.00000E+00
         0.00000E+00
         0.00000E+00
         0.00000E+00
         0.00000E+00
         0.00000E+00
         0.00000E+00
         0.00000E+00
         0.00000E+00
         0.00000E+00
         0.00000E+00
         0.00000E+00
         0.00000E+00
         0.00000E+00
         0.00000E+00
         0.00000E+00
         0.00000E+00
         0.00000E+00
         0.00000E+00
         0.00000E+00
         0.00000E+00
         0.00000E+00
         0.00000E+00
         0.00000E+00
         0.00000E+00
         0.00000E+00
         0.00000E+00
         0.00000E+00
         0.00000E+00
         0.00000E+00
         0.00000E+00
         0.00000E+00
         0.00000E+00
         0.00000E+00
         0.00000E+00
         0.00000E+00
         0.00000E+00
         0.00000E+00
         0.00000E+00
         0.00000E+00
         0.00000E+00
         0.00000E+00
         0.00000E+00
         0.00000E+00
         0.00000E+00
         0.00000E+00
         0.00000E+00
         0.00000E+00
         0.00000E+00
         0.00000E+00
         0.00000E+00
         0.00000E+00
         0.00000E+00
         0.00000E+00
         0.00000E+00
         0.00000E+00
         0.00000E+00
         0.00000E+00
         0.00000E+00
         0.00000E+00
         0.00000E+00
         0.00000E+00
         0.00000E+00
         0.00000E+00
         0.00000E+00
         0.00000E+00
         0.00000E+00
         0.00000E+00
         0.00000E+00
         0.00000E+00
         0.00000E+00
         0.00000E+00
         0.00000E+00
         0.00000E+00
         0.00000E+00
         0.00000E+00
         0.00000E+00
         0.00000E+00
         0.00000E+00
         0.00000E+00
         0.00000E+00
         0.00000E+00
         0.00000E+00
         0.00000E+00
         0.00000E+00
         0.00000E+00
         0.00000E+00
         0.00000E+00
         0.00000E+00
         0.00000E+00
         0.00000E+00
         0.00000E+00
         0.00000E+00
         0.00000E+00
         0.00000E+00
         0.00000E+00
         0.00000E+00
         0.00000E+00
         0.00000E+00
         0.00000E+00
         0.00000E+00
         0.00000E+00
         0.00000E+00
         0.00000E+00
         0.00000E+00
         0.00000E+00
         0.00000E+00
         0.00000E+00
         0.00000E+00
         0.00000E+00
         0.00000E+00
         0.00000E+00
         0.00000E+00
         0.00000E+00
         0.00000E+00
         0.00000E+00
         0.00000E+00
         0.00000E+00
         0.00000E+00
         0.00000E+00
         0.00000E+00
         0.00000E+00
         0.00000E+00
         0.00000E+00
         0.00000E+00
         0.00000E+00
         0.00000E+00
         0.00000E+00
         0.00000E+00
         0.00000E+00
         0.00000E+00
         0.00000E+00
         0.00000E+00
         0.00000E+00
         0.00000E+00
         0.00000E+00
         0.00000E+00
         0.00000E+00
         0.00000E+00
         0.00000E+00
         0.00000E+00
         0.00000E+00
         0.00000E+00
         0.00000E+00
         0.00000E+00
         0.00000E+00
         0.00000E+00
         0.00000E+00
         0.00000E+00
         0.00000E+00
         0.00000E+00
         0.00000E+00
         0.00000E+00
         0.00000E+00
         0.00000E+00
         0.00000E+00
         0.00000E+00
         0.00000E+00
         0.00000E+00
         0.00000E+00
         0.00000E+00
         0.00000E+00
         0.00000E+00
         0.00000E+00
         0.00000E+00
         0.00000E+00
         0.00000E+00
         0.00000E+00
         0.00000E+00
         0.00000E+00
         0.00000E+00
         0.00000E+00
         0.00000E+00
         0.00000E+00
         0.00000E+00
         0.00000E+00
         0.00000E+00
         0.00000E+00
         0.00000E+00
         0.00000E+00
         0.00000E+00
         0.00000E+00
         0.00000E+00
         0.00000E+00
         0.00000E+00
         0.00000E+00
         0.00000E+00
         0.00000E+00
         0.00000E+00
         0.00000E+00
         0.00000E+00
         0.00000E+00
         0.00000E+00
         0.00000E+00
         0.00000E+00
         0.00000E+00
         0.00000E+00
         0.00000E+00
         0.00000E+00
         0.00000E+00
         0.00000E+00
         0.00000E+00
         0.00000E+00
         0.00000E+00
         0.00000E+00
         0.00000E+00
         0.00000E+00
         0.00000E+00
         0.00000E+00
         0.00000E+00
         0.00000E+00
         0.00000E+00
         0.00000E+00
         0.00000E+00
         0.00000E+00
         0.00000E+00
         0.00000E+00
         0.00000E+00
         0.00000E+00
         0.00000E+00
         0.00000E+00
         0.00000E+00
         0.00000E+00
         0.00000E+00
         0.00000E+00
         0.00000E+00
         0.00000E+00
         0.00000E+00
         0.00000E+00
         0.00000E+00
         0.00000E+00
         0.00000E+00
         0.00000E+00
         0.00000E+00
         0.00000E+00
         0.00000E+00
         0.00000E+00
         0.00000E+00
         0.00000E+00
         0.00000E+00
         0.00000E+00
         0.00000E+00
         0.00000E+00
         0.00000E+00
         0.00000E+00
         0.00000E+00
         0.00000E+00
         0.00000E+00
         0.00000E+00
         0.00000E+00
         0.00000E+00
         0.00000E+00
         0.00000E+00
         0.00000E+00
         0.00000E+00
         0.00000E+00
         0.00000E+00
         0.00000E+00
         0.00000E+00
         0.00000E+00
         0.00000E+00
         0.00000E+00
         0.00000E+00
         0.00000E+00
         0.00000E+00
         0.00000E+00
         0.00000E+00
         0.00000E+00
         0.00000E+00
         0.00000E+00
         0.00000E+00
         0.00000E+00
         0.00000E+00
         0.00000E+00
         0.00000E+00
         0.00000E+00
         0.00000E+00
         0.00000E+00
         0.00000E+00
         0.00000E+00
         0.00000E+00
         0.00000E+00
         0.00000E+00
         0.00000E+00
         0.00000E+00
         0.00000E+00
         0.00000E+00
         0.00000E+00
         0.00000E+00
         0.00000E+00
         0.00000E+00
         0.00000E+00
         0.00000E+00
         0.00000E+00
         0.00000E+00
         0.00000E+00
         0.00000E+00
         0.00000E+00
         0.00000E+00
         0.00000E+00
         0.00000E+00
         0.00000E+00
         0.00000E+00
         0.00000E+00
         0.00000E+00
         0.00000E+00
         0.00000E+00
         0.00000E+00
         0.00000E+00
         0.00000E+00
         0.00000E+00
         0.00000E+00
         0.00000E+00
         0.00000E+00
         0.00000E+00
         0.00000E+00
         0.00000E+00
         0.00000E+00
         0.00000E+00
         0.00000E+00
         0.00000E+00
         0.00000E+00
         0.00000E+00
         0.00000E+00
         0.00000E+00
         0.00000E+00
         0.00000E+00
         0.00000E+00
         0.00000E+00
         0.00000E+00
         0.00000E+00
         0.00000E+00
         0.00000E+00
         0.00000E+00
         0.00000E+00
         0.00000E+00
         0.00000E+00
         0.00000E+00
         0.00000E+00
         0.00000E+00
         0.00000E+00
         0.00000E+00
         0.00000E+00
         0.00000E+00
         0.00000E+00
         0.00000E+00
         0.00000E+00
         0.00000E+00
         0.00000E+00
         0.00000E+00
         0.00000E+00
         0.00000E+00
         0.00000E+00
         0.00000E+00
         0.00000E+00
         0.00000E+00
         0.00000E+00
         0.00000E+00
         0.00000E+00
         0.00000E+00
         0.00000E+00
         0.00000E+00
         0.00000E+00
         0.00000E+00
         0.00000E+00
         0.00000E+00
         0.00000E+00
         0.00000E+00
         0.00000E+00
         0.00000E+00
         0.00000E+00
         0.00000E+00
         0.00000E+00
         0.00000E+00
         0.00000E+00
         0.00000E+00
         0.00000E+00
         0.00000E+00
         0.00000E+00
         0.00000E+00
         0.00000E+00
         0.00000E+00
         0.00000E+00
         0.00000E+00
         0.00000E+00
         0.00000E+00
         0.00000E+00
         0.00000E+00
         0.00000E+00
         0.00000E+00
         0.00000E+00
         0.00000E+00
         0.00000E+00
         0.00000E+00
         0.00000E+00
         0.00000E+00
         0.00000E+00
         0.00000E+00
         0.00000E+00
         0.00000E+00
         0.00000E+00
         0.00000E+00
         0.00000E+00
         0.00000E+00
         0.00000E+00
         0.00000E+00
         0.00000E+00
         0.00000E+00
         0.00000E+00
         0.00000E+00
         0.00000E+00
         0.00000E+00
         0.00000E+00
         0.00000E+00
         0.00000E+00
         0.00000E+00
         0.00000E+00
         0.00000E+00
         0.00000E+00
         0.00000E+00
         0.00000E+00
         0.00000E+00
         0.00000E+00
         0.00000E+00
         0.00000E+00
         0.00000E+00
         0.00000E+00
         0.00000E+00
         0.00000E+00
         0.00000E+00
         0.00000E+00
         0.00000E+00
         0.00000E+00
         0.00000E+00
         0.00000E+00
         0.00000E+00
         0.00000E+00
         0.00000E+00
         0.00000E+00
         0.00000E+00
         0.00000E+00
         0.00000E+00
         0.00000E+00
         0.00000E+00
         0.00000E+00
         0.00000E+00
         0.00000E+00
         0.00000E+00
         0.00000E+00
         0.00000E+00
         0.00000E+00
         0.00000E+00
         0.00000E+00
         0.00000E+00
         0.00000E+00
         0.00000E+00
         0.00000E+00
         0.00000E+00
         0.00000E+00
         0.00000E+00
         0.00000E+00
         0.00000E+00
         0.00000E+00
         0.00000E+00
         0.00000E+00
         0.00000E+00
         0.00000E+00
         0.00000E+00
         0.00000E+00
         0.00000E+00
         0.00000E+00
         0.00000E+00
         0.00000E+00
         0.00000E+00
         0.00000E+00
         0.00000E+00
         0.00000E+00
         0.00000E+00
         0.00000E+00
         0.00000E+00
         0.00000E+00
         0.00000E+00
         0.00000E+00
         0.00000E+00
         0.00000E+00
         0.00000E+00
         0.00000E+00
         0.00000E+00
         0.00000E+00
         0.00000E+00
         0.00000E+00
         0.00000E+00
         0.00000E+00
         0.00000E+00
         0.00000E+00
         0.00000E+00
         0.00000E+00
         0.00000E+00
         0.00000E+00
         0.00000E+00
         0.00000E+00
         0.00000E+00
         0.00000E+00
         0.00000E+00
         0.00000E+00
         0.00000E+00
         0.00000E+00
         0.00000E+00
         0.00000E+00
         0.00000E+00
         0.00000E+00
         0.00000E+00
         0.00000E+00
         0.00000E+00
         0.00000E+00
         0.00000E+00
         0.00000E+00
         0.00000E+00
         0.00000E+00
         0.00000E+00
         0.00000E+00
         0.00000E+00
         0.00000E+00
         0.00000E+00
         0.00000E+00
         0.00000E+00
         0.00000E+00
         0.00000E+00
         0.00000E+00
         0.00000E+00
         0.00000E+00
         0.00000E+00
         0.00000E+00
         0.00000E+00
         0.00000E+00
         0.00000E+00
         0.00000E+00
         0.00000E+00
         0.00000E+00
         0.00000E+00
         0.00000E+00
         0.00000E+00
         0.00000E+00
         0.00000E+00
         0.00000E+00
         0.00000E+00
         0.00000E+00
         0.00000E+00
         0.00000E+00
         0.00000E+00
         0.00000E+00
         0.00000E+00
         0.00000E+00
         0.00000E+00
         0.00000E+00
         0.00000E+00
         0.00000E+00
         0.00000E+00
         0.00000E+00
         0.00000E+00
         0.00000E+00
         0.00000E+00
         0.00000E+00
         0.00000E+00
         0.00000E+00
         0.00000E+00
         0.00000E+00
         0.00000E+00
         0.00000E+00
         0.00000E+00
         0.00000E+00
         0.00000E+00
         0.00000E+00
         0.00000E+00
         0.00000E+00
         0.00000E+00
         0.00000E+00
         0.00000E+00
         0.00000E+00
         0.00000E+00
         0.00000E+00
         0.00000E+00
         0.00000E+00
         0.00000E+00
         0.00000E+00
         0.00000E+00
         0.00000E+00
         0.00000E+00
         0.00000E+00
         0.00000E+00
         0.00000E+00
         0.00000E+00
         0.00000E+00
         0.00000E+00
         0.00000E+00
         0.00000E+00
         0.00000E+00
         0.00000E+00
         0.00000E+00
         0.00000E+00
         0.00000E+00
         0.00000E+00
         0.00000E+00
         0.00000E+00
         0.00000E+00
         0.00000E+00
         0.00000E+00
         0.00000E+00
         0.00000E+00
         0.00000E+00
         0.00000E+00
         0.00000E+00
         0.00000E+00
         0.00000E+00
         0.00000E+00
         0.00000E+00
         0.00000E+00
         0.00000E+00
         0.00000E+00
         0.00000E+00
         0.00000E+00
         0.00000E+00
         0.00000E+00
         0.00000E+00
         0.00000E+00
         0.00000E+00
         0.00000E+00
         0.00000E+00
         0.00000E+00
         0.00000E+00
         0.00000E+00
         0.00000E+00
         0.00000E+00
         0.00000E+00
         0.00000E+00
         0.00000E+00
         0.00000E+00
         0.00000E+00
         0.00000E+00
         0.00000E+00
         0.00000E+00
         0.00000E+00
         0.00000E+00
         0.00000E+00
         0.00000E+00
         0.00000E+00
         0.00000E+00
         0.00000E+00
         0.00000E+00
         0.00000E+00
         0.00000E+00
         0.00000E+00
         0.00000E+00
         0.00000E+00
         0.00000E+00
         0.00000E+00
         0.00000E+00
         0.00000E+00
         0.00000E+00
         0.00000E+00
         0.00000E+00
         0.00000E+00
         0.00000E+00
         0.00000E+00
         0.00000E+00
         0.00000E+00
         0.00000E+00
         0.00000E+00
         0.00000E+00
         0.00000E+00
         0.00000E+00
         0.00000E+00
         0.00000E+00
         0.00000E+00
         0.00000E+00
         0.00000E+00
         0.00000E+00
         0.00000E+00
         0.00000E+00
         0.00000E+00
         0.00000E+00
         0.00000E+00
         0.00000E+00
         0.00000E+00
         0.00000E+00
         0.00000E+00
         0.00000E+00
         0.00000E+00
         0.00000E+00
         0.00000E+00
         0.00000E+00
         0.00000E+00
         0.00000E+00
         0.00000E+00
         0.00000E+00
         0.00000E+00
         0.00000E+00
         0.00000E+00
         0.00000E+00
         0.00000E+00
         0.00000E+00
         0.00000E+00
         0.00000E+00
         0.00000E+00
         0.00000E+00
         0.00000E+00
         0.00000E+00
         0.00000E+00
         0.00000E+00
         0.00000E+00
         0.00000E+00
         0.00000E+00
         0.00000E+00
         0.00000E+00
         0.00000E+00
         0.00000E+00
         0.00000E+00
         0.00000E+00
         0.00000E+00
         0.00000E+00
         0.00000E+00
         0.00000E+00
         0.00000E+00
         0.00000E+00
         0.00000E+00
         0.00000E+00
         0.00000E+00
         0.00000E+00
         0.00000E+00
         0.00000E+00
         0.00000E+00
         0.00000E+00
         0.00000E+00
         0.00000E+00
         0.00000E+00
         0.00000E+00
         0.00000E+00
         0.00000E+00
         0.00000E+00
         0.00000E+00
         0.00000E+00
         0.00000E+00
         0.00000E+00
         0.00000E+00
         0.00000E+00
         0.00000E+00
         0.00000E+00
         0.00000E+00
         0.00000E+00
         0.00000E+00
         0.00000E+00
         0.00000E+00
         0.00000E+00
         0.00000E+00
         0.00000E+00
         0.00000E+00
         0.00000E+00
         0.00000E+00
         0.00000E+00
         0.00000E+00
         0.00000E+00
         0.00000E+00
         0.00000E+00
         0.00000E+00
         0.00000E+00
         0.00000E+00
         0.00000E+00
         0.00000E+00
         0.00000E+00
         0.00000E+00
         0.00000E+00
         0.00000E+00
         0.00000E+00
         0.00000E+00
         0.00000E+00
         0.00000E+00
         0.00000E+00
         0.00000E+00
         0.00000E+00
         0.00000E+00
         0.00000E+00
         0.00000E+00
         0.00000E+00
         0.00000E+00
         0.00000E+00
         0.00000E+00
         0.00000E+00
         0.00000E+00
         0.00000E+00
         0.00000E+00
         0.00000E+00
         0.00000E+00
         0.00000E+00
         0.00000E+00
         0.00000E+00
         0.00000E+00
         0.00000E+00
         0.00000E+00
         0.00000E+00
         0.00000E+00
         0.00000E+00
         0.00000E+00
         0.00000E+00
         0.00000E+00
         0.00000E+00
         0.00000E+00
         0.00000E+00
         0.00000E+00
         0.00000E+00
         0.00000E+00
         0.00000E+00
         0.00000E+00
         0.00000E+00
         0.00000E+00
         0.00000E+00
         0.00000E+00
         0.00000E+00
         0.00000E+00
         0.00000E+00
         0.00000E+00
         0.00000E+00
         0.00000E+00
         0.00000E+00
         0.00000E+00
         0.00000E+00
         0.00000E+00
         0.00000E+00
         0.00000E+00
         0.00000E+00
         0.00000E+00
         0.00000E+00
         0.00000E+00
         0.00000E+00
         0.00000E+00
         0.00000E+00
         0.00000E+00
         0.00000E+00
         0.00000E+00
         0.00000E+00
         0.00000E+00
         0.00000E+00
         0.00000E+00
         0.00000E+00
         0.00000E+00
         0.00000E+00
         0.00000E+00
         0.00000E+00
         0.00000E+00
         0.00000E+00
         0.00000E+00
         0.00000E+00
         0.00000E+00
         0.00000E+00
         0.00000E+00
         0.00000E+00
         0.00000E+00
         0.00000E+00
         0.00000E+00
         0.00000E+00
         0.00000E+00
         0.00000E+00
         0.00000E+00
         0.00000E+00
         0.00000E+00
         0.00000E+00
         0.00000E+00
         0.00000E+00
         0.00000E+00
         0.00000E+00
         0.00000E+00
         0.00000E+00
         0.00000E+00
         0.00000E+00
         0.00000E+00
         0.00000E+00
         0.00000E+00
         0.00000E+00
         0.00000E+00
         0.00000E+00
         0.00000E+00
         0.00000E+00
         0.00000E+00
         0.00000E+00
         0.00000E+00
         0.00000E+00
         0.00000E+00
         0.00000E+00
         0.00000E+00
         0.00000E+00
         0.00000E+00
         0.00000E+00
         0.00000E+00
         0.00000E+00
         0.00000E+00
         0.00000E+00
         0.00000E+00
         0.00000E+00
         0.00000E+00
         0.00000E+00
         0.00000E+00
         0.00000E+00
         0.00000E+00
         0.00000E+00
         0.00000E+00
         0.00000E+00
         0.00000E+00
         0.00000E+00
         0.00000E+00
         0.00000E+00
         0.00000E+00
         0.00000E+00
         0.00000E+00
         0.00000E+00
         0.00000E+00
         0.00000E+00
         0.00000E+00
         0.00000E+00
         0.00000E+00
         0.00000E+00
         0.00000E+00
         0.00000E+00
         0.00000E+00
         0.00000E+00
         0.00000E+00
         0.00000E+00
         0.00000E+00
         0.00000E+00
         0.00000E+00
         0.00000E+00
         0.00000E+00
         0.00000E+00
         0.00000E+00
         0.00000E+00
         0.00000E+00
         0.00000E+00
         0.00000E+00
         0.00000E+00
         0.00000E+00
         0.00000E+00
         0.00000E+00
         0.00000E+00
         0.00000E+00
         0.00000E+00
         0.00000E+00
         0.00000E+00
         0.00000E+00
         0.00000E+00
         0.00000E+00
         0.00000E+00
         0.00000E+00
         0.00000E+00
         0.00000E+00
         0.00000E+00
         0.00000E+00
         0.00000E+00
         0.00000E+00
         0.00000E+00
         0.00000E+00
         0.00000E+00
         0.00000E+00
         0.00000E+00
         0.00000E+00
         0.00000E+00
         0.00000E+00
         0.00000E+00
         0.00000E+00
         0.00000E+00
         0.00000E+00
         0.00000E+00
         0.00000E+00
         0.00000E+00
         0.00000E+00
         0.00000E+00
         0.00000E+00
         0.00000E+00
         0.00000E+00
         0.00000E+00
         0.00000E+00
         0.00000E+00
         0.00000E+00
         0.00000E+00
         0.00000E+00
         0.00000E+00
         0.00000E+00
         0.00000E+00
         0.00000E+00
         0.00000E+00
         0.00000E+00
         0.00000E+00
         0.00000E+00
         0.00000E+00
         0.00000E+00
         0.00000E+00
         0.00000E+00
         0.00000E+00
         0.00000E+00
         0.00000E+00
         0.00000E+00
         0.00000E+00
         0.00000E+00
         0.00000E+00
         0.00000E+00
         0.00000E+00
         0.00000E+00
         0.00000E+00
         0.00000E+00
         0.00000E+00
         0.00000E+00
         0.00000E+00
         0.00000E+00
         0.00000E+00
         0.00000E+00
         0.00000E+00
         0.00000E+00
  
SCALARS                         fint_y  double 1
LOOKUP_TABLE default
         0.00000E+00
         0.00000E+00
         0.00000E+00
         0.00000E+00
         0.00000E+00
         0.00000E+00
         0.00000E+00
         0.00000E+00
         0.00000E+00
         0.00000E+00
         0.00000E+00
         0.00000E+00
         0.00000E+00
         0.00000E+00
         0.00000E+00
         0.00000E+00
         0.00000E+00
         0.00000E+00
         0.00000E+00
         0.00000E+00
         0.00000E+00
         0.00000E+00
         0.00000E+00
         0.00000E+00
         0.00000E+00
         0.00000E+00
         0.00000E+00
         0.00000E+00
         0.00000E+00
         0.00000E+00
         0.00000E+00
         0.00000E+00
         0.00000E+00
         0.00000E+00
         0.00000E+00
         0.00000E+00
         0.00000E+00
         0.00000E+00
         0.00000E+00
         0.00000E+00
         0.00000E+00
         0.00000E+00
         0.00000E+00
         0.00000E+00
         0.00000E+00
         0.00000E+00
         0.00000E+00
         0.00000E+00
         0.00000E+00
         0.00000E+00
         0.00000E+00
         0.00000E+00
         0.00000E+00
         0.00000E+00
         0.00000E+00
         0.00000E+00
         0.00000E+00
         0.00000E+00
         0.00000E+00
         0.00000E+00
         0.00000E+00
         0.00000E+00
         0.00000E+00
         0.00000E+00
         0.00000E+00
         0.00000E+00
         0.00000E+00
         0.00000E+00
         0.00000E+00
         0.00000E+00
         0.00000E+00
         0.00000E+00
         0.00000E+00
         0.00000E+00
         0.00000E+00
         0.00000E+00
         0.00000E+00
         0.00000E+00
         0.00000E+00
         0.00000E+00
         0.00000E+00
         0.00000E+00
         0.00000E+00
         0.00000E+00
         0.00000E+00
         0.00000E+00
         0.00000E+00
         0.00000E+00
         0.00000E+00
         0.00000E+00
         0.00000E+00
         0.00000E+00
         0.00000E+00
         0.00000E+00
         0.00000E+00
         0.00000E+00
         0.00000E+00
         0.00000E+00
         0.00000E+00
         0.00000E+00
         0.00000E+00
         0.00000E+00
         0.00000E+00
         0.00000E+00
         0.00000E+00
         0.00000E+00
         0.00000E+00
         0.00000E+00
         0.00000E+00
         0.00000E+00
         0.00000E+00
         0.00000E+00
         0.00000E+00
         0.00000E+00
         0.00000E+00
         0.00000E+00
         0.00000E+00
         0.00000E+00
         0.00000E+00
         0.00000E+00
         0.00000E+00
         0.00000E+00
         0.00000E+00
         0.00000E+00
         0.00000E+00
         0.00000E+00
         0.00000E+00
         0.00000E+00
         0.00000E+00
         0.00000E+00
         0.00000E+00
         0.00000E+00
         0.00000E+00
         0.00000E+00
         0.00000E+00
         0.00000E+00
         0.00000E+00
         0.00000E+00
         0.00000E+00
         0.00000E+00
         0.00000E+00
         0.00000E+00
         0.00000E+00
         0.00000E+00
         0.00000E+00
         0.00000E+00
         0.00000E+00
         0.00000E+00
         0.00000E+00
         0.00000E+00
         0.00000E+00
         0.00000E+00
         0.00000E+00
         0.00000E+00
         0.00000E+00
         0.00000E+00
         0.00000E+00
         0.00000E+00
         0.00000E+00
         0.00000E+00
         0.00000E+00
         0.00000E+00
         0.00000E+00
         0.00000E+00
         0.00000E+00
         0.00000E+00
         0.00000E+00
         0.00000E+00
         0.00000E+00
         0.00000E+00
         0.00000E+00
         0.00000E+00
         0.00000E+00
         0.00000E+00
         0.00000E+00
         0.00000E+00
         0.00000E+00
         0.00000E+00
         0.00000E+00
         0.00000E+00
         0.00000E+00
         0.00000E+00
         0.00000E+00
         0.00000E+00
         0.00000E+00
         0.00000E+00
         0.00000E+00
         0.00000E+00
         0.00000E+00
         0.00000E+00
         0.00000E+00
         0.00000E+00
         0.00000E+00
         0.00000E+00
         0.00000E+00
         0.00000E+00
         0.00000E+00
         0.00000E+00
         0.00000E+00
         0.00000E+00
         0.00000E+00
         0.00000E+00
         0.00000E+00
         0.00000E+00
         0.00000E+00
         0.00000E+00
         0.00000E+00
         0.00000E+00
         0.00000E+00
         0.00000E+00
         0.00000E+00
         0.00000E+00
         0.00000E+00
         0.00000E+00
         0.00000E+00
         0.00000E+00
         0.00000E+00
         0.00000E+00
         0.00000E+00
         0.00000E+00
         0.00000E+00
         0.00000E+00
         0.00000E+00
         0.00000E+00
         0.00000E+00
         0.00000E+00
         0.00000E+00
         0.00000E+00
         0.00000E+00
         0.00000E+00
         0.00000E+00
         0.00000E+00
         0.00000E+00
         0.00000E+00
         0.00000E+00
         0.00000E+00
         0.00000E+00
         0.00000E+00
         0.00000E+00
         0.00000E+00
         0.00000E+00
         0.00000E+00
         0.00000E+00
         0.00000E+00
         0.00000E+00
         0.00000E+00
         0.00000E+00
         0.00000E+00
         0.00000E+00
         0.00000E+00
         0.00000E+00
         0.00000E+00
         0.00000E+00
         0.00000E+00
         0.00000E+00
         0.00000E+00
         0.00000E+00
         0.00000E+00
         0.00000E+00
         0.00000E+00
         0.00000E+00
         0.00000E+00
         0.00000E+00
         0.00000E+00
         0.00000E+00
         0.00000E+00
         0.00000E+00
         0.00000E+00
         0.00000E+00
         0.00000E+00
         0.00000E+00
         0.00000E+00
         0.00000E+00
         0.00000E+00
         0.00000E+00
         0.00000E+00
         0.00000E+00
         0.00000E+00
         0.00000E+00
         0.00000E+00
         0.00000E+00
         0.00000E+00
         0.00000E+00
         0.00000E+00
         0.00000E+00
         0.00000E+00
         0.00000E+00
         0.00000E+00
         0.00000E+00
         0.00000E+00
         0.00000E+00
         0.00000E+00
         0.00000E+00
         0.00000E+00
         0.00000E+00
         0.00000E+00
         0.00000E+00
         0.00000E+00
         0.00000E+00
         0.00000E+00
         0.00000E+00
         0.00000E+00
         0.00000E+00
         0.00000E+00
         0.00000E+00
         0.00000E+00
         0.00000E+00
         0.00000E+00
         0.00000E+00
         0.00000E+00
         0.00000E+00
         0.00000E+00
         0.00000E+00
         0.00000E+00
         0.00000E+00
         0.00000E+00
         0.00000E+00
         0.00000E+00
         0.00000E+00
         0.00000E+00
         0.00000E+00
         0.00000E+00
         0.00000E+00
         0.00000E+00
         0.00000E+00
         0.00000E+00
         0.00000E+00
         0.00000E+00
         0.00000E+00
         0.00000E+00
         0.00000E+00
         0.00000E+00
         0.00000E+00
         0.00000E+00
         0.00000E+00
         0.00000E+00
         0.00000E+00
         0.00000E+00
         0.00000E+00
         0.00000E+00
         0.00000E+00
         0.00000E+00
         0.00000E+00
         0.00000E+00
         0.00000E+00
         0.00000E+00
         0.00000E+00
         0.00000E+00
         0.00000E+00
         0.00000E+00
         0.00000E+00
         0.00000E+00
         0.00000E+00
         0.00000E+00
         0.00000E+00
         0.00000E+00
         0.00000E+00
         0.00000E+00
         0.00000E+00
         0.00000E+00
         0.00000E+00
         0.00000E+00
         0.00000E+00
         0.00000E+00
         0.00000E+00
         0.00000E+00
         0.00000E+00
         0.00000E+00
         0.00000E+00
         0.00000E+00
         0.00000E+00
         0.00000E+00
         0.00000E+00
         0.00000E+00
         0.00000E+00
         0.00000E+00
         0.00000E+00
         0.00000E+00
         0.00000E+00
         0.00000E+00
         0.00000E+00
         0.00000E+00
         0.00000E+00
         0.00000E+00
         0.00000E+00
         0.00000E+00
         0.00000E+00
         0.00000E+00
         0.00000E+00
         0.00000E+00
         0.00000E+00
         0.00000E+00
         0.00000E+00
         0.00000E+00
         0.00000E+00
         0.00000E+00
         0.00000E+00
         0.00000E+00
         0.00000E+00
         0.00000E+00
         0.00000E+00
         0.00000E+00
         0.00000E+00
         0.00000E+00
         0.00000E+00
         0.00000E+00
         0.00000E+00
         0.00000E+00
         0.00000E+00
         0.00000E+00
         0.00000E+00
         0.00000E+00
         0.00000E+00
         0.00000E+00
         0.00000E+00
         0.00000E+00
         0.00000E+00
         0.00000E+00
         0.00000E+00
         0.00000E+00
         0.00000E+00
         0.00000E+00
         0.00000E+00
         0.00000E+00
         0.00000E+00
         0.00000E+00
         0.00000E+00
         0.00000E+00
         0.00000E+00
         0.00000E+00
         0.00000E+00
         0.00000E+00
         0.00000E+00
         0.00000E+00
         0.00000E+00
         0.00000E+00
         0.00000E+00
         0.00000E+00
         0.00000E+00
         0.00000E+00
         0.00000E+00
         0.00000E+00
         0.00000E+00
         0.00000E+00
         0.00000E+00
         0.00000E+00
         0.00000E+00
         0.00000E+00
         0.00000E+00
         0.00000E+00
         0.00000E+00
         0.00000E+00
         0.00000E+00
         0.00000E+00
         0.00000E+00
         0.00000E+00
         0.00000E+00
         0.00000E+00
         0.00000E+00
         0.00000E+00
         0.00000E+00
         0.00000E+00
         0.00000E+00
         0.00000E+00
         0.00000E+00
         0.00000E+00
         0.00000E+00
         0.00000E+00
         0.00000E+00
         0.00000E+00
         0.00000E+00
         0.00000E+00
         0.00000E+00
         0.00000E+00
         0.00000E+00
         0.00000E+00
         0.00000E+00
         0.00000E+00
         0.00000E+00
         0.00000E+00
         0.00000E+00
         0.00000E+00
         0.00000E+00
         0.00000E+00
         0.00000E+00
         0.00000E+00
         0.00000E+00
         0.00000E+00
         0.00000E+00
         0.00000E+00
         0.00000E+00
         0.00000E+00
         0.00000E+00
         0.00000E+00
         0.00000E+00
         0.00000E+00
         0.00000E+00
         0.00000E+00
         0.00000E+00
         0.00000E+00
         0.00000E+00
         0.00000E+00
         0.00000E+00
         0.00000E+00
         0.00000E+00
         0.00000E+00
         0.00000E+00
         0.00000E+00
         0.00000E+00
         0.00000E+00
         0.00000E+00
         0.00000E+00
         0.00000E+00
         0.00000E+00
         0.00000E+00
         0.00000E+00
         0.00000E+00
         0.00000E+00
         0.00000E+00
         0.00000E+00
         0.00000E+00
         0.00000E+00
         0.00000E+00
         0.00000E+00
         0.00000E+00
         0.00000E+00
         0.00000E+00
         0.00000E+00
         0.00000E+00
         0.00000E+00
         0.00000E+00
         0.00000E+00
         0.00000E+00
         0.00000E+00
         0.00000E+00
         0.00000E+00
         0.00000E+00
         0.00000E+00
         0.00000E+00
         0.00000E+00
         0.00000E+00
         0.00000E+00
         0.00000E+00
         0.00000E+00
         0.00000E+00
         0.00000E+00
         0.00000E+00
         0.00000E+00
         0.00000E+00
         0.00000E+00
         0.00000E+00
         0.00000E+00
         0.00000E+00
         0.00000E+00
         0.00000E+00
         0.00000E+00
         0.00000E+00
         0.00000E+00
         0.00000E+00
         0.00000E+00
         0.00000E+00
         0.00000E+00
         0.00000E+00
         0.00000E+00
         0.00000E+00
         0.00000E+00
         0.00000E+00
         0.00000E+00
         0.00000E+00
         0.00000E+00
         0.00000E+00
         0.00000E+00
         0.00000E+00
         0.00000E+00
         0.00000E+00
         0.00000E+00
         0.00000E+00
         0.00000E+00
         0.00000E+00
         0.00000E+00
         0.00000E+00
         0.00000E+00
         0.00000E+00
         0.00000E+00
         0.00000E+00
         0.00000E+00
         0.00000E+00
         0.00000E+00
         0.00000E+00
         0.00000E+00
         0.00000E+00
         0.00000E+00
         0.00000E+00
         0.00000E+00
         0.00000E+00
         0.00000E+00
         0.00000E+00
         0.00000E+00
         0.00000E+00
         0.00000E+00
         0.00000E+00
         0.00000E+00
         0.00000E+00
         0.00000E+00
         0.00000E+00
         0.00000E+00
         0.00000E+00
         0.00000E+00
         0.00000E+00
         0.00000E+00
         0.00000E+00
         0.00000E+00
         0.00000E+00
         0.00000E+00
         0.00000E+00
         0.00000E+00
         0.00000E+00
         0.00000E+00
         0.00000E+00
         0.00000E+00
         0.00000E+00
         0.00000E+00
         0.00000E+00
         0.00000E+00
         0.00000E+00
         0.00000E+00
         0.00000E+00
         0.00000E+00
         0.00000E+00
         0.00000E+00
         0.00000E+00
         0.00000E+00
         0.00000E+00
         0.00000E+00
         0.00000E+00
         0.00000E+00
         0.00000E+00
         0.00000E+00
         0.00000E+00
         0.00000E+00
         0.00000E+00
         0.00000E+00
         0.00000E+00
         0.00000E+00
         0.00000E+00
         0.00000E+00
         0.00000E+00
         0.00000E+00
         0.00000E+00
         0.00000E+00
         0.00000E+00
         0.00000E+00
         0.00000E+00
         0.00000E+00
         0.00000E+00
         0.00000E+00
         0.00000E+00
         0.00000E+00
         0.00000E+00
         0.00000E+00
         0.00000E+00
         0.00000E+00
         0.00000E+00
         0.00000E+00
         0.00000E+00
         0.00000E+00
         0.00000E+00
         0.00000E+00
         0.00000E+00
         0.00000E+00
         0.00000E+00
         0.00000E+00
         0.00000E+00
         0.00000E+00
         0.00000E+00
         0.00000E+00
         0.00000E+00
         0.00000E+00
         0.00000E+00
         0.00000E+00
         0.00000E+00
         0.00000E+00
         0.00000E+00
         0.00000E+00
         0.00000E+00
         0.00000E+00
         0.00000E+00
         0.00000E+00
         0.00000E+00
         0.00000E+00
         0.00000E+00
         0.00000E+00
         0.00000E+00
         0.00000E+00
         0.00000E+00
         0.00000E+00
         0.00000E+00
         0.00000E+00
         0.00000E+00
         0.00000E+00
         0.00000E+00
         0.00000E+00
         0.00000E+00
         0.00000E+00
         0.00000E+00
         0.00000E+00
         0.00000E+00
         0.00000E+00
         0.00000E+00
         0.00000E+00
         0.00000E+00
         0.00000E+00
         0.00000E+00
         0.00000E+00
         0.00000E+00
         0.00000E+00
         0.00000E+00
         0.00000E+00
         0.00000E+00
         0.00000E+00
         0.00000E+00
         0.00000E+00
         0.00000E+00
         0.00000E+00
         0.00000E+00
         0.00000E+00
         0.00000E+00
         0.00000E+00
         0.00000E+00
         0.00000E+00
         0.00000E+00
         0.00000E+00
         0.00000E+00
         0.00000E+00
         0.00000E+00
         0.00000E+00
         0.00000E+00
         0.00000E+00
         0.00000E+00
         0.00000E+00
         0.00000E+00
         0.00000E+00
         0.00000E+00
         0.00000E+00
         0.00000E+00
         0.00000E+00
         0.00000E+00
         0.00000E+00
         0.00000E+00
         0.00000E+00
         0.00000E+00
         0.00000E+00
         0.00000E+00
         0.00000E+00
         0.00000E+00
         0.00000E+00
         0.00000E+00
         0.00000E+00
         0.00000E+00
         0.00000E+00
         0.00000E+00
         0.00000E+00
         0.00000E+00
         0.00000E+00
         0.00000E+00
         0.00000E+00
         0.00000E+00
         0.00000E+00
         0.00000E+00
         0.00000E+00
         0.00000E+00
         0.00000E+00
         0.00000E+00
         0.00000E+00
         0.00000E+00
         0.00000E+00
         0.00000E+00
         0.00000E+00
         0.00000E+00
         0.00000E+00
         0.00000E+00
         0.00000E+00
         0.00000E+00
         0.00000E+00
         0.00000E+00
         0.00000E+00
         0.00000E+00
         0.00000E+00
         0.00000E+00
         0.00000E+00
         0.00000E+00
         0.00000E+00
         0.00000E+00
         0.00000E+00
         0.00000E+00
         0.00000E+00
         0.00000E+00
         0.00000E+00
         0.00000E+00
         0.00000E+00
         0.00000E+00
         0.00000E+00
         0.00000E+00
         0.00000E+00
         0.00000E+00
         0.00000E+00
         0.00000E+00
         0.00000E+00
         0.00000E+00
         0.00000E+00
         0.00000E+00
         0.00000E+00
         0.00000E+00
         0.00000E+00
         0.00000E+00
         0.00000E+00
         0.00000E+00
         0.00000E+00
         0.00000E+00
         0.00000E+00
         0.00000E+00
         0.00000E+00
         0.00000E+00
         0.00000E+00
         0.00000E+00
         0.00000E+00
         0.00000E+00
         0.00000E+00
         0.00000E+00
         0.00000E+00
         0.00000E+00
         0.00000E+00
         0.00000E+00
         0.00000E+00
         0.00000E+00
         0.00000E+00
         0.00000E+00
         0.00000E+00
         0.00000E+00
         0.00000E+00
         0.00000E+00
         0.00000E+00
         0.00000E+00
         0.00000E+00
         0.00000E+00
         0.00000E+00
         0.00000E+00
         0.00000E+00
         0.00000E+00
         0.00000E+00
         0.00000E+00
         0.00000E+00
         0.00000E+00
         0.00000E+00
         0.00000E+00
         0.00000E+00
         0.00000E+00
         0.00000E+00
         0.00000E+00
         0.00000E+00
         0.00000E+00
         0.00000E+00
         0.00000E+00
         0.00000E+00
         0.00000E+00
         0.00000E+00
         0.00000E+00
         0.00000E+00
         0.00000E+00
         0.00000E+00
         0.00000E+00
         0.00000E+00
         0.00000E+00
         0.00000E+00
         0.00000E+00
         0.00000E+00
         0.00000E+00
         0.00000E+00
         0.00000E+00
         0.00000E+00
         0.00000E+00
         0.00000E+00
         0.00000E+00
         0.00000E+00
         0.00000E+00
         0.00000E+00
         0.00000E+00
         0.00000E+00
         0.00000E+00
         0.00000E+00
         0.00000E+00
         0.00000E+00
         0.00000E+00
         0.00000E+00
         0.00000E+00
         0.00000E+00
         0.00000E+00
         0.00000E+00
         0.00000E+00
         0.00000E+00
         0.00000E+00
         0.00000E+00
         0.00000E+00
         0.00000E+00
         0.00000E+00
         0.00000E+00
         0.00000E+00
         0.00000E+00
         0.00000E+00
         0.00000E+00
         0.00000E+00
         0.00000E+00
         0.00000E+00
         0.00000E+00
         0.00000E+00
         0.00000E+00
         0.00000E+00
         0.00000E+00
         0.00000E+00
         0.00000E+00
         0.00000E+00
         0.00000E+00
         0.00000E+00
         0.00000E+00
         0.00000E+00
         0.00000E+00
         0.00000E+00
         0.00000E+00
         0.00000E+00
         0.00000E+00
         0.00000E+00
         0.00000E+00
         0.00000E+00
         0.00000E+00
         0.00000E+00
         0.00000E+00
         0.00000E+00
         0.00000E+00
         0.00000E+00
         0.00000E+00
         0.00000E+00
         0.00000E+00
         0.00000E+00
         0.00000E+00
         0.00000E+00
         0.00000E+00
         0.00000E+00
         0.00000E+00
         0.00000E+00
         0.00000E+00
         0.00000E+00
         0.00000E+00
         0.00000E+00
         0.00000E+00
         0.00000E+00
         0.00000E+00
         0.00000E+00
         0.00000E+00
         0.00000E+00
         0.00000E+00
         0.00000E+00
         0.00000E+00
         0.00000E+00
         0.00000E+00
         0.00000E+00
         0.00000E+00
         0.00000E+00
         0.00000E+00
         0.00000E+00
         0.00000E+00
         0.00000E+00
         0.00000E+00
         0.00000E+00
         0.00000E+00
         0.00000E+00
         0.00000E+00
         0.00000E+00
         0.00000E+00
         0.00000E+00
         0.00000E+00
         0.00000E+00
         0.00000E+00
         0.00000E+00
         0.00000E+00
         0.00000E+00
         0.00000E+00
         0.00000E+00
         0.00000E+00
         0.00000E+00
         0.00000E+00
         0.00000E+00
         0.00000E+00
         0.00000E+00
         0.00000E+00
         0.00000E+00
         0.00000E+00
         0.00000E+00
         0.00000E+00
         0.00000E+00
         0.00000E+00
         0.00000E+00
         0.00000E+00
         0.00000E+00
         0.00000E+00
         0.00000E+00
         0.00000E+00
         0.00000E+00
         0.00000E+00
         0.00000E+00
         0.00000E+00
         0.00000E+00
         0.00000E+00
         0.00000E+00
         0.00000E+00
         0.00000E+00
         0.00000E+00
         0.00000E+00
         0.00000E+00
         0.00000E+00
         0.00000E+00
         0.00000E+00
         0.00000E+00
         0.00000E+00
         0.00000E+00
         0.00000E+00
         0.00000E+00
         0.00000E+00
         0.00000E+00
         0.00000E+00
         0.00000E+00
         0.00000E+00
         0.00000E+00
         0.00000E+00
         0.00000E+00
         0.00000E+00
         0.00000E+00
         0.00000E+00
         0.00000E+00
         0.00000E+00
         0.00000E+00
         0.00000E+00
         0.00000E+00
         0.00000E+00
         0.00000E+00
         0.00000E+00
         0.00000E+00
         0.00000E+00
         0.00000E+00
         0.00000E+00
         0.00000E+00
         0.00000E+00
         0.00000E+00
         0.00000E+00
         0.00000E+00
         0.00000E+00
         0.00000E+00
         0.00000E+00
         0.00000E+00
         0.00000E+00
         0.00000E+00
         0.00000E+00
         0.00000E+00
         0.00000E+00
         0.00000E+00
         0.00000E+00
         0.00000E+00
         0.00000E+00
         0.00000E+00
         0.00000E+00
         0.00000E+00
         0.00000E+00
         0.00000E+00
         0.00000E+00
         0.00000E+00
         0.00000E+00
         0.00000E+00
         0.00000E+00
         0.00000E+00
         0.00000E+00
         0.00000E+00
         0.00000E+00
         0.00000E+00
         0.00000E+00
         0.00000E+00
         0.00000E+00
         0.00000E+00
         0.00000E+00
         0.00000E+00
         0.00000E+00
         0.00000E+00
         0.00000E+00
         0.00000E+00
         0.00000E+00
         0.00000E+00
         0.00000E+00
         0.00000E+00
         0.00000E+00
         0.00000E+00
         0.00000E+00
         0.00000E+00
         0.00000E+00
         0.00000E+00
         0.00000E+00
         0.00000E+00
         0.00000E+00
         0.00000E+00
         0.00000E+00
         0.00000E+00
         0.00000E+00
         0.00000E+00
         0.00000E+00
         0.00000E+00
         0.00000E+00
         0.00000E+00
         0.00000E+00
         0.00000E+00
         0.00000E+00
         0.00000E+00
         0.00000E+00
         0.00000E+00
         0.00000E+00
         0.00000E+00
         0.00000E+00
         0.00000E+00
         0.00000E+00
         0.00000E+00
         0.00000E+00
         0.00000E+00
         0.00000E+00
         0.00000E+00
         0.00000E+00
         0.00000E+00
         0.00000E+00
         0.00000E+00
         0.00000E+00
         0.00000E+00
         0.00000E+00
         0.00000E+00
         0.00000E+00
         0.00000E+00
         0.00000E+00
         0.00000E+00
         0.00000E+00
         0.00000E+00
         0.00000E+00
         0.00000E+00
         0.00000E+00
         0.00000E+00
         0.00000E+00
         0.00000E+00
         0.00000E+00
         0.00000E+00
         0.00000E+00
         0.00000E+00
         0.00000E+00
         0.00000E+00
         0.00000E+00
         0.00000E+00
         0.00000E+00
         0.00000E+00
         0.00000E+00
         0.00000E+00
         0.00000E+00
         0.00000E+00
         0.00000E+00
         0.00000E+00
         0.00000E+00
         0.00000E+00
         0.00000E+00
         0.00000E+00
         0.00000E+00
         0.00000E+00
         0.00000E+00
         0.00000E+00
         0.00000E+00
         0.00000E+00
         0.00000E+00
         0.00000E+00
         0.00000E+00
         0.00000E+00
         0.00000E+00
         0.00000E+00
         0.00000E+00
         0.00000E+00
         0.00000E+00
         0.00000E+00
         0.00000E+00
         0.00000E+00
         0.00000E+00
         0.00000E+00
         0.00000E+00
         0.00000E+00
         0.00000E+00
         0.00000E+00
         0.00000E+00
         0.00000E+00
         0.00000E+00
         0.00000E+00
         0.00000E+00
         0.00000E+00
         0.00000E+00
         0.00000E+00
         0.00000E+00
         0.00000E+00
         0.00000E+00
         0.00000E+00
         0.00000E+00
         0.00000E+00
         0.00000E+00
         0.00000E+00
         0.00000E+00
         0.00000E+00
         0.00000E+00
         0.00000E+00
         0.00000E+00
         0.00000E+00
         0.00000E+00
         0.00000E+00
         0.00000E+00
         0.00000E+00
         0.00000E+00
         0.00000E+00
         0.00000E+00
         0.00000E+00
         0.00000E+00
         0.00000E+00
         0.00000E+00
         0.00000E+00
         0.00000E+00
         0.00000E+00
         0.00000E+00
         0.00000E+00
         0.00000E+00
         0.00000E+00
         0.00000E+00
         0.00000E+00
         0.00000E+00
         0.00000E+00
         0.00000E+00
         0.00000E+00
         0.00000E+00
         0.00000E+00
         0.00000E+00
         0.00000E+00
         0.00000E+00
         0.00000E+00
         0.00000E+00
         0.00000E+00
         0.00000E+00
         0.00000E+00
         0.00000E+00
         0.00000E+00
         0.00000E+00
         0.00000E+00
         0.00000E+00
         0.00000E+00
         0.00000E+00
         0.00000E+00
         0.00000E+00
         0.00000E+00
         0.00000E+00
         0.00000E+00
         0.00000E+00
         0.00000E+00
         0.00000E+00
         0.00000E+00
         0.00000E+00
         0.00000E+00
         0.00000E+00
         0.00000E+00
         0.00000E+00
         0.00000E+00
         0.00000E+00
         0.00000E+00
         0.00000E+00
         0.00000E+00
         0.00000E+00
         0.00000E+00
         0.00000E+00
         0.00000E+00
         0.00000E+00
         0.00000E+00
         0.00000E+00
         0.00000E+00
         0.00000E+00
         0.00000E+00
         0.00000E+00
         0.00000E+00
         0.00000E+00
         0.00000E+00
         0.00000E+00
         0.00000E+00
         0.00000E+00
         0.00000E+00
         0.00000E+00
         0.00000E+00
         0.00000E+00
         0.00000E+00
         0.00000E+00
         0.00000E+00
         0.00000E+00
         0.00000E+00
         0.00000E+00
         0.00000E+00
         0.00000E+00
         0.00000E+00
         0.00000E+00
         0.00000E+00
         0.00000E+00
         0.00000E+00
         0.00000E+00
         0.00000E+00
         0.00000E+00
         0.00000E+00
         0.00000E+00
         0.00000E+00
         0.00000E+00
         0.00000E+00
         0.00000E+00
         0.00000E+00
         0.00000E+00
         0.00000E+00
         0.00000E+00
         0.00000E+00
         0.00000E+00
         0.00000E+00
         0.00000E+00
         0.00000E+00
         0.00000E+00
         0.00000E+00
         0.00000E+00
         0.00000E+00
         0.00000E+00
         0.00000E+00
         0.00000E+00
         0.00000E+00
         0.00000E+00
         0.00000E+00
         0.00000E+00
         0.00000E+00
         0.00000E+00
         0.00000E+00
         0.00000E+00
         0.00000E+00
         0.00000E+00
         0.00000E+00
         0.00000E+00
         0.00000E+00
         0.00000E+00
         0.00000E+00
         0.00000E+00
         0.00000E+00
         0.00000E+00
         0.00000E+00
         0.00000E+00
         0.00000E+00
         0.00000E+00
         0.00000E+00
         0.00000E+00
         0.00000E+00
         0.00000E+00
         0.00000E+00
         0.00000E+00
         0.00000E+00
         0.00000E+00
         0.00000E+00
         0.00000E+00
         0.00000E+00
         0.00000E+00
         0.00000E+00
         0.00000E+00
         0.00000E+00
         0.00000E+00
         0.00000E+00
         0.00000E+00
         0.00000E+00
         0.00000E+00
         0.00000E+00
         0.00000E+00
         0.00000E+00
         0.00000E+00
         0.00000E+00
         0.00000E+00
         0.00000E+00
         0.00000E+00
         0.00000E+00
         0.00000E+00
         0.00000E+00
         0.00000E+00
         0.00000E+00
         0.00000E+00
         0.00000E+00
         0.00000E+00
         0.00000E+00
         0.00000E+00
         0.00000E+00
         0.00000E+00
         0.00000E+00
         0.00000E+00
         0.00000E+00
         0.00000E+00
         0.00000E+00
         0.00000E+00
         0.00000E+00
         0.00000E+00
         0.00000E+00
         0.00000E+00
         0.00000E+00
         0.00000E+00
         0.00000E+00
         0.00000E+00
         0.00000E+00
         0.00000E+00
         0.00000E+00
         0.00000E+00
         0.00000E+00
         0.00000E+00
         0.00000E+00
         0.00000E+00
         0.00000E+00
         0.00000E+00
         0.00000E+00
         0.00000E+00
         0.00000E+00
         0.00000E+00
         0.00000E+00
         0.00000E+00
         0.00000E+00
         0.00000E+00
         0.00000E+00
         0.00000E+00
         0.00000E+00
         0.00000E+00
         0.00000E+00
         0.00000E+00
         0.00000E+00
         0.00000E+00
         0.00000E+00
         0.00000E+00
         0.00000E+00
         0.00000E+00
         0.00000E+00
         0.00000E+00
         0.00000E+00
         0.00000E+00
         0.00000E+00
         0.00000E+00
         0.00000E+00
         0.00000E+00
         0.00000E+00
         0.00000E+00
         0.00000E+00
         0.00000E+00
         0.00000E+00
         0.00000E+00
         0.00000E+00
         0.00000E+00
         0.00000E+00
         0.00000E+00
         0.00000E+00
         0.00000E+00
         0.00000E+00
         0.00000E+00
         0.00000E+00
         0.00000E+00
         0.00000E+00
         0.00000E+00
         0.00000E+00
         0.00000E+00
         0.00000E+00
         0.00000E+00
         0.00000E+00
         0.00000E+00
         0.00000E+00
         0.00000E+00
         0.00000E+00
         0.00000E+00
         0.00000E+00
         0.00000E+00
         0.00000E+00
         0.00000E+00
         0.00000E+00
         0.00000E+00
         0.00000E+00
         0.00000E+00
         0.00000E+00
         0.00000E+00
         0.00000E+00
         0.00000E+00
         0.00000E+00
         0.00000E+00
         0.00000E+00
         0.00000E+00
         0.00000E+00
         0.00000E+00
         0.00000E+00
         0.00000E+00
         0.00000E+00
         0.00000E+00
         0.00000E+00
         0.00000E+00
         0.00000E+00
         0.00000E+00
         0.00000E+00
         0.00000E+00
         0.00000E+00
         0.00000E+00
         0.00000E+00
         0.00000E+00
         0.00000E+00
         0.00000E+00
         0.00000E+00
         0.00000E+00
         0.00000E+00
         0.00000E+00
         0.00000E+00
         0.00000E+00
         0.00000E+00
         0.00000E+00
         0.00000E+00
         0.00000E+00
         0.00000E+00
         0.00000E+00
         0.00000E+00
         0.00000E+00
         0.00000E+00
         0.00000E+00
         0.00000E+00
         0.00000E+00
         0.00000E+00
         0.00000E+00
         0.00000E+00
         0.00000E+00
         0.00000E+00
         0.00000E+00
         0.00000E+00
         0.00000E+00
         0.00000E+00
         0.00000E+00
         0.00000E+00
         0.00000E+00
         0.00000E+00
         0.00000E+00
         0.00000E+00
         0.00000E+00
         0.00000E+00
         0.00000E+00
         0.00000E+00
         0.00000E+00
         0.00000E+00
         0.00000E+00
         0.00000E+00
         0.00000E+00
         0.00000E+00
         0.00000E+00
         0.00000E+00
         0.00000E+00
         0.00000E+00
         0.00000E+00
         0.00000E+00
         0.00000E+00
         0.00000E+00
         0.00000E+00
         0.00000E+00
         0.00000E+00
         0.00000E+00
         0.00000E+00
         0.00000E+00
         0.00000E+00
         0.00000E+00
         0.00000E+00
         0.00000E+00
         0.00000E+00
         0.00000E+00
         0.00000E+00
         0.00000E+00
         0.00000E+00
         0.00000E+00
         0.00000E+00
         0.00000E+00
         0.00000E+00
         0.00000E+00
         0.00000E+00
         0.00000E+00
         0.00000E+00
         0.00000E+00
         0.00000E+00
         0.00000E+00
         0.00000E+00
         0.00000E+00
         0.00000E+00
         0.00000E+00
         0.00000E+00
         0.00000E+00
         0.00000E+00
         0.00000E+00
         0.00000E+00
         0.00000E+00
         0.00000E+00
         0.00000E+00
         0.00000E+00
         0.00000E+00
         0.00000E+00
         0.00000E+00
         0.00000E+00
         0.00000E+00
         0.00000E+00
         0.00000E+00
         0.00000E+00
         0.00000E+00
         0.00000E+00
         0.00000E+00
         0.00000E+00
         0.00000E+00
         0.00000E+00
         0.00000E+00
         0.00000E+00
         0.00000E+00
         0.00000E+00
         0.00000E+00
         0.00000E+00
         0.00000E+00
         0.00000E+00
         0.00000E+00
         0.00000E+00
         0.00000E+00
         0.00000E+00
         0.00000E+00
         0.00000E+00
         0.00000E+00
         0.00000E+00
         0.00000E+00
         0.00000E+00
         0.00000E+00
         0.00000E+00
         0.00000E+00
         0.00000E+00
         0.00000E+00
         0.00000E+00
         0.00000E+00
         0.00000E+00
         0.00000E+00
         0.00000E+00
         0.00000E+00
         0.00000E+00
         0.00000E+00
         0.00000E+00
         0.00000E+00
         0.00000E+00
         0.00000E+00
         0.00000E+00
         0.00000E+00
         0.00000E+00
         0.00000E+00
         0.00000E+00
         0.00000E+00
         0.00000E+00
         0.00000E+00
         0.00000E+00
         0.00000E+00
         0.00000E+00
         0.00000E+00
         0.00000E+00
         0.00000E+00
         0.00000E+00
         0.00000E+00
         0.00000E+00
         0.00000E+00
         0.00000E+00
         0.00000E+00
         0.00000E+00
         0.00000E+00
         0.00000E+00
         0.00000E+00
         0.00000E+00
         0.00000E+00
         0.00000E+00
         0.00000E+00
         0.00000E+00
         0.00000E+00
         0.00000E+00
         0.00000E+00
         0.00000E+00
         0.00000E+00
         0.00000E+00
         0.00000E+00
         0.00000E+00
         0.00000E+00
         0.00000E+00
         0.00000E+00
         0.00000E+00
         0.00000E+00
         0.00000E+00
         0.00000E+00
         0.00000E+00
         0.00000E+00
         0.00000E+00
         0.00000E+00
         0.00000E+00
         0.00000E+00
         0.00000E+00
         0.00000E+00
         0.00000E+00
         0.00000E+00
         0.00000E+00
         0.00000E+00
         0.00000E+00
         0.00000E+00
         0.00000E+00
         0.00000E+00
         0.00000E+00
         0.00000E+00
         0.00000E+00
         0.00000E+00
         0.00000E+00
         0.00000E+00
         0.00000E+00
         0.00000E+00
         0.00000E+00
         0.00000E+00
         0.00000E+00
         0.00000E+00
         0.00000E+00
         0.00000E+00
         0.00000E+00
         0.00000E+00
         0.00000E+00
         0.00000E+00
         0.00000E+00
         0.00000E+00
         0.00000E+00
         0.00000E+00
         0.00000E+00
         0.00000E+00
         0.00000E+00
         0.00000E+00
         0.00000E+00
         0.00000E+00
         0.00000E+00
         0.00000E+00
         0.00000E+00
         0.00000E+00
         0.00000E+00
         0.00000E+00
         0.00000E+00
         0.00000E+00
         0.00000E+00
         0.00000E+00
         0.00000E+00
         0.00000E+00
         0.00000E+00
         0.00000E+00
         0.00000E+00
         0.00000E+00
         0.00000E+00
         0.00000E+00
         0.00000E+00
         0.00000E+00
         0.00000E+00
         0.00000E+00
         0.00000E+00
         0.00000E+00
         0.00000E+00
         0.00000E+00
         0.00000E+00
         0.00000E+00
         0.00000E+00
         0.00000E+00
         0.00000E+00
         0.00000E+00
         0.00000E+00
         0.00000E+00
         0.00000E+00
         0.00000E+00
         0.00000E+00
         0.00000E+00
         0.00000E+00
         0.00000E+00
         0.00000E+00
         0.00000E+00
         0.00000E+00
         0.00000E+00
         0.00000E+00
         0.00000E+00
         0.00000E+00
         0.00000E+00
         0.00000E+00
         0.00000E+00
         0.00000E+00
         0.00000E+00
         0.00000E+00
         0.00000E+00
         0.00000E+00
         0.00000E+00
         0.00000E+00
         0.00000E+00
         0.00000E+00
         0.00000E+00
         0.00000E+00
         0.00000E+00
         0.00000E+00
         0.00000E+00
         0.00000E+00
         0.00000E+00
         0.00000E+00
         0.00000E+00
         0.00000E+00
         0.00000E+00
         0.00000E+00
         0.00000E+00
         0.00000E+00
         0.00000E+00
         0.00000E+00
         0.00000E+00
         0.00000E+00
         0.00000E+00
         0.00000E+00
         0.00000E+00
         0.00000E+00
         0.00000E+00
         0.00000E+00
         0.00000E+00
         0.00000E+00
         0.00000E+00
         0.00000E+00
         0.00000E+00
         0.00000E+00
         0.00000E+00
         0.00000E+00
         0.00000E+00
         0.00000E+00
         0.00000E+00
         0.00000E+00
         0.00000E+00
         0.00000E+00
         0.00000E+00
         0.00000E+00
         0.00000E+00
         0.00000E+00
         0.00000E+00
         0.00000E+00
         0.00000E+00
         0.00000E+00
         0.00000E+00
         0.00000E+00
         0.00000E+00
         0.00000E+00
         0.00000E+00
         0.00000E+00
         0.00000E+00
         0.00000E+00
         0.00000E+00
         0.00000E+00
         0.00000E+00
         0.00000E+00
         0.00000E+00
         0.00000E+00
         0.00000E+00
         0.00000E+00
         0.00000E+00
         0.00000E+00
         0.00000E+00
         0.00000E+00
         0.00000E+00
         0.00000E+00
         0.00000E+00
         0.00000E+00
         0.00000E+00
         0.00000E+00
         0.00000E+00
         0.00000E+00
         0.00000E+00
         0.00000E+00
         0.00000E+00
         0.00000E+00
         0.00000E+00
         0.00000E+00
         0.00000E+00
         0.00000E+00
         0.00000E+00
         0.00000E+00
         0.00000E+00
         0.00000E+00
         0.00000E+00
         0.00000E+00
         0.00000E+00
         0.00000E+00
         0.00000E+00
         0.00000E+00
         0.00000E+00
         0.00000E+00
         0.00000E+00
         0.00000E+00
         0.00000E+00
         0.00000E+00
         0.00000E+00
         0.00000E+00
         0.00000E+00
         0.00000E+00
         0.00000E+00
         0.00000E+00
         0.00000E+00
         0.00000E+00
         0.00000E+00
         0.00000E+00
         0.00000E+00
         0.00000E+00
         0.00000E+00
         0.00000E+00
         0.00000E+00
         0.00000E+00
         0.00000E+00
         0.00000E+00
         0.00000E+00
         0.00000E+00
         0.00000E+00
         0.00000E+00
         0.00000E+00
         0.00000E+00
         0.00000E+00
         0.00000E+00
         0.00000E+00
         0.00000E+00
         0.00000E+00
         0.00000E+00
         0.00000E+00
         0.00000E+00
         0.00000E+00
         0.00000E+00
         0.00000E+00
         0.00000E+00
         0.00000E+00
         0.00000E+00
         0.00000E+00
         0.00000E+00
         0.00000E+00
         0.00000E+00
         0.00000E+00
         0.00000E+00
         0.00000E+00
         0.00000E+00
         0.00000E+00
         0.00000E+00
         0.00000E+00
         0.00000E+00
         0.00000E+00
         0.00000E+00
         0.00000E+00
         0.00000E+00
         0.00000E+00
  
SCALARS                         fint_z  double 1
LOOKUP_TABLE default
         0.00000E+00
         0.00000E+00
         0.00000E+00
         0.00000E+00
         0.00000E+00
         0.00000E+00
         0.00000E+00
         0.00000E+00
         0.00000E+00
         0.00000E+00
         0.00000E+00
         0.00000E+00
         0.00000E+00
         0.00000E+00
         0.00000E+00
         0.00000E+00
         0.00000E+00
         0.00000E+00
         0.00000E+00
         0.00000E+00
         0.00000E+00
         0.00000E+00
         0.00000E+00
         0.00000E+00
         0.00000E+00
         0.00000E+00
         0.00000E+00
         0.00000E+00
         0.00000E+00
         0.00000E+00
         0.00000E+00
         0.00000E+00
         0.00000E+00
         0.00000E+00
         0.00000E+00
         0.00000E+00
         0.00000E+00
         0.00000E+00
         0.00000E+00
         0.00000E+00
         0.00000E+00
         0.00000E+00
         0.00000E+00
         0.00000E+00
         0.00000E+00
         0.00000E+00
         0.00000E+00
         0.00000E+00
         0.00000E+00
         0.00000E+00
         0.00000E+00
         0.00000E+00
         0.00000E+00
         0.00000E+00
         0.00000E+00
         0.00000E+00
         0.00000E+00
         0.00000E+00
         0.00000E+00
         0.00000E+00
         0.00000E+00
         0.00000E+00
         0.00000E+00
         0.00000E+00
         0.00000E+00
         0.00000E+00
         0.00000E+00
         0.00000E+00
         0.00000E+00
         0.00000E+00
         0.00000E+00
         0.00000E+00
         0.00000E+00
         0.00000E+00
         0.00000E+00
         0.00000E+00
         0.00000E+00
         0.00000E+00
         0.00000E+00
         0.00000E+00
         0.00000E+00
         0.00000E+00
         0.00000E+00
         0.00000E+00
         0.00000E+00
         0.00000E+00
         0.00000E+00
         0.00000E+00
         0.00000E+00
         0.00000E+00
         0.00000E+00
         0.00000E+00
         0.00000E+00
         0.00000E+00
         0.00000E+00
         0.00000E+00
         0.00000E+00
         0.00000E+00
         0.00000E+00
         0.00000E+00
         0.00000E+00
         0.00000E+00
         0.00000E+00
         0.00000E+00
         0.00000E+00
         0.00000E+00
         0.00000E+00
         0.00000E+00
         0.00000E+00
         0.00000E+00
         0.00000E+00
         0.00000E+00
         0.00000E+00
         0.00000E+00
         0.00000E+00
         0.00000E+00
         0.00000E+00
         0.00000E+00
         0.00000E+00
         0.00000E+00
         0.00000E+00
         0.00000E+00
         0.00000E+00
         0.00000E+00
         0.00000E+00
         0.00000E+00
         0.00000E+00
         0.00000E+00
         0.00000E+00
         0.00000E+00
         0.00000E+00
         0.00000E+00
         0.00000E+00
         0.00000E+00
         0.00000E+00
         0.00000E+00
         0.00000E+00
         0.00000E+00
         0.00000E+00
         0.00000E+00
         0.00000E+00
         0.00000E+00
         0.00000E+00
         0.00000E+00
         0.00000E+00
         0.00000E+00
         0.00000E+00
         0.00000E+00
         0.00000E+00
         0.00000E+00
         0.00000E+00
         0.00000E+00
         0.00000E+00
         0.00000E+00
         0.00000E+00
         0.00000E+00
         0.00000E+00
         0.00000E+00
         0.00000E+00
         0.00000E+00
         0.00000E+00
         0.00000E+00
         0.00000E+00
         0.00000E+00
         0.00000E+00
         0.00000E+00
         0.00000E+00
         0.00000E+00
         0.00000E+00
         0.00000E+00
         0.00000E+00
         0.00000E+00
         0.00000E+00
         0.00000E+00
         0.00000E+00
         0.00000E+00
         0.00000E+00
         0.00000E+00
         0.00000E+00
         0.00000E+00
         0.00000E+00
         0.00000E+00
         0.00000E+00
         0.00000E+00
         0.00000E+00
         0.00000E+00
         0.00000E+00
         0.00000E+00
         0.00000E+00
         0.00000E+00
         0.00000E+00
         0.00000E+00
         0.00000E+00
         0.00000E+00
         0.00000E+00
         0.00000E+00
         0.00000E+00
         0.00000E+00
         0.00000E+00
         0.00000E+00
         0.00000E+00
         0.00000E+00
         0.00000E+00
         0.00000E+00
         0.00000E+00
         0.00000E+00
         0.00000E+00
         0.00000E+00
         0.00000E+00
         0.00000E+00
         0.00000E+00
         0.00000E+00
         0.00000E+00
         0.00000E+00
         0.00000E+00
         0.00000E+00
         0.00000E+00
         0.00000E+00
         0.00000E+00
         0.00000E+00
         0.00000E+00
         0.00000E+00
         0.00000E+00
         0.00000E+00
         0.00000E+00
         0.00000E+00
         0.00000E+00
         0.00000E+00
         0.00000E+00
         0.00000E+00
         0.00000E+00
         0.00000E+00
         0.00000E+00
         0.00000E+00
         0.00000E+00
         0.00000E+00
         0.00000E+00
         0.00000E+00
         0.00000E+00
         0.00000E+00
         0.00000E+00
         0.00000E+00
         0.00000E+00
         0.00000E+00
         0.00000E+00
         0.00000E+00
         0.00000E+00
         0.00000E+00
         0.00000E+00
         0.00000E+00
         0.00000E+00
         0.00000E+00
         0.00000E+00
         0.00000E+00
         0.00000E+00
         0.00000E+00
         0.00000E+00
         0.00000E+00
         0.00000E+00
         0.00000E+00
         0.00000E+00
         0.00000E+00
         0.00000E+00
         0.00000E+00
         0.00000E+00
         0.00000E+00
         0.00000E+00
         0.00000E+00
         0.00000E+00
         0.00000E+00
         0.00000E+00
         0.00000E+00
         0.00000E+00
         0.00000E+00
         0.00000E+00
         0.00000E+00
         0.00000E+00
         0.00000E+00
         0.00000E+00
         0.00000E+00
         0.00000E+00
         0.00000E+00
         0.00000E+00
         0.00000E+00
         0.00000E+00
         0.00000E+00
         0.00000E+00
         0.00000E+00
         0.00000E+00
         0.00000E+00
         0.00000E+00
         0.00000E+00
         0.00000E+00
         0.00000E+00
         0.00000E+00
         0.00000E+00
         0.00000E+00
         0.00000E+00
         0.00000E+00
         0.00000E+00
         0.00000E+00
         0.00000E+00
         0.00000E+00
         0.00000E+00
         0.00000E+00
         0.00000E+00
         0.00000E+00
         0.00000E+00
         0.00000E+00
         0.00000E+00
         0.00000E+00
         0.00000E+00
         0.00000E+00
         0.00000E+00
         0.00000E+00
         0.00000E+00
         0.00000E+00
         0.00000E+00
         0.00000E+00
         0.00000E+00
         0.00000E+00
         0.00000E+00
         0.00000E+00
         0.00000E+00
         0.00000E+00
         0.00000E+00
         0.00000E+00
         0.00000E+00
         0.00000E+00
         0.00000E+00
         0.00000E+00
         0.00000E+00
         0.00000E+00
         0.00000E+00
         0.00000E+00
         0.00000E+00
         0.00000E+00
         0.00000E+00
         0.00000E+00
         0.00000E+00
         0.00000E+00
         0.00000E+00
         0.00000E+00
         0.00000E+00
         0.00000E+00
         0.00000E+00
         0.00000E+00
         0.00000E+00
         0.00000E+00
         0.00000E+00
         0.00000E+00
         0.00000E+00
         0.00000E+00
         0.00000E+00
         0.00000E+00
         0.00000E+00
         0.00000E+00
         0.00000E+00
         0.00000E+00
         0.00000E+00
         0.00000E+00
         0.00000E+00
         0.00000E+00
         0.00000E+00
         0.00000E+00
         0.00000E+00
         0.00000E+00
         0.00000E+00
         0.00000E+00
         0.00000E+00
         0.00000E+00
         0.00000E+00
         0.00000E+00
         0.00000E+00
         0.00000E+00
         0.00000E+00
         0.00000E+00
         0.00000E+00
         0.00000E+00
         0.00000E+00
         0.00000E+00
         0.00000E+00
         0.00000E+00
         0.00000E+00
         0.00000E+00
         0.00000E+00
         0.00000E+00
         0.00000E+00
         0.00000E+00
         0.00000E+00
         0.00000E+00
         0.00000E+00
         0.00000E+00
         0.00000E+00
         0.00000E+00
         0.00000E+00
         0.00000E+00
         0.00000E+00
         0.00000E+00
         0.00000E+00
         0.00000E+00
         0.00000E+00
         0.00000E+00
         0.00000E+00
         0.00000E+00
         0.00000E+00
         0.00000E+00
         0.00000E+00
         0.00000E+00
         0.00000E+00
         0.00000E+00
         0.00000E+00
         0.00000E+00
         0.00000E+00
         0.00000E+00
         0.00000E+00
         0.00000E+00
         0.00000E+00
         0.00000E+00
         0.00000E+00
         0.00000E+00
         0.00000E+00
         0.00000E+00
         0.00000E+00
         0.00000E+00
         0.00000E+00
         0.00000E+00
         0.00000E+00
         0.00000E+00
         0.00000E+00
         0.00000E+00
         0.00000E+00
         0.00000E+00
         0.00000E+00
         0.00000E+00
         0.00000E+00
         0.00000E+00
         0.00000E+00
         0.00000E+00
         0.00000E+00
         0.00000E+00
         0.00000E+00
         0.00000E+00
         0.00000E+00
         0.00000E+00
         0.00000E+00
         0.00000E+00
         0.00000E+00
         0.00000E+00
         0.00000E+00
         0.00000E+00
         0.00000E+00
         0.00000E+00
         0.00000E+00
         0.00000E+00
         0.00000E+00
         0.00000E+00
         0.00000E+00
         0.00000E+00
         0.00000E+00
         0.00000E+00
         0.00000E+00
         0.00000E+00
         0.00000E+00
         0.00000E+00
         0.00000E+00
         0.00000E+00
         0.00000E+00
         0.00000E+00
         0.00000E+00
         0.00000E+00
         0.00000E+00
         0.00000E+00
         0.00000E+00
         0.00000E+00
         0.00000E+00
         0.00000E+00
         0.00000E+00
         0.00000E+00
         0.00000E+00
         0.00000E+00
         0.00000E+00
         0.00000E+00
         0.00000E+00
         0.00000E+00
         0.00000E+00
         0.00000E+00
         0.00000E+00
         0.00000E+00
         0.00000E+00
         0.00000E+00
         0.00000E+00
         0.00000E+00
         0.00000E+00
         0.00000E+00
         0.00000E+00
         0.00000E+00
         0.00000E+00
         0.00000E+00
         0.00000E+00
         0.00000E+00
         0.00000E+00
         0.00000E+00
         0.00000E+00
         0.00000E+00
         0.00000E+00
         0.00000E+00
         0.00000E+00
         0.00000E+00
         0.00000E+00
         0.00000E+00
         0.00000E+00
         0.00000E+00
         0.00000E+00
         0.00000E+00
         0.00000E+00
         0.00000E+00
         0.00000E+00
         0.00000E+00
         0.00000E+00
         0.00000E+00
         0.00000E+00
         0.00000E+00
         0.00000E+00
         0.00000E+00
         0.00000E+00
         0.00000E+00
         0.00000E+00
         0.00000E+00
         0.00000E+00
         0.00000E+00
         0.00000E+00
         0.00000E+00
         0.00000E+00
         0.00000E+00
         0.00000E+00
         0.00000E+00
         0.00000E+00
         0.00000E+00
         0.00000E+00
         0.00000E+00
         0.00000E+00
         0.00000E+00
         0.00000E+00
         0.00000E+00
         0.00000E+00
         0.00000E+00
         0.00000E+00
         0.00000E+00
         0.00000E+00
         0.00000E+00
         0.00000E+00
         0.00000E+00
         0.00000E+00
         0.00000E+00
         0.00000E+00
         0.00000E+00
         0.00000E+00
         0.00000E+00
         0.00000E+00
         0.00000E+00
         0.00000E+00
         0.00000E+00
         0.00000E+00
         0.00000E+00
         0.00000E+00
         0.00000E+00
         0.00000E+00
         0.00000E+00
         0.00000E+00
         0.00000E+00
         0.00000E+00
         0.00000E+00
         0.00000E+00
         0.00000E+00
         0.00000E+00
         0.00000E+00
         0.00000E+00
         0.00000E+00
         0.00000E+00
         0.00000E+00
         0.00000E+00
         0.00000E+00
         0.00000E+00
         0.00000E+00
         0.00000E+00
         0.00000E+00
         0.00000E+00
         0.00000E+00
         0.00000E+00
         0.00000E+00
         0.00000E+00
         0.00000E+00
         0.00000E+00
         0.00000E+00
         0.00000E+00
         0.00000E+00
         0.00000E+00
         0.00000E+00
         0.00000E+00
         0.00000E+00
         0.00000E+00
         0.00000E+00
         0.00000E+00
         0.00000E+00
         0.00000E+00
         0.00000E+00
         0.00000E+00
         0.00000E+00
         0.00000E+00
         0.00000E+00
         0.00000E+00
         0.00000E+00
         0.00000E+00
         0.00000E+00
         0.00000E+00
         0.00000E+00
         0.00000E+00
         0.00000E+00
         0.00000E+00
         0.00000E+00
         0.00000E+00
         0.00000E+00
         0.00000E+00
         0.00000E+00
         0.00000E+00
         0.00000E+00
         0.00000E+00
         0.00000E+00
         0.00000E+00
         0.00000E+00
         0.00000E+00
         0.00000E+00
         0.00000E+00
         0.00000E+00
         0.00000E+00
         0.00000E+00
         0.00000E+00
         0.00000E+00
         0.00000E+00
         0.00000E+00
         0.00000E+00
         0.00000E+00
         0.00000E+00
         0.00000E+00
         0.00000E+00
         0.00000E+00
         0.00000E+00
         0.00000E+00
         0.00000E+00
         0.00000E+00
         0.00000E+00
         0.00000E+00
         0.00000E+00
         0.00000E+00
         0.00000E+00
         0.00000E+00
         0.00000E+00
         0.00000E+00
         0.00000E+00
         0.00000E+00
         0.00000E+00
         0.00000E+00
         0.00000E+00
         0.00000E+00
         0.00000E+00
         0.00000E+00
         0.00000E+00
         0.00000E+00
         0.00000E+00
         0.00000E+00
         0.00000E+00
         0.00000E+00
         0.00000E+00
         0.00000E+00
         0.00000E+00
         0.00000E+00
         0.00000E+00
         0.00000E+00
         0.00000E+00
         0.00000E+00
         0.00000E+00
         0.00000E+00
         0.00000E+00
         0.00000E+00
         0.00000E+00
         0.00000E+00
         0.00000E+00
         0.00000E+00
         0.00000E+00
         0.00000E+00
         0.00000E+00
         0.00000E+00
         0.00000E+00
         0.00000E+00
         0.00000E+00
         0.00000E+00
         0.00000E+00
         0.00000E+00
         0.00000E+00
         0.00000E+00
         0.00000E+00
         0.00000E+00
         0.00000E+00
         0.00000E+00
         0.00000E+00
         0.00000E+00
         0.00000E+00
         0.00000E+00
         0.00000E+00
         0.00000E+00
         0.00000E+00
         0.00000E+00
         0.00000E+00
         0.00000E+00
         0.00000E+00
         0.00000E+00
         0.00000E+00
         0.00000E+00
         0.00000E+00
         0.00000E+00
         0.00000E+00
         0.00000E+00
         0.00000E+00
         0.00000E+00
         0.00000E+00
         0.00000E+00
         0.00000E+00
         0.00000E+00
         0.00000E+00
         0.00000E+00
         0.00000E+00
         0.00000E+00
         0.00000E+00
         0.00000E+00
         0.00000E+00
         0.00000E+00
         0.00000E+00
         0.00000E+00
         0.00000E+00
         0.00000E+00
         0.00000E+00
         0.00000E+00
         0.00000E+00
         0.00000E+00
         0.00000E+00
         0.00000E+00
         0.00000E+00
         0.00000E+00
         0.00000E+00
         0.00000E+00
         0.00000E+00
         0.00000E+00
         0.00000E+00
         0.00000E+00
         0.00000E+00
         0.00000E+00
         0.00000E+00
         0.00000E+00
         0.00000E+00
         0.00000E+00
         0.00000E+00
         0.00000E+00
         0.00000E+00
         0.00000E+00
         0.00000E+00
         0.00000E+00
         0.00000E+00
         0.00000E+00
         0.00000E+00
         0.00000E+00
         0.00000E+00
         0.00000E+00
         0.00000E+00
         0.00000E+00
         0.00000E+00
         0.00000E+00
         0.00000E+00
         0.00000E+00
         0.00000E+00
         0.00000E+00
         0.00000E+00
         0.00000E+00
         0.00000E+00
         0.00000E+00
         0.00000E+00
         0.00000E+00
         0.00000E+00
         0.00000E+00
         0.00000E+00
         0.00000E+00
         0.00000E+00
         0.00000E+00
         0.00000E+00
         0.00000E+00
         0.00000E+00
         0.00000E+00
         0.00000E+00
         0.00000E+00
         0.00000E+00
         0.00000E+00
         0.00000E+00
         0.00000E+00
         0.00000E+00
         0.00000E+00
         0.00000E+00
         0.00000E+00
         0.00000E+00
         0.00000E+00
         0.00000E+00
         0.00000E+00
         0.00000E+00
         0.00000E+00
         0.00000E+00
         0.00000E+00
         0.00000E+00
         0.00000E+00
         0.00000E+00
         0.00000E+00
         0.00000E+00
         0.00000E+00
         0.00000E+00
         0.00000E+00
         0.00000E+00
         0.00000E+00
         0.00000E+00
         0.00000E+00
         0.00000E+00
         0.00000E+00
         0.00000E+00
         0.00000E+00
         0.00000E+00
         0.00000E+00
         0.00000E+00
         0.00000E+00
         0.00000E+00
         0.00000E+00
         0.00000E+00
         0.00000E+00
         0.00000E+00
         0.00000E+00
         0.00000E+00
         0.00000E+00
         0.00000E+00
         0.00000E+00
         0.00000E+00
         0.00000E+00
         0.00000E+00
         0.00000E+00
         0.00000E+00
         0.00000E+00
         0.00000E+00
         0.00000E+00
         0.00000E+00
         0.00000E+00
         0.00000E+00
         0.00000E+00
         0.00000E+00
         0.00000E+00
         0.00000E+00
         0.00000E+00
         0.00000E+00
         0.00000E+00
         0.00000E+00
         0.00000E+00
         0.00000E+00
         0.00000E+00
         0.00000E+00
         0.00000E+00
         0.00000E+00
         0.00000E+00
         0.00000E+00
         0.00000E+00
         0.00000E+00
         0.00000E+00
         0.00000E+00
         0.00000E+00
         0.00000E+00
         0.00000E+00
         0.00000E+00
         0.00000E+00
         0.00000E+00
         0.00000E+00
         0.00000E+00
         0.00000E+00
         0.00000E+00
         0.00000E+00
         0.00000E+00
         0.00000E+00
         0.00000E+00
         0.00000E+00
         0.00000E+00
         0.00000E+00
         0.00000E+00
         0.00000E+00
         0.00000E+00
         0.00000E+00
         0.00000E+00
         0.00000E+00
         0.00000E+00
         0.00000E+00
         0.00000E+00
         0.00000E+00
         0.00000E+00
         0.00000E+00
         0.00000E+00
         0.00000E+00
         0.00000E+00
         0.00000E+00
         0.00000E+00
         0.00000E+00
         0.00000E+00
         0.00000E+00
         0.00000E+00
         0.00000E+00
         0.00000E+00
         0.00000E+00
         0.00000E+00
         0.00000E+00
         0.00000E+00
         0.00000E+00
         0.00000E+00
         0.00000E+00
         0.00000E+00
         0.00000E+00
         0.00000E+00
         0.00000E+00
         0.00000E+00
         0.00000E+00
         0.00000E+00
         0.00000E+00
         0.00000E+00
         0.00000E+00
         0.00000E+00
         0.00000E+00
         0.00000E+00
         0.00000E+00
         0.00000E+00
         0.00000E+00
         0.00000E+00
         0.00000E+00
         0.00000E+00
         0.00000E+00
         0.00000E+00
         0.00000E+00
         0.00000E+00
         0.00000E+00
         0.00000E+00
         0.00000E+00
         0.00000E+00
         0.00000E+00
         0.00000E+00
         0.00000E+00
         0.00000E+00
         0.00000E+00
         0.00000E+00
         0.00000E+00
         0.00000E+00
         0.00000E+00
         0.00000E+00
         0.00000E+00
         0.00000E+00
         0.00000E+00
         0.00000E+00
         0.00000E+00
         0.00000E+00
         0.00000E+00
         0.00000E+00
         0.00000E+00
         0.00000E+00
         0.00000E+00
         0.00000E+00
         0.00000E+00
         0.00000E+00
         0.00000E+00
         0.00000E+00
         0.00000E+00
         0.00000E+00
         0.00000E+00
         0.00000E+00
         0.00000E+00
         0.00000E+00
         0.00000E+00
         0.00000E+00
         0.00000E+00
         0.00000E+00
         0.00000E+00
         0.00000E+00
         0.00000E+00
         0.00000E+00
         0.00000E+00
         0.00000E+00
         0.00000E+00
         0.00000E+00
         0.00000E+00
         0.00000E+00
         0.00000E+00
         0.00000E+00
         0.00000E+00
         0.00000E+00
         0.00000E+00
         0.00000E+00
         0.00000E+00
         0.00000E+00
         0.00000E+00
         0.00000E+00
         0.00000E+00
         0.00000E+00
         0.00000E+00
         0.00000E+00
         0.00000E+00
         0.00000E+00
         0.00000E+00
         0.00000E+00
         0.00000E+00
         0.00000E+00
         0.00000E+00
         0.00000E+00
         0.00000E+00
         0.00000E+00
         0.00000E+00
         0.00000E+00
         0.00000E+00
         0.00000E+00
         0.00000E+00
         0.00000E+00
         0.00000E+00
         0.00000E+00
         0.00000E+00
         0.00000E+00
         0.00000E+00
         0.00000E+00
         0.00000E+00
         0.00000E+00
         0.00000E+00
         0.00000E+00
         0.00000E+00
         0.00000E+00
         0.00000E+00
         0.00000E+00
         0.00000E+00
         0.00000E+00
         0.00000E+00
         0.00000E+00
         0.00000E+00
         0.00000E+00
         0.00000E+00
         0.00000E+00
         0.00000E+00
         0.00000E+00
         0.00000E+00
         0.00000E+00
         0.00000E+00
         0.00000E+00
         0.00000E+00
         0.00000E+00
         0.00000E+00
         0.00000E+00
         0.00000E+00
         0.00000E+00
         0.00000E+00
         0.00000E+00
         0.00000E+00
         0.00000E+00
         0.00000E+00
         0.00000E+00
         0.00000E+00
         0.00000E+00
         0.00000E+00
         0.00000E+00
         0.00000E+00
         0.00000E+00
         0.00000E+00
         0.00000E+00
         0.00000E+00
         0.00000E+00
         0.00000E+00
         0.00000E+00
         0.00000E+00
         0.00000E+00
         0.00000E+00
         0.00000E+00
         0.00000E+00
         0.00000E+00
         0.00000E+00
         0.00000E+00
         0.00000E+00
         0.00000E+00
         0.00000E+00
         0.00000E+00
         0.00000E+00
         0.00000E+00
         0.00000E+00
         0.00000E+00
         0.00000E+00
         0.00000E+00
         0.00000E+00
         0.00000E+00
         0.00000E+00
         0.00000E+00
         0.00000E+00
         0.00000E+00
         0.00000E+00
         0.00000E+00
         0.00000E+00
         0.00000E+00
         0.00000E+00
         0.00000E+00
         0.00000E+00
         0.00000E+00
         0.00000E+00
         0.00000E+00
         0.00000E+00
         0.00000E+00
         0.00000E+00
         0.00000E+00
         0.00000E+00
         0.00000E+00
         0.00000E+00
         0.00000E+00
         0.00000E+00
         0.00000E+00
         0.00000E+00
         0.00000E+00
         0.00000E+00
         0.00000E+00
         0.00000E+00
         0.00000E+00
         0.00000E+00
         0.00000E+00
         0.00000E+00
         0.00000E+00
         0.00000E+00
         0.00000E+00
         0.00000E+00
         0.00000E+00
         0.00000E+00
         0.00000E+00
         0.00000E+00
         0.00000E+00
         0.00000E+00
         0.00000E+00
         0.00000E+00
         0.00000E+00
         0.00000E+00
         0.00000E+00
         0.00000E+00
         0.00000E+00
         0.00000E+00
         0.00000E+00
         0.00000E+00
         0.00000E+00
         0.00000E+00
         0.00000E+00
         0.00000E+00
         0.00000E+00
         0.00000E+00
         0.00000E+00
         0.00000E+00
         0.00000E+00
         0.00000E+00
         0.00000E+00
         0.00000E+00
         0.00000E+00
         0.00000E+00
         0.00000E+00
         0.00000E+00
         0.00000E+00
         0.00000E+00
         0.00000E+00
         0.00000E+00
         0.00000E+00
         0.00000E+00
         0.00000E+00
         0.00000E+00
         0.00000E+00
         0.00000E+00
         0.00000E+00
         0.00000E+00
         0.00000E+00
         0.00000E+00
         0.00000E+00
         0.00000E+00
         0.00000E+00
         0.00000E+00
         0.00000E+00
         0.00000E+00
         0.00000E+00
         0.00000E+00
         0.00000E+00
         0.00000E+00
         0.00000E+00
         0.00000E+00
         0.00000E+00
         0.00000E+00
         0.00000E+00
         0.00000E+00
         0.00000E+00
         0.00000E+00
         0.00000E+00
         0.00000E+00
         0.00000E+00
         0.00000E+00
         0.00000E+00
         0.00000E+00
         0.00000E+00
         0.00000E+00
         0.00000E+00
         0.00000E+00
         0.00000E+00
         0.00000E+00
         0.00000E+00
         0.00000E+00
         0.00000E+00
         0.00000E+00
         0.00000E+00
         0.00000E+00
         0.00000E+00
         0.00000E+00
         0.00000E+00
         0.00000E+00
         0.00000E+00
         0.00000E+00
         0.00000E+00
         0.00000E+00
         0.00000E+00
         0.00000E+00
         0.00000E+00
         0.00000E+00
         0.00000E+00
         0.00000E+00
         0.00000E+00
         0.00000E+00
         0.00000E+00
         0.00000E+00
         0.00000E+00
         0.00000E+00
         0.00000E+00
         0.00000E+00
         0.00000E+00
         0.00000E+00
         0.00000E+00
         0.00000E+00
         0.00000E+00
         0.00000E+00
         0.00000E+00
         0.00000E+00
         0.00000E+00
         0.00000E+00
         0.00000E+00
         0.00000E+00
         0.00000E+00
         0.00000E+00
         0.00000E+00
         0.00000E+00
         0.00000E+00
         0.00000E+00
         0.00000E+00
         0.00000E+00
         0.00000E+00
         0.00000E+00
         0.00000E+00
         0.00000E+00
         0.00000E+00
         0.00000E+00
         0.00000E+00
         0.00000E+00
         0.00000E+00
         0.00000E+00
         0.00000E+00
         0.00000E+00
         0.00000E+00
         0.00000E+00
         0.00000E+00
         0.00000E+00
         0.00000E+00
         0.00000E+00
         0.00000E+00
         0.00000E+00
         0.00000E+00
         0.00000E+00
         0.00000E+00
         0.00000E+00
         0.00000E+00
         0.00000E+00
         0.00000E+00
         0.00000E+00
         0.00000E+00
         0.00000E+00
         0.00000E+00
         0.00000E+00
         0.00000E+00
         0.00000E+00
         0.00000E+00
         0.00000E+00
         0.00000E+00
         0.00000E+00
         0.00000E+00
         0.00000E+00
         0.00000E+00
         0.00000E+00
         0.00000E+00
         0.00000E+00
         0.00000E+00
         0.00000E+00
         0.00000E+00
         0.00000E+00
         0.00000E+00
         0.00000E+00
         0.00000E+00
         0.00000E+00
         0.00000E+00
         0.00000E+00
         0.00000E+00
         0.00000E+00
         0.00000E+00
         0.00000E+00
         0.00000E+00
         0.00000E+00
         0.00000E+00
         0.00000E+00
         0.00000E+00
         0.00000E+00
         0.00000E+00
         0.00000E+00
         0.00000E+00
         0.00000E+00
         0.00000E+00
         0.00000E+00
         0.00000E+00
         0.00000E+00
         0.00000E+00
         0.00000E+00
         0.00000E+00
         0.00000E+00
         0.00000E+00
         0.00000E+00
         0.00000E+00
         0.00000E+00
         0.00000E+00
         0.00000E+00
         0.00000E+00
         0.00000E+00
         0.00000E+00
         0.00000E+00
         0.00000E+00
         0.00000E+00
         0.00000E+00
         0.00000E+00
         0.00000E+00
         0.00000E+00
         0.00000E+00
         0.00000E+00
         0.00000E+00
         0.00000E+00
         0.00000E+00
         0.00000E+00
         0.00000E+00
         0.00000E+00
         0.00000E+00
         0.00000E+00
         0.00000E+00
         0.00000E+00
         0.00000E+00
         0.00000E+00
         0.00000E+00
         0.00000E+00
         0.00000E+00
         0.00000E+00
         0.00000E+00
         0.00000E+00
         0.00000E+00
         0.00000E+00
         0.00000E+00
         0.00000E+00
         0.00000E+00
         0.00000E+00
         0.00000E+00
         0.00000E+00
         0.00000E+00
         0.00000E+00
         0.00000E+00
         0.00000E+00
         0.00000E+00
         0.00000E+00
         0.00000E+00
         0.00000E+00
         0.00000E+00
         0.00000E+00
         0.00000E+00
         0.00000E+00
         0.00000E+00
         0.00000E+00
         0.00000E+00
         0.00000E+00
         0.00000E+00
         0.00000E+00
         0.00000E+00
         0.00000E+00
         0.00000E+00
         0.00000E+00
         0.00000E+00
         0.00000E+00
         0.00000E+00
         0.00000E+00
         0.00000E+00
         0.00000E+00
         0.00000E+00
         0.00000E+00
         0.00000E+00
         0.00000E+00
         0.00000E+00
         0.00000E+00
         0.00000E+00
         0.00000E+00
         0.00000E+00
         0.00000E+00
         0.00000E+00
         0.00000E+00
         0.00000E+00
         0.00000E+00
         0.00000E+00
         0.00000E+00
         0.00000E+00
         0.00000E+00
         0.00000E+00
         0.00000E+00
         0.00000E+00
         0.00000E+00
         0.00000E+00
         0.00000E+00
         0.00000E+00
         0.00000E+00
         0.00000E+00
         0.00000E+00
         0.00000E+00
         0.00000E+00
         0.00000E+00
         0.00000E+00
         0.00000E+00
         0.00000E+00
         0.00000E+00
         0.00000E+00
         0.00000E+00
         0.00000E+00
         0.00000E+00
         0.00000E+00
         0.00000E+00
         0.00000E+00
         0.00000E+00
         0.00000E+00
         0.00000E+00
         0.00000E+00
         0.00000E+00
         0.00000E+00
         0.00000E+00
         0.00000E+00
         0.00000E+00
         0.00000E+00
         0.00000E+00
         0.00000E+00
         0.00000E+00
         0.00000E+00
         0.00000E+00
         0.00000E+00
         0.00000E+00
         0.00000E+00
         0.00000E+00
         0.00000E+00
         0.00000E+00
         0.00000E+00
         0.00000E+00
         0.00000E+00
         0.00000E+00
         0.00000E+00
         0.00000E+00
         0.00000E+00
         0.00000E+00
         0.00000E+00
         0.00000E+00
         0.00000E+00
         0.00000E+00
         0.00000E+00
         0.00000E+00
         0.00000E+00
         0.00000E+00
         0.00000E+00
         0.00000E+00
         0.00000E+00
         0.00000E+00
         0.00000E+00
         0.00000E+00
         0.00000E+00
         0.00000E+00
         0.00000E+00
         0.00000E+00
         0.00000E+00
         0.00000E+00
         0.00000E+00
         0.00000E+00
         0.00000E+00
         0.00000E+00
         0.00000E+00
         0.00000E+00
         0.00000E+00
         0.00000E+00
         0.00000E+00
         0.00000E+00
         0.00000E+00
         0.00000E+00
         0.00000E+00
         0.00000E+00
         0.00000E+00
         0.00000E+00
         0.00000E+00
         0.00000E+00
         0.00000E+00
         0.00000E+00
         0.00000E+00
         0.00000E+00
         0.00000E+00
         0.00000E+00
         0.00000E+00
         0.00000E+00
         0.00000E+00
         0.00000E+00
         0.00000E+00
         0.00000E+00
         0.00000E+00
         0.00000E+00
         0.00000E+00
         0.00000E+00
         0.00000E+00
         0.00000E+00
         0.00000E+00
         0.00000E+00
         0.00000E+00
         0.00000E+00
         0.00000E+00
         0.00000E+00
         0.00000E+00
         0.00000E+00
         0.00000E+00
         0.00000E+00
         0.00000E+00
         0.00000E+00
         0.00000E+00
         0.00000E+00
         0.00000E+00
         0.00000E+00
         0.00000E+00
         0.00000E+00
         0.00000E+00
         0.00000E+00
         0.00000E+00
         0.00000E+00
         0.00000E+00
         0.00000E+00
         0.00000E+00
         0.00000E+00
         0.00000E+00
         0.00000E+00
         0.00000E+00
         0.00000E+00
         0.00000E+00
         0.00000E+00
         0.00000E+00
         0.00000E+00
         0.00000E+00
         0.00000E+00
         0.00000E+00
         0.00000E+00
         0.00000E+00
         0.00000E+00
         0.00000E+00
         0.00000E+00
         0.00000E+00
         0.00000E+00
         0.00000E+00
         0.00000E+00
         0.00000E+00
         0.00000E+00
         0.00000E+00
         0.00000E+00
         0.00000E+00
         0.00000E+00
         0.00000E+00
         0.00000E+00
         0.00000E+00
         0.00000E+00
         0.00000E+00
         0.00000E+00
         0.00000E+00
         0.00000E+00
         0.00000E+00
         0.00000E+00
         0.00000E+00
         0.00000E+00
         0.00000E+00
         0.00000E+00
         0.00000E+00
         0.00000E+00
         0.00000E+00
         0.00000E+00
         0.00000E+00
         0.00000E+00
         0.00000E+00
         0.00000E+00
         0.00000E+00
         0.00000E+00
         0.00000E+00
         0.00000E+00
         0.00000E+00
         0.00000E+00
         0.00000E+00
         0.00000E+00
         0.00000E+00
         0.00000E+00
         0.00000E+00
         0.00000E+00
         0.00000E+00
         0.00000E+00
         0.00000E+00
         0.00000E+00
         0.00000E+00
         0.00000E+00
         0.00000E+00
         0.00000E+00
         0.00000E+00
         0.00000E+00
         0.00000E+00
         0.00000E+00
         0.00000E+00
         0.00000E+00
         0.00000E+00
         0.00000E+00
         0.00000E+00
         0.00000E+00
         0.00000E+00
         0.00000E+00
         0.00000E+00
         0.00000E+00
         0.00000E+00
         0.00000E+00
         0.00000E+00
         0.00000E+00
         0.00000E+00
         0.00000E+00
         0.00000E+00
         0.00000E+00
         0.00000E+00
         0.00000E+00
         0.00000E+00
         0.00000E+00
         0.00000E+00
         0.00000E+00
         0.00000E+00
         0.00000E+00
         0.00000E+00
         0.00000E+00
         0.00000E+00
         0.00000E+00
         0.00000E+00
         0.00000E+00
         0.00000E+00
         0.00000E+00
         0.00000E+00
         0.00000E+00
         0.00000E+00
         0.00000E+00
         0.00000E+00
         0.00000E+00
         0.00000E+00
         0.00000E+00
         0.00000E+00
         0.00000E+00
         0.00000E+00
         0.00000E+00
         0.00000E+00
         0.00000E+00
         0.00000E+00
         0.00000E+00
         0.00000E+00
         0.00000E+00
         0.00000E+00
         0.00000E+00
         0.00000E+00
         0.00000E+00
         0.00000E+00
         0.00000E+00
         0.00000E+00
         0.00000E+00
         0.00000E+00
         0.00000E+00
         0.00000E+00
         0.00000E+00
         0.00000E+00
         0.00000E+00
         0.00000E+00
         0.00000E+00
         0.00000E+00
         0.00000E+00
         0.00000E+00
         0.00000E+00
         0.00000E+00
         0.00000E+00
         0.00000E+00
         0.00000E+00
         0.00000E+00
         0.00000E+00
         0.00000E+00
         0.00000E+00
         0.00000E+00
         0.00000E+00
         0.00000E+00
         0.00000E+00
         0.00000E+00
         0.00000E+00
         0.00000E+00
         0.00000E+00
         0.00000E+00
         0.00000E+00
         0.00000E+00
         0.00000E+00
         0.00000E+00
         0.00000E+00
         0.00000E+00
         0.00000E+00
         0.00000E+00
         0.00000E+00
         0.00000E+00
         0.00000E+00
         0.00000E+00
         0.00000E+00
         0.00000E+00
         0.00000E+00
         0.00000E+00
         0.00000E+00
         0.00000E+00
         0.00000E+00
         0.00000E+00
         0.00000E+00
         0.00000E+00
         0.00000E+00
         0.00000E+00
         0.00000E+00
         0.00000E+00
         0.00000E+00
         0.00000E+00
         0.00000E+00
         0.00000E+00
         0.00000E+00
         0.00000E+00
         0.00000E+00
         0.00000E+00
         0.00000E+00
         0.00000E+00
         0.00000E+00
         0.00000E+00
         0.00000E+00
         0.00000E+00
         0.00000E+00
         0.00000E+00
         0.00000E+00
         0.00000E+00
         0.00000E+00
         0.00000E+00
         0.00000E+00
         0.00000E+00
         0.00000E+00
         0.00000E+00
         0.00000E+00
         0.00000E+00
         0.00000E+00
         0.00000E+00
         0.00000E+00
         0.00000E+00
         0.00000E+00
         0.00000E+00
         0.00000E+00
         0.00000E+00
         0.00000E+00
         0.00000E+00
         0.00000E+00
         0.00000E+00
         0.00000E+00
         0.00000E+00
         0.00000E+00
         0.00000E+00
         0.00000E+00
         0.00000E+00
         0.00000E+00
         0.00000E+00
         0.00000E+00
         0.00000E+00
         0.00000E+00
         0.00000E+00
         0.00000E+00
         0.00000E+00
         0.00000E+00
         0.00000E+00
         0.00000E+00
         0.00000E+00
         0.00000E+00
         0.00000E+00
         0.00000E+00
         0.00000E+00
         0.00000E+00
         0.00000E+00
         0.00000E+00
         0.00000E+00
         0.00000E+00
         0.00000E+00
         0.00000E+00
         0.00000E+00
         0.00000E+00
         0.00000E+00
         0.00000E+00
         0.00000E+00
         0.00000E+00
         0.00000E+00
         0.00000E+00
         0.00000E+00
         0.00000E+00
         0.00000E+00
         0.00000E+00
         0.00000E+00
         0.00000E+00
         0.00000E+00
         0.00000E+00
         0.00000E+00
         0.00000E+00
         0.00000E+00
         0.00000E+00
         0.00000E+00
         0.00000E+00
         0.00000E+00
         0.00000E+00
         0.00000E+00
         0.00000E+00
         0.00000E+00
         0.00000E+00
         0.00000E+00
         0.00000E+00
         0.00000E+00
         0.00000E+00
         0.00000E+00
         0.00000E+00
         0.00000E+00
         0.00000E+00
         0.00000E+00
         0.00000E+00
         0.00000E+00
         0.00000E+00
         0.00000E+00
         0.00000E+00
         0.00000E+00
         0.00000E+00
         0.00000E+00
         0.00000E+00
         0.00000E+00
         0.00000E+00
         0.00000E+00
         0.00000E+00
         0.00000E+00
         0.00000E+00
         0.00000E+00
         0.00000E+00
         0.00000E+00
         0.00000E+00
         0.00000E+00
         0.00000E+00
         0.00000E+00
         0.00000E+00
         0.00000E+00
         0.00000E+00
         0.00000E+00
         0.00000E+00
         0.00000E+00
         0.00000E+00
         0.00000E+00
         0.00000E+00
         0.00000E+00
         0.00000E+00
         0.00000E+00
         0.00000E+00
         0.00000E+00
         0.00000E+00
         0.00000E+00
         0.00000E+00
         0.00000E+00
         0.00000E+00
         0.00000E+00
         0.00000E+00
         0.00000E+00
         0.00000E+00
         0.00000E+00
         0.00000E+00
         0.00000E+00
         0.00000E+00
         0.00000E+00
         0.00000E+00
         0.00000E+00
         0.00000E+00
         0.00000E+00
         0.00000E+00
         0.00000E+00
         0.00000E+00
         0.00000E+00
         0.00000E+00
         0.00000E+00
         0.00000E+00
         0.00000E+00
         0.00000E+00
         0.00000E+00
         0.00000E+00
         0.00000E+00
         0.00000E+00
         0.00000E+00
         0.00000E+00
         0.00000E+00
         0.00000E+00
         0.00000E+00
         0.00000E+00
         0.00000E+00
         0.00000E+00
         0.00000E+00
         0.00000E+00
         0.00000E+00
         0.00000E+00
         0.00000E+00
         0.00000E+00
         0.00000E+00
         0.00000E+00
         0.00000E+00
         0.00000E+00
         0.00000E+00
         0.00000E+00
         0.00000E+00
         0.00000E+00
         0.00000E+00
         0.00000E+00
         0.00000E+00
         0.00000E+00
         0.00000E+00
         0.00000E+00
         0.00000E+00
         0.00000E+00
         0.00000E+00
         0.00000E+00
  
SCALARS        characteristic_distance  double 1
LOOKUP_TABLE default
         0.00000E+00
         0.00000E+00
         0.00000E+00
         0.00000E+00
         0.00000E+00
         0.00000E+00
         0.00000E+00
         0.00000E+00
         0.00000E+00
         0.00000E+00
         0.00000E+00
         0.00000E+00
         0.00000E+00
         0.00000E+00
         0.00000E+00
         0.00000E+00
         0.00000E+00
         0.00000E+00
         0.00000E+00
         0.00000E+00
         0.00000E+00
         0.00000E+00
         0.00000E+00
         0.00000E+00
         0.00000E+00
         0.00000E+00
         0.00000E+00
         0.00000E+00
         0.00000E+00
         0.00000E+00
         0.00000E+00
         0.00000E+00
         0.00000E+00
         0.00000E+00
         0.00000E+00
         0.00000E+00
         0.00000E+00
         0.00000E+00
         0.00000E+00
         0.00000E+00
         0.00000E+00
         0.00000E+00
         0.00000E+00
         0.00000E+00
         0.00000E+00
         0.00000E+00
         0.00000E+00
         0.00000E+00
         0.00000E+00
         0.00000E+00
         0.00000E+00
         0.00000E+00
         0.00000E+00
         0.00000E+00
         0.00000E+00
         0.00000E+00
         0.00000E+00
         0.00000E+00
         0.00000E+00
         0.00000E+00
         0.00000E+00
         0.00000E+00
         0.00000E+00
         0.00000E+00
         0.00000E+00
         0.00000E+00
         0.00000E+00
         0.00000E+00
         0.00000E+00
         0.00000E+00
         0.00000E+00
         0.00000E+00
         0.00000E+00
         0.00000E+00
         0.00000E+00
         0.00000E+00
         0.00000E+00
         0.00000E+00
         0.00000E+00
         0.00000E+00
         0.00000E+00
         0.00000E+00
         0.00000E+00
         0.00000E+00
         0.00000E+00
         0.00000E+00
         0.00000E+00
         0.00000E+00
         0.00000E+00
         0.00000E+00
         0.00000E+00
         0.00000E+00
         0.00000E+00
         0.00000E+00
         0.00000E+00
         0.00000E+00
         0.00000E+00
         0.00000E+00
         0.00000E+00
         0.00000E+00
         0.00000E+00
         0.00000E+00
         0.00000E+00
         0.00000E+00
         0.00000E+00
         0.00000E+00
         0.00000E+00
         0.00000E+00
         0.00000E+00
         0.00000E+00
         0.00000E+00
         0.00000E+00
         0.00000E+00
         0.00000E+00
         0.00000E+00
         0.00000E+00
         0.00000E+00
         0.00000E+00
         0.00000E+00
         0.00000E+00
         0.00000E+00
         0.00000E+00
         0.00000E+00
         0.00000E+00
         0.00000E+00
         0.00000E+00
         0.00000E+00
         0.00000E+00
         0.00000E+00
         0.00000E+00
         0.00000E+00
         0.00000E+00
         0.00000E+00
         0.00000E+00
         0.00000E+00
         0.00000E+00
         0.00000E+00
         0.00000E+00
         0.00000E+00
         0.00000E+00
         0.00000E+00
         0.00000E+00
         0.00000E+00
         0.00000E+00
         0.00000E+00
         0.00000E+00
         0.00000E+00
         0.00000E+00
         0.00000E+00
         0.00000E+00
         0.00000E+00
         0.00000E+00
         0.00000E+00
         0.00000E+00
         0.00000E+00
         0.00000E+00
         0.00000E+00
         0.00000E+00
         0.00000E+00
         0.00000E+00
         0.00000E+00
         0.00000E+00
         0.00000E+00
         0.00000E+00
         0.00000E+00
         0.00000E+00
         0.00000E+00
         0.00000E+00
         0.00000E+00
         0.00000E+00
         0.00000E+00
         0.00000E+00
         0.00000E+00
         0.00000E+00
         0.00000E+00
         0.00000E+00
         0.00000E+00
         0.00000E+00
         0.00000E+00
         0.00000E+00
         0.00000E+00
         0.00000E+00
         0.00000E+00
         0.00000E+00
         0.00000E+00
         0.00000E+00
         0.00000E+00
         0.00000E+00
         0.00000E+00
         0.00000E+00
         0.00000E+00
         0.00000E+00
         0.00000E+00
         0.00000E+00
         0.00000E+00
         0.00000E+00
         0.00000E+00
         0.00000E+00
         0.00000E+00
         0.00000E+00
         0.00000E+00
         0.00000E+00
         0.00000E+00
         0.00000E+00
         0.00000E+00
         0.00000E+00
         0.00000E+00
         0.00000E+00
         0.00000E+00
         0.00000E+00
         0.00000E+00
         0.00000E+00
         0.00000E+00
         0.00000E+00
         0.00000E+00
         0.00000E+00
         0.00000E+00
         0.00000E+00
         0.00000E+00
         0.00000E+00
         0.00000E+00
         0.00000E+00
         0.00000E+00
         0.00000E+00
         0.00000E+00
         0.00000E+00
         0.00000E+00
         0.00000E+00
         0.00000E+00
         0.00000E+00
         0.00000E+00
         0.00000E+00
         0.00000E+00
         0.00000E+00
         0.00000E+00
         0.00000E+00
         0.00000E+00
         0.00000E+00
         0.00000E+00
         0.00000E+00
         0.00000E+00
         0.00000E+00
         0.00000E+00
         0.00000E+00
         0.00000E+00
         0.00000E+00
         0.00000E+00
         0.00000E+00
         0.00000E+00
         0.00000E+00
         0.00000E+00
         0.00000E+00
         0.00000E+00
         0.00000E+00
         0.00000E+00
         0.00000E+00
         0.00000E+00
         0.00000E+00
         0.00000E+00
         0.00000E+00
         0.00000E+00
         0.00000E+00
         0.00000E+00
         0.00000E+00
         0.00000E+00
         0.00000E+00
         0.00000E+00
         0.00000E+00
         0.00000E+00
         0.00000E+00
         0.00000E+00
         0.00000E+00
         0.00000E+00
         0.00000E+00
         0.00000E+00
         0.00000E+00
         0.00000E+00
         0.00000E+00
         0.00000E+00
         0.00000E+00
         0.00000E+00
         0.00000E+00
         0.00000E+00
         0.00000E+00
         0.00000E+00
         0.00000E+00
         0.00000E+00
         0.00000E+00
         0.00000E+00
         0.00000E+00
         0.00000E+00
         0.00000E+00
         0.00000E+00
         0.00000E+00
         0.00000E+00
         0.00000E+00
         0.00000E+00
         0.00000E+00
         0.00000E+00
         0.00000E+00
         0.00000E+00
         0.00000E+00
         0.00000E+00
         0.00000E+00
         0.00000E+00
         0.00000E+00
         0.00000E+00
         0.00000E+00
         0.00000E+00
         0.00000E+00
         0.00000E+00
         0.00000E+00
         0.00000E+00
         0.00000E+00
         0.00000E+00
         0.00000E+00
         0.00000E+00
         0.00000E+00
         0.00000E+00
         0.00000E+00
         0.00000E+00
         0.00000E+00
         0.00000E+00
         0.00000E+00
         0.00000E+00
         0.00000E+00
         0.00000E+00
         0.00000E+00
         0.00000E+00
         0.00000E+00
         0.00000E+00
         0.00000E+00
         0.00000E+00
         0.00000E+00
         0.00000E+00
         0.00000E+00
         0.00000E+00
         0.00000E+00
         0.00000E+00
         0.00000E+00
         0.00000E+00
         0.00000E+00
         0.00000E+00
         0.00000E+00
         0.00000E+00
         0.00000E+00
         0.00000E+00
         0.00000E+00
         0.00000E+00
         0.00000E+00
         0.00000E+00
         0.00000E+00
         0.00000E+00
         0.00000E+00
         0.00000E+00
         0.00000E+00
         0.00000E+00
         0.00000E+00
         0.00000E+00
         0.00000E+00
         0.00000E+00
         0.00000E+00
         0.00000E+00
         0.00000E+00
         0.00000E+00
         0.00000E+00
         0.00000E+00
         0.00000E+00
         0.00000E+00
         0.00000E+00
         0.00000E+00
         0.00000E+00
         0.00000E+00
         0.00000E+00
         0.00000E+00
         0.00000E+00
         0.00000E+00
         0.00000E+00
         0.00000E+00
         0.00000E+00
         0.00000E+00
         0.00000E+00
         0.00000E+00
         0.00000E+00
         0.00000E+00
         0.00000E+00
         0.00000E+00
         0.00000E+00
         0.00000E+00
         0.00000E+00
         0.00000E+00
         0.00000E+00
         0.00000E+00
         0.00000E+00
         0.00000E+00
         0.00000E+00
         0.00000E+00
         0.00000E+00
         0.00000E+00
         0.00000E+00
         0.00000E+00
         0.00000E+00
         0.00000E+00
         0.00000E+00
         0.00000E+00
         0.00000E+00
         0.00000E+00
         0.00000E+00
         0.00000E+00
         0.00000E+00
         0.00000E+00
         0.00000E+00
         0.00000E+00
         0.00000E+00
         0.00000E+00
         0.00000E+00
         0.00000E+00
         0.00000E+00
         0.00000E+00
         0.00000E+00
         0.00000E+00
         0.00000E+00
         0.00000E+00
         0.00000E+00
         0.00000E+00
         0.00000E+00
         0.00000E+00
         0.00000E+00
         0.00000E+00
         0.00000E+00
         0.00000E+00
         0.00000E+00
         0.00000E+00
         0.00000E+00
         0.00000E+00
         0.00000E+00
         0.00000E+00
         0.00000E+00
         0.00000E+00
         0.00000E+00
         0.00000E+00
         0.00000E+00
         0.00000E+00
         0.00000E+00
         0.00000E+00
         0.00000E+00
         0.00000E+00
         0.00000E+00
         0.00000E+00
         0.00000E+00
         0.00000E+00
         0.00000E+00
         0.00000E+00
         0.00000E+00
         0.00000E+00
         0.00000E+00
         0.00000E+00
         0.00000E+00
         0.00000E+00
         0.00000E+00
         0.00000E+00
         0.00000E+00
         0.00000E+00
         0.00000E+00
         0.00000E+00
         0.00000E+00
         0.00000E+00
         0.00000E+00
         0.00000E+00
         0.00000E+00
         0.00000E+00
         0.00000E+00
         0.00000E+00
         0.00000E+00
         0.00000E+00
         0.00000E+00
         0.00000E+00
         0.00000E+00
         0.00000E+00
         0.00000E+00
         0.00000E+00
         0.00000E+00
         0.00000E+00
         0.00000E+00
         0.00000E+00
         0.00000E+00
         0.00000E+00
         0.00000E+00
         0.00000E+00
         0.00000E+00
         0.00000E+00
         0.00000E+00
         0.00000E+00
         0.00000E+00
         0.00000E+00
         0.00000E+00
         0.00000E+00
         0.00000E+00
         0.00000E+00
         0.00000E+00
         0.00000E+00
         0.00000E+00
         0.00000E+00
         0.00000E+00
         0.00000E+00
         0.00000E+00
         0.00000E+00
         0.00000E+00
         0.00000E+00
         0.00000E+00
         0.00000E+00
         0.00000E+00
         0.00000E+00
         0.00000E+00
         0.00000E+00
         0.00000E+00
         0.00000E+00
         0.00000E+00
         0.00000E+00
         0.00000E+00
         0.00000E+00
         0.00000E+00
         0.00000E+00
         0.00000E+00
         0.00000E+00
         0.00000E+00
         0.00000E+00
         0.00000E+00
         0.00000E+00
         0.00000E+00
         0.00000E+00
         0.00000E+00
         0.00000E+00
         0.00000E+00
         0.00000E+00
         0.00000E+00
         0.00000E+00
         0.00000E+00
         0.00000E+00
         0.00000E+00
         0.00000E+00
         0.00000E+00
         0.00000E+00
         0.00000E+00
         0.00000E+00
         0.00000E+00
         0.00000E+00
         0.00000E+00
         0.00000E+00
         0.00000E+00
         0.00000E+00
         0.00000E+00
         0.00000E+00
         0.00000E+00
         0.00000E+00
         0.00000E+00
         0.00000E+00
         0.00000E+00
         0.00000E+00
         0.00000E+00
         0.00000E+00
         0.00000E+00
         0.00000E+00
         0.00000E+00
         0.00000E+00
         0.00000E+00
         0.00000E+00
         0.00000E+00
         0.00000E+00
         0.00000E+00
         0.00000E+00
         0.00000E+00
         0.00000E+00
         0.00000E+00
         0.00000E+00
         0.00000E+00
         0.00000E+00
         0.00000E+00
         0.00000E+00
         0.00000E+00
         0.00000E+00
         0.00000E+00
         0.00000E+00
         0.00000E+00
         0.00000E+00
         0.00000E+00
         0.00000E+00
         0.00000E+00
         0.00000E+00
         0.00000E+00
         0.00000E+00
         0.00000E+00
         0.00000E+00
         0.00000E+00
         0.00000E+00
         0.00000E+00
         0.00000E+00
         0.00000E+00
         0.00000E+00
         0.00000E+00
         0.00000E+00
         0.00000E+00
         0.00000E+00
         0.00000E+00
         0.00000E+00
         0.00000E+00
         0.00000E+00
         0.00000E+00
         0.00000E+00
         0.00000E+00
         0.00000E+00
         0.00000E+00
         0.00000E+00
         0.00000E+00
         0.00000E+00
         0.00000E+00
         0.00000E+00
         0.00000E+00
         0.00000E+00
         0.00000E+00
         0.00000E+00
         0.00000E+00
         0.00000E+00
         0.00000E+00
         0.00000E+00
         0.00000E+00
         0.00000E+00
         0.00000E+00
         0.00000E+00
         0.00000E+00
         0.00000E+00
         0.00000E+00
         0.00000E+00
         0.00000E+00
         0.00000E+00
         0.00000E+00
         0.00000E+00
         0.00000E+00
         0.00000E+00
         0.00000E+00
         0.00000E+00
         0.00000E+00
         0.00000E+00
         0.00000E+00
         0.00000E+00
         0.00000E+00
         0.00000E+00
         0.00000E+00
         0.00000E+00
         0.00000E+00
         0.00000E+00
         0.00000E+00
         0.00000E+00
         0.00000E+00
         0.00000E+00
         0.00000E+00
         0.00000E+00
         0.00000E+00
         0.00000E+00
         0.00000E+00
         0.00000E+00
         0.00000E+00
         0.00000E+00
         0.00000E+00
         0.00000E+00
         0.00000E+00
         0.00000E+00
         0.00000E+00
         0.00000E+00
         0.00000E+00
         0.00000E+00
         0.00000E+00
         0.00000E+00
         0.00000E+00
         0.00000E+00
         0.00000E+00
         0.00000E+00
         0.00000E+00
         0.00000E+00
         0.00000E+00
         0.00000E+00
         0.00000E+00
         0.00000E+00
         0.00000E+00
         0.00000E+00
         0.00000E+00
         0.00000E+00
         0.00000E+00
         0.00000E+00
         0.00000E+00
         0.00000E+00
         0.00000E+00
         0.00000E+00
         0.00000E+00
         0.00000E+00
         0.00000E+00
         0.00000E+00
         0.00000E+00
         0.00000E+00
         0.00000E+00
         0.00000E+00
         0.00000E+00
         0.00000E+00
         0.00000E+00
         0.00000E+00
         0.00000E+00
         0.00000E+00
         0.00000E+00
         0.00000E+00
         0.00000E+00
         0.00000E+00
         0.00000E+00
         0.00000E+00
         0.00000E+00
         0.00000E+00
         0.00000E+00
         0.00000E+00
         0.00000E+00
         0.00000E+00
         0.00000E+00
         0.00000E+00
         0.00000E+00
         0.00000E+00
         0.00000E+00
         0.00000E+00
         0.00000E+00
         0.00000E+00
         0.00000E+00
         0.00000E+00
         0.00000E+00
         0.00000E+00
         0.00000E+00
         0.00000E+00
         0.00000E+00
         0.00000E+00
         0.00000E+00
         0.00000E+00
         0.00000E+00
         0.00000E+00
         0.00000E+00
         0.00000E+00
         0.00000E+00
         0.00000E+00
         0.00000E+00
         0.00000E+00
         0.00000E+00
         0.00000E+00
         0.00000E+00
         0.00000E+00
         0.00000E+00
         0.00000E+00
         0.00000E+00
         0.00000E+00
         0.00000E+00
         0.00000E+00
         0.00000E+00
         0.00000E+00
         0.00000E+00
         0.00000E+00
         0.00000E+00
         0.00000E+00
         0.00000E+00
         0.00000E+00
         0.00000E+00
         0.00000E+00
         0.00000E+00
         0.00000E+00
         0.00000E+00
         0.00000E+00
         0.00000E+00
         0.00000E+00
         0.00000E+00
         0.00000E+00
         0.00000E+00
         0.00000E+00
         0.00000E+00
         0.00000E+00
         0.00000E+00
         0.00000E+00
         0.00000E+00
         0.00000E+00
         0.00000E+00
         0.00000E+00
         0.00000E+00
         0.00000E+00
         0.00000E+00
         0.00000E+00
         0.00000E+00
         0.00000E+00
         0.00000E+00
         0.00000E+00
         0.00000E+00
         0.00000E+00
         0.00000E+00
         0.00000E+00
         0.00000E+00
         0.00000E+00
         0.00000E+00
         0.00000E+00
         0.00000E+00
         0.00000E+00
         0.00000E+00
         0.00000E+00
         0.00000E+00
         0.00000E+00
         0.00000E+00
         0.00000E+00
         0.00000E+00
         0.00000E+00
         0.00000E+00
         0.00000E+00
         0.00000E+00
         0.00000E+00
         0.00000E+00
         0.00000E+00
         0.00000E+00
         0.00000E+00
         0.00000E+00
         0.00000E+00
         0.00000E+00
         0.00000E+00
         0.00000E+00
         0.00000E+00
         0.00000E+00
         0.00000E+00
         0.00000E+00
         0.00000E+00
         0.00000E+00
         0.00000E+00
         0.00000E+00
         0.00000E+00
         0.00000E+00
         0.00000E+00
         0.00000E+00
         0.00000E+00
         0.00000E+00
         0.00000E+00
         0.00000E+00
         0.00000E+00
         0.00000E+00
         0.00000E+00
         0.00000E+00
         0.00000E+00
         0.00000E+00
         0.00000E+00
         0.00000E+00
         0.00000E+00
         0.00000E+00
         0.00000E+00
         0.00000E+00
         0.00000E+00
         0.00000E+00
         0.00000E+00
         0.00000E+00
         0.00000E+00
         0.00000E+00
         0.00000E+00
         0.00000E+00
         0.00000E+00
         0.00000E+00
         0.00000E+00
         0.00000E+00
         0.00000E+00
         0.00000E+00
         0.00000E+00
         0.00000E+00
         0.00000E+00
         0.00000E+00
         0.00000E+00
         0.00000E+00
         0.00000E+00
         0.00000E+00
         0.00000E+00
         0.00000E+00
         0.00000E+00
         0.00000E+00
         0.00000E+00
         0.00000E+00
         0.00000E+00
         0.00000E+00
         0.00000E+00
         0.00000E+00
         0.00000E+00
         0.00000E+00
         0.00000E+00
         0.00000E+00
         0.00000E+00
         0.00000E+00
         0.00000E+00
         0.00000E+00
         0.00000E+00
         0.00000E+00
         0.00000E+00
         0.00000E+00
         0.00000E+00
         0.00000E+00
         0.00000E+00
         0.00000E+00
         0.00000E+00
         0.00000E+00
         0.00000E+00
         0.00000E+00
         0.00000E+00
         0.00000E+00
         0.00000E+00
         0.00000E+00
         0.00000E+00
         0.00000E+00
         0.00000E+00
         0.00000E+00
         0.00000E+00
         0.00000E+00
         0.00000E+00
         0.00000E+00
         0.00000E+00
         0.00000E+00
         0.00000E+00
         0.00000E+00
         0.00000E+00
         0.00000E+00
         0.00000E+00
         0.00000E+00
         0.00000E+00
         0.00000E+00
         0.00000E+00
         0.00000E+00
         0.00000E+00
         0.00000E+00
         0.00000E+00
         0.00000E+00
         0.00000E+00
         0.00000E+00
         0.00000E+00
         0.00000E+00
         0.00000E+00
         0.00000E+00
         0.00000E+00
         0.00000E+00
         0.00000E+00
         0.00000E+00
         0.00000E+00
         0.00000E+00
         0.00000E+00
         0.00000E+00
         0.00000E+00
         0.00000E+00
         0.00000E+00
         0.00000E+00
         0.00000E+00
         0.00000E+00
         0.00000E+00
         0.00000E+00
         0.00000E+00
         0.00000E+00
         0.00000E+00
         0.00000E+00
         0.00000E+00
         0.00000E+00
         0.00000E+00
         0.00000E+00
         0.00000E+00
         0.00000E+00
         0.00000E+00
         0.00000E+00
         0.00000E+00
         0.00000E+00
         0.00000E+00
         0.00000E+00
         0.00000E+00
         0.00000E+00
         0.00000E+00
         0.00000E+00
         0.00000E+00
         0.00000E+00
         0.00000E+00
         0.00000E+00
         0.00000E+00
         0.00000E+00
         0.00000E+00
         0.00000E+00
         0.00000E+00
         0.00000E+00
         0.00000E+00
         0.00000E+00
         0.00000E+00
         0.00000E+00
         0.00000E+00
         0.00000E+00
         0.00000E+00
         0.00000E+00
         0.00000E+00
         0.00000E+00
         0.00000E+00
         0.00000E+00
         0.00000E+00
         0.00000E+00
         0.00000E+00
         0.00000E+00
         0.00000E+00
         0.00000E+00
         0.00000E+00
         0.00000E+00
         0.00000E+00
         0.00000E+00
         0.00000E+00
         0.00000E+00
         0.00000E+00
         0.00000E+00
         0.00000E+00
         0.00000E+00
         0.00000E+00
         0.00000E+00
         0.00000E+00
         0.00000E+00
         0.00000E+00
         0.00000E+00
         0.00000E+00
         0.00000E+00
         0.00000E+00
         0.00000E+00
         0.00000E+00
         0.00000E+00
         0.00000E+00
         0.00000E+00
         0.00000E+00
         0.00000E+00
         0.00000E+00
         0.00000E+00
         0.00000E+00
         0.00000E+00
         0.00000E+00
         0.00000E+00
         0.00000E+00
         0.00000E+00
         0.00000E+00
         0.00000E+00
         0.00000E+00
         0.00000E+00
         0.00000E+00
         0.00000E+00
         0.00000E+00
         0.00000E+00
         0.00000E+00
         0.00000E+00
         0.00000E+00
         0.00000E+00
         0.00000E+00
         0.00000E+00
         0.00000E+00
         0.00000E+00
         0.00000E+00
         0.00000E+00
         0.00000E+00
         0.00000E+00
         0.00000E+00
         0.00000E+00
         0.00000E+00
         0.00000E+00
         0.00000E+00
         0.00000E+00
         0.00000E+00
         0.00000E+00
         0.00000E+00
         0.00000E+00
         0.00000E+00
         0.00000E+00
         0.00000E+00
         0.00000E+00
         0.00000E+00
         0.00000E+00
         0.00000E+00
         0.00000E+00
         0.00000E+00
         0.00000E+00
         0.00000E+00
         0.00000E+00
         0.00000E+00
         0.00000E+00
         0.00000E+00
         0.00000E+00
         0.00000E+00
         0.00000E+00
         0.00000E+00
         0.00000E+00
         0.00000E+00
         0.00000E+00
         0.00000E+00
         0.00000E+00
         0.00000E+00
         0.00000E+00
         0.00000E+00
         0.00000E+00
         0.00000E+00
         0.00000E+00
         0.00000E+00
         0.00000E+00
         0.00000E+00
         0.00000E+00
         0.00000E+00
         0.00000E+00
         0.00000E+00
         0.00000E+00
         0.00000E+00
         0.00000E+00
         0.00000E+00
         0.00000E+00
         0.00000E+00
         0.00000E+00
         0.00000E+00
         0.00000E+00
         0.00000E+00
         0.00000E+00
         0.00000E+00
         0.00000E+00
         0.00000E+00
         0.00000E+00
         0.00000E+00
         0.00000E+00
         0.00000E+00
         0.00000E+00
         0.00000E+00
         0.00000E+00
         0.00000E+00
         0.00000E+00
         0.00000E+00
         0.00000E+00
         0.00000E+00
         0.00000E+00
         0.00000E+00
         0.00000E+00
         0.00000E+00
         0.00000E+00
         0.00000E+00
         0.00000E+00
         0.00000E+00
         0.00000E+00
         0.00000E+00
         0.00000E+00
         0.00000E+00
         0.00000E+00
         0.00000E+00
         0.00000E+00
         0.00000E+00
         0.00000E+00
         0.00000E+00
         0.00000E+00
         0.00000E+00
         0.00000E+00
         0.00000E+00
         0.00000E+00
         0.00000E+00
         0.00000E+00
         0.00000E+00
         0.00000E+00
         0.00000E+00
         0.00000E+00
         0.00000E+00
         0.00000E+00
         0.00000E+00
         0.00000E+00
         0.00000E+00
         0.00000E+00
         0.00000E+00
         0.00000E+00
         0.00000E+00
         0.00000E+00
         0.00000E+00
         0.00000E+00
         0.00000E+00
         0.00000E+00
         0.00000E+00
         0.00000E+00
         0.00000E+00
         0.00000E+00
         0.00000E+00
         0.00000E+00
         0.00000E+00
         0.00000E+00
         0.00000E+00
         0.00000E+00
         0.00000E+00
         0.00000E+00
         0.00000E+00
         0.00000E+00
         0.00000E+00
         0.00000E+00
         0.00000E+00
         0.00000E+00
         0.00000E+00
         0.00000E+00
         0.00000E+00
         0.00000E+00
         0.00000E+00
         0.00000E+00
         0.00000E+00
         0.00000E+00
         0.00000E+00
         0.00000E+00
         0.00000E+00
         0.00000E+00
         0.00000E+00
         0.00000E+00
         0.00000E+00
         0.00000E+00
         0.00000E+00
         0.00000E+00
         0.00000E+00
         0.00000E+00
         0.00000E+00
         0.00000E+00
         0.00000E+00
         0.00000E+00
         0.00000E+00
         0.00000E+00
         0.00000E+00
         0.00000E+00
         0.00000E+00
         0.00000E+00
         0.00000E+00
         0.00000E+00
         0.00000E+00
         0.00000E+00
         0.00000E+00
         0.00000E+00
         0.00000E+00
         0.00000E+00
         0.00000E+00
         0.00000E+00
         0.00000E+00
         0.00000E+00
         0.00000E+00
         0.00000E+00
         0.00000E+00
         0.00000E+00
         0.00000E+00
         0.00000E+00
         0.00000E+00
         0.00000E+00
         0.00000E+00
         0.00000E+00
         0.00000E+00
         0.00000E+00
         0.00000E+00
         0.00000E+00
         0.00000E+00
         0.00000E+00
         0.00000E+00
         0.00000E+00
         0.00000E+00
         0.00000E+00
         0.00000E+00
         0.00000E+00
         0.00000E+00
         0.00000E+00
         0.00000E+00
         0.00000E+00
         0.00000E+00
         0.00000E+00
         0.00000E+00
         0.00000E+00
         0.00000E+00
         0.00000E+00
         0.00000E+00
         0.00000E+00
         0.00000E+00
         0.00000E+00
         0.00000E+00
         0.00000E+00
         0.00000E+00
         0.00000E+00
         0.00000E+00
         0.00000E+00
         0.00000E+00
         0.00000E+00
         0.00000E+00
         0.00000E+00
         0.00000E+00
         0.00000E+00
         0.00000E+00
         0.00000E+00
         0.00000E+00
         0.00000E+00
         0.00000E+00
         0.00000E+00
         0.00000E+00
         0.00000E+00
         0.00000E+00
         0.00000E+00
         0.00000E+00
         0.00000E+00
         0.00000E+00
         0.00000E+00
         0.00000E+00
         0.00000E+00
         0.00000E+00
         0.00000E+00
         0.00000E+00
         0.00000E+00
         0.00000E+00
         0.00000E+00
         0.00000E+00
         0.00000E+00
         0.00000E+00
         0.00000E+00
         0.00000E+00
         0.00000E+00
         0.00000E+00
         0.00000E+00
         0.00000E+00
         0.00000E+00
         0.00000E+00
         0.00000E+00
         0.00000E+00
         0.00000E+00
         0.00000E+00
         0.00000E+00
         0.00000E+00
         0.00000E+00
         0.00000E+00
         0.00000E+00
         0.00000E+00
         0.00000E+00
         0.00000E+00
         0.00000E+00
         0.00000E+00
         0.00000E+00
         0.00000E+00
         0.00000E+00
         0.00000E+00
         0.00000E+00
         0.00000E+00
         0.00000E+00
         0.00000E+00
         0.00000E+00
         0.00000E+00
         0.00000E+00
         0.00000E+00
         0.00000E+00
         0.00000E+00
         0.00000E+00
         0.00000E+00
         0.00000E+00
         0.00000E+00
         0.00000E+00
         0.00000E+00
         0.00000E+00
         0.00000E+00
         0.00000E+00
         0.00000E+00
         0.00000E+00
         0.00000E+00
         0.00000E+00
         0.00000E+00
         0.00000E+00
         0.00000E+00
         0.00000E+00
         0.00000E+00
         0.00000E+00
         0.00000E+00
         0.00000E+00
         0.00000E+00
         0.00000E+00
         0.00000E+00
         0.00000E+00
         0.00000E+00
         0.00000E+00
         0.00000E+00
         0.00000E+00
         0.00000E+00
         0.00000E+00
         0.00000E+00
         0.00000E+00
         0.00000E+00
         0.00000E+00
         0.00000E+00
         0.00000E+00
         0.00000E+00
         0.00000E+00
         0.00000E+00
         0.00000E+00
         0.00000E+00
         0.00000E+00
         0.00000E+00
         0.00000E+00
         0.00000E+00
         0.00000E+00
         0.00000E+00
         0.00000E+00
         0.00000E+00
         0.00000E+00
         0.00000E+00
         0.00000E+00
         0.00000E+00
         0.00000E+00
         0.00000E+00
         0.00000E+00
         0.00000E+00
         0.00000E+00
         0.00000E+00
         0.00000E+00
         0.00000E+00
         0.00000E+00
         0.00000E+00
         0.00000E+00
         0.00000E+00
         0.00000E+00
         0.00000E+00
         0.00000E+00
         0.00000E+00
         0.00000E+00
         0.00000E+00
         0.00000E+00
         0.00000E+00
         0.00000E+00
         0.00000E+00
         0.00000E+00
         0.00000E+00
         0.00000E+00
         0.00000E+00
         0.00000E+00
         0.00000E+00
         0.00000E+00
         0.00000E+00
         0.00000E+00
         0.00000E+00
         0.00000E+00
         0.00000E+00
         0.00000E+00
         0.00000E+00
         0.00000E+00
         0.00000E+00
         0.00000E+00
         0.00000E+00
         0.00000E+00
         0.00000E+00
         0.00000E+00
         0.00000E+00
         0.00000E+00
         0.00000E+00
         0.00000E+00
         0.00000E+00
         0.00000E+00
         0.00000E+00
         0.00000E+00
         0.00000E+00
         0.00000E+00
         0.00000E+00
         0.00000E+00
         0.00000E+00
         0.00000E+00
         0.00000E+00
         0.00000E+00
         0.00000E+00
         0.00000E+00
         0.00000E+00
         0.00000E+00
         0.00000E+00
         0.00000E+00
         0.00000E+00
         0.00000E+00
         0.00000E+00
         0.00000E+00
         0.00000E+00
         0.00000E+00
         0.00000E+00
         0.00000E+00
         0.00000E+00
         0.00000E+00
         0.00000E+00
         0.00000E+00
         0.00000E+00
         0.00000E+00
         0.00000E+00
         0.00000E+00
         0.00000E+00
         0.00000E+00
         0.00000E+00
         0.00000E+00
         0.00000E+00
         0.00000E+00
         0.00000E+00
         0.00000E+00
         0.00000E+00
         0.00000E+00
         0.00000E+00
         0.00000E+00
         0.00000E+00
         0.00000E+00
         0.00000E+00
         0.00000E+00
         0.00000E+00
         0.00000E+00
         0.00000E+00
         0.00000E+00
         0.00000E+00
         0.00000E+00
         0.00000E+00
         0.00000E+00
         0.00000E+00
         0.00000E+00
         0.00000E+00
         0.00000E+00
         0.00000E+00
         0.00000E+00
         0.00000E+00
         0.00000E+00
         0.00000E+00
         0.00000E+00
         0.00000E+00
         0.00000E+00
         0.00000E+00
         0.00000E+00
         0.00000E+00
         0.00000E+00
         0.00000E+00
         0.00000E+00
         0.00000E+00
         0.00000E+00
         0.00000E+00
         0.00000E+00
         0.00000E+00
         0.00000E+00
         0.00000E+00
         0.00000E+00
         0.00000E+00
         0.00000E+00
         0.00000E+00
         0.00000E+00
         0.00000E+00
         0.00000E+00
         0.00000E+00
         0.00000E+00
         0.00000E+00
         0.00000E+00
         0.00000E+00
         0.00000E+00
         0.00000E+00
         0.00000E+00
         0.00000E+00
         0.00000E+00
         0.00000E+00
         0.00000E+00
         0.00000E+00
         0.00000E+00
         0.00000E+00
         0.00000E+00
         0.00000E+00
         0.00000E+00
         0.00000E+00
         0.00000E+00
         0.00000E+00
         0.00000E+00
         0.00000E+00
         0.00000E+00
         0.00000E+00
         0.00000E+00
         0.00000E+00
         0.00000E+00
         0.00000E+00
         0.00000E+00
         0.00000E+00
         0.00000E+00
         0.00000E+00
         0.00000E+00
         0.00000E+00
         0.00000E+00
         0.00000E+00
         0.00000E+00
         0.00000E+00
         0.00000E+00
         0.00000E+00
         0.00000E+00
         0.00000E+00
         0.00000E+00
         0.00000E+00
         0.00000E+00
         0.00000E+00
         0.00000E+00
         0.00000E+00
         0.00000E+00
         0.00000E+00
         0.00000E+00
         0.00000E+00
         0.00000E+00
         0.00000E+00
         0.00000E+00
         0.00000E+00
         0.00000E+00
         0.00000E+00
         0.00000E+00
         0.00000E+00
         0.00000E+00
         0.00000E+00
         0.00000E+00
         0.00000E+00
         0.00000E+00
         0.00000E+00
         0.00000E+00
         0.00000E+00
         0.00000E+00
         0.00000E+00
         0.00000E+00
         0.00000E+00
         0.00000E+00
         0.00000E+00
         0.00000E+00
         0.00000E+00
         0.00000E+00
         0.00000E+00
         0.00000E+00
         0.00000E+00
         0.00000E+00
         0.00000E+00
         0.00000E+00
         0.00000E+00
         0.00000E+00
         0.00000E+00
         0.00000E+00
         0.00000E+00
         0.00000E+00
         0.00000E+00
         0.00000E+00
         0.00000E+00
         0.00000E+00
         0.00000E+00
         0.00000E+00
         0.00000E+00
         0.00000E+00
         0.00000E+00
         0.00000E+00
         0.00000E+00
         0.00000E+00
         0.00000E+00
         0.00000E+00
         0.00000E+00
         0.00000E+00
         0.00000E+00
         0.00000E+00
         0.00000E+00
         0.00000E+00
         0.00000E+00
         0.00000E+00
         0.00000E+00
         0.00000E+00
         0.00000E+00
         0.00000E+00
         0.00000E+00
         0.00000E+00
         0.00000E+00
         0.00000E+00
         0.00000E+00
         0.00000E+00
         0.00000E+00
         0.00000E+00
         0.00000E+00
         0.00000E+00
         0.00000E+00
         0.00000E+00
         0.00000E+00
         0.00000E+00
         0.00000E+00
         0.00000E+00
         0.00000E+00
         0.00000E+00
         0.00000E+00
         0.00000E+00
         0.00000E+00
         0.00000E+00
         0.00000E+00
         0.00000E+00
         0.00000E+00
         0.00000E+00
         0.00000E+00
         0.00000E+00
         0.00000E+00
         0.00000E+00
         0.00000E+00
         0.00000E+00
         0.00000E+00
         0.00000E+00
         0.00000E+00
         0.00000E+00
         0.00000E+00
         0.00000E+00
         0.00000E+00
         0.00000E+00
         0.00000E+00
         0.00000E+00
         0.00000E+00
         0.00000E+00
         0.00000E+00
         0.00000E+00
         0.00000E+00
         0.00000E+00
         0.00000E+00
         0.00000E+00
         0.00000E+00
         0.00000E+00
         0.00000E+00
         0.00000E+00
         0.00000E+00
         0.00000E+00
         0.00000E+00
         0.00000E+00
         0.00000E+00
         0.00000E+00
         0.00000E+00
         0.00000E+00
         0.00000E+00
         0.00000E+00
         0.00000E+00
         0.00000E+00
         0.00000E+00
         0.00000E+00
         0.00000E+00
         0.00000E+00
         0.00000E+00
         0.00000E+00
         0.00000E+00
         0.00000E+00
         0.00000E+00
         0.00000E+00
         0.00000E+00
         0.00000E+00
         0.00000E+00
         0.00000E+00
         0.00000E+00
         0.00000E+00
         0.00000E+00
         0.00000E+00
         0.00000E+00
         0.00000E+00
         0.00000E+00
         0.00000E+00
         0.00000E+00
         0.00000E+00
         0.00000E+00
         0.00000E+00
         0.00000E+00
         0.00000E+00
         0.00000E+00
         0.00000E+00
         0.00000E+00
         0.00000E+00
         0.00000E+00
         0.00000E+00
         0.00000E+00
         0.00000E+00
         0.00000E+00
         0.00000E+00
         0.00000E+00
         0.00000E+00
         0.00000E+00
         0.00000E+00
         0.00000E+00
         0.00000E+00
         0.00000E+00
         0.00000E+00
         0.00000E+00
         0.00000E+00
         0.00000E+00
         0.00000E+00
         0.00000E+00
         0.00000E+00
         0.00000E+00
         0.00000E+00
         0.00000E+00
         0.00000E+00
         0.00000E+00
         0.00000E+00
         0.00000E+00
         0.00000E+00
         0.00000E+00
         0.00000E+00
         0.00000E+00
         0.00000E+00
         0.00000E+00
         0.00000E+00
         0.00000E+00
         0.00000E+00
         0.00000E+00
         0.00000E+00
         0.00000E+00
         0.00000E+00
         0.00000E+00
         0.00000E+00
         0.00000E+00
         0.00000E+00
         0.00000E+00
         0.00000E+00
         0.00000E+00
         0.00000E+00
         0.00000E+00
         0.00000E+00
         0.00000E+00
         0.00000E+00
         0.00000E+00
         0.00000E+00
         0.00000E+00
         0.00000E+00
         0.00000E+00
         0.00000E+00
         0.00000E+00
         0.00000E+00
         0.00000E+00
         0.00000E+00
         0.00000E+00
         0.00000E+00
         0.00000E+00
         0.00000E+00
         0.00000E+00
         0.00000E+00
         0.00000E+00
         0.00000E+00
         0.00000E+00
         0.00000E+00
         0.00000E+00
         0.00000E+00
         0.00000E+00
         0.00000E+00
         0.00000E+00
         0.00000E+00
         0.00000E+00
         0.00000E+00
         0.00000E+00
         0.00000E+00
         0.00000E+00
         0.00000E+00
         0.00000E+00
         0.00000E+00
         0.00000E+00
         0.00000E+00
         0.00000E+00
         0.00000E+00
         0.00000E+00
         0.00000E+00
         0.00000E+00
         0.00000E+00
         0.00000E+00
         0.00000E+00
         0.00000E+00
         0.00000E+00
         0.00000E+00
         0.00000E+00
         0.00000E+00
         0.00000E+00
         0.00000E+00
         0.00000E+00
         0.00000E+00
         0.00000E+00
         0.00000E+00
         0.00000E+00
         0.00000E+00
         0.00000E+00
         0.00000E+00
         0.00000E+00
         0.00000E+00
         0.00000E+00
         0.00000E+00
         0.00000E+00
         0.00000E+00
         0.00000E+00
         0.00000E+00
         0.00000E+00
         0.00000E+00
         0.00000E+00
         0.00000E+00
         0.00000E+00
         0.00000E+00
         0.00000E+00
         0.00000E+00
         0.00000E+00
         0.00000E+00
         0.00000E+00
         0.00000E+00
         0.00000E+00
         0.00000E+00
         0.00000E+00
         0.00000E+00
         0.00000E+00
         0.00000E+00
         0.00000E+00
         0.00000E+00
         0.00000E+00
         0.00000E+00
         0.00000E+00
         0.00000E+00
         0.00000E+00
         0.00000E+00
         0.00000E+00
         0.00000E+00
         0.00000E+00
         0.00000E+00
         0.00000E+00
         0.00000E+00
         0.00000E+00
         0.00000E+00
         0.00000E+00
         0.00000E+00
         0.00000E+00
         0.00000E+00
         0.00000E+00
         0.00000E+00
         0.00000E+00
         0.00000E+00
         0.00000E+00
         0.00000E+00
         0.00000E+00
         0.00000E+00
         0.00000E+00
         0.00000E+00
         0.00000E+00
         0.00000E+00
         0.00000E+00
         0.00000E+00
         0.00000E+00
         0.00000E+00
         0.00000E+00
         0.00000E+00
         0.00000E+00
         0.00000E+00
         0.00000E+00
         0.00000E+00
         0.00000E+00
         0.00000E+00
         0.00000E+00
         0.00000E+00
         0.00000E+00
         0.00000E+00
         0.00000E+00
         0.00000E+00
         0.00000E+00
         0.00000E+00
         0.00000E+00
         0.00000E+00
         0.00000E+00
         0.00000E+00
         0.00000E+00
         0.00000E+00
         0.00000E+00
         0.00000E+00
         0.00000E+00
         0.00000E+00
         0.00000E+00
         0.00000E+00
         0.00000E+00
         0.00000E+00
         0.00000E+00
         0.00000E+00
         0.00000E+00
  
SCALARS                   max_wave_vel  double 1
LOOKUP_TABLE default
         0.00000E+00
         0.00000E+00
         0.00000E+00
         0.00000E+00
         0.00000E+00
         0.00000E+00
         0.00000E+00
         0.00000E+00
         0.00000E+00
         0.00000E+00
         0.00000E+00
         0.00000E+00
         0.00000E+00
         0.00000E+00
         0.00000E+00
         0.00000E+00
         0.00000E+00
         0.00000E+00
         0.00000E+00
         0.00000E+00
         0.00000E+00
         0.00000E+00
         0.00000E+00
         0.00000E+00
         0.00000E+00
         0.00000E+00
         0.00000E+00
         0.00000E+00
         0.00000E+00
         0.00000E+00
         0.00000E+00
         0.00000E+00
         0.00000E+00
         0.00000E+00
         0.00000E+00
         0.00000E+00
         0.00000E+00
         0.00000E+00
         0.00000E+00
         0.00000E+00
         0.00000E+00
         0.00000E+00
         0.00000E+00
         0.00000E+00
         0.00000E+00
         0.00000E+00
         0.00000E+00
         0.00000E+00
         0.00000E+00
         0.00000E+00
         0.00000E+00
         0.00000E+00
         0.00000E+00
         0.00000E+00
         0.00000E+00
         0.00000E+00
         0.00000E+00
         0.00000E+00
         0.00000E+00
         0.00000E+00
         0.00000E+00
         0.00000E+00
         0.00000E+00
         0.00000E+00
         0.00000E+00
         0.00000E+00
         0.00000E+00
         0.00000E+00
         0.00000E+00
         0.00000E+00
         0.00000E+00
         0.00000E+00
         0.00000E+00
         0.00000E+00
         0.00000E+00
         0.00000E+00
         0.00000E+00
         0.00000E+00
         0.00000E+00
         0.00000E+00
         0.00000E+00
         0.00000E+00
         0.00000E+00
         0.00000E+00
         0.00000E+00
         0.00000E+00
         0.00000E+00
         0.00000E+00
         0.00000E+00
         0.00000E+00
         0.00000E+00
         0.00000E+00
         0.00000E+00
         0.00000E+00
         0.00000E+00
         0.00000E+00
         0.00000E+00
         0.00000E+00
         0.00000E+00
         0.00000E+00
         0.00000E+00
         0.00000E+00
         0.00000E+00
         0.00000E+00
         0.00000E+00
         0.00000E+00
         0.00000E+00
         0.00000E+00
         0.00000E+00
         0.00000E+00
         0.00000E+00
         0.00000E+00
         0.00000E+00
         0.00000E+00
         0.00000E+00
         0.00000E+00
         0.00000E+00
         0.00000E+00
         0.00000E+00
         0.00000E+00
         0.00000E+00
         0.00000E+00
         0.00000E+00
         0.00000E+00
         0.00000E+00
         0.00000E+00
         0.00000E+00
         0.00000E+00
         0.00000E+00
         0.00000E+00
         0.00000E+00
         0.00000E+00
         0.00000E+00
         0.00000E+00
         0.00000E+00
         0.00000E+00
         0.00000E+00
         0.00000E+00
         0.00000E+00
         0.00000E+00
         0.00000E+00
         0.00000E+00
         0.00000E+00
         0.00000E+00
         0.00000E+00
         0.00000E+00
         0.00000E+00
         0.00000E+00
         0.00000E+00
         0.00000E+00
         0.00000E+00
         0.00000E+00
         0.00000E+00
         0.00000E+00
         0.00000E+00
         0.00000E+00
         0.00000E+00
         0.00000E+00
         0.00000E+00
         0.00000E+00
         0.00000E+00
         0.00000E+00
         0.00000E+00
         0.00000E+00
         0.00000E+00
         0.00000E+00
         0.00000E+00
         0.00000E+00
         0.00000E+00
         0.00000E+00
         0.00000E+00
         0.00000E+00
         0.00000E+00
         0.00000E+00
         0.00000E+00
         0.00000E+00
         0.00000E+00
         0.00000E+00
         0.00000E+00
         0.00000E+00
         0.00000E+00
         0.00000E+00
         0.00000E+00
         0.00000E+00
         0.00000E+00
         0.00000E+00
         0.00000E+00
         0.00000E+00
         0.00000E+00
         0.00000E+00
         0.00000E+00
         0.00000E+00
         0.00000E+00
         0.00000E+00
         0.00000E+00
         0.00000E+00
         0.00000E+00
         0.00000E+00
         0.00000E+00
         0.00000E+00
         0.00000E+00
         0.00000E+00
         0.00000E+00
         0.00000E+00
         0.00000E+00
         0.00000E+00
         0.00000E+00
         0.00000E+00
         0.00000E+00
         0.00000E+00
         0.00000E+00
         0.00000E+00
         0.00000E+00
         0.00000E+00
         0.00000E+00
         0.00000E+00
         0.00000E+00
         0.00000E+00
         0.00000E+00
         0.00000E+00
         0.00000E+00
         0.00000E+00
         0.00000E+00
         0.00000E+00
         0.00000E+00
         0.00000E+00
         0.00000E+00
         0.00000E+00
         0.00000E+00
         0.00000E+00
         0.00000E+00
         0.00000E+00
         0.00000E+00
         0.00000E+00
         0.00000E+00
         0.00000E+00
         0.00000E+00
         0.00000E+00
         0.00000E+00
         0.00000E+00
         0.00000E+00
         0.00000E+00
         0.00000E+00
         0.00000E+00
         0.00000E+00
         0.00000E+00
         0.00000E+00
         0.00000E+00
         0.00000E+00
         0.00000E+00
         0.00000E+00
         0.00000E+00
         0.00000E+00
         0.00000E+00
         0.00000E+00
         0.00000E+00
         0.00000E+00
         0.00000E+00
         0.00000E+00
         0.00000E+00
         0.00000E+00
         0.00000E+00
         0.00000E+00
         0.00000E+00
         0.00000E+00
         0.00000E+00
         0.00000E+00
         0.00000E+00
         0.00000E+00
         0.00000E+00
         0.00000E+00
         0.00000E+00
         0.00000E+00
         0.00000E+00
         0.00000E+00
         0.00000E+00
         0.00000E+00
         0.00000E+00
         0.00000E+00
         0.00000E+00
         0.00000E+00
         0.00000E+00
         0.00000E+00
         0.00000E+00
         0.00000E+00
         0.00000E+00
         0.00000E+00
         0.00000E+00
         0.00000E+00
         0.00000E+00
         0.00000E+00
         0.00000E+00
         0.00000E+00
         0.00000E+00
         0.00000E+00
         0.00000E+00
         0.00000E+00
         0.00000E+00
         0.00000E+00
         0.00000E+00
         0.00000E+00
         0.00000E+00
         0.00000E+00
         0.00000E+00
         0.00000E+00
         0.00000E+00
         0.00000E+00
         0.00000E+00
         0.00000E+00
         0.00000E+00
         0.00000E+00
         0.00000E+00
         0.00000E+00
         0.00000E+00
         0.00000E+00
         0.00000E+00
         0.00000E+00
         0.00000E+00
         0.00000E+00
         0.00000E+00
         0.00000E+00
         0.00000E+00
         0.00000E+00
         0.00000E+00
         0.00000E+00
         0.00000E+00
         0.00000E+00
         0.00000E+00
         0.00000E+00
         0.00000E+00
         0.00000E+00
         0.00000E+00
         0.00000E+00
         0.00000E+00
         0.00000E+00
         0.00000E+00
         0.00000E+00
         0.00000E+00
         0.00000E+00
         0.00000E+00
         0.00000E+00
         0.00000E+00
         0.00000E+00
         0.00000E+00
         0.00000E+00
         0.00000E+00
         0.00000E+00
         0.00000E+00
         0.00000E+00
         0.00000E+00
         0.00000E+00
         0.00000E+00
         0.00000E+00
         0.00000E+00
         0.00000E+00
         0.00000E+00
         0.00000E+00
         0.00000E+00
         0.00000E+00
         0.00000E+00
         0.00000E+00
         0.00000E+00
         0.00000E+00
         0.00000E+00
         0.00000E+00
         0.00000E+00
         0.00000E+00
         0.00000E+00
         0.00000E+00
         0.00000E+00
         0.00000E+00
         0.00000E+00
         0.00000E+00
         0.00000E+00
         0.00000E+00
         0.00000E+00
         0.00000E+00
         0.00000E+00
         0.00000E+00
         0.00000E+00
         0.00000E+00
         0.00000E+00
         0.00000E+00
         0.00000E+00
         0.00000E+00
         0.00000E+00
         0.00000E+00
         0.00000E+00
         0.00000E+00
         0.00000E+00
         0.00000E+00
         0.00000E+00
         0.00000E+00
         0.00000E+00
         0.00000E+00
         0.00000E+00
         0.00000E+00
         0.00000E+00
         0.00000E+00
         0.00000E+00
         0.00000E+00
         0.00000E+00
         0.00000E+00
         0.00000E+00
         0.00000E+00
         0.00000E+00
         0.00000E+00
         0.00000E+00
         0.00000E+00
         0.00000E+00
         0.00000E+00
         0.00000E+00
         0.00000E+00
         0.00000E+00
         0.00000E+00
         0.00000E+00
         0.00000E+00
         0.00000E+00
         0.00000E+00
         0.00000E+00
         0.00000E+00
         0.00000E+00
         0.00000E+00
         0.00000E+00
         0.00000E+00
         0.00000E+00
         0.00000E+00
         0.00000E+00
         0.00000E+00
         0.00000E+00
         0.00000E+00
         0.00000E+00
         0.00000E+00
         0.00000E+00
         0.00000E+00
         0.00000E+00
         0.00000E+00
         0.00000E+00
         0.00000E+00
         0.00000E+00
         0.00000E+00
         0.00000E+00
         0.00000E+00
         0.00000E+00
         0.00000E+00
         0.00000E+00
         0.00000E+00
         0.00000E+00
         0.00000E+00
         0.00000E+00
         0.00000E+00
         0.00000E+00
         0.00000E+00
         0.00000E+00
         0.00000E+00
         0.00000E+00
         0.00000E+00
         0.00000E+00
         0.00000E+00
         0.00000E+00
         0.00000E+00
         0.00000E+00
         0.00000E+00
         0.00000E+00
         0.00000E+00
         0.00000E+00
         0.00000E+00
         0.00000E+00
         0.00000E+00
         0.00000E+00
         0.00000E+00
         0.00000E+00
         0.00000E+00
         0.00000E+00
         0.00000E+00
         0.00000E+00
         0.00000E+00
         0.00000E+00
         0.00000E+00
         0.00000E+00
         0.00000E+00
         0.00000E+00
         0.00000E+00
         0.00000E+00
         0.00000E+00
         0.00000E+00
         0.00000E+00
         0.00000E+00
         0.00000E+00
         0.00000E+00
         0.00000E+00
         0.00000E+00
         0.00000E+00
         0.00000E+00
         0.00000E+00
         0.00000E+00
         0.00000E+00
         0.00000E+00
         0.00000E+00
         0.00000E+00
         0.00000E+00
         0.00000E+00
         0.00000E+00
         0.00000E+00
         0.00000E+00
         0.00000E+00
         0.00000E+00
         0.00000E+00
         0.00000E+00
         0.00000E+00
         0.00000E+00
         0.00000E+00
         0.00000E+00
         0.00000E+00
         0.00000E+00
         0.00000E+00
         0.00000E+00
         0.00000E+00
         0.00000E+00
         0.00000E+00
         0.00000E+00
         0.00000E+00
         0.00000E+00
         0.00000E+00
         0.00000E+00
         0.00000E+00
         0.00000E+00
         0.00000E+00
         0.00000E+00
         0.00000E+00
         0.00000E+00
         0.00000E+00
         0.00000E+00
         0.00000E+00
         0.00000E+00
         0.00000E+00
         0.00000E+00
         0.00000E+00
         0.00000E+00
         0.00000E+00
         0.00000E+00
         0.00000E+00
         0.00000E+00
         0.00000E+00
         0.00000E+00
         0.00000E+00
         0.00000E+00
         0.00000E+00
         0.00000E+00
         0.00000E+00
         0.00000E+00
         0.00000E+00
         0.00000E+00
         0.00000E+00
         0.00000E+00
         0.00000E+00
         0.00000E+00
         0.00000E+00
         0.00000E+00
         0.00000E+00
         0.00000E+00
         0.00000E+00
         0.00000E+00
         0.00000E+00
         0.00000E+00
         0.00000E+00
         0.00000E+00
         0.00000E+00
         0.00000E+00
         0.00000E+00
         0.00000E+00
         0.00000E+00
         0.00000E+00
         0.00000E+00
         0.00000E+00
         0.00000E+00
         0.00000E+00
         0.00000E+00
         0.00000E+00
         0.00000E+00
         0.00000E+00
         0.00000E+00
         0.00000E+00
         0.00000E+00
         0.00000E+00
         0.00000E+00
         0.00000E+00
         0.00000E+00
         0.00000E+00
         0.00000E+00
         0.00000E+00
         0.00000E+00
         0.00000E+00
         0.00000E+00
         0.00000E+00
         0.00000E+00
         0.00000E+00
         0.00000E+00
         0.00000E+00
         0.00000E+00
         0.00000E+00
         0.00000E+00
         0.00000E+00
         0.00000E+00
         0.00000E+00
         0.00000E+00
         0.00000E+00
         0.00000E+00
         0.00000E+00
         0.00000E+00
         0.00000E+00
         0.00000E+00
         0.00000E+00
         0.00000E+00
         0.00000E+00
         0.00000E+00
         0.00000E+00
         0.00000E+00
         0.00000E+00
         0.00000E+00
         0.00000E+00
         0.00000E+00
         0.00000E+00
         0.00000E+00
         0.00000E+00
         0.00000E+00
         0.00000E+00
         0.00000E+00
         0.00000E+00
         0.00000E+00
         0.00000E+00
         0.00000E+00
         0.00000E+00
         0.00000E+00
         0.00000E+00
         0.00000E+00
         0.00000E+00
         0.00000E+00
         0.00000E+00
         0.00000E+00
         0.00000E+00
         0.00000E+00
         0.00000E+00
         0.00000E+00
         0.00000E+00
         0.00000E+00
         0.00000E+00
         0.00000E+00
         0.00000E+00
         0.00000E+00
         0.00000E+00
         0.00000E+00
         0.00000E+00
         0.00000E+00
         0.00000E+00
         0.00000E+00
         0.00000E+00
         0.00000E+00
         0.00000E+00
         0.00000E+00
         0.00000E+00
         0.00000E+00
         0.00000E+00
         0.00000E+00
         0.00000E+00
         0.00000E+00
         0.00000E+00
         0.00000E+00
         0.00000E+00
         0.00000E+00
         0.00000E+00
         0.00000E+00
         0.00000E+00
         0.00000E+00
         0.00000E+00
         0.00000E+00
         0.00000E+00
         0.00000E+00
         0.00000E+00
         0.00000E+00
         0.00000E+00
         0.00000E+00
         0.00000E+00
         0.00000E+00
         0.00000E+00
         0.00000E+00
         0.00000E+00
         0.00000E+00
         0.00000E+00
         0.00000E+00
         0.00000E+00
         0.00000E+00
         0.00000E+00
         0.00000E+00
         0.00000E+00
         0.00000E+00
         0.00000E+00
         0.00000E+00
         0.00000E+00
         0.00000E+00
         0.00000E+00
         0.00000E+00
         0.00000E+00
         0.00000E+00
         0.00000E+00
         0.00000E+00
         0.00000E+00
         0.00000E+00
         0.00000E+00
         0.00000E+00
         0.00000E+00
         0.00000E+00
         0.00000E+00
         0.00000E+00
         0.00000E+00
         0.00000E+00
         0.00000E+00
         0.00000E+00
         0.00000E+00
         0.00000E+00
         0.00000E+00
         0.00000E+00
         0.00000E+00
         0.00000E+00
         0.00000E+00
         0.00000E+00
         0.00000E+00
         0.00000E+00
         0.00000E+00
         0.00000E+00
         0.00000E+00
         0.00000E+00
         0.00000E+00
         0.00000E+00
         0.00000E+00
         0.00000E+00
         0.00000E+00
         0.00000E+00
         0.00000E+00
         0.00000E+00
         0.00000E+00
         0.00000E+00
         0.00000E+00
         0.00000E+00
         0.00000E+00
         0.00000E+00
         0.00000E+00
         0.00000E+00
         0.00000E+00
         0.00000E+00
         0.00000E+00
         0.00000E+00
         0.00000E+00
         0.00000E+00
         0.00000E+00
         0.00000E+00
         0.00000E+00
         0.00000E+00
         0.00000E+00
         0.00000E+00
         0.00000E+00
         0.00000E+00
         0.00000E+00
         0.00000E+00
         0.00000E+00
         0.00000E+00
         0.00000E+00
         0.00000E+00
         0.00000E+00
         0.00000E+00
         0.00000E+00
         0.00000E+00
         0.00000E+00
         0.00000E+00
         0.00000E+00
         0.00000E+00
         0.00000E+00
         0.00000E+00
         0.00000E+00
         0.00000E+00
         0.00000E+00
         0.00000E+00
         0.00000E+00
         0.00000E+00
         0.00000E+00
         0.00000E+00
         0.00000E+00
         0.00000E+00
         0.00000E+00
         0.00000E+00
         0.00000E+00
         0.00000E+00
         0.00000E+00
         0.00000E+00
         0.00000E+00
         0.00000E+00
         0.00000E+00
         0.00000E+00
         0.00000E+00
         0.00000E+00
         0.00000E+00
         0.00000E+00
         0.00000E+00
         0.00000E+00
         0.00000E+00
         0.00000E+00
         0.00000E+00
         0.00000E+00
         0.00000E+00
         0.00000E+00
         0.00000E+00
         0.00000E+00
         0.00000E+00
         0.00000E+00
         0.00000E+00
         0.00000E+00
         0.00000E+00
         0.00000E+00
         0.00000E+00
         0.00000E+00
         0.00000E+00
         0.00000E+00
         0.00000E+00
         0.00000E+00
         0.00000E+00
         0.00000E+00
         0.00000E+00
         0.00000E+00
         0.00000E+00
         0.00000E+00
         0.00000E+00
         0.00000E+00
         0.00000E+00
         0.00000E+00
         0.00000E+00
         0.00000E+00
         0.00000E+00
         0.00000E+00
         0.00000E+00
         0.00000E+00
         0.00000E+00
         0.00000E+00
         0.00000E+00
         0.00000E+00
         0.00000E+00
         0.00000E+00
         0.00000E+00
         0.00000E+00
         0.00000E+00
         0.00000E+00
         0.00000E+00
         0.00000E+00
         0.00000E+00
         0.00000E+00
         0.00000E+00
         0.00000E+00
         0.00000E+00
         0.00000E+00
         0.00000E+00
         0.00000E+00
         0.00000E+00
         0.00000E+00
         0.00000E+00
         0.00000E+00
         0.00000E+00
         0.00000E+00
         0.00000E+00
         0.00000E+00
         0.00000E+00
         0.00000E+00
         0.00000E+00
         0.00000E+00
         0.00000E+00
         0.00000E+00
         0.00000E+00
         0.00000E+00
         0.00000E+00
         0.00000E+00
         0.00000E+00
         0.00000E+00
         0.00000E+00
         0.00000E+00
         0.00000E+00
         0.00000E+00
         0.00000E+00
         0.00000E+00
         0.00000E+00
         0.00000E+00
         0.00000E+00
         0.00000E+00
         0.00000E+00
         0.00000E+00
         0.00000E+00
         0.00000E+00
         0.00000E+00
         0.00000E+00
         0.00000E+00
         0.00000E+00
         0.00000E+00
         0.00000E+00
         0.00000E+00
         0.00000E+00
         0.00000E+00
         0.00000E+00
         0.00000E+00
         0.00000E+00
         0.00000E+00
         0.00000E+00
         0.00000E+00
         0.00000E+00
         0.00000E+00
         0.00000E+00
         0.00000E+00
         0.00000E+00
         0.00000E+00
         0.00000E+00
         0.00000E+00
         0.00000E+00
         0.00000E+00
         0.00000E+00
         0.00000E+00
         0.00000E+00
         0.00000E+00
         0.00000E+00
         0.00000E+00
         0.00000E+00
         0.00000E+00
         0.00000E+00
         0.00000E+00
         0.00000E+00
         0.00000E+00
         0.00000E+00
         0.00000E+00
         0.00000E+00
         0.00000E+00
         0.00000E+00
         0.00000E+00
         0.00000E+00
         0.00000E+00
         0.00000E+00
         0.00000E+00
         0.00000E+00
         0.00000E+00
         0.00000E+00
         0.00000E+00
         0.00000E+00
         0.00000E+00
         0.00000E+00
         0.00000E+00
         0.00000E+00
         0.00000E+00
         0.00000E+00
         0.00000E+00
         0.00000E+00
         0.00000E+00
         0.00000E+00
         0.00000E+00
         0.00000E+00
         0.00000E+00
         0.00000E+00
         0.00000E+00
         0.00000E+00
         0.00000E+00
         0.00000E+00
         0.00000E+00
         0.00000E+00
         0.00000E+00
         0.00000E+00
         0.00000E+00
         0.00000E+00
         0.00000E+00
         0.00000E+00
         0.00000E+00
         0.00000E+00
         0.00000E+00
         0.00000E+00
         0.00000E+00
         0.00000E+00
         0.00000E+00
         0.00000E+00
         0.00000E+00
         0.00000E+00
         0.00000E+00
         0.00000E+00
         0.00000E+00
         0.00000E+00
         0.00000E+00
         0.00000E+00
         0.00000E+00
         0.00000E+00
         0.00000E+00
         0.00000E+00
         0.00000E+00
         0.00000E+00
         0.00000E+00
         0.00000E+00
         0.00000E+00
         0.00000E+00
         0.00000E+00
         0.00000E+00
         0.00000E+00
         0.00000E+00
         0.00000E+00
         0.00000E+00
         0.00000E+00
         0.00000E+00
         0.00000E+00
         0.00000E+00
         0.00000E+00
         0.00000E+00
         0.00000E+00
         0.00000E+00
         0.00000E+00
         0.00000E+00
         0.00000E+00
         0.00000E+00
         0.00000E+00
         0.00000E+00
         0.00000E+00
         0.00000E+00
         0.00000E+00
         0.00000E+00
         0.00000E+00
         0.00000E+00
         0.00000E+00
         0.00000E+00
         0.00000E+00
         0.00000E+00
         0.00000E+00
         0.00000E+00
         0.00000E+00
         0.00000E+00
         0.00000E+00
         0.00000E+00
         0.00000E+00
         0.00000E+00
         0.00000E+00
         0.00000E+00
         0.00000E+00
         0.00000E+00
         0.00000E+00
         0.00000E+00
         0.00000E+00
         0.00000E+00
         0.00000E+00
         0.00000E+00
         0.00000E+00
         0.00000E+00
         0.00000E+00
         0.00000E+00
         0.00000E+00
         0.00000E+00
         0.00000E+00
         0.00000E+00
         0.00000E+00
         0.00000E+00
         0.00000E+00
         0.00000E+00
         0.00000E+00
         0.00000E+00
         0.00000E+00
         0.00000E+00
         0.00000E+00
         0.00000E+00
         0.00000E+00
         0.00000E+00
         0.00000E+00
         0.00000E+00
         0.00000E+00
         0.00000E+00
         0.00000E+00
         0.00000E+00
         0.00000E+00
         0.00000E+00
         0.00000E+00
         0.00000E+00
         0.00000E+00
         0.00000E+00
         0.00000E+00
         0.00000E+00
         0.00000E+00
         0.00000E+00
         0.00000E+00
         0.00000E+00
         0.00000E+00
         0.00000E+00
         0.00000E+00
         0.00000E+00
         0.00000E+00
         0.00000E+00
         0.00000E+00
         0.00000E+00
         0.00000E+00
         0.00000E+00
         0.00000E+00
         0.00000E+00
         0.00000E+00
         0.00000E+00
         0.00000E+00
         0.00000E+00
         0.00000E+00
         0.00000E+00
         0.00000E+00
         0.00000E+00
         0.00000E+00
         0.00000E+00
         0.00000E+00
         0.00000E+00
         0.00000E+00
         0.00000E+00
         0.00000E+00
         0.00000E+00
         0.00000E+00
         0.00000E+00
         0.00000E+00
         0.00000E+00
         0.00000E+00
         0.00000E+00
         0.00000E+00
         0.00000E+00
         0.00000E+00
         0.00000E+00
         0.00000E+00
         0.00000E+00
         0.00000E+00
         0.00000E+00
         0.00000E+00
         0.00000E+00
         0.00000E+00
         0.00000E+00
         0.00000E+00
         0.00000E+00
         0.00000E+00
         0.00000E+00
         0.00000E+00
         0.00000E+00
         0.00000E+00
         0.00000E+00
         0.00000E+00
         0.00000E+00
         0.00000E+00
         0.00000E+00
         0.00000E+00
         0.00000E+00
         0.00000E+00
         0.00000E+00
         0.00000E+00
         0.00000E+00
         0.00000E+00
         0.00000E+00
         0.00000E+00
         0.00000E+00
         0.00000E+00
         0.00000E+00
         0.00000E+00
         0.00000E+00
         0.00000E+00
         0.00000E+00
         0.00000E+00
         0.00000E+00
         0.00000E+00
         0.00000E+00
         0.00000E+00
         0.00000E+00
         0.00000E+00
         0.00000E+00
         0.00000E+00
         0.00000E+00
         0.00000E+00
         0.00000E+00
         0.00000E+00
         0.00000E+00
         0.00000E+00
         0.00000E+00
         0.00000E+00
         0.00000E+00
         0.00000E+00
         0.00000E+00
         0.00000E+00
         0.00000E+00
         0.00000E+00
         0.00000E+00
         0.00000E+00
         0.00000E+00
         0.00000E+00
         0.00000E+00
         0.00000E+00
         0.00000E+00
         0.00000E+00
         0.00000E+00
         0.00000E+00
         0.00000E+00
         0.00000E+00
         0.00000E+00
         0.00000E+00
         0.00000E+00
         0.00000E+00
         0.00000E+00
         0.00000E+00
         0.00000E+00
         0.00000E+00
         0.00000E+00
         0.00000E+00
         0.00000E+00
         0.00000E+00
         0.00000E+00
         0.00000E+00
         0.00000E+00
         0.00000E+00
         0.00000E+00
         0.00000E+00
         0.00000E+00
         0.00000E+00
         0.00000E+00
         0.00000E+00
         0.00000E+00
         0.00000E+00
         0.00000E+00
         0.00000E+00
         0.00000E+00
         0.00000E+00
         0.00000E+00
         0.00000E+00
         0.00000E+00
         0.00000E+00
         0.00000E+00
         0.00000E+00
         0.00000E+00
         0.00000E+00
         0.00000E+00
         0.00000E+00
         0.00000E+00
         0.00000E+00
         0.00000E+00
         0.00000E+00
         0.00000E+00
         0.00000E+00
         0.00000E+00
         0.00000E+00
         0.00000E+00
         0.00000E+00
         0.00000E+00
         0.00000E+00
         0.00000E+00
         0.00000E+00
         0.00000E+00
         0.00000E+00
         0.00000E+00
         0.00000E+00
         0.00000E+00
         0.00000E+00
         0.00000E+00
         0.00000E+00
         0.00000E+00
         0.00000E+00
         0.00000E+00
         0.00000E+00
         0.00000E+00
         0.00000E+00
         0.00000E+00
         0.00000E+00
         0.00000E+00
         0.00000E+00
         0.00000E+00
         0.00000E+00
         0.00000E+00
         0.00000E+00
         0.00000E+00
         0.00000E+00
         0.00000E+00
         0.00000E+00
         0.00000E+00
         0.00000E+00
         0.00000E+00
         0.00000E+00
         0.00000E+00
         0.00000E+00
         0.00000E+00
         0.00000E+00
         0.00000E+00
         0.00000E+00
         0.00000E+00
         0.00000E+00
         0.00000E+00
         0.00000E+00
         0.00000E+00
         0.00000E+00
         0.00000E+00
         0.00000E+00
         0.00000E+00
         0.00000E+00
         0.00000E+00
         0.00000E+00
         0.00000E+00
         0.00000E+00
         0.00000E+00
         0.00000E+00
         0.00000E+00
         0.00000E+00
         0.00000E+00
         0.00000E+00
         0.00000E+00
         0.00000E+00
         0.00000E+00
         0.00000E+00
         0.00000E+00
         0.00000E+00
         0.00000E+00
         0.00000E+00
         0.00000E+00
         0.00000E+00
         0.00000E+00
         0.00000E+00
         0.00000E+00
         0.00000E+00
         0.00000E+00
         0.00000E+00
         0.00000E+00
         0.00000E+00
         0.00000E+00
         0.00000E+00
         0.00000E+00
         0.00000E+00
         0.00000E+00
         0.00000E+00
         0.00000E+00
         0.00000E+00
         0.00000E+00
         0.00000E+00
         0.00000E+00
         0.00000E+00
         0.00000E+00
         0.00000E+00
         0.00000E+00
         0.00000E+00
         0.00000E+00
         0.00000E+00
         0.00000E+00
         0.00000E+00
         0.00000E+00
         0.00000E+00
         0.00000E+00
         0.00000E+00
         0.00000E+00
         0.00000E+00
         0.00000E+00
         0.00000E+00
         0.00000E+00
         0.00000E+00
         0.00000E+00
         0.00000E+00
         0.00000E+00
         0.00000E+00
         0.00000E+00
         0.00000E+00
         0.00000E+00
         0.00000E+00
         0.00000E+00
         0.00000E+00
         0.00000E+00
         0.00000E+00
         0.00000E+00
         0.00000E+00
         0.00000E+00
         0.00000E+00
         0.00000E+00
         0.00000E+00
         0.00000E+00
         0.00000E+00
         0.00000E+00
         0.00000E+00
         0.00000E+00
         0.00000E+00
         0.00000E+00
         0.00000E+00
         0.00000E+00
         0.00000E+00
         0.00000E+00
         0.00000E+00
         0.00000E+00
         0.00000E+00
         0.00000E+00
         0.00000E+00
         0.00000E+00
         0.00000E+00
         0.00000E+00
         0.00000E+00
         0.00000E+00
         0.00000E+00
         0.00000E+00
         0.00000E+00
         0.00000E+00
         0.00000E+00
         0.00000E+00
         0.00000E+00
         0.00000E+00
         0.00000E+00
         0.00000E+00
         0.00000E+00
         0.00000E+00
         0.00000E+00
         0.00000E+00
         0.00000E+00
         0.00000E+00
         0.00000E+00
         0.00000E+00
         0.00000E+00
         0.00000E+00
         0.00000E+00
         0.00000E+00
         0.00000E+00
         0.00000E+00
         0.00000E+00
         0.00000E+00
         0.00000E+00
         0.00000E+00
         0.00000E+00
         0.00000E+00
         0.00000E+00
         0.00000E+00
         0.00000E+00
         0.00000E+00
         0.00000E+00
         0.00000E+00
         0.00000E+00
         0.00000E+00
         0.00000E+00
         0.00000E+00
         0.00000E+00
         0.00000E+00
         0.00000E+00
         0.00000E+00
         0.00000E+00
         0.00000E+00
         0.00000E+00
         0.00000E+00
         0.00000E+00
         0.00000E+00
         0.00000E+00
         0.00000E+00
         0.00000E+00
         0.00000E+00
         0.00000E+00
         0.00000E+00
         0.00000E+00
         0.00000E+00
         0.00000E+00
         0.00000E+00
         0.00000E+00
         0.00000E+00
         0.00000E+00
         0.00000E+00
         0.00000E+00
         0.00000E+00
         0.00000E+00
         0.00000E+00
         0.00000E+00
         0.00000E+00
         0.00000E+00
         0.00000E+00
         0.00000E+00
         0.00000E+00
         0.00000E+00
         0.00000E+00
         0.00000E+00
         0.00000E+00
         0.00000E+00
         0.00000E+00
         0.00000E+00
         0.00000E+00
         0.00000E+00
         0.00000E+00
         0.00000E+00
         0.00000E+00
         0.00000E+00
         0.00000E+00
         0.00000E+00
         0.00000E+00
         0.00000E+00
         0.00000E+00
         0.00000E+00
         0.00000E+00
         0.00000E+00
         0.00000E+00
         0.00000E+00
         0.00000E+00
         0.00000E+00
         0.00000E+00
         0.00000E+00
         0.00000E+00
         0.00000E+00
         0.00000E+00
         0.00000E+00
         0.00000E+00
         0.00000E+00
         0.00000E+00
         0.00000E+00
         0.00000E+00
         0.00000E+00
         0.00000E+00
         0.00000E+00
         0.00000E+00
         0.00000E+00
         0.00000E+00
         0.00000E+00
         0.00000E+00
         0.00000E+00
         0.00000E+00
         0.00000E+00
         0.00000E+00
         0.00000E+00
         0.00000E+00
         0.00000E+00
         0.00000E+00
         0.00000E+00
         0.00000E+00
         0.00000E+00
         0.00000E+00
         0.00000E+00
         0.00000E+00
         0.00000E+00
         0.00000E+00
         0.00000E+00
         0.00000E+00
         0.00000E+00
         0.00000E+00
         0.00000E+00
         0.00000E+00
         0.00000E+00
         0.00000E+00
         0.00000E+00
         0.00000E+00
         0.00000E+00
         0.00000E+00
         0.00000E+00
         0.00000E+00
         0.00000E+00
         0.00000E+00
         0.00000E+00
         0.00000E+00
         0.00000E+00
         0.00000E+00
         0.00000E+00
         0.00000E+00
         0.00000E+00
         0.00000E+00
         0.00000E+00
         0.00000E+00
         0.00000E+00
         0.00000E+00
         0.00000E+00
         0.00000E+00
         0.00000E+00
         0.00000E+00
         0.00000E+00
         0.00000E+00
         0.00000E+00
         0.00000E+00
         0.00000E+00
         0.00000E+00
         0.00000E+00
         0.00000E+00
         0.00000E+00
         0.00000E+00
         0.00000E+00
         0.00000E+00
         0.00000E+00
         0.00000E+00
         0.00000E+00
         0.00000E+00
         0.00000E+00
         0.00000E+00
         0.00000E+00
         0.00000E+00
         0.00000E+00
         0.00000E+00
         0.00000E+00
         0.00000E+00
         0.00000E+00
         0.00000E+00
         0.00000E+00
         0.00000E+00
         0.00000E+00
         0.00000E+00
         0.00000E+00
         0.00000E+00
         0.00000E+00
         0.00000E+00
         0.00000E+00
         0.00000E+00
         0.00000E+00
         0.00000E+00
         0.00000E+00
         0.00000E+00
         0.00000E+00
         0.00000E+00
         0.00000E+00
         0.00000E+00
         0.00000E+00
         0.00000E+00
         0.00000E+00
         0.00000E+00
         0.00000E+00
         0.00000E+00
         0.00000E+00
         0.00000E+00
         0.00000E+00
         0.00000E+00
         0.00000E+00
         0.00000E+00
         0.00000E+00
         0.00000E+00
         0.00000E+00
         0.00000E+00
         0.00000E+00
         0.00000E+00
         0.00000E+00
         0.00000E+00
         0.00000E+00
         0.00000E+00
         0.00000E+00
         0.00000E+00
         0.00000E+00
         0.00000E+00
         0.00000E+00
         0.00000E+00
         0.00000E+00
         0.00000E+00
         0.00000E+00
         0.00000E+00
         0.00000E+00
         0.00000E+00
         0.00000E+00
         0.00000E+00
         0.00000E+00
         0.00000E+00
         0.00000E+00
         0.00000E+00
         0.00000E+00
         0.00000E+00
         0.00000E+00
         0.00000E+00
         0.00000E+00
         0.00000E+00
         0.00000E+00
         0.00000E+00
         0.00000E+00
         0.00000E+00
         0.00000E+00
         0.00000E+00
         0.00000E+00
         0.00000E+00
         0.00000E+00
         0.00000E+00
         0.00000E+00
         0.00000E+00
         0.00000E+00
         0.00000E+00
         0.00000E+00
         0.00000E+00
         0.00000E+00
         0.00000E+00
         0.00000E+00
         0.00000E+00
         0.00000E+00
         0.00000E+00
         0.00000E+00
         0.00000E+00
         0.00000E+00
         0.00000E+00
         0.00000E+00
         0.00000E+00
         0.00000E+00
         0.00000E+00
         0.00000E+00
         0.00000E+00
         0.00000E+00
         0.00000E+00
         0.00000E+00
         0.00000E+00
         0.00000E+00
         0.00000E+00
         0.00000E+00
         0.00000E+00
         0.00000E+00
         0.00000E+00
         0.00000E+00
         0.00000E+00
         0.00000E+00
         0.00000E+00
         0.00000E+00
         0.00000E+00
         0.00000E+00
         0.00000E+00
         0.00000E+00
         0.00000E+00
         0.00000E+00
         0.00000E+00
         0.00000E+00
         0.00000E+00
         0.00000E+00
         0.00000E+00
         0.00000E+00
         0.00000E+00
         0.00000E+00
         0.00000E+00
         0.00000E+00
         0.00000E+00
         0.00000E+00
         0.00000E+00
         0.00000E+00
         0.00000E+00
         0.00000E+00
         0.00000E+00
         0.00000E+00
         0.00000E+00
         0.00000E+00
         0.00000E+00
         0.00000E+00
         0.00000E+00
         0.00000E+00
         0.00000E+00
         0.00000E+00
         0.00000E+00
         0.00000E+00
         0.00000E+00
         0.00000E+00
         0.00000E+00
         0.00000E+00
         0.00000E+00
         0.00000E+00
         0.00000E+00
         0.00000E+00
         0.00000E+00
         0.00000E+00
         0.00000E+00
         0.00000E+00
         0.00000E+00
         0.00000E+00
         0.00000E+00
         0.00000E+00
         0.00000E+00
         0.00000E+00
         0.00000E+00
         0.00000E+00
         0.00000E+00
         0.00000E+00
         0.00000E+00
         0.00000E+00
         0.00000E+00
         0.00000E+00
         0.00000E+00
         0.00000E+00
         0.00000E+00
         0.00000E+00
         0.00000E+00
         0.00000E+00
         0.00000E+00
         0.00000E+00
         0.00000E+00
         0.00000E+00
         0.00000E+00
         0.00000E+00
         0.00000E+00
         0.00000E+00
         0.00000E+00
         0.00000E+00
         0.00000E+00
         0.00000E+00
         0.00000E+00
         0.00000E+00
         0.00000E+00
         0.00000E+00
         0.00000E+00
         0.00000E+00
         0.00000E+00
         0.00000E+00
         0.00000E+00
         0.00000E+00
         0.00000E+00
         0.00000E+00
         0.00000E+00
         0.00000E+00
         0.00000E+00
         0.00000E+00
         0.00000E+00
         0.00000E+00
         0.00000E+00
         0.00000E+00
         0.00000E+00
         0.00000E+00
         0.00000E+00
         0.00000E+00
         0.00000E+00
         0.00000E+00
         0.00000E+00
         0.00000E+00
         0.00000E+00
         0.00000E+00
         0.00000E+00
         0.00000E+00
         0.00000E+00
         0.00000E+00
         0.00000E+00
         0.00000E+00
         0.00000E+00
         0.00000E+00
         0.00000E+00
         0.00000E+00
         0.00000E+00
         0.00000E+00
         0.00000E+00
         0.00000E+00
         0.00000E+00
         0.00000E+00
         0.00000E+00
         0.00000E+00
         0.00000E+00
         0.00000E+00
         0.00000E+00
         0.00000E+00
         0.00000E+00
         0.00000E+00
         0.00000E+00
         0.00000E+00
         0.00000E+00
         0.00000E+00
         0.00000E+00
         0.00000E+00
         0.00000E+00
         0.00000E+00
         0.00000E+00
         0.00000E+00
         0.00000E+00
         0.00000E+00
         0.00000E+00
         0.00000E+00
         0.00000E+00
         0.00000E+00
         0.00000E+00
         0.00000E+00
         0.00000E+00
         0.00000E+00
         0.00000E+00
         0.00000E+00
         0.00000E+00
         0.00000E+00
         0.00000E+00
         0.00000E+00
         0.00000E+00
         0.00000E+00
         0.00000E+00
         0.00000E+00
         0.00000E+00
         0.00000E+00
         0.00000E+00
         0.00000E+00
         0.00000E+00
         0.00000E+00
         0.00000E+00
         0.00000E+00
         0.00000E+00
         0.00000E+00
         0.00000E+00
         0.00000E+00
         0.00000E+00
         0.00000E+00
         0.00000E+00
         0.00000E+00
         0.00000E+00
         0.00000E+00
         0.00000E+00
         0.00000E+00
         0.00000E+00
         0.00000E+00
         0.00000E+00
         0.00000E+00
         0.00000E+00
         0.00000E+00
         0.00000E+00
         0.00000E+00
         0.00000E+00
         0.00000E+00
         0.00000E+00
         0.00000E+00
         0.00000E+00
         0.00000E+00
         0.00000E+00
         0.00000E+00
         0.00000E+00
         0.00000E+00
         0.00000E+00
         0.00000E+00
         0.00000E+00
         0.00000E+00
         0.00000E+00
         0.00000E+00
         0.00000E+00
         0.00000E+00
         0.00000E+00
         0.00000E+00
         0.00000E+00
         0.00000E+00
         0.00000E+00
         0.00000E+00
         0.00000E+00
         0.00000E+00
         0.00000E+00
         0.00000E+00
         0.00000E+00
         0.00000E+00
         0.00000E+00
         0.00000E+00
         0.00000E+00
         0.00000E+00
         0.00000E+00
         0.00000E+00
         0.00000E+00
         0.00000E+00
         0.00000E+00
         0.00000E+00
         0.00000E+00
         0.00000E+00
         0.00000E+00
         0.00000E+00
         0.00000E+00
         0.00000E+00
         0.00000E+00
         0.00000E+00
         0.00000E+00
         0.00000E+00
         0.00000E+00
         0.00000E+00
         0.00000E+00
         0.00000E+00
         0.00000E+00
         0.00000E+00
         0.00000E+00
         0.00000E+00
         0.00000E+00
         0.00000E+00
         0.00000E+00
         0.00000E+00
         0.00000E+00
         0.00000E+00
         0.00000E+00
         0.00000E+00
         0.00000E+00
         0.00000E+00
         0.00000E+00
  
SCALARS                      eps_shear  double 1
LOOKUP_TABLE default
         0.00000E+00
         0.00000E+00
         0.00000E+00
         0.00000E+00
         0.00000E+00
         0.00000E+00
         0.00000E+00
         0.00000E+00
         0.00000E+00
         0.00000E+00
         0.00000E+00
         0.00000E+00
         0.00000E+00
         0.00000E+00
         0.00000E+00
         0.00000E+00
         0.00000E+00
         0.00000E+00
         0.00000E+00
         0.00000E+00
         0.00000E+00
         0.00000E+00
         0.00000E+00
         0.00000E+00
         0.00000E+00
         0.00000E+00
         0.00000E+00
         0.00000E+00
         0.00000E+00
         0.00000E+00
         0.00000E+00
         0.00000E+00
         0.00000E+00
         0.00000E+00
         0.00000E+00
         0.00000E+00
         0.00000E+00
         0.00000E+00
         0.00000E+00
         0.00000E+00
         0.00000E+00
         0.00000E+00
         0.00000E+00
         0.00000E+00
         0.00000E+00
         0.00000E+00
         0.00000E+00
         0.00000E+00
         0.00000E+00
         0.00000E+00
         0.00000E+00
         0.00000E+00
         0.00000E+00
         0.00000E+00
         0.00000E+00
         0.00000E+00
         0.00000E+00
         0.00000E+00
         0.00000E+00
         0.00000E+00
         0.00000E+00
         0.00000E+00
         0.00000E+00
         0.00000E+00
         0.00000E+00
         0.00000E+00
         0.00000E+00
         0.00000E+00
         0.00000E+00
         0.00000E+00
         0.00000E+00
         0.00000E+00
         0.00000E+00
         0.00000E+00
         0.00000E+00
         0.00000E+00
         0.00000E+00
         0.00000E+00
         0.00000E+00
         0.00000E+00
         0.00000E+00
         0.00000E+00
         0.00000E+00
         0.00000E+00
         0.00000E+00
         0.00000E+00
         0.00000E+00
         0.00000E+00
         0.00000E+00
         0.00000E+00
         0.00000E+00
         0.00000E+00
         0.00000E+00
         0.00000E+00
         0.00000E+00
         0.00000E+00
         0.00000E+00
         0.00000E+00
         0.00000E+00
         0.00000E+00
         0.00000E+00
         0.00000E+00
         0.00000E+00
         0.00000E+00
         0.00000E+00
         0.00000E+00
         0.00000E+00
         0.00000E+00
         0.00000E+00
         0.00000E+00
         0.00000E+00
         0.00000E+00
         0.00000E+00
         0.00000E+00
         0.00000E+00
         0.00000E+00
         0.00000E+00
         0.00000E+00
         0.00000E+00
         0.00000E+00
         0.00000E+00
         0.00000E+00
         0.00000E+00
         0.00000E+00
         0.00000E+00
         0.00000E+00
         0.00000E+00
         0.00000E+00
         0.00000E+00
         0.00000E+00
         0.00000E+00
         0.00000E+00
         0.00000E+00
         0.00000E+00
         0.00000E+00
         0.00000E+00
         0.00000E+00
         0.00000E+00
         0.00000E+00
         0.00000E+00
         0.00000E+00
         0.00000E+00
         0.00000E+00
         0.00000E+00
         0.00000E+00
         0.00000E+00
         0.00000E+00
         0.00000E+00
         0.00000E+00
         0.00000E+00
         0.00000E+00
         0.00000E+00
         0.00000E+00
         0.00000E+00
         0.00000E+00
         0.00000E+00
         0.00000E+00
         0.00000E+00
         0.00000E+00
         0.00000E+00
         0.00000E+00
         0.00000E+00
         0.00000E+00
         0.00000E+00
         0.00000E+00
         0.00000E+00
         0.00000E+00
         0.00000E+00
         0.00000E+00
         0.00000E+00
         0.00000E+00
         0.00000E+00
         0.00000E+00
         0.00000E+00
         0.00000E+00
         0.00000E+00
         0.00000E+00
         0.00000E+00
         0.00000E+00
         0.00000E+00
         0.00000E+00
         0.00000E+00
         0.00000E+00
         0.00000E+00
         0.00000E+00
         0.00000E+00
         0.00000E+00
         0.00000E+00
         0.00000E+00
         0.00000E+00
         0.00000E+00
         0.00000E+00
         0.00000E+00
         0.00000E+00
         0.00000E+00
         0.00000E+00
         0.00000E+00
         0.00000E+00
         0.00000E+00
         0.00000E+00
         0.00000E+00
         0.00000E+00
         0.00000E+00
         0.00000E+00
         0.00000E+00
         0.00000E+00
         0.00000E+00
         0.00000E+00
         0.00000E+00
         0.00000E+00
         0.00000E+00
         0.00000E+00
         0.00000E+00
         0.00000E+00
         0.00000E+00
         0.00000E+00
         0.00000E+00
         0.00000E+00
         0.00000E+00
         0.00000E+00
         0.00000E+00
         0.00000E+00
         0.00000E+00
         0.00000E+00
         0.00000E+00
         0.00000E+00
         0.00000E+00
         0.00000E+00
         0.00000E+00
         0.00000E+00
         0.00000E+00
         0.00000E+00
         0.00000E+00
         0.00000E+00
         0.00000E+00
         0.00000E+00
         0.00000E+00
         0.00000E+00
         0.00000E+00
         0.00000E+00
         0.00000E+00
         0.00000E+00
         0.00000E+00
         0.00000E+00
         0.00000E+00
         0.00000E+00
         0.00000E+00
         0.00000E+00
         0.00000E+00
         0.00000E+00
         0.00000E+00
         0.00000E+00
         0.00000E+00
         0.00000E+00
         0.00000E+00
         0.00000E+00
         0.00000E+00
         0.00000E+00
         0.00000E+00
         0.00000E+00
         0.00000E+00
         0.00000E+00
         0.00000E+00
         0.00000E+00
         0.00000E+00
         0.00000E+00
         0.00000E+00
         0.00000E+00
         0.00000E+00
         0.00000E+00
         0.00000E+00
         0.00000E+00
         0.00000E+00
         0.00000E+00
         0.00000E+00
         0.00000E+00
         0.00000E+00
         0.00000E+00
         0.00000E+00
         0.00000E+00
         0.00000E+00
         0.00000E+00
         0.00000E+00
         0.00000E+00
         0.00000E+00
         0.00000E+00
         0.00000E+00
         0.00000E+00
         0.00000E+00
         0.00000E+00
         0.00000E+00
         0.00000E+00
         0.00000E+00
         0.00000E+00
         0.00000E+00
         0.00000E+00
         0.00000E+00
         0.00000E+00
         0.00000E+00
         0.00000E+00
         0.00000E+00
         0.00000E+00
         0.00000E+00
         0.00000E+00
         0.00000E+00
         0.00000E+00
         0.00000E+00
         0.00000E+00
         0.00000E+00
         0.00000E+00
         0.00000E+00
         0.00000E+00
         0.00000E+00
         0.00000E+00
         0.00000E+00
         0.00000E+00
         0.00000E+00
         0.00000E+00
         0.00000E+00
         0.00000E+00
         0.00000E+00
         0.00000E+00
         0.00000E+00
         0.00000E+00
         0.00000E+00
         0.00000E+00
         0.00000E+00
         0.00000E+00
         0.00000E+00
         0.00000E+00
         0.00000E+00
         0.00000E+00
         0.00000E+00
         0.00000E+00
         0.00000E+00
         0.00000E+00
         0.00000E+00
         0.00000E+00
         0.00000E+00
         0.00000E+00
         0.00000E+00
         0.00000E+00
         0.00000E+00
         0.00000E+00
         0.00000E+00
         0.00000E+00
         0.00000E+00
         0.00000E+00
         0.00000E+00
         0.00000E+00
         0.00000E+00
         0.00000E+00
         0.00000E+00
         0.00000E+00
         0.00000E+00
         0.00000E+00
         0.00000E+00
         0.00000E+00
         0.00000E+00
         0.00000E+00
         0.00000E+00
         0.00000E+00
         0.00000E+00
         0.00000E+00
         0.00000E+00
         0.00000E+00
         0.00000E+00
         0.00000E+00
         0.00000E+00
         0.00000E+00
         0.00000E+00
         0.00000E+00
         0.00000E+00
         0.00000E+00
         0.00000E+00
         0.00000E+00
         0.00000E+00
         0.00000E+00
         0.00000E+00
         0.00000E+00
         0.00000E+00
         0.00000E+00
         0.00000E+00
         0.00000E+00
         0.00000E+00
         0.00000E+00
         0.00000E+00
         0.00000E+00
         0.00000E+00
         0.00000E+00
         0.00000E+00
         0.00000E+00
         0.00000E+00
         0.00000E+00
         0.00000E+00
         0.00000E+00
         0.00000E+00
         0.00000E+00
         0.00000E+00
         0.00000E+00
         0.00000E+00
         0.00000E+00
         0.00000E+00
         0.00000E+00
         0.00000E+00
         0.00000E+00
         0.00000E+00
         0.00000E+00
         0.00000E+00
         0.00000E+00
         0.00000E+00
         0.00000E+00
         0.00000E+00
         0.00000E+00
         0.00000E+00
         0.00000E+00
         0.00000E+00
         0.00000E+00
         0.00000E+00
         0.00000E+00
         0.00000E+00
         0.00000E+00
         0.00000E+00
         0.00000E+00
         0.00000E+00
         0.00000E+00
         0.00000E+00
         0.00000E+00
         0.00000E+00
         0.00000E+00
         0.00000E+00
         0.00000E+00
         0.00000E+00
         0.00000E+00
         0.00000E+00
         0.00000E+00
         0.00000E+00
         0.00000E+00
         0.00000E+00
         0.00000E+00
         0.00000E+00
         0.00000E+00
         0.00000E+00
         0.00000E+00
         0.00000E+00
         0.00000E+00
         0.00000E+00
         0.00000E+00
         0.00000E+00
         0.00000E+00
         0.00000E+00
         0.00000E+00
         0.00000E+00
         0.00000E+00
         0.00000E+00
         0.00000E+00
         0.00000E+00
         0.00000E+00
         0.00000E+00
         0.00000E+00
         0.00000E+00
         0.00000E+00
         0.00000E+00
         0.00000E+00
         0.00000E+00
         0.00000E+00
         0.00000E+00
         0.00000E+00
         0.00000E+00
         0.00000E+00
         0.00000E+00
         0.00000E+00
         0.00000E+00
         0.00000E+00
         0.00000E+00
         0.00000E+00
         0.00000E+00
         0.00000E+00
         0.00000E+00
         0.00000E+00
         0.00000E+00
         0.00000E+00
         0.00000E+00
         0.00000E+00
         0.00000E+00
         0.00000E+00
         0.00000E+00
         0.00000E+00
         0.00000E+00
         0.00000E+00
         0.00000E+00
         0.00000E+00
         0.00000E+00
         0.00000E+00
         0.00000E+00
         0.00000E+00
         0.00000E+00
         0.00000E+00
         0.00000E+00
         0.00000E+00
         0.00000E+00
         0.00000E+00
         0.00000E+00
         0.00000E+00
         0.00000E+00
         0.00000E+00
         0.00000E+00
         0.00000E+00
         0.00000E+00
         0.00000E+00
         0.00000E+00
         0.00000E+00
         0.00000E+00
         0.00000E+00
         0.00000E+00
         0.00000E+00
         0.00000E+00
         0.00000E+00
         0.00000E+00
         0.00000E+00
         0.00000E+00
         0.00000E+00
         0.00000E+00
         0.00000E+00
         0.00000E+00
         0.00000E+00
         0.00000E+00
         0.00000E+00
         0.00000E+00
         0.00000E+00
         0.00000E+00
         0.00000E+00
         0.00000E+00
         0.00000E+00
         0.00000E+00
         0.00000E+00
         0.00000E+00
         0.00000E+00
         0.00000E+00
         0.00000E+00
         0.00000E+00
         0.00000E+00
         0.00000E+00
         0.00000E+00
         0.00000E+00
         0.00000E+00
         0.00000E+00
         0.00000E+00
         0.00000E+00
         0.00000E+00
         0.00000E+00
         0.00000E+00
         0.00000E+00
         0.00000E+00
         0.00000E+00
         0.00000E+00
         0.00000E+00
         0.00000E+00
         0.00000E+00
         0.00000E+00
         0.00000E+00
         0.00000E+00
         0.00000E+00
         0.00000E+00
         0.00000E+00
         0.00000E+00
         0.00000E+00
         0.00000E+00
         0.00000E+00
         0.00000E+00
         0.00000E+00
         0.00000E+00
         0.00000E+00
         0.00000E+00
         0.00000E+00
         0.00000E+00
         0.00000E+00
         0.00000E+00
         0.00000E+00
         0.00000E+00
         0.00000E+00
         0.00000E+00
         0.00000E+00
         0.00000E+00
         0.00000E+00
         0.00000E+00
         0.00000E+00
         0.00000E+00
         0.00000E+00
         0.00000E+00
         0.00000E+00
         0.00000E+00
         0.00000E+00
         0.00000E+00
         0.00000E+00
         0.00000E+00
         0.00000E+00
         0.00000E+00
         0.00000E+00
         0.00000E+00
         0.00000E+00
         0.00000E+00
         0.00000E+00
         0.00000E+00
         0.00000E+00
         0.00000E+00
         0.00000E+00
         0.00000E+00
         0.00000E+00
         0.00000E+00
         0.00000E+00
         0.00000E+00
         0.00000E+00
         0.00000E+00
         0.00000E+00
         0.00000E+00
         0.00000E+00
         0.00000E+00
         0.00000E+00
         0.00000E+00
         0.00000E+00
         0.00000E+00
         0.00000E+00
         0.00000E+00
         0.00000E+00
         0.00000E+00
         0.00000E+00
         0.00000E+00
         0.00000E+00
         0.00000E+00
         0.00000E+00
         0.00000E+00
         0.00000E+00
         0.00000E+00
         0.00000E+00
         0.00000E+00
         0.00000E+00
         0.00000E+00
         0.00000E+00
         0.00000E+00
         0.00000E+00
         0.00000E+00
         0.00000E+00
         0.00000E+00
         0.00000E+00
         0.00000E+00
         0.00000E+00
         0.00000E+00
         0.00000E+00
         0.00000E+00
         0.00000E+00
         0.00000E+00
         0.00000E+00
         0.00000E+00
         0.00000E+00
         0.00000E+00
         0.00000E+00
         0.00000E+00
         0.00000E+00
         0.00000E+00
         0.00000E+00
         0.00000E+00
         0.00000E+00
         0.00000E+00
         0.00000E+00
         0.00000E+00
         0.00000E+00
         0.00000E+00
         0.00000E+00
         0.00000E+00
         0.00000E+00
         0.00000E+00
         0.00000E+00
         0.00000E+00
         0.00000E+00
         0.00000E+00
         0.00000E+00
         0.00000E+00
         0.00000E+00
         0.00000E+00
         0.00000E+00
         0.00000E+00
         0.00000E+00
         0.00000E+00
         0.00000E+00
         0.00000E+00
         0.00000E+00
         0.00000E+00
         0.00000E+00
         0.00000E+00
         0.00000E+00
         0.00000E+00
         0.00000E+00
         0.00000E+00
         0.00000E+00
         0.00000E+00
         0.00000E+00
         0.00000E+00
         0.00000E+00
         0.00000E+00
         0.00000E+00
         0.00000E+00
         0.00000E+00
         0.00000E+00
         0.00000E+00
         0.00000E+00
         0.00000E+00
         0.00000E+00
         0.00000E+00
         0.00000E+00
         0.00000E+00
         0.00000E+00
         0.00000E+00
         0.00000E+00
         0.00000E+00
         0.00000E+00
         0.00000E+00
         0.00000E+00
         0.00000E+00
         0.00000E+00
         0.00000E+00
         0.00000E+00
         0.00000E+00
         0.00000E+00
         0.00000E+00
         0.00000E+00
         0.00000E+00
         0.00000E+00
         0.00000E+00
         0.00000E+00
         0.00000E+00
         0.00000E+00
         0.00000E+00
         0.00000E+00
         0.00000E+00
         0.00000E+00
         0.00000E+00
         0.00000E+00
         0.00000E+00
         0.00000E+00
         0.00000E+00
         0.00000E+00
         0.00000E+00
         0.00000E+00
         0.00000E+00
         0.00000E+00
         0.00000E+00
         0.00000E+00
         0.00000E+00
         0.00000E+00
         0.00000E+00
         0.00000E+00
         0.00000E+00
         0.00000E+00
         0.00000E+00
         0.00000E+00
         0.00000E+00
         0.00000E+00
         0.00000E+00
         0.00000E+00
         0.00000E+00
         0.00000E+00
         0.00000E+00
         0.00000E+00
         0.00000E+00
         0.00000E+00
         0.00000E+00
         0.00000E+00
         0.00000E+00
         0.00000E+00
         0.00000E+00
         0.00000E+00
         0.00000E+00
         0.00000E+00
         0.00000E+00
         0.00000E+00
         0.00000E+00
         0.00000E+00
         0.00000E+00
         0.00000E+00
         0.00000E+00
         0.00000E+00
         0.00000E+00
         0.00000E+00
         0.00000E+00
         0.00000E+00
         0.00000E+00
         0.00000E+00
         0.00000E+00
         0.00000E+00
         0.00000E+00
         0.00000E+00
         0.00000E+00
         0.00000E+00
         0.00000E+00
         0.00000E+00
         0.00000E+00
         0.00000E+00
         0.00000E+00
         0.00000E+00
         0.00000E+00
         0.00000E+00
         0.00000E+00
         0.00000E+00
         0.00000E+00
         0.00000E+00
         0.00000E+00
         0.00000E+00
         0.00000E+00
         0.00000E+00
         0.00000E+00
         0.00000E+00
         0.00000E+00
         0.00000E+00
         0.00000E+00
         0.00000E+00
         0.00000E+00
         0.00000E+00
         0.00000E+00
         0.00000E+00
         0.00000E+00
         0.00000E+00
         0.00000E+00
         0.00000E+00
         0.00000E+00
         0.00000E+00
         0.00000E+00
         0.00000E+00
         0.00000E+00
         0.00000E+00
         0.00000E+00
         0.00000E+00
         0.00000E+00
         0.00000E+00
         0.00000E+00
         0.00000E+00
         0.00000E+00
         0.00000E+00
         0.00000E+00
         0.00000E+00
         0.00000E+00
         0.00000E+00
         0.00000E+00
         0.00000E+00
         0.00000E+00
         0.00000E+00
         0.00000E+00
         0.00000E+00
         0.00000E+00
         0.00000E+00
         0.00000E+00
         0.00000E+00
         0.00000E+00
         0.00000E+00
         0.00000E+00
         0.00000E+00
         0.00000E+00
         0.00000E+00
         0.00000E+00
         0.00000E+00
         0.00000E+00
         0.00000E+00
         0.00000E+00
         0.00000E+00
         0.00000E+00
         0.00000E+00
         0.00000E+00
         0.00000E+00
         0.00000E+00
         0.00000E+00
         0.00000E+00
         0.00000E+00
         0.00000E+00
         0.00000E+00
         0.00000E+00
         0.00000E+00
         0.00000E+00
         0.00000E+00
         0.00000E+00
         0.00000E+00
         0.00000E+00
         0.00000E+00
         0.00000E+00
         0.00000E+00
         0.00000E+00
         0.00000E+00
         0.00000E+00
         0.00000E+00
         0.00000E+00
         0.00000E+00
         0.00000E+00
         0.00000E+00
         0.00000E+00
         0.00000E+00
         0.00000E+00
         0.00000E+00
         0.00000E+00
         0.00000E+00
         0.00000E+00
         0.00000E+00
         0.00000E+00
         0.00000E+00
         0.00000E+00
         0.00000E+00
         0.00000E+00
         0.00000E+00
         0.00000E+00
         0.00000E+00
         0.00000E+00
         0.00000E+00
         0.00000E+00
         0.00000E+00
         0.00000E+00
         0.00000E+00
         0.00000E+00
         0.00000E+00
         0.00000E+00
         0.00000E+00
         0.00000E+00
         0.00000E+00
         0.00000E+00
         0.00000E+00
         0.00000E+00
         0.00000E+00
         0.00000E+00
         0.00000E+00
         0.00000E+00
         0.00000E+00
         0.00000E+00
         0.00000E+00
         0.00000E+00
         0.00000E+00
         0.00000E+00
         0.00000E+00
         0.00000E+00
         0.00000E+00
         0.00000E+00
         0.00000E+00
         0.00000E+00
         0.00000E+00
         0.00000E+00
         0.00000E+00
         0.00000E+00
         0.00000E+00
         0.00000E+00
         0.00000E+00
         0.00000E+00
         0.00000E+00
         0.00000E+00
         0.00000E+00
         0.00000E+00
         0.00000E+00
         0.00000E+00
         0.00000E+00
         0.00000E+00
         0.00000E+00
         0.00000E+00
         0.00000E+00
         0.00000E+00
         0.00000E+00
         0.00000E+00
         0.00000E+00
         0.00000E+00
         0.00000E+00
         0.00000E+00
         0.00000E+00
         0.00000E+00
         0.00000E+00
         0.00000E+00
         0.00000E+00
         0.00000E+00
         0.00000E+00
         0.00000E+00
         0.00000E+00
         0.00000E+00
         0.00000E+00
         0.00000E+00
         0.00000E+00
         0.00000E+00
         0.00000E+00
         0.00000E+00
         0.00000E+00
         0.00000E+00
         0.00000E+00
         0.00000E+00
         0.00000E+00
         0.00000E+00
         0.00000E+00
         0.00000E+00
         0.00000E+00
         0.00000E+00
         0.00000E+00
         0.00000E+00
         0.00000E+00
         0.00000E+00
         0.00000E+00
         0.00000E+00
         0.00000E+00
         0.00000E+00
         0.00000E+00
         0.00000E+00
         0.00000E+00
         0.00000E+00
         0.00000E+00
         0.00000E+00
         0.00000E+00
         0.00000E+00
         0.00000E+00
         0.00000E+00
         0.00000E+00
         0.00000E+00
         0.00000E+00
         0.00000E+00
         0.00000E+00
         0.00000E+00
         0.00000E+00
         0.00000E+00
         0.00000E+00
         0.00000E+00
         0.00000E+00
         0.00000E+00
         0.00000E+00
         0.00000E+00
         0.00000E+00
         0.00000E+00
         0.00000E+00
         0.00000E+00
         0.00000E+00
         0.00000E+00
         0.00000E+00
         0.00000E+00
         0.00000E+00
         0.00000E+00
         0.00000E+00
         0.00000E+00
         0.00000E+00
         0.00000E+00
         0.00000E+00
         0.00000E+00
         0.00000E+00
         0.00000E+00
         0.00000E+00
         0.00000E+00
         0.00000E+00
         0.00000E+00
         0.00000E+00
         0.00000E+00
         0.00000E+00
         0.00000E+00
         0.00000E+00
         0.00000E+00
         0.00000E+00
         0.00000E+00
         0.00000E+00
         0.00000E+00
         0.00000E+00
         0.00000E+00
         0.00000E+00
         0.00000E+00
         0.00000E+00
         0.00000E+00
         0.00000E+00
         0.00000E+00
         0.00000E+00
         0.00000E+00
         0.00000E+00
         0.00000E+00
         0.00000E+00
         0.00000E+00
         0.00000E+00
         0.00000E+00
         0.00000E+00
         0.00000E+00
         0.00000E+00
         0.00000E+00
         0.00000E+00
         0.00000E+00
         0.00000E+00
         0.00000E+00
         0.00000E+00
         0.00000E+00
         0.00000E+00
         0.00000E+00
         0.00000E+00
         0.00000E+00
         0.00000E+00
         0.00000E+00
         0.00000E+00
         0.00000E+00
         0.00000E+00
         0.00000E+00
         0.00000E+00
         0.00000E+00
         0.00000E+00
         0.00000E+00
         0.00000E+00
         0.00000E+00
         0.00000E+00
         0.00000E+00
         0.00000E+00
         0.00000E+00
         0.00000E+00
         0.00000E+00
         0.00000E+00
         0.00000E+00
         0.00000E+00
         0.00000E+00
         0.00000E+00
         0.00000E+00
         0.00000E+00
         0.00000E+00
         0.00000E+00
         0.00000E+00
         0.00000E+00
         0.00000E+00
         0.00000E+00
         0.00000E+00
         0.00000E+00
         0.00000E+00
         0.00000E+00
         0.00000E+00
         0.00000E+00
         0.00000E+00
         0.00000E+00
         0.00000E+00
         0.00000E+00
         0.00000E+00
         0.00000E+00
         0.00000E+00
         0.00000E+00
         0.00000E+00
         0.00000E+00
         0.00000E+00
         0.00000E+00
         0.00000E+00
         0.00000E+00
         0.00000E+00
         0.00000E+00
         0.00000E+00
         0.00000E+00
         0.00000E+00
         0.00000E+00
         0.00000E+00
         0.00000E+00
         0.00000E+00
         0.00000E+00
         0.00000E+00
         0.00000E+00
         0.00000E+00
         0.00000E+00
         0.00000E+00
         0.00000E+00
         0.00000E+00
         0.00000E+00
         0.00000E+00
         0.00000E+00
         0.00000E+00
         0.00000E+00
         0.00000E+00
         0.00000E+00
         0.00000E+00
         0.00000E+00
         0.00000E+00
         0.00000E+00
         0.00000E+00
         0.00000E+00
         0.00000E+00
         0.00000E+00
         0.00000E+00
         0.00000E+00
         0.00000E+00
         0.00000E+00
         0.00000E+00
         0.00000E+00
         0.00000E+00
         0.00000E+00
         0.00000E+00
         0.00000E+00
         0.00000E+00
         0.00000E+00
         0.00000E+00
         0.00000E+00
         0.00000E+00
         0.00000E+00
         0.00000E+00
         0.00000E+00
         0.00000E+00
         0.00000E+00
         0.00000E+00
         0.00000E+00
         0.00000E+00
         0.00000E+00
         0.00000E+00
         0.00000E+00
         0.00000E+00
         0.00000E+00
         0.00000E+00
         0.00000E+00
         0.00000E+00
         0.00000E+00
         0.00000E+00
         0.00000E+00
         0.00000E+00
         0.00000E+00
         0.00000E+00
         0.00000E+00
         0.00000E+00
         0.00000E+00
         0.00000E+00
         0.00000E+00
         0.00000E+00
         0.00000E+00
         0.00000E+00
         0.00000E+00
         0.00000E+00
         0.00000E+00
         0.00000E+00
         0.00000E+00
         0.00000E+00
         0.00000E+00
         0.00000E+00
         0.00000E+00
         0.00000E+00
         0.00000E+00
         0.00000E+00
         0.00000E+00
         0.00000E+00
         0.00000E+00
         0.00000E+00
         0.00000E+00
         0.00000E+00
         0.00000E+00
         0.00000E+00
         0.00000E+00
         0.00000E+00
         0.00000E+00
         0.00000E+00
         0.00000E+00
         0.00000E+00
         0.00000E+00
         0.00000E+00
         0.00000E+00
         0.00000E+00
         0.00000E+00
         0.00000E+00
         0.00000E+00
         0.00000E+00
         0.00000E+00
         0.00000E+00
         0.00000E+00
         0.00000E+00
         0.00000E+00
         0.00000E+00
         0.00000E+00
         0.00000E+00
         0.00000E+00
         0.00000E+00
         0.00000E+00
         0.00000E+00
         0.00000E+00
         0.00000E+00
         0.00000E+00
         0.00000E+00
         0.00000E+00
         0.00000E+00
         0.00000E+00
         0.00000E+00
         0.00000E+00
         0.00000E+00
         0.00000E+00
         0.00000E+00
         0.00000E+00
         0.00000E+00
         0.00000E+00
         0.00000E+00
         0.00000E+00
         0.00000E+00
         0.00000E+00
         0.00000E+00
         0.00000E+00
         0.00000E+00
         0.00000E+00
         0.00000E+00
         0.00000E+00
         0.00000E+00
         0.00000E+00
         0.00000E+00
         0.00000E+00
         0.00000E+00
         0.00000E+00
         0.00000E+00
         0.00000E+00
         0.00000E+00
         0.00000E+00
         0.00000E+00
         0.00000E+00
         0.00000E+00
         0.00000E+00
         0.00000E+00
         0.00000E+00
         0.00000E+00
         0.00000E+00
         0.00000E+00
         0.00000E+00
         0.00000E+00
         0.00000E+00
         0.00000E+00
         0.00000E+00
         0.00000E+00
         0.00000E+00
         0.00000E+00
         0.00000E+00
         0.00000E+00
         0.00000E+00
         0.00000E+00
         0.00000E+00
         0.00000E+00
         0.00000E+00
         0.00000E+00
         0.00000E+00
         0.00000E+00
         0.00000E+00
         0.00000E+00
         0.00000E+00
         0.00000E+00
         0.00000E+00
         0.00000E+00
         0.00000E+00
         0.00000E+00
         0.00000E+00
         0.00000E+00
         0.00000E+00
         0.00000E+00
         0.00000E+00
         0.00000E+00
         0.00000E+00
         0.00000E+00
         0.00000E+00
         0.00000E+00
         0.00000E+00
         0.00000E+00
         0.00000E+00
         0.00000E+00
         0.00000E+00
         0.00000E+00
         0.00000E+00
         0.00000E+00
         0.00000E+00
         0.00000E+00
         0.00000E+00
         0.00000E+00
         0.00000E+00
         0.00000E+00
         0.00000E+00
         0.00000E+00
         0.00000E+00
         0.00000E+00
         0.00000E+00
         0.00000E+00
         0.00000E+00
         0.00000E+00
         0.00000E+00
         0.00000E+00
         0.00000E+00
         0.00000E+00
         0.00000E+00
         0.00000E+00
         0.00000E+00
         0.00000E+00
         0.00000E+00
         0.00000E+00
         0.00000E+00
         0.00000E+00
         0.00000E+00
         0.00000E+00
         0.00000E+00
         0.00000E+00
         0.00000E+00
         0.00000E+00
         0.00000E+00
         0.00000E+00
         0.00000E+00
         0.00000E+00
         0.00000E+00
         0.00000E+00
         0.00000E+00
         0.00000E+00
         0.00000E+00
         0.00000E+00
         0.00000E+00
         0.00000E+00
         0.00000E+00
         0.00000E+00
         0.00000E+00
         0.00000E+00
         0.00000E+00
         0.00000E+00
         0.00000E+00
         0.00000E+00
         0.00000E+00
         0.00000E+00
         0.00000E+00
         0.00000E+00
         0.00000E+00
         0.00000E+00
         0.00000E+00
         0.00000E+00
         0.00000E+00
         0.00000E+00
         0.00000E+00
         0.00000E+00
         0.00000E+00
         0.00000E+00
         0.00000E+00
         0.00000E+00
         0.00000E+00
         0.00000E+00
         0.00000E+00
         0.00000E+00
         0.00000E+00
         0.00000E+00
         0.00000E+00
         0.00000E+00
         0.00000E+00
         0.00000E+00
         0.00000E+00
         0.00000E+00
         0.00000E+00
         0.00000E+00
         0.00000E+00
         0.00000E+00
         0.00000E+00
         0.00000E+00
         0.00000E+00
         0.00000E+00
         0.00000E+00
         0.00000E+00
         0.00000E+00
         0.00000E+00
         0.00000E+00
         0.00000E+00
         0.00000E+00
         0.00000E+00
         0.00000E+00
         0.00000E+00
         0.00000E+00
         0.00000E+00
         0.00000E+00
         0.00000E+00
         0.00000E+00
         0.00000E+00
         0.00000E+00
         0.00000E+00
         0.00000E+00
         0.00000E+00
         0.00000E+00
         0.00000E+00
         0.00000E+00
         0.00000E+00
         0.00000E+00
         0.00000E+00
         0.00000E+00
         0.00000E+00
         0.00000E+00
         0.00000E+00
         0.00000E+00
         0.00000E+00
         0.00000E+00
         0.00000E+00
         0.00000E+00
         0.00000E+00
         0.00000E+00
         0.00000E+00
         0.00000E+00
         0.00000E+00
         0.00000E+00
         0.00000E+00
         0.00000E+00
         0.00000E+00
         0.00000E+00
         0.00000E+00
         0.00000E+00
         0.00000E+00
         0.00000E+00
         0.00000E+00
         0.00000E+00
         0.00000E+00
         0.00000E+00
         0.00000E+00
         0.00000E+00
         0.00000E+00
         0.00000E+00
         0.00000E+00
         0.00000E+00
         0.00000E+00
         0.00000E+00
         0.00000E+00
         0.00000E+00
         0.00000E+00
         0.00000E+00
         0.00000E+00
         0.00000E+00
         0.00000E+00
         0.00000E+00
         0.00000E+00
         0.00000E+00
         0.00000E+00
         0.00000E+00
         0.00000E+00
         0.00000E+00
         0.00000E+00
         0.00000E+00
         0.00000E+00
         0.00000E+00
         0.00000E+00
         0.00000E+00
         0.00000E+00
         0.00000E+00
         0.00000E+00
         0.00000E+00
         0.00000E+00
         0.00000E+00
         0.00000E+00
         0.00000E+00
         0.00000E+00
         0.00000E+00
         0.00000E+00
         0.00000E+00
         0.00000E+00
         0.00000E+00
         0.00000E+00
         0.00000E+00
         0.00000E+00
         0.00000E+00
         0.00000E+00
         0.00000E+00
         0.00000E+00
         0.00000E+00
         0.00000E+00
         0.00000E+00
         0.00000E+00
         0.00000E+00
         0.00000E+00
         0.00000E+00
         0.00000E+00
         0.00000E+00
         0.00000E+00
         0.00000E+00
         0.00000E+00
         0.00000E+00
         0.00000E+00
         0.00000E+00
         0.00000E+00
         0.00000E+00
         0.00000E+00
         0.00000E+00
         0.00000E+00
         0.00000E+00
         0.00000E+00
         0.00000E+00
         0.00000E+00
         0.00000E+00
         0.00000E+00
         0.00000E+00
         0.00000E+00
         0.00000E+00
         0.00000E+00
         0.00000E+00
         0.00000E+00
         0.00000E+00
         0.00000E+00
         0.00000E+00
         0.00000E+00
         0.00000E+00
         0.00000E+00
         0.00000E+00
         0.00000E+00
         0.00000E+00
         0.00000E+00
         0.00000E+00
         0.00000E+00
         0.00000E+00
         0.00000E+00
         0.00000E+00
         0.00000E+00
         0.00000E+00
         0.00000E+00
         0.00000E+00
         0.00000E+00
         0.00000E+00
         0.00000E+00
         0.00000E+00
         0.00000E+00
         0.00000E+00
         0.00000E+00
         0.00000E+00
         0.00000E+00
         0.00000E+00
         0.00000E+00
         0.00000E+00
         0.00000E+00
         0.00000E+00
         0.00000E+00
         0.00000E+00
         0.00000E+00
         0.00000E+00
         0.00000E+00
         0.00000E+00
         0.00000E+00
         0.00000E+00
         0.00000E+00
         0.00000E+00
         0.00000E+00
         0.00000E+00
         0.00000E+00
         0.00000E+00
         0.00000E+00
         0.00000E+00
         0.00000E+00
         0.00000E+00
         0.00000E+00
         0.00000E+00
         0.00000E+00
         0.00000E+00
         0.00000E+00
         0.00000E+00
         0.00000E+00
         0.00000E+00
         0.00000E+00
         0.00000E+00
         0.00000E+00
         0.00000E+00
         0.00000E+00
         0.00000E+00
         0.00000E+00
         0.00000E+00
         0.00000E+00
         0.00000E+00
         0.00000E+00
         0.00000E+00
         0.00000E+00
         0.00000E+00
         0.00000E+00
         0.00000E+00
         0.00000E+00
         0.00000E+00
         0.00000E+00
         0.00000E+00
         0.00000E+00
         0.00000E+00
         0.00000E+00
         0.00000E+00
         0.00000E+00
         0.00000E+00
         0.00000E+00
         0.00000E+00
         0.00000E+00
         0.00000E+00
         0.00000E+00
         0.00000E+00
         0.00000E+00
         0.00000E+00
         0.00000E+00
         0.00000E+00
         0.00000E+00
         0.00000E+00
         0.00000E+00
         0.00000E+00
         0.00000E+00
         0.00000E+00
         0.00000E+00
         0.00000E+00
         0.00000E+00
         0.00000E+00
         0.00000E+00
         0.00000E+00
         0.00000E+00
         0.00000E+00
         0.00000E+00
         0.00000E+00
         0.00000E+00
         0.00000E+00
         0.00000E+00
         0.00000E+00
         0.00000E+00
         0.00000E+00
         0.00000E+00
         0.00000E+00
         0.00000E+00
         0.00000E+00
         0.00000E+00
         0.00000E+00
         0.00000E+00
         0.00000E+00
         0.00000E+00
         0.00000E+00
         0.00000E+00
         0.00000E+00
         0.00000E+00
         0.00000E+00
         0.00000E+00
         0.00000E+00
         0.00000E+00
         0.00000E+00
         0.00000E+00
         0.00000E+00
         0.00000E+00
         0.00000E+00
         0.00000E+00
         0.00000E+00
         0.00000E+00
         0.00000E+00
         0.00000E+00
         0.00000E+00
         0.00000E+00
         0.00000E+00
         0.00000E+00
         0.00000E+00
         0.00000E+00
         0.00000E+00
         0.00000E+00
         0.00000E+00
         0.00000E+00
         0.00000E+00
         0.00000E+00
         0.00000E+00
         0.00000E+00
         0.00000E+00
         0.00000E+00
         0.00000E+00
         0.00000E+00
         0.00000E+00
         0.00000E+00
         0.00000E+00
         0.00000E+00
         0.00000E+00
         0.00000E+00
         0.00000E+00
         0.00000E+00
         0.00000E+00
         0.00000E+00
         0.00000E+00
         0.00000E+00
         0.00000E+00
         0.00000E+00
         0.00000E+00
         0.00000E+00
         0.00000E+00
         0.00000E+00
         0.00000E+00
         0.00000E+00
         0.00000E+00
         0.00000E+00
         0.00000E+00
         0.00000E+00
         0.00000E+00
         0.00000E+00
         0.00000E+00
         0.00000E+00
         0.00000E+00
         0.00000E+00
         0.00000E+00
         0.00000E+00
         0.00000E+00
         0.00000E+00
         0.00000E+00
         0.00000E+00
         0.00000E+00
         0.00000E+00
         0.00000E+00
         0.00000E+00
         0.00000E+00
         0.00000E+00
         0.00000E+00
         0.00000E+00
         0.00000E+00
         0.00000E+00
         0.00000E+00
         0.00000E+00
         0.00000E+00
         0.00000E+00
         0.00000E+00
         0.00000E+00
         0.00000E+00
         0.00000E+00
         0.00000E+00
         0.00000E+00
         0.00000E+00
         0.00000E+00
         0.00000E+00
         0.00000E+00
         0.00000E+00
         0.00000E+00
         0.00000E+00
         0.00000E+00
         0.00000E+00
         0.00000E+00
         0.00000E+00
         0.00000E+00
         0.00000E+00
         0.00000E+00
         0.00000E+00
         0.00000E+00
         0.00000E+00
         0.00000E+00
         0.00000E+00
         0.00000E+00
         0.00000E+00
         0.00000E+00
         0.00000E+00
         0.00000E+00
         0.00000E+00
         0.00000E+00
         0.00000E+00
         0.00000E+00
         0.00000E+00
         0.00000E+00
         0.00000E+00
         0.00000E+00
         0.00000E+00
         0.00000E+00
         0.00000E+00
         0.00000E+00
         0.00000E+00
         0.00000E+00
         0.00000E+00
         0.00000E+00
         0.00000E+00
         0.00000E+00
         0.00000E+00
         0.00000E+00
         0.00000E+00
         0.00000E+00
         0.00000E+00
         0.00000E+00
         0.00000E+00
         0.00000E+00
         0.00000E+00
         0.00000E+00
         0.00000E+00
         0.00000E+00
         0.00000E+00
         0.00000E+00
         0.00000E+00
         0.00000E+00
         0.00000E+00
         0.00000E+00
         0.00000E+00
         0.00000E+00
         0.00000E+00
         0.00000E+00
         0.00000E+00
         0.00000E+00
         0.00000E+00
         0.00000E+00
         0.00000E+00
         0.00000E+00
         0.00000E+00
         0.00000E+00
         0.00000E+00
         0.00000E+00
         0.00000E+00
         0.00000E+00
         0.00000E+00
         0.00000E+00
         0.00000E+00
         0.00000E+00
         0.00000E+00
         0.00000E+00
         0.00000E+00
         0.00000E+00
         0.00000E+00
         0.00000E+00
         0.00000E+00
         0.00000E+00
         0.00000E+00
         0.00000E+00
         0.00000E+00
         0.00000E+00
         0.00000E+00
         0.00000E+00
         0.00000E+00
         0.00000E+00
         0.00000E+00
         0.00000E+00
         0.00000E+00
         0.00000E+00
         0.00000E+00
         0.00000E+00
         0.00000E+00
         0.00000E+00
         0.00000E+00
         0.00000E+00
         0.00000E+00
         0.00000E+00
         0.00000E+00
         0.00000E+00
         0.00000E+00
         0.00000E+00
         0.00000E+00
         0.00000E+00
         0.00000E+00
         0.00000E+00
         0.00000E+00
         0.00000E+00
         0.00000E+00
         0.00000E+00
         0.00000E+00
         0.00000E+00
         0.00000E+00
         0.00000E+00
         0.00000E+00
         0.00000E+00
         0.00000E+00
         0.00000E+00
         0.00000E+00
         0.00000E+00
         0.00000E+00
         0.00000E+00
         0.00000E+00
         0.00000E+00
         0.00000E+00
         0.00000E+00
         0.00000E+00
         0.00000E+00
         0.00000E+00
         0.00000E+00
         0.00000E+00
         0.00000E+00
         0.00000E+00
         0.00000E+00
         0.00000E+00
         0.00000E+00
         0.00000E+00
         0.00000E+00
         0.00000E+00
         0.00000E+00
         0.00000E+00
         0.00000E+00
         0.00000E+00
         0.00000E+00
         0.00000E+00
         0.00000E+00
         0.00000E+00
         0.00000E+00
         0.00000E+00
         0.00000E+00
         0.00000E+00
         0.00000E+00
         0.00000E+00
  
SCALARS                        eps_vol  double 1
LOOKUP_TABLE default
         0.00000E+00
         0.00000E+00
         0.00000E+00
         0.00000E+00
         0.00000E+00
         0.00000E+00
         0.00000E+00
         0.00000E+00
         0.00000E+00
         0.00000E+00
         0.00000E+00
         0.00000E+00
         0.00000E+00
         0.00000E+00
         0.00000E+00
         0.00000E+00
         0.00000E+00
         0.00000E+00
         0.00000E+00
         0.00000E+00
         0.00000E+00
         0.00000E+00
         0.00000E+00
         0.00000E+00
         0.00000E+00
         0.00000E+00
         0.00000E+00
         0.00000E+00
         0.00000E+00
         0.00000E+00
         0.00000E+00
         0.00000E+00
         0.00000E+00
         0.00000E+00
         0.00000E+00
         0.00000E+00
         0.00000E+00
         0.00000E+00
         0.00000E+00
         0.00000E+00
         0.00000E+00
         0.00000E+00
         0.00000E+00
         0.00000E+00
         0.00000E+00
         0.00000E+00
         0.00000E+00
         0.00000E+00
         0.00000E+00
         0.00000E+00
         0.00000E+00
         0.00000E+00
         0.00000E+00
         0.00000E+00
         0.00000E+00
         0.00000E+00
         0.00000E+00
         0.00000E+00
         0.00000E+00
         0.00000E+00
         0.00000E+00
         0.00000E+00
         0.00000E+00
         0.00000E+00
         0.00000E+00
         0.00000E+00
         0.00000E+00
         0.00000E+00
         0.00000E+00
         0.00000E+00
         0.00000E+00
         0.00000E+00
         0.00000E+00
         0.00000E+00
         0.00000E+00
         0.00000E+00
         0.00000E+00
         0.00000E+00
         0.00000E+00
         0.00000E+00
         0.00000E+00
         0.00000E+00
         0.00000E+00
         0.00000E+00
         0.00000E+00
         0.00000E+00
         0.00000E+00
         0.00000E+00
         0.00000E+00
         0.00000E+00
         0.00000E+00
         0.00000E+00
         0.00000E+00
         0.00000E+00
         0.00000E+00
         0.00000E+00
         0.00000E+00
         0.00000E+00
         0.00000E+00
         0.00000E+00
         0.00000E+00
         0.00000E+00
         0.00000E+00
         0.00000E+00
         0.00000E+00
         0.00000E+00
         0.00000E+00
         0.00000E+00
         0.00000E+00
         0.00000E+00
         0.00000E+00
         0.00000E+00
         0.00000E+00
         0.00000E+00
         0.00000E+00
         0.00000E+00
         0.00000E+00
         0.00000E+00
         0.00000E+00
         0.00000E+00
         0.00000E+00
         0.00000E+00
         0.00000E+00
         0.00000E+00
         0.00000E+00
         0.00000E+00
         0.00000E+00
         0.00000E+00
         0.00000E+00
         0.00000E+00
         0.00000E+00
         0.00000E+00
         0.00000E+00
         0.00000E+00
         0.00000E+00
         0.00000E+00
         0.00000E+00
         0.00000E+00
         0.00000E+00
         0.00000E+00
         0.00000E+00
         0.00000E+00
         0.00000E+00
         0.00000E+00
         0.00000E+00
         0.00000E+00
         0.00000E+00
         0.00000E+00
         0.00000E+00
         0.00000E+00
         0.00000E+00
         0.00000E+00
         0.00000E+00
         0.00000E+00
         0.00000E+00
         0.00000E+00
         0.00000E+00
         0.00000E+00
         0.00000E+00
         0.00000E+00
         0.00000E+00
         0.00000E+00
         0.00000E+00
         0.00000E+00
         0.00000E+00
         0.00000E+00
         0.00000E+00
         0.00000E+00
         0.00000E+00
         0.00000E+00
         0.00000E+00
         0.00000E+00
         0.00000E+00
         0.00000E+00
         0.00000E+00
         0.00000E+00
         0.00000E+00
         0.00000E+00
         0.00000E+00
         0.00000E+00
         0.00000E+00
         0.00000E+00
         0.00000E+00
         0.00000E+00
         0.00000E+00
         0.00000E+00
         0.00000E+00
         0.00000E+00
         0.00000E+00
         0.00000E+00
         0.00000E+00
         0.00000E+00
         0.00000E+00
         0.00000E+00
         0.00000E+00
         0.00000E+00
         0.00000E+00
         0.00000E+00
         0.00000E+00
         0.00000E+00
         0.00000E+00
         0.00000E+00
         0.00000E+00
         0.00000E+00
         0.00000E+00
         0.00000E+00
         0.00000E+00
         0.00000E+00
         0.00000E+00
         0.00000E+00
         0.00000E+00
         0.00000E+00
         0.00000E+00
         0.00000E+00
         0.00000E+00
         0.00000E+00
         0.00000E+00
         0.00000E+00
         0.00000E+00
         0.00000E+00
         0.00000E+00
         0.00000E+00
         0.00000E+00
         0.00000E+00
         0.00000E+00
         0.00000E+00
         0.00000E+00
         0.00000E+00
         0.00000E+00
         0.00000E+00
         0.00000E+00
         0.00000E+00
         0.00000E+00
         0.00000E+00
         0.00000E+00
         0.00000E+00
         0.00000E+00
         0.00000E+00
         0.00000E+00
         0.00000E+00
         0.00000E+00
         0.00000E+00
         0.00000E+00
         0.00000E+00
         0.00000E+00
         0.00000E+00
         0.00000E+00
         0.00000E+00
         0.00000E+00
         0.00000E+00
         0.00000E+00
         0.00000E+00
         0.00000E+00
         0.00000E+00
         0.00000E+00
         0.00000E+00
         0.00000E+00
         0.00000E+00
         0.00000E+00
         0.00000E+00
         0.00000E+00
         0.00000E+00
         0.00000E+00
         0.00000E+00
         0.00000E+00
         0.00000E+00
         0.00000E+00
         0.00000E+00
         0.00000E+00
         0.00000E+00
         0.00000E+00
         0.00000E+00
         0.00000E+00
         0.00000E+00
         0.00000E+00
         0.00000E+00
         0.00000E+00
         0.00000E+00
         0.00000E+00
         0.00000E+00
         0.00000E+00
         0.00000E+00
         0.00000E+00
         0.00000E+00
         0.00000E+00
         0.00000E+00
         0.00000E+00
         0.00000E+00
         0.00000E+00
         0.00000E+00
         0.00000E+00
         0.00000E+00
         0.00000E+00
         0.00000E+00
         0.00000E+00
         0.00000E+00
         0.00000E+00
         0.00000E+00
         0.00000E+00
         0.00000E+00
         0.00000E+00
         0.00000E+00
         0.00000E+00
         0.00000E+00
         0.00000E+00
         0.00000E+00
         0.00000E+00
         0.00000E+00
         0.00000E+00
         0.00000E+00
         0.00000E+00
         0.00000E+00
         0.00000E+00
         0.00000E+00
         0.00000E+00
         0.00000E+00
         0.00000E+00
         0.00000E+00
         0.00000E+00
         0.00000E+00
         0.00000E+00
         0.00000E+00
         0.00000E+00
         0.00000E+00
         0.00000E+00
         0.00000E+00
         0.00000E+00
         0.00000E+00
         0.00000E+00
         0.00000E+00
         0.00000E+00
         0.00000E+00
         0.00000E+00
         0.00000E+00
         0.00000E+00
         0.00000E+00
         0.00000E+00
         0.00000E+00
         0.00000E+00
         0.00000E+00
         0.00000E+00
         0.00000E+00
         0.00000E+00
         0.00000E+00
         0.00000E+00
         0.00000E+00
         0.00000E+00
         0.00000E+00
         0.00000E+00
         0.00000E+00
         0.00000E+00
         0.00000E+00
         0.00000E+00
         0.00000E+00
         0.00000E+00
         0.00000E+00
         0.00000E+00
         0.00000E+00
         0.00000E+00
         0.00000E+00
         0.00000E+00
         0.00000E+00
         0.00000E+00
         0.00000E+00
         0.00000E+00
         0.00000E+00
         0.00000E+00
         0.00000E+00
         0.00000E+00
         0.00000E+00
         0.00000E+00
         0.00000E+00
         0.00000E+00
         0.00000E+00
         0.00000E+00
         0.00000E+00
         0.00000E+00
         0.00000E+00
         0.00000E+00
         0.00000E+00
         0.00000E+00
         0.00000E+00
         0.00000E+00
         0.00000E+00
         0.00000E+00
         0.00000E+00
         0.00000E+00
         0.00000E+00
         0.00000E+00
         0.00000E+00
         0.00000E+00
         0.00000E+00
         0.00000E+00
         0.00000E+00
         0.00000E+00
         0.00000E+00
         0.00000E+00
         0.00000E+00
         0.00000E+00
         0.00000E+00
         0.00000E+00
         0.00000E+00
         0.00000E+00
         0.00000E+00
         0.00000E+00
         0.00000E+00
         0.00000E+00
         0.00000E+00
         0.00000E+00
         0.00000E+00
         0.00000E+00
         0.00000E+00
         0.00000E+00
         0.00000E+00
         0.00000E+00
         0.00000E+00
         0.00000E+00
         0.00000E+00
         0.00000E+00
         0.00000E+00
         0.00000E+00
         0.00000E+00
         0.00000E+00
         0.00000E+00
         0.00000E+00
         0.00000E+00
         0.00000E+00
         0.00000E+00
         0.00000E+00
         0.00000E+00
         0.00000E+00
         0.00000E+00
         0.00000E+00
         0.00000E+00
         0.00000E+00
         0.00000E+00
         0.00000E+00
         0.00000E+00
         0.00000E+00
         0.00000E+00
         0.00000E+00
         0.00000E+00
         0.00000E+00
         0.00000E+00
         0.00000E+00
         0.00000E+00
         0.00000E+00
         0.00000E+00
         0.00000E+00
         0.00000E+00
         0.00000E+00
         0.00000E+00
         0.00000E+00
         0.00000E+00
         0.00000E+00
         0.00000E+00
         0.00000E+00
         0.00000E+00
         0.00000E+00
         0.00000E+00
         0.00000E+00
         0.00000E+00
         0.00000E+00
         0.00000E+00
         0.00000E+00
         0.00000E+00
         0.00000E+00
         0.00000E+00
         0.00000E+00
         0.00000E+00
         0.00000E+00
         0.00000E+00
         0.00000E+00
         0.00000E+00
         0.00000E+00
         0.00000E+00
         0.00000E+00
         0.00000E+00
         0.00000E+00
         0.00000E+00
         0.00000E+00
         0.00000E+00
         0.00000E+00
         0.00000E+00
         0.00000E+00
         0.00000E+00
         0.00000E+00
         0.00000E+00
         0.00000E+00
         0.00000E+00
         0.00000E+00
         0.00000E+00
         0.00000E+00
         0.00000E+00
         0.00000E+00
         0.00000E+00
         0.00000E+00
         0.00000E+00
         0.00000E+00
         0.00000E+00
         0.00000E+00
         0.00000E+00
         0.00000E+00
         0.00000E+00
         0.00000E+00
         0.00000E+00
         0.00000E+00
         0.00000E+00
         0.00000E+00
         0.00000E+00
         0.00000E+00
         0.00000E+00
         0.00000E+00
         0.00000E+00
         0.00000E+00
         0.00000E+00
         0.00000E+00
         0.00000E+00
         0.00000E+00
         0.00000E+00
         0.00000E+00
         0.00000E+00
         0.00000E+00
         0.00000E+00
         0.00000E+00
         0.00000E+00
         0.00000E+00
         0.00000E+00
         0.00000E+00
         0.00000E+00
         0.00000E+00
         0.00000E+00
         0.00000E+00
         0.00000E+00
         0.00000E+00
         0.00000E+00
         0.00000E+00
         0.00000E+00
         0.00000E+00
         0.00000E+00
         0.00000E+00
         0.00000E+00
         0.00000E+00
         0.00000E+00
         0.00000E+00
         0.00000E+00
         0.00000E+00
         0.00000E+00
         0.00000E+00
         0.00000E+00
         0.00000E+00
         0.00000E+00
         0.00000E+00
         0.00000E+00
         0.00000E+00
         0.00000E+00
         0.00000E+00
         0.00000E+00
         0.00000E+00
         0.00000E+00
         0.00000E+00
         0.00000E+00
         0.00000E+00
         0.00000E+00
         0.00000E+00
         0.00000E+00
         0.00000E+00
         0.00000E+00
         0.00000E+00
         0.00000E+00
         0.00000E+00
         0.00000E+00
         0.00000E+00
         0.00000E+00
         0.00000E+00
         0.00000E+00
         0.00000E+00
         0.00000E+00
         0.00000E+00
         0.00000E+00
         0.00000E+00
         0.00000E+00
         0.00000E+00
         0.00000E+00
         0.00000E+00
         0.00000E+00
         0.00000E+00
         0.00000E+00
         0.00000E+00
         0.00000E+00
         0.00000E+00
         0.00000E+00
         0.00000E+00
         0.00000E+00
         0.00000E+00
         0.00000E+00
         0.00000E+00
         0.00000E+00
         0.00000E+00
         0.00000E+00
         0.00000E+00
         0.00000E+00
         0.00000E+00
         0.00000E+00
         0.00000E+00
         0.00000E+00
         0.00000E+00
         0.00000E+00
         0.00000E+00
         0.00000E+00
         0.00000E+00
         0.00000E+00
         0.00000E+00
         0.00000E+00
         0.00000E+00
         0.00000E+00
         0.00000E+00
         0.00000E+00
         0.00000E+00
         0.00000E+00
         0.00000E+00
         0.00000E+00
         0.00000E+00
         0.00000E+00
         0.00000E+00
         0.00000E+00
         0.00000E+00
         0.00000E+00
         0.00000E+00
         0.00000E+00
         0.00000E+00
         0.00000E+00
         0.00000E+00
         0.00000E+00
         0.00000E+00
         0.00000E+00
         0.00000E+00
         0.00000E+00
         0.00000E+00
         0.00000E+00
         0.00000E+00
         0.00000E+00
         0.00000E+00
         0.00000E+00
         0.00000E+00
         0.00000E+00
         0.00000E+00
         0.00000E+00
         0.00000E+00
         0.00000E+00
         0.00000E+00
         0.00000E+00
         0.00000E+00
         0.00000E+00
         0.00000E+00
         0.00000E+00
         0.00000E+00
         0.00000E+00
         0.00000E+00
         0.00000E+00
         0.00000E+00
         0.00000E+00
         0.00000E+00
         0.00000E+00
         0.00000E+00
         0.00000E+00
         0.00000E+00
         0.00000E+00
         0.00000E+00
         0.00000E+00
         0.00000E+00
         0.00000E+00
         0.00000E+00
         0.00000E+00
         0.00000E+00
         0.00000E+00
         0.00000E+00
         0.00000E+00
         0.00000E+00
         0.00000E+00
         0.00000E+00
         0.00000E+00
         0.00000E+00
         0.00000E+00
         0.00000E+00
         0.00000E+00
         0.00000E+00
         0.00000E+00
         0.00000E+00
         0.00000E+00
         0.00000E+00
         0.00000E+00
         0.00000E+00
         0.00000E+00
         0.00000E+00
         0.00000E+00
         0.00000E+00
         0.00000E+00
         0.00000E+00
         0.00000E+00
         0.00000E+00
         0.00000E+00
         0.00000E+00
         0.00000E+00
         0.00000E+00
         0.00000E+00
         0.00000E+00
         0.00000E+00
         0.00000E+00
         0.00000E+00
         0.00000E+00
         0.00000E+00
         0.00000E+00
         0.00000E+00
         0.00000E+00
         0.00000E+00
         0.00000E+00
         0.00000E+00
         0.00000E+00
         0.00000E+00
         0.00000E+00
         0.00000E+00
         0.00000E+00
         0.00000E+00
         0.00000E+00
         0.00000E+00
         0.00000E+00
         0.00000E+00
         0.00000E+00
         0.00000E+00
         0.00000E+00
         0.00000E+00
         0.00000E+00
         0.00000E+00
         0.00000E+00
         0.00000E+00
         0.00000E+00
         0.00000E+00
         0.00000E+00
         0.00000E+00
         0.00000E+00
         0.00000E+00
         0.00000E+00
         0.00000E+00
         0.00000E+00
         0.00000E+00
         0.00000E+00
         0.00000E+00
         0.00000E+00
         0.00000E+00
         0.00000E+00
         0.00000E+00
         0.00000E+00
         0.00000E+00
         0.00000E+00
         0.00000E+00
         0.00000E+00
         0.00000E+00
         0.00000E+00
         0.00000E+00
         0.00000E+00
         0.00000E+00
         0.00000E+00
         0.00000E+00
         0.00000E+00
         0.00000E+00
         0.00000E+00
         0.00000E+00
         0.00000E+00
         0.00000E+00
         0.00000E+00
         0.00000E+00
         0.00000E+00
         0.00000E+00
         0.00000E+00
         0.00000E+00
         0.00000E+00
         0.00000E+00
         0.00000E+00
         0.00000E+00
         0.00000E+00
         0.00000E+00
         0.00000E+00
         0.00000E+00
         0.00000E+00
         0.00000E+00
         0.00000E+00
         0.00000E+00
         0.00000E+00
         0.00000E+00
         0.00000E+00
         0.00000E+00
         0.00000E+00
         0.00000E+00
         0.00000E+00
         0.00000E+00
         0.00000E+00
         0.00000E+00
         0.00000E+00
         0.00000E+00
         0.00000E+00
         0.00000E+00
         0.00000E+00
         0.00000E+00
         0.00000E+00
         0.00000E+00
         0.00000E+00
         0.00000E+00
         0.00000E+00
         0.00000E+00
         0.00000E+00
         0.00000E+00
         0.00000E+00
         0.00000E+00
         0.00000E+00
         0.00000E+00
         0.00000E+00
         0.00000E+00
         0.00000E+00
         0.00000E+00
         0.00000E+00
         0.00000E+00
         0.00000E+00
         0.00000E+00
         0.00000E+00
         0.00000E+00
         0.00000E+00
         0.00000E+00
         0.00000E+00
         0.00000E+00
         0.00000E+00
         0.00000E+00
         0.00000E+00
         0.00000E+00
         0.00000E+00
         0.00000E+00
         0.00000E+00
         0.00000E+00
         0.00000E+00
         0.00000E+00
         0.00000E+00
         0.00000E+00
         0.00000E+00
         0.00000E+00
         0.00000E+00
         0.00000E+00
         0.00000E+00
         0.00000E+00
         0.00000E+00
         0.00000E+00
         0.00000E+00
         0.00000E+00
         0.00000E+00
         0.00000E+00
         0.00000E+00
         0.00000E+00
         0.00000E+00
         0.00000E+00
         0.00000E+00
         0.00000E+00
         0.00000E+00
         0.00000E+00
         0.00000E+00
         0.00000E+00
         0.00000E+00
         0.00000E+00
         0.00000E+00
         0.00000E+00
         0.00000E+00
         0.00000E+00
         0.00000E+00
         0.00000E+00
         0.00000E+00
         0.00000E+00
         0.00000E+00
         0.00000E+00
         0.00000E+00
         0.00000E+00
         0.00000E+00
         0.00000E+00
         0.00000E+00
         0.00000E+00
         0.00000E+00
         0.00000E+00
         0.00000E+00
         0.00000E+00
         0.00000E+00
         0.00000E+00
         0.00000E+00
         0.00000E+00
         0.00000E+00
         0.00000E+00
         0.00000E+00
         0.00000E+00
         0.00000E+00
         0.00000E+00
         0.00000E+00
         0.00000E+00
         0.00000E+00
         0.00000E+00
         0.00000E+00
         0.00000E+00
         0.00000E+00
         0.00000E+00
         0.00000E+00
         0.00000E+00
         0.00000E+00
         0.00000E+00
         0.00000E+00
         0.00000E+00
         0.00000E+00
         0.00000E+00
         0.00000E+00
         0.00000E+00
         0.00000E+00
         0.00000E+00
         0.00000E+00
         0.00000E+00
         0.00000E+00
         0.00000E+00
         0.00000E+00
         0.00000E+00
         0.00000E+00
         0.00000E+00
         0.00000E+00
         0.00000E+00
         0.00000E+00
         0.00000E+00
         0.00000E+00
         0.00000E+00
         0.00000E+00
         0.00000E+00
         0.00000E+00
         0.00000E+00
         0.00000E+00
         0.00000E+00
         0.00000E+00
         0.00000E+00
         0.00000E+00
         0.00000E+00
         0.00000E+00
         0.00000E+00
         0.00000E+00
         0.00000E+00
         0.00000E+00
         0.00000E+00
         0.00000E+00
         0.00000E+00
         0.00000E+00
         0.00000E+00
         0.00000E+00
         0.00000E+00
         0.00000E+00
         0.00000E+00
         0.00000E+00
         0.00000E+00
         0.00000E+00
         0.00000E+00
         0.00000E+00
         0.00000E+00
         0.00000E+00
         0.00000E+00
         0.00000E+00
         0.00000E+00
         0.00000E+00
         0.00000E+00
         0.00000E+00
         0.00000E+00
         0.00000E+00
         0.00000E+00
         0.00000E+00
         0.00000E+00
         0.00000E+00
         0.00000E+00
         0.00000E+00
         0.00000E+00
         0.00000E+00
         0.00000E+00
         0.00000E+00
         0.00000E+00
         0.00000E+00
         0.00000E+00
         0.00000E+00
         0.00000E+00
         0.00000E+00
         0.00000E+00
         0.00000E+00
         0.00000E+00
         0.00000E+00
         0.00000E+00
         0.00000E+00
         0.00000E+00
         0.00000E+00
         0.00000E+00
         0.00000E+00
         0.00000E+00
         0.00000E+00
         0.00000E+00
         0.00000E+00
         0.00000E+00
         0.00000E+00
         0.00000E+00
         0.00000E+00
         0.00000E+00
         0.00000E+00
         0.00000E+00
         0.00000E+00
         0.00000E+00
         0.00000E+00
         0.00000E+00
         0.00000E+00
         0.00000E+00
         0.00000E+00
         0.00000E+00
         0.00000E+00
         0.00000E+00
         0.00000E+00
         0.00000E+00
         0.00000E+00
         0.00000E+00
         0.00000E+00
         0.00000E+00
         0.00000E+00
         0.00000E+00
         0.00000E+00
         0.00000E+00
         0.00000E+00
         0.00000E+00
         0.00000E+00
         0.00000E+00
         0.00000E+00
         0.00000E+00
         0.00000E+00
         0.00000E+00
         0.00000E+00
         0.00000E+00
         0.00000E+00
         0.00000E+00
         0.00000E+00
         0.00000E+00
         0.00000E+00
         0.00000E+00
         0.00000E+00
         0.00000E+00
         0.00000E+00
         0.00000E+00
         0.00000E+00
         0.00000E+00
         0.00000E+00
         0.00000E+00
         0.00000E+00
         0.00000E+00
         0.00000E+00
         0.00000E+00
         0.00000E+00
         0.00000E+00
         0.00000E+00
         0.00000E+00
         0.00000E+00
         0.00000E+00
         0.00000E+00
         0.00000E+00
         0.00000E+00
         0.00000E+00
         0.00000E+00
         0.00000E+00
         0.00000E+00
         0.00000E+00
         0.00000E+00
         0.00000E+00
         0.00000E+00
         0.00000E+00
         0.00000E+00
         0.00000E+00
         0.00000E+00
         0.00000E+00
         0.00000E+00
         0.00000E+00
         0.00000E+00
         0.00000E+00
         0.00000E+00
         0.00000E+00
         0.00000E+00
         0.00000E+00
         0.00000E+00
         0.00000E+00
         0.00000E+00
         0.00000E+00
         0.00000E+00
         0.00000E+00
         0.00000E+00
         0.00000E+00
         0.00000E+00
         0.00000E+00
         0.00000E+00
         0.00000E+00
         0.00000E+00
         0.00000E+00
         0.00000E+00
         0.00000E+00
         0.00000E+00
         0.00000E+00
         0.00000E+00
         0.00000E+00
         0.00000E+00
         0.00000E+00
         0.00000E+00
         0.00000E+00
         0.00000E+00
         0.00000E+00
         0.00000E+00
         0.00000E+00
         0.00000E+00
         0.00000E+00
         0.00000E+00
         0.00000E+00
         0.00000E+00
         0.00000E+00
         0.00000E+00
         0.00000E+00
         0.00000E+00
         0.00000E+00
         0.00000E+00
         0.00000E+00
         0.00000E+00
         0.00000E+00
         0.00000E+00
         0.00000E+00
         0.00000E+00
         0.00000E+00
         0.00000E+00
         0.00000E+00
         0.00000E+00
         0.00000E+00
         0.00000E+00
         0.00000E+00
         0.00000E+00
         0.00000E+00
         0.00000E+00
         0.00000E+00
         0.00000E+00
         0.00000E+00
         0.00000E+00
         0.00000E+00
         0.00000E+00
         0.00000E+00
         0.00000E+00
         0.00000E+00
         0.00000E+00
         0.00000E+00
         0.00000E+00
         0.00000E+00
         0.00000E+00
         0.00000E+00
         0.00000E+00
         0.00000E+00
         0.00000E+00
         0.00000E+00
         0.00000E+00
         0.00000E+00
         0.00000E+00
         0.00000E+00
         0.00000E+00
         0.00000E+00
         0.00000E+00
         0.00000E+00
         0.00000E+00
         0.00000E+00
         0.00000E+00
         0.00000E+00
         0.00000E+00
         0.00000E+00
         0.00000E+00
         0.00000E+00
         0.00000E+00
         0.00000E+00
         0.00000E+00
         0.00000E+00
         0.00000E+00
         0.00000E+00
         0.00000E+00
         0.00000E+00
         0.00000E+00
         0.00000E+00
         0.00000E+00
         0.00000E+00
         0.00000E+00
         0.00000E+00
         0.00000E+00
         0.00000E+00
         0.00000E+00
         0.00000E+00
         0.00000E+00
         0.00000E+00
         0.00000E+00
         0.00000E+00
         0.00000E+00
         0.00000E+00
         0.00000E+00
         0.00000E+00
         0.00000E+00
         0.00000E+00
         0.00000E+00
         0.00000E+00
         0.00000E+00
         0.00000E+00
         0.00000E+00
         0.00000E+00
         0.00000E+00
         0.00000E+00
         0.00000E+00
         0.00000E+00
         0.00000E+00
         0.00000E+00
         0.00000E+00
         0.00000E+00
         0.00000E+00
         0.00000E+00
         0.00000E+00
         0.00000E+00
         0.00000E+00
         0.00000E+00
         0.00000E+00
         0.00000E+00
         0.00000E+00
         0.00000E+00
         0.00000E+00
         0.00000E+00
         0.00000E+00
         0.00000E+00
         0.00000E+00
         0.00000E+00
         0.00000E+00
         0.00000E+00
         0.00000E+00
         0.00000E+00
         0.00000E+00
         0.00000E+00
         0.00000E+00
         0.00000E+00
         0.00000E+00
         0.00000E+00
         0.00000E+00
         0.00000E+00
         0.00000E+00
         0.00000E+00
         0.00000E+00
         0.00000E+00
         0.00000E+00
         0.00000E+00
         0.00000E+00
         0.00000E+00
         0.00000E+00
         0.00000E+00
         0.00000E+00
         0.00000E+00
         0.00000E+00
         0.00000E+00
         0.00000E+00
         0.00000E+00
         0.00000E+00
         0.00000E+00
         0.00000E+00
         0.00000E+00
         0.00000E+00
         0.00000E+00
         0.00000E+00
         0.00000E+00
         0.00000E+00
         0.00000E+00
         0.00000E+00
         0.00000E+00
         0.00000E+00
         0.00000E+00
         0.00000E+00
         0.00000E+00
         0.00000E+00
         0.00000E+00
         0.00000E+00
         0.00000E+00
         0.00000E+00
         0.00000E+00
         0.00000E+00
         0.00000E+00
         0.00000E+00
         0.00000E+00
         0.00000E+00
         0.00000E+00
         0.00000E+00
         0.00000E+00
         0.00000E+00
         0.00000E+00
         0.00000E+00
         0.00000E+00
         0.00000E+00
         0.00000E+00
         0.00000E+00
         0.00000E+00
         0.00000E+00
         0.00000E+00
         0.00000E+00
         0.00000E+00
         0.00000E+00
         0.00000E+00
         0.00000E+00
         0.00000E+00
         0.00000E+00
         0.00000E+00
         0.00000E+00
         0.00000E+00
         0.00000E+00
         0.00000E+00
         0.00000E+00
         0.00000E+00
         0.00000E+00
         0.00000E+00
         0.00000E+00
         0.00000E+00
         0.00000E+00
         0.00000E+00
         0.00000E+00
         0.00000E+00
         0.00000E+00
         0.00000E+00
         0.00000E+00
         0.00000E+00
         0.00000E+00
         0.00000E+00
         0.00000E+00
         0.00000E+00
         0.00000E+00
         0.00000E+00
         0.00000E+00
         0.00000E+00
         0.00000E+00
         0.00000E+00
         0.00000E+00
         0.00000E+00
         0.00000E+00
         0.00000E+00
         0.00000E+00
         0.00000E+00
         0.00000E+00
         0.00000E+00
         0.00000E+00
         0.00000E+00
         0.00000E+00
         0.00000E+00
         0.00000E+00
         0.00000E+00
         0.00000E+00
         0.00000E+00
         0.00000E+00
         0.00000E+00
         0.00000E+00
         0.00000E+00
         0.00000E+00
         0.00000E+00
         0.00000E+00
         0.00000E+00
         0.00000E+00
         0.00000E+00
         0.00000E+00
         0.00000E+00
         0.00000E+00
         0.00000E+00
         0.00000E+00
         0.00000E+00
         0.00000E+00
         0.00000E+00
         0.00000E+00
         0.00000E+00
         0.00000E+00
         0.00000E+00
         0.00000E+00
         0.00000E+00
         0.00000E+00
         0.00000E+00
         0.00000E+00
         0.00000E+00
         0.00000E+00
         0.00000E+00
         0.00000E+00
         0.00000E+00
         0.00000E+00
         0.00000E+00
         0.00000E+00
         0.00000E+00
         0.00000E+00
         0.00000E+00
         0.00000E+00
         0.00000E+00
         0.00000E+00
         0.00000E+00
         0.00000E+00
         0.00000E+00
         0.00000E+00
         0.00000E+00
         0.00000E+00
         0.00000E+00
         0.00000E+00
         0.00000E+00
         0.00000E+00
         0.00000E+00
         0.00000E+00
         0.00000E+00
         0.00000E+00
         0.00000E+00
         0.00000E+00
         0.00000E+00
         0.00000E+00
         0.00000E+00
         0.00000E+00
         0.00000E+00
         0.00000E+00
         0.00000E+00
         0.00000E+00
         0.00000E+00
         0.00000E+00
         0.00000E+00
         0.00000E+00
         0.00000E+00
         0.00000E+00
         0.00000E+00
         0.00000E+00
         0.00000E+00
         0.00000E+00
         0.00000E+00
         0.00000E+00
         0.00000E+00
         0.00000E+00
         0.00000E+00
         0.00000E+00
         0.00000E+00
         0.00000E+00
         0.00000E+00
         0.00000E+00
         0.00000E+00
         0.00000E+00
         0.00000E+00
         0.00000E+00
         0.00000E+00
         0.00000E+00
         0.00000E+00
         0.00000E+00
         0.00000E+00
         0.00000E+00
         0.00000E+00
         0.00000E+00
         0.00000E+00
         0.00000E+00
         0.00000E+00
         0.00000E+00
         0.00000E+00
         0.00000E+00
         0.00000E+00
         0.00000E+00
         0.00000E+00
         0.00000E+00
         0.00000E+00
         0.00000E+00
         0.00000E+00
         0.00000E+00
         0.00000E+00
         0.00000E+00
         0.00000E+00
         0.00000E+00
         0.00000E+00
         0.00000E+00
         0.00000E+00
         0.00000E+00
         0.00000E+00
         0.00000E+00
         0.00000E+00
         0.00000E+00
         0.00000E+00
         0.00000E+00
         0.00000E+00
         0.00000E+00
         0.00000E+00
         0.00000E+00
         0.00000E+00
         0.00000E+00
         0.00000E+00
         0.00000E+00
         0.00000E+00
         0.00000E+00
         0.00000E+00
         0.00000E+00
         0.00000E+00
         0.00000E+00
         0.00000E+00
         0.00000E+00
         0.00000E+00
         0.00000E+00
         0.00000E+00
         0.00000E+00
         0.00000E+00
         0.00000E+00
         0.00000E+00
         0.00000E+00
         0.00000E+00
         0.00000E+00
         0.00000E+00
         0.00000E+00
         0.00000E+00
         0.00000E+00
         0.00000E+00
         0.00000E+00
         0.00000E+00
         0.00000E+00
         0.00000E+00
         0.00000E+00
         0.00000E+00
         0.00000E+00
         0.00000E+00
         0.00000E+00
         0.00000E+00
         0.00000E+00
         0.00000E+00
         0.00000E+00
         0.00000E+00
         0.00000E+00
         0.00000E+00
         0.00000E+00
         0.00000E+00
         0.00000E+00
         0.00000E+00
         0.00000E+00
         0.00000E+00
         0.00000E+00
         0.00000E+00
         0.00000E+00
         0.00000E+00
         0.00000E+00
         0.00000E+00
         0.00000E+00
         0.00000E+00
         0.00000E+00
         0.00000E+00
         0.00000E+00
         0.00000E+00
         0.00000E+00
         0.00000E+00
         0.00000E+00
         0.00000E+00
         0.00000E+00
         0.00000E+00
         0.00000E+00
         0.00000E+00
         0.00000E+00
         0.00000E+00
         0.00000E+00
         0.00000E+00
         0.00000E+00
         0.00000E+00
         0.00000E+00
         0.00000E+00
         0.00000E+00
         0.00000E+00
         0.00000E+00
         0.00000E+00
         0.00000E+00
         0.00000E+00
         0.00000E+00
         0.00000E+00
         0.00000E+00
         0.00000E+00
         0.00000E+00
         0.00000E+00
         0.00000E+00
         0.00000E+00
         0.00000E+00
         0.00000E+00
         0.00000E+00
         0.00000E+00
         0.00000E+00
         0.00000E+00
         0.00000E+00
         0.00000E+00
         0.00000E+00
         0.00000E+00
         0.00000E+00
         0.00000E+00
         0.00000E+00
         0.00000E+00
         0.00000E+00
         0.00000E+00
         0.00000E+00
         0.00000E+00
         0.00000E+00
         0.00000E+00
         0.00000E+00
         0.00000E+00
         0.00000E+00
         0.00000E+00
         0.00000E+00
         0.00000E+00
         0.00000E+00
         0.00000E+00
         0.00000E+00
         0.00000E+00
         0.00000E+00
         0.00000E+00
         0.00000E+00
         0.00000E+00
         0.00000E+00
         0.00000E+00
         0.00000E+00
         0.00000E+00
         0.00000E+00
         0.00000E+00
         0.00000E+00
         0.00000E+00
         0.00000E+00
         0.00000E+00
         0.00000E+00
         0.00000E+00
         0.00000E+00
         0.00000E+00
         0.00000E+00
         0.00000E+00
         0.00000E+00
         0.00000E+00
         0.00000E+00
         0.00000E+00
         0.00000E+00
         0.00000E+00
         0.00000E+00
         0.00000E+00
         0.00000E+00
         0.00000E+00
         0.00000E+00
         0.00000E+00
         0.00000E+00
         0.00000E+00
         0.00000E+00
         0.00000E+00
         0.00000E+00
         0.00000E+00
         0.00000E+00
         0.00000E+00
         0.00000E+00
         0.00000E+00
         0.00000E+00
         0.00000E+00
         0.00000E+00
         0.00000E+00
         0.00000E+00
         0.00000E+00
         0.00000E+00
         0.00000E+00
         0.00000E+00
         0.00000E+00
         0.00000E+00
         0.00000E+00
         0.00000E+00
         0.00000E+00
         0.00000E+00
         0.00000E+00
         0.00000E+00
         0.00000E+00
         0.00000E+00
         0.00000E+00
         0.00000E+00
         0.00000E+00
         0.00000E+00
         0.00000E+00
         0.00000E+00
         0.00000E+00
         0.00000E+00
         0.00000E+00
         0.00000E+00
         0.00000E+00
         0.00000E+00
         0.00000E+00
         0.00000E+00
         0.00000E+00
         0.00000E+00
         0.00000E+00
         0.00000E+00
         0.00000E+00
         0.00000E+00
         0.00000E+00
         0.00000E+00
         0.00000E+00
         0.00000E+00
         0.00000E+00
         0.00000E+00
         0.00000E+00
         0.00000E+00
         0.00000E+00
         0.00000E+00
         0.00000E+00
         0.00000E+00
         0.00000E+00
         0.00000E+00
         0.00000E+00
         0.00000E+00
         0.00000E+00
         0.00000E+00
         0.00000E+00
         0.00000E+00
         0.00000E+00
         0.00000E+00
         0.00000E+00
         0.00000E+00
         0.00000E+00
         0.00000E+00
         0.00000E+00
         0.00000E+00
         0.00000E+00
         0.00000E+00
         0.00000E+00
         0.00000E+00
         0.00000E+00
         0.00000E+00
         0.00000E+00
         0.00000E+00
         0.00000E+00
         0.00000E+00
         0.00000E+00
         0.00000E+00
         0.00000E+00
         0.00000E+00
         0.00000E+00
         0.00000E+00
         0.00000E+00
         0.00000E+00
         0.00000E+00
         0.00000E+00
         0.00000E+00
         0.00000E+00
         0.00000E+00
         0.00000E+00
         0.00000E+00
         0.00000E+00
         0.00000E+00
         0.00000E+00
         0.00000E+00
         0.00000E+00
         0.00000E+00
         0.00000E+00
         0.00000E+00
         0.00000E+00
         0.00000E+00
         0.00000E+00
         0.00000E+00
         0.00000E+00
         0.00000E+00
         0.00000E+00
         0.00000E+00
         0.00000E+00
         0.00000E+00
         0.00000E+00
         0.00000E+00
         0.00000E+00
         0.00000E+00
         0.00000E+00
         0.00000E+00
         0.00000E+00
         0.00000E+00
         0.00000E+00
         0.00000E+00
         0.00000E+00
         0.00000E+00
         0.00000E+00
         0.00000E+00
         0.00000E+00
         0.00000E+00
         0.00000E+00
         0.00000E+00
         0.00000E+00
         0.00000E+00
         0.00000E+00
         0.00000E+00
         0.00000E+00
         0.00000E+00
         0.00000E+00
         0.00000E+00
         0.00000E+00
         0.00000E+00
         0.00000E+00
         0.00000E+00
         0.00000E+00
         0.00000E+00
         0.00000E+00
         0.00000E+00
         0.00000E+00
         0.00000E+00
         0.00000E+00
         0.00000E+00
         0.00000E+00
         0.00000E+00
         0.00000E+00
         0.00000E+00
         0.00000E+00
         0.00000E+00
         0.00000E+00
         0.00000E+00
         0.00000E+00
         0.00000E+00
         0.00000E+00
         0.00000E+00
         0.00000E+00
         0.00000E+00
         0.00000E+00
         0.00000E+00
         0.00000E+00
         0.00000E+00
         0.00000E+00
         0.00000E+00
         0.00000E+00
         0.00000E+00
         0.00000E+00
         0.00000E+00
         0.00000E+00
         0.00000E+00
         0.00000E+00
         0.00000E+00
         0.00000E+00
         0.00000E+00
         0.00000E+00
         0.00000E+00
         0.00000E+00
         0.00000E+00
         0.00000E+00
         0.00000E+00
         0.00000E+00
         0.00000E+00
         0.00000E+00
         0.00000E+00
         0.00000E+00
         0.00000E+00
         0.00000E+00
         0.00000E+00
         0.00000E+00
         0.00000E+00
         0.00000E+00
         0.00000E+00
         0.00000E+00
         0.00000E+00
         0.00000E+00
         0.00000E+00
         0.00000E+00
         0.00000E+00
         0.00000E+00
         0.00000E+00
         0.00000E+00
         0.00000E+00
         0.00000E+00
         0.00000E+00
         0.00000E+00
         0.00000E+00
         0.00000E+00
         0.00000E+00
         0.00000E+00
         0.00000E+00
         0.00000E+00
         0.00000E+00
         0.00000E+00
         0.00000E+00
         0.00000E+00
         0.00000E+00
         0.00000E+00
         0.00000E+00
         0.00000E+00
         0.00000E+00
         0.00000E+00
         0.00000E+00
         0.00000E+00
         0.00000E+00
         0.00000E+00
         0.00000E+00
         0.00000E+00
         0.00000E+00
         0.00000E+00
         0.00000E+00
         0.00000E+00
         0.00000E+00
         0.00000E+00
         0.00000E+00
         0.00000E+00
         0.00000E+00
         0.00000E+00
         0.00000E+00
         0.00000E+00
         0.00000E+00
         0.00000E+00
         0.00000E+00
         0.00000E+00
         0.00000E+00
         0.00000E+00
         0.00000E+00
         0.00000E+00
         0.00000E+00
         0.00000E+00
         0.00000E+00
         0.00000E+00
         0.00000E+00
         0.00000E+00
         0.00000E+00
         0.00000E+00
         0.00000E+00
         0.00000E+00
         0.00000E+00
         0.00000E+00
         0.00000E+00
         0.00000E+00
         0.00000E+00
         0.00000E+00
         0.00000E+00
         0.00000E+00
         0.00000E+00
         0.00000E+00
         0.00000E+00
         0.00000E+00
         0.00000E+00
         0.00000E+00
         0.00000E+00
         0.00000E+00
         0.00000E+00
         0.00000E+00
         0.00000E+00
         0.00000E+00
         0.00000E+00
         0.00000E+00
         0.00000E+00
         0.00000E+00
         0.00000E+00
         0.00000E+00
         0.00000E+00
         0.00000E+00
         0.00000E+00
         0.00000E+00
         0.00000E+00
         0.00000E+00
         0.00000E+00
         0.00000E+00
         0.00000E+00
         0.00000E+00
         0.00000E+00
         0.00000E+00
         0.00000E+00
         0.00000E+00
         0.00000E+00
         0.00000E+00
         0.00000E+00
         0.00000E+00
         0.00000E+00
  
SCALARS                            eps  double 1
LOOKUP_TABLE default
         0.25140E+01
         0.24818E+01
         0.25023E+01
         0.25390E+01
         0.00000E+00
         0.00000E+00
         0.00000E+00
         0.00000E+00
         0.24809E+01
         0.24917E+01
         0.00000E+00
         0.00000E+00
         0.24351E+01
         0.24334E+01
         0.00000E+00
         0.00000E+00
         0.25336E+01
         0.24359E+01
         0.00000E+00
         0.00000E+00
         0.24000E+01
         0.23723E+01
         0.24166E+01
         0.00000E+00
         0.00000E+00
         0.00000E+00
         0.23733E+01
         0.23327E+01
         0.00000E+00
         0.00000E+00
         0.25318E+01
         0.24893E+01
         0.25730E+01
         0.00000E+00
         0.00000E+00
         0.00000E+00
         0.25072E+01
         0.24531E+01
         0.00000E+00
         0.00000E+00
         0.24858E+01
         0.24441E+01
         0.00000E+00
         0.00000E+00
         0.25212E+01
         0.25369E+01
         0.00000E+00
         0.00000E+00
         0.24105E+01
         0.00000E+00
         0.25338E+01
         0.00000E+00
         0.23615E+01
         0.00000E+00
         0.23487E+01
         0.00000E+00
         0.23490E+01
         0.23944E+01
         0.00000E+00
         0.00000E+00
         0.25309E+01
         0.25146E+01
         0.00000E+00
         0.00000E+00
         0.25412E+01
         0.00000E+00
         0.25218E+01
         0.00000E+00
         0.24710E+01
         0.24657E+01
         0.00000E+00
         0.00000E+00
         0.24541E+01
         0.00000E+00
         0.23182E+01
         0.00000E+00
         0.23112E+01
         0.00000E+00
         0.23148E+01
         0.00000E+00
         0.23346E+01
         0.23549E+01
         0.00000E+00
         0.00000E+00
         0.23960E+01
         0.00000E+00
         0.25204E+01
         0.00000E+00
         0.25011E+01
         0.00000E+00
         0.24854E+01
         0.24764E+01
         0.00000E+00
         0.00000E+00
         0.24871E+01
         0.00000E+00
         0.24947E+01
         0.00000E+00
         0.24879E+01
         0.00000E+00
         0.24856E+01
         0.24925E+01
         0.00000E+00
         0.00000E+00
         0.24480E+01
         0.24667E+01
         0.00000E+00
         0.00000E+00
         0.24448E+01
         0.00000E+00
         0.24663E+01
         0.00000E+00
         0.24452E+01
         0.00000E+00
         0.23989E+01
         0.00000E+00
         0.23542E+01
         0.00000E+00
         0.23274E+01
         0.00000E+00
         0.23246E+01
         0.00000E+00
         0.23254E+01
         0.00000E+00
         0.23545E+01
         0.00000E+00
         0.24094E+01
         0.00000E+00
         0.24695E+01
         0.00000E+00
         0.25044E+01
         0.00000E+00
         0.25390E+01
         0.00000E+00
         0.25618E+01
         0.00000E+00
         0.25611E+01
         0.00000E+00
         0.25051E+01
         0.00000E+00
         0.24659E+01
         0.00000E+00
         0.24530E+01
         0.00000E+00
         0.24741E+01
         0.00000E+00
         0.24848E+01
         0.00000E+00
         0.24662E+01
         0.00000E+00
         0.24662E+01
         0.00000E+00
         0.24802E+01
         0.00000E+00
         0.24984E+01
         0.00000E+00
         0.29120E+00
         0.29400E+00
         0.29363E+00
         0.28992E+00
         0.29664E+00
         0.29334E+00
         0.29735E+00
         0.29529E+00
         0.29053E+00
         0.29355E+00
         0.29948E+00
         0.30021E+00
         0.29848E+00
         0.29829E+00
         0.29950E+00
         0.29011E+00
         0.29081E+00
         0.28881E+00
         0.29430E+00
         0.29334E+00
         0.29477E+00
         0.29388E+00
         0.29552E+00
         0.29504E+00
         0.29342E+00
         0.29353E+00
         0.29626E+00
         0.29602E+00
         0.29796E+00
         0.29500E+00
         0.29046E+00
         0.29404E+00
         0.29048E+00
         0.29285E+00
         0.30063E+00
         0.29824E+00
         0.29710E+00
         0.29849E+00
         0.29864E+00
         0.30076E+00
         0.30231E+00
         0.29856E+00
         0.29473E+00
         0.29524E+00
         0.29722E+00
         0.30056E+00
         0.29770E+00
         0.29451E+00
         0.29473E+00
         0.29721E+00
         0.29966E+00
         0.29635E+00
         0.30643E+00
         0.30402E+00
         0.30452E+00
         0.30398E+00
         0.30426E+00
         0.30580E+00
         0.30710E+00
         0.30733E+00
         0.30709E+00
         0.30730E+00
         0.30779E+00
         0.30429E+00
         0.30264E+00
         0.30200E+00
         0.30112E+00
         0.30046E+00
         0.30057E+00
         0.30190E+00
         0.30571E+00
         0.30491E+00
         0.30349E+00
         0.30341E+00
         0.30366E+00
         0.30487E+00
         0.30305E+00
         0.30238E+00
         0.26727E-02
         0.36515E-03
         0.16886E-03
         0.00000E+00
         0.28960E-02
         0.10407E-02
         0.00000E+00
         0.25771E-02
         0.45287E-03
         0.22480E-02
         0.00000E+00
         0.81962E-02
         0.54572E-02
         0.11647E-02
         0.87362E-02
         0.10903E-02
         0.00000E+00
         0.00000E+00
         0.00000E+00
         0.00000E+00
         0.57643E-02
         0.52121E-02
         0.49931E-02
         0.00000E+00
         0.34911E-03
         0.00000E+00
         0.92339E-03
         0.00000E+00
         0.00000E+00
         0.64084E-03
         0.47959E-03
         0.00000E+00
         0.00000E+00
         0.00000E+00
         0.46636E-02
         0.15336E-02
         0.29039E-02
         0.65346E-02
         0.42958E-02
         0.37803E-02
         0.66984E-02
         0.57750E-02
         0.58345E-02
         0.38035E-02
         0.30608E-02
         0.53458E-02
         0.24219E-02
         0.15927E-02
         0.76864E-03
         0.14694E-02
         0.43893E-02
         0.20313E-02
         0.30263E-01
         0.31070E-01
         0.32634E-01
         0.32372E-01
         0.34738E-01
         0.37556E-01
         0.35896E-01
         0.31533E-01
         0.30641E-01
         0.33036E-01
         0.32308E-01
         0.31821E-01
         0.25710E-01
         0.24273E-01
         0.27001E-01
         0.29165E-01
         0.30396E-01
         0.33513E-01
         0.32104E-01
         0.33067E-01
         0.29431E-01
         0.27771E-01
         0.29845E-01
         0.29099E-01
         0.30044E-01
         0.29761E-01
         0.26771E-02
         0.36592E-03
         0.17071E-03
         0.00000E+00
         0.28933E-02
         0.10383E-02
         0.00000E+00
         0.25826E-02
         0.45900E-03
         0.22638E-02
         0.00000E+00
         0.81958E-02
         0.54605E-02
         0.11547E-02
         0.87486E-02
         0.10937E-02
         0.00000E+00
         0.00000E+00
         0.00000E+00
         0.00000E+00
         0.57651E-02
         0.52115E-02
         0.49925E-02
         0.00000E+00
         0.36393E-03
         0.00000E+00
         0.92472E-03
         0.00000E+00
         0.00000E+00
         0.64743E-03
         0.48302E-03
         0.00000E+00
         0.00000E+00
         0.00000E+00
         0.46671E-02
         0.15323E-02
         0.29026E-02
         0.65498E-02
         0.43125E-02
         0.37899E-02
         0.67050E-02
         0.57797E-02
         0.58356E-02
         0.38033E-02
         0.30595E-02
         0.53453E-02
         0.24220E-02
         0.15924E-02
         0.76311E-03
         0.14631E-02
         0.43851E-02
         0.20233E-02
         0.30251E-01
         0.31061E-01
         0.32634E-01
         0.32372E-01
         0.34732E-01
         0.37542E-01
         0.35880E-01
         0.31524E-01
         0.30633E-01
         0.33025E-01
         0.32302E-01
         0.31822E-01
         0.25708E-01
         0.24272E-01
         0.27005E-01
         0.29173E-01
         0.30405E-01
         0.33521E-01
         0.32102E-01
         0.33065E-01
         0.29427E-01
         0.27769E-01
         0.29833E-01
         0.29077E-01
         0.30025E-01
         0.29744E-01
         0.26815E-02
         0.36674E-03
         0.17258E-03
         0.00000E+00
         0.28905E-02
         0.10360E-02
         0.00000E+00
         0.25881E-02
         0.46516E-03
         0.22795E-02
         0.00000E+00
         0.81955E-02
         0.54639E-02
         0.11447E-02
         0.87608E-02
         0.10971E-02
         0.00000E+00
         0.00000E+00
         0.00000E+00
         0.00000E+00
         0.57659E-02
         0.52109E-02
         0.49921E-02
         0.00000E+00
         0.37862E-03
         0.00000E+00
         0.92601E-03
         0.00000E+00
         0.00000E+00
         0.65380E-03
         0.48651E-03
         0.00000E+00
         0.00000E+00
         0.00000E+00
         0.46706E-02
         0.15311E-02
         0.29011E-02
         0.65649E-02
         0.43293E-02
         0.37996E-02
         0.67117E-02
         0.57844E-02
         0.58369E-02
         0.38035E-02
         0.30586E-02
         0.53451E-02
         0.24221E-02
         0.15920E-02
         0.75766E-03
         0.14568E-02
         0.43810E-02
         0.20154E-02
         0.30239E-01
         0.31053E-01
         0.32634E-01
         0.32372E-01
         0.34725E-01
         0.37528E-01
         0.35863E-01
         0.31515E-01
         0.30624E-01
         0.33014E-01
         0.32296E-01
         0.31824E-01
         0.25705E-01
         0.24271E-01
         0.27008E-01
         0.29181E-01
         0.30414E-01
         0.33529E-01
         0.32100E-01
         0.33063E-01
         0.29424E-01
         0.27767E-01
         0.29822E-01
         0.29056E-01
         0.30006E-01
         0.29726E-01
         0.26859E-02
         0.36752E-03
         0.17444E-03
         0.00000E+00
         0.28878E-02
         0.10336E-02
         0.00000E+00
         0.25935E-02
         0.47129E-03
         0.22949E-02
         0.00000E+00
         0.81951E-02
         0.54675E-02
         0.11347E-02
         0.87733E-02
         0.11009E-02
         0.00000E+00
         0.00000E+00
         0.00000E+00
         0.00000E+00
         0.57671E-02
         0.52106E-02
         0.49922E-02
         0.00000E+00
         0.39302E-03
         0.00000E+00
         0.92712E-03
         0.00000E+00
         0.00000E+00
         0.65959E-03
         0.49015E-03
         0.00000E+00
         0.00000E+00
         0.00000E+00
         0.46740E-02
         0.15298E-02
         0.28997E-02
         0.65801E-02
         0.43463E-02
         0.38098E-02
         0.67188E-02
         0.57893E-02
         0.58385E-02
         0.38043E-02
         0.30578E-02
         0.53450E-02
         0.24225E-02
         0.15918E-02
         0.75218E-03
         0.14505E-02
         0.43767E-02
         0.20075E-02
         0.30227E-01
         0.31045E-01
         0.32634E-01
         0.32373E-01
         0.34719E-01
         0.37514E-01
         0.35847E-01
         0.31505E-01
         0.30615E-01
         0.33003E-01
         0.32290E-01
         0.31826E-01
         0.25703E-01
         0.24270E-01
         0.27013E-01
         0.29191E-01
         0.30424E-01
         0.33538E-01
         0.32098E-01
         0.33061E-01
         0.29420E-01
         0.27765E-01
         0.29810E-01
         0.29035E-01
         0.29987E-01
         0.29709E-01
         0.26902E-02
         0.36830E-03
         0.17630E-03
         0.00000E+00
         0.28851E-02
         0.10312E-02
         0.00000E+00
         0.25989E-02
         0.47737E-03
         0.23099E-02
         0.00000E+00
         0.81948E-02
         0.54709E-02
         0.11247E-02
         0.87857E-02
         0.11049E-02
         0.00000E+00
         0.00000E+00
         0.00000E+00
         0.00000E+00
         0.57684E-02
         0.52104E-02
         0.49927E-02
         0.00000E+00
         0.40708E-03
         0.00000E+00
         0.92810E-03
         0.00000E+00
         0.00000E+00
         0.66478E-03
         0.49392E-03
         0.00000E+00
         0.00000E+00
         0.00000E+00
         0.46775E-02
         0.15285E-02
         0.28983E-02
         0.65954E-02
         0.43637E-02
         0.38204E-02
         0.67264E-02
         0.57945E-02
         0.58406E-02
         0.38057E-02
         0.30576E-02
         0.53454E-02
         0.24232E-02
         0.15917E-02
         0.74679E-03
         0.14441E-02
         0.43726E-02
         0.19996E-02
         0.30215E-01
         0.31037E-01
         0.32633E-01
         0.32373E-01
         0.34713E-01
         0.37500E-01
         0.35830E-01
         0.31496E-01
         0.30607E-01
         0.32992E-01
         0.32284E-01
         0.31828E-01
         0.25702E-01
         0.24269E-01
         0.27017E-01
         0.29201E-01
         0.30435E-01
         0.33547E-01
         0.32097E-01
         0.33059E-01
         0.29417E-01
         0.27763E-01
         0.29799E-01
         0.29013E-01
         0.29968E-01
         0.29691E-01
         0.26944E-02
         0.36888E-03
         0.17809E-03
         0.00000E+00
         0.28824E-02
         0.10289E-02
         0.00000E+00
         0.26039E-02
         0.48349E-03
         0.23245E-02
         0.00000E+00
         0.81945E-02
         0.54744E-02
         0.11147E-02
         0.87980E-02
         0.11091E-02
         0.00000E+00
         0.00000E+00
         0.00000E+00
         0.00000E+00
         0.57700E-02
         0.52104E-02
         0.49935E-02
         0.00000E+00
         0.42082E-03
         0.00000E+00
         0.92902E-03
         0.00000E+00
         0.00000E+00
         0.66981E-03
         0.49760E-03
         0.00000E+00
         0.00000E+00
         0.00000E+00
         0.46811E-02
         0.15274E-02
         0.28971E-02
         0.66107E-02
         0.43813E-02
         0.38314E-02
         0.67341E-02
         0.57998E-02
         0.58428E-02
         0.38074E-02
         0.30578E-02
         0.53462E-02
         0.24239E-02
         0.15918E-02
         0.74164E-03
         0.14379E-02
         0.43686E-02
         0.19918E-02
         0.30202E-01
         0.31029E-01
         0.32633E-01
         0.32373E-01
         0.34706E-01
         0.37486E-01
         0.35814E-01
         0.31487E-01
         0.30598E-01
         0.32981E-01
         0.32279E-01
         0.31830E-01
         0.25701E-01
         0.24269E-01
         0.27022E-01
         0.29212E-01
         0.30447E-01
         0.33556E-01
         0.32095E-01
         0.33057E-01
         0.29413E-01
         0.27761E-01
         0.29788E-01
         0.28992E-01
         0.29950E-01
         0.29673E-01
         0.26982E-02
         0.36899E-03
         0.17981E-03
         0.00000E+00
         0.28798E-02
         0.10266E-02
         0.00000E+00
         0.26082E-02
         0.48973E-03
         0.23385E-02
         0.00000E+00
         0.81946E-02
         0.54782E-02
         0.11049E-02
         0.88105E-02
         0.11133E-02
         0.00000E+00
         0.00000E+00
         0.00000E+00
         0.00000E+00
         0.57715E-02
         0.52104E-02
         0.49945E-02
         0.00000E+00
         0.43415E-03
         0.00000E+00
         0.93008E-03
         0.00000E+00
         0.00000E+00
         0.67481E-03
         0.50103E-03
         0.00000E+00
         0.00000E+00
         0.00000E+00
         0.46847E-02
         0.15265E-02
         0.28961E-02
         0.66262E-02
         0.43990E-02
         0.38423E-02
         0.67420E-02
         0.58052E-02
         0.58451E-02
         0.38092E-02
         0.30582E-02
         0.53473E-02
         0.24251E-02
         0.15924E-02
         0.73722E-03
         0.14320E-02
         0.43649E-02
         0.19841E-02
         0.30190E-01
         0.31020E-01
         0.32633E-01
         0.32373E-01
         0.34700E-01
         0.37472E-01
         0.35797E-01
         0.31477E-01
         0.30590E-01
         0.32970E-01
         0.32273E-01
         0.31832E-01
         0.25700E-01
         0.24268E-01
         0.27026E-01
         0.29223E-01
         0.30459E-01
         0.33564E-01
         0.32092E-01
         0.33054E-01
         0.29410E-01
         0.27760E-01
         0.29776E-01
         0.28971E-01
         0.29931E-01
         0.29656E-01
         0.27018E-02
         0.36900E-03
         0.18149E-03
         0.00000E+00
         0.28773E-02
         0.10242E-02
         0.00000E+00
         0.26121E-02
         0.49605E-03
         0.23522E-02
         0.00000E+00
         0.81946E-02
         0.54821E-02
         0.10950E-02
         0.88230E-02
         0.11175E-02
         0.00000E+00
         0.00000E+00
         0.00000E+00
         0.00000E+00
         0.57731E-02
         0.52104E-02
         0.49953E-02
         0.00000E+00
         0.44727E-03
         0.00000E+00
         0.93118E-03
         0.00000E+00
         0.00000E+00
         0.67982E-03
         0.50434E-03
         0.00000E+00
         0.00000E+00
         0.00000E+00
         0.46886E-02
         0.15259E-02
         0.28953E-02
         0.66418E-02
         0.44168E-02
         0.38534E-02
         0.67498E-02
         0.58107E-02
         0.58475E-02
         0.38112E-02
         0.30587E-02
         0.53486E-02
         0.24265E-02
         0.15931E-02
         0.73313E-03
         0.14263E-02
         0.43612E-02
         0.19765E-02
         0.30178E-01
         0.31012E-01
         0.32632E-01
         0.32374E-01
         0.34694E-01
         0.37458E-01
         0.35781E-01
         0.31468E-01
         0.30581E-01
         0.32959E-01
         0.32267E-01
         0.31835E-01
         0.25699E-01
         0.24268E-01
         0.27031E-01
         0.29234E-01
         0.30470E-01
         0.33573E-01
         0.32090E-01
         0.33052E-01
         0.29407E-01
         0.27758E-01
         0.29765E-01
         0.28950E-01
         0.29912E-01
         0.29638E-01
         0.27054E-02
         0.36900E-03
         0.18315E-03
         0.00000E+00
         0.28747E-02
         0.10218E-02
         0.00000E+00
         0.26161E-02
         0.50239E-03
         0.23659E-02
         0.00000E+00
         0.81947E-02
         0.54860E-02
         0.10853E-02
         0.88357E-02
         0.11216E-02
         0.00000E+00
         0.00000E+00
         0.00000E+00
         0.00000E+00
         0.57746E-02
         0.52104E-02
         0.49962E-02
         0.00000E+00
         0.46037E-03
         0.00000E+00
         0.93233E-03
         0.00000E+00
         0.00000E+00
         0.68484E-03
         0.50764E-03
         0.00000E+00
         0.00000E+00
         0.00000E+00
         0.46925E-02
         0.15250E-02
         0.28945E-02
         0.66574E-02
         0.44347E-02
         0.38643E-02
         0.67577E-02
         0.58162E-02
         0.58498E-02
         0.38132E-02
         0.30594E-02
         0.53500E-02
         0.24278E-02
         0.15938E-02
         0.72908E-03
         0.14206E-02
         0.43578E-02
         0.19689E-02
         0.30166E-01
         0.31004E-01
         0.32632E-01
         0.32374E-01
         0.34688E-01
         0.37445E-01
         0.35764E-01
         0.31459E-01
         0.30572E-01
         0.32948E-01
         0.32261E-01
         0.31837E-01
         0.25698E-01
         0.24267E-01
         0.27035E-01
         0.29244E-01
         0.30482E-01
         0.33581E-01
         0.32087E-01
         0.33050E-01
         0.29404E-01
         0.27757E-01
         0.29753E-01
         0.28929E-01
         0.29894E-01
         0.29620E-01
         0.27090E-02
         0.36895E-03
         0.18479E-03
         0.00000E+00
         0.28721E-02
         0.10195E-02
         0.00000E+00
         0.26200E-02
         0.50872E-03
         0.23795E-02
         0.00000E+00
         0.81947E-02
         0.54900E-02
         0.10755E-02
         0.88482E-02
         0.11258E-02
         0.00000E+00
         0.00000E+00
         0.00000E+00
         0.00000E+00
         0.57761E-02
         0.52104E-02
         0.49970E-02
         0.00000E+00
         0.47345E-03
         0.00000E+00
         0.93348E-03
         0.00000E+00
         0.00000E+00
         0.68985E-03
         0.51092E-03
         0.00000E+00
         0.00000E+00
         0.00000E+00
         0.46962E-02
         0.15244E-02
         0.28937E-02
         0.66731E-02
         0.44525E-02
         0.38754E-02
         0.67656E-02
         0.58216E-02
         0.58521E-02
         0.38152E-02
         0.30600E-02
         0.53514E-02
         0.24292E-02
         0.15946E-02
         0.72497E-03
         0.14148E-02
         0.43541E-02
         0.19612E-02
         0.30153E-01
         0.30996E-01
         0.32631E-01
         0.32374E-01
         0.34681E-01
         0.37431E-01
         0.35747E-01
         0.31449E-01
         0.30564E-01
         0.32936E-01
         0.32255E-01
         0.31839E-01
         0.25696E-01
         0.24267E-01
         0.27040E-01
         0.29255E-01
         0.30494E-01
         0.33590E-01
         0.32085E-01
         0.33048E-01
         0.29401E-01
         0.27755E-01
         0.29742E-01
         0.28908E-01
         0.29875E-01
         0.29603E-01
         0.27126E-02
         0.36889E-03
         0.18645E-03
         0.00000E+00
         0.28696E-02
         0.10172E-02
         0.00000E+00
         0.26239E-02
         0.51507E-03
         0.23932E-02
         0.00000E+00
         0.81948E-02
         0.54939E-02
         0.10658E-02
         0.88608E-02
         0.11300E-02
         0.00000E+00
         0.00000E+00
         0.00000E+00
         0.00000E+00
         0.57776E-02
         0.52104E-02
         0.49979E-02
         0.00000E+00
         0.48650E-03
         0.00000E+00
         0.93469E-03
         0.00000E+00
         0.00000E+00
         0.69484E-03
         0.51421E-03
         0.00000E+00
         0.00000E+00
         0.00000E+00
         0.47001E-02
         0.15236E-02
         0.28929E-02
         0.66887E-02
         0.44704E-02
         0.38863E-02
         0.67735E-02
         0.58270E-02
         0.58545E-02
         0.38170E-02
         0.30607E-02
         0.53528E-02
         0.24306E-02
         0.15954E-02
         0.72093E-03
         0.14090E-02
         0.43507E-02
         0.19536E-02
         0.30141E-01
         0.30988E-01
         0.32631E-01
         0.32374E-01
         0.34675E-01
         0.37416E-01
         0.35730E-01
         0.31440E-01
         0.30555E-01
         0.32925E-01
         0.32249E-01
         0.31842E-01
         0.25695E-01
         0.24266E-01
         0.27045E-01
         0.29266E-01
         0.30505E-01
         0.33599E-01
         0.32083E-01
         0.33045E-01
         0.29398E-01
         0.27754E-01
         0.29730E-01
         0.28886E-01
         0.29856E-01
         0.29585E-01
         0.27162E-02
         0.36887E-03
         0.18811E-03
         0.00000E+00
         0.28671E-02
         0.10149E-02
         0.00000E+00
         0.26278E-02
         0.52143E-03
         0.24068E-02
         0.00000E+00
         0.81948E-02
         0.54978E-02
         0.10561E-02
         0.88733E-02
         0.11342E-02
         0.00000E+00
         0.00000E+00
         0.00000E+00
         0.00000E+00
         0.57791E-02
         0.52103E-02
         0.49988E-02
         0.00000E+00
         0.49952E-03
         0.00000E+00
         0.93585E-03
         0.00000E+00
         0.00000E+00
         0.69984E-03
         0.51752E-03
         0.00000E+00
         0.00000E+00
         0.00000E+00
         0.47040E-02
         0.15229E-02
         0.28920E-02
         0.67044E-02
         0.44883E-02
         0.38973E-02
         0.67814E-02
         0.58325E-02
         0.58568E-02
         0.38190E-02
         0.30613E-02
         0.53542E-02
         0.24319E-02
         0.15962E-02
         0.71689E-03
         0.14033E-02
         0.43471E-02
         0.19460E-02
         0.30129E-01
         0.30980E-01
         0.32630E-01
         0.32374E-01
         0.34669E-01
         0.37403E-01
         0.35714E-01
         0.31430E-01
         0.30547E-01
         0.32914E-01
         0.32244E-01
         0.31844E-01
         0.25694E-01
         0.24266E-01
         0.27049E-01
         0.29277E-01
         0.30517E-01
         0.33607E-01
         0.32080E-01
         0.33043E-01
         0.29395E-01
         0.27752E-01
         0.29719E-01
         0.28865E-01
         0.29838E-01
         0.29568E-01
         0.27198E-02
         0.36883E-03
         0.18976E-03
         0.00000E+00
         0.28645E-02
         0.10125E-02
         0.00000E+00
         0.26317E-02
         0.52778E-03
         0.24204E-02
         0.00000E+00
         0.81949E-02
         0.55018E-02
         0.10463E-02
         0.88860E-02
         0.11383E-02
         0.00000E+00
         0.00000E+00
         0.00000E+00
         0.00000E+00
         0.57807E-02
         0.52104E-02
         0.49997E-02
         0.00000E+00
         0.51251E-03
         0.00000E+00
         0.93700E-03
         0.00000E+00
         0.00000E+00
         0.70479E-03
         0.52081E-03
         0.00000E+00
         0.00000E+00
         0.00000E+00
         0.47078E-02
         0.15222E-02
         0.28913E-02
         0.67200E-02
         0.45062E-02
         0.39083E-02
         0.67894E-02
         0.58379E-02
         0.58592E-02
         0.38210E-02
         0.30620E-02
         0.53553E-02
         0.24333E-02
         0.15970E-02
         0.71288E-03
         0.13976E-02
         0.43434E-02
         0.19384E-02
         0.30117E-01
         0.30972E-01
         0.32630E-01
         0.32374E-01
         0.34662E-01
         0.37389E-01
         0.35697E-01
         0.31421E-01
         0.30538E-01
         0.32902E-01
         0.32238E-01
         0.31846E-01
         0.25693E-01
         0.24265E-01
         0.27054E-01
         0.29288E-01
         0.30529E-01
         0.33616E-01
         0.32078E-01
         0.33041E-01
         0.29393E-01
         0.27751E-01
         0.29707E-01
         0.28844E-01
         0.29819E-01
         0.29550E-01
         0.27234E-02
         0.36883E-03
         0.19142E-03
         0.00000E+00
         0.28621E-02
         0.10101E-02
         0.00000E+00
         0.26356E-02
         0.53414E-03
         0.24340E-02
         0.00000E+00
         0.81950E-02
         0.55057E-02
         0.10366E-02
         0.88986E-02
         0.11425E-02
         0.00000E+00
         0.00000E+00
         0.00000E+00
         0.00000E+00
         0.57822E-02
         0.52103E-02
         0.50006E-02
         0.00000E+00
         0.52552E-03
         0.00000E+00
         0.93810E-03
         0.00000E+00
         0.00000E+00
         0.70975E-03
         0.52408E-03
         0.00000E+00
         0.00000E+00
         0.00000E+00
         0.47117E-02
         0.15215E-02
         0.28904E-02
         0.67357E-02
         0.45242E-02
         0.39192E-02
         0.67973E-02
         0.58433E-02
         0.58615E-02
         0.38230E-02
         0.30626E-02
         0.53568E-02
         0.24347E-02
         0.15977E-02
         0.70878E-03
         0.13919E-02
         0.43399E-02
         0.19308E-02
         0.30104E-01
         0.30964E-01
         0.32629E-01
         0.32374E-01
         0.34656E-01
         0.37375E-01
         0.35680E-01
         0.31411E-01
         0.30530E-01
         0.32891E-01
         0.32232E-01
         0.31849E-01
         0.25692E-01
         0.24265E-01
         0.27059E-01
         0.29299E-01
         0.30540E-01
         0.33624E-01
         0.32076E-01
         0.33039E-01
         0.29390E-01
         0.27750E-01
         0.29695E-01
         0.28823E-01
         0.29801E-01
         0.29533E-01
         0.27269E-02
         0.36882E-03
         0.19307E-03
         0.00000E+00
         0.28595E-02
         0.10078E-02
         0.00000E+00
         0.26395E-02
         0.54052E-03
         0.24476E-02
         0.00000E+00
         0.81951E-02
         0.55096E-02
         0.10269E-02
         0.89112E-02
         0.11467E-02
         0.00000E+00
         0.00000E+00
         0.00000E+00
         0.00000E+00
         0.57838E-02
         0.52103E-02
         0.50014E-02
         0.00000E+00
         0.53853E-03
         0.00000E+00
         0.93924E-03
         0.00000E+00
         0.00000E+00
         0.71472E-03
         0.52736E-03
         0.00000E+00
         0.00000E+00
         0.00000E+00
         0.47155E-02
         0.15209E-02
         0.28896E-02
         0.67514E-02
         0.45421E-02
         0.39302E-02
         0.68051E-02
         0.58487E-02
         0.58638E-02
         0.38249E-02
         0.30633E-02
         0.53582E-02
         0.24360E-02
         0.15985E-02
         0.70472E-03
         0.13861E-02
         0.43363E-02
         0.19232E-02
         0.30092E-01
         0.30956E-01
         0.32629E-01
         0.32375E-01
         0.34650E-01
         0.37361E-01
         0.35663E-01
         0.31402E-01
         0.30521E-01
         0.32879E-01
         0.32226E-01
         0.31851E-01
         0.25691E-01
         0.24264E-01
         0.27063E-01
         0.29310E-01
         0.30552E-01
         0.33633E-01
         0.32073E-01
         0.33036E-01
         0.29387E-01
         0.27748E-01
         0.29684E-01
         0.28802E-01
         0.29782E-01
         0.29515E-01
         0.27304E-02
         0.36872E-03
         0.19470E-03
         0.00000E+00
         0.28570E-02
         0.10055E-02
         0.00000E+00
         0.26434E-02
         0.54693E-03
         0.24612E-02
         0.00000E+00
         0.81952E-02
         0.55136E-02
         0.10173E-02
         0.89237E-02
         0.11508E-02
         0.00000E+00
         0.00000E+00
         0.00000E+00
         0.00000E+00
         0.57853E-02
         0.52103E-02
         0.50023E-02
         0.00000E+00
         0.55151E-03
         0.00000E+00
         0.94038E-03
         0.00000E+00
         0.00000E+00
         0.71967E-03
         0.53064E-03
         0.00000E+00
         0.00000E+00
         0.00000E+00
         0.47195E-02
         0.15202E-02
         0.28888E-02
         0.67671E-02
         0.45601E-02
         0.39409E-02
         0.68130E-02
         0.58541E-02
         0.58661E-02
         0.38267E-02
         0.30640E-02
         0.53595E-02
         0.24374E-02
         0.15993E-02
         0.70072E-03
         0.13803E-02
         0.43328E-02
         0.19155E-02
         0.30080E-01
         0.30947E-01
         0.32628E-01
         0.32375E-01
         0.34644E-01
         0.37346E-01
         0.35646E-01
         0.31392E-01
         0.30513E-01
         0.32867E-01
         0.32220E-01
         0.31853E-01
         0.25690E-01
         0.24263E-01
         0.27068E-01
         0.29321E-01
         0.30564E-01
         0.33642E-01
         0.32071E-01
         0.33034E-01
         0.29384E-01
         0.27747E-01
         0.29672E-01
         0.28781E-01
         0.29764E-01
         0.29498E-01
         0.27340E-02
         0.36869E-03
         0.19636E-03
         0.00000E+00
         0.28545E-02
         0.10032E-02
         0.00000E+00
         0.26473E-02
         0.55335E-03
         0.24748E-02
         0.00000E+00
         0.81953E-02
         0.55175E-02
         0.10075E-02
         0.89364E-02
         0.11550E-02
         0.00000E+00
         0.00000E+00
         0.00000E+00
         0.00000E+00
         0.57868E-02
         0.52102E-02
         0.50031E-02
         0.00000E+00
         0.56446E-03
         0.00000E+00
         0.94143E-03
         0.00000E+00
         0.00000E+00
         0.72451E-03
         0.53394E-03
         0.00000E+00
         0.00000E+00
         0.00000E+00
         0.47234E-02
         0.15194E-02
         0.28879E-02
         0.67829E-02
         0.45780E-02
         0.39518E-02
         0.68207E-02
         0.58594E-02
         0.58684E-02
         0.38288E-02
         0.30646E-02
         0.53610E-02
         0.24388E-02
         0.16001E-02
         0.69673E-03
         0.13746E-02
         0.43292E-02
         0.19080E-02
         0.30067E-01
         0.30939E-01
         0.32628E-01
         0.32375E-01
         0.34637E-01
         0.37332E-01
         0.35629E-01
         0.31382E-01
         0.30505E-01
         0.32856E-01
         0.32215E-01
         0.31856E-01
         0.25689E-01
         0.24263E-01
         0.27072E-01
         0.29331E-01
         0.30575E-01
         0.33650E-01
         0.32069E-01
         0.33032E-01
         0.29381E-01
         0.27745E-01
         0.29661E-01
         0.28760E-01
         0.29745E-01
         0.29480E-01
         0.27375E-02
         0.36866E-03
         0.19801E-03
         0.00000E+00
         0.28520E-02
         0.10008E-02
         0.00000E+00
         0.26511E-02
         0.55978E-03
         0.24882E-02
         0.00000E+00
         0.81953E-02
         0.55214E-02
         0.99780E-03
         0.89489E-02
         0.11592E-02
         0.00000E+00
         0.00000E+00
         0.00000E+00
         0.00000E+00
         0.57884E-02
         0.52102E-02
         0.50041E-02
         0.00000E+00
         0.57737E-03
         0.00000E+00
         0.94214E-03
         0.00000E+00
         0.00000E+00
         0.72916E-03
         0.53723E-03
         0.00000E+00
         0.00000E+00
         0.00000E+00
         0.47273E-02
         0.15189E-02
         0.28872E-02
         0.67987E-02
         0.45960E-02
         0.39621E-02
         0.68280E-02
         0.58642E-02
         0.58704E-02
         0.38308E-02
         0.30653E-02
         0.53624E-02
         0.24401E-02
         0.16009E-02
         0.69266E-03
         0.13689E-02
         0.43258E-02
         0.19004E-02
         0.30055E-01
         0.30931E-01
         0.32627E-01
         0.32375E-01
         0.34631E-01
         0.37318E-01
         0.35612E-01
         0.31373E-01
         0.30496E-01
         0.32843E-01
         0.32209E-01
         0.31860E-01
         0.25688E-01
         0.24263E-01
         0.27077E-01
         0.29342E-01
         0.30587E-01
         0.33659E-01
         0.32066E-01
         0.33030E-01
         0.29378E-01
         0.27744E-01
         0.29649E-01
         0.28738E-01
         0.29727E-01
         0.29463E-01
         0.27410E-02
         0.36865E-03
         0.19964E-03
         0.00000E+00
         0.28495E-02
         0.99847E-03
         0.00000E+00
         0.26549E-02
         0.56624E-03
         0.25015E-02
         0.00000E+00
         0.81954E-02
         0.55254E-02
         0.98798E-03
         0.89615E-02
         0.11633E-02
         0.00000E+00
         0.00000E+00
         0.00000E+00
         0.00000E+00
         0.57900E-02
         0.52099E-02
         0.50050E-02
         0.00000E+00
         0.59022E-03
         0.00000E+00
         0.94258E-03
         0.00000E+00
         0.00000E+00
         0.73353E-03
         0.54051E-03
         0.00000E+00
         0.00000E+00
         0.00000E+00
         0.47312E-02
         0.15181E-02
         0.28864E-02
         0.68145E-02
         0.46138E-02
         0.39723E-02
         0.68349E-02
         0.58686E-02
         0.58723E-02
         0.38327E-02
         0.30661E-02
         0.53638E-02
         0.24415E-02
         0.16017E-02
         0.68868E-03
         0.13631E-02
         0.43221E-02
         0.18927E-02
         0.30043E-01
         0.30923E-01
         0.32626E-01
         0.32375E-01
         0.34625E-01
         0.37304E-01
         0.35595E-01
         0.31364E-01
         0.30487E-01
         0.32830E-01
         0.32203E-01
         0.31864E-01
         0.25688E-01
         0.24262E-01
         0.27081E-01
         0.29353E-01
         0.30599E-01
         0.33667E-01
         0.32064E-01
         0.33027E-01
         0.29375E-01
         0.27742E-01
         0.29637E-01
         0.28717E-01
         0.29709E-01
         0.29445E-01
         0.27446E-02
         0.36863E-03
         0.20139E-03
         0.00000E+00
         0.28471E-02
         0.99624E-03
         0.00000E+00
         0.26588E-02
         0.57274E-03
         0.25149E-02
         0.00000E+00
         0.81956E-02
         0.55292E-02
         0.97816E-03
         0.89740E-02
         0.11675E-02
         0.00000E+00
         0.00000E+00
         0.00000E+00
         0.00000E+00
         0.57915E-02
         0.52098E-02
         0.50058E-02
         0.00000E+00
         0.60305E-03
         0.00000E+00
         0.94293E-03
         0.00000E+00
         0.00000E+00
         0.73784E-03
         0.54383E-03
         0.00000E+00
         0.00000E+00
         0.00000E+00
         0.47353E-02
         0.15175E-02
         0.28855E-02
         0.68304E-02
         0.46316E-02
         0.39820E-02
         0.68415E-02
         0.58728E-02
         0.58740E-02
         0.38347E-02
         0.30666E-02
         0.53652E-02
         0.24429E-02
         0.16025E-02
         0.68469E-03
         0.13573E-02
         0.43187E-02
         0.18852E-02
         0.30031E-01
         0.30915E-01
         0.32626E-01
         0.32375E-01
         0.34619E-01
         0.37290E-01
         0.35578E-01
         0.31354E-01
         0.30479E-01
         0.32817E-01
         0.32198E-01
         0.31869E-01
         0.25689E-01
         0.24262E-01
         0.27086E-01
         0.29364E-01
         0.30610E-01
         0.33676E-01
         0.32062E-01
         0.33025E-01
         0.29372E-01
         0.27741E-01
         0.29626E-01
         0.28696E-01
         0.29690E-01
         0.29428E-01
         0.30121E-02
         0.80052E-03
         0.64701E-03
         0.00000E+00
         0.32037E-02
         0.14238E-02
         0.00000E+00
         0.29977E-02
         0.95019E-03
         0.28701E-02
         0.27056E-03
         0.85081E-02
         0.58452E-02
         0.15247E-02
         0.93001E-02
         0.14840E-02
         0.00000E+00
         0.00000E+00
         0.29321E-03
         0.00000E+00
         0.60557E-02
         0.54907E-02
         0.52664E-02
         0.00000E+00
         0.10973E-02
         0.00000E+00
         0.14887E-02
         0.00000E+00
         0.00000E+00
         0.12424E-02
         0.90951E-03
         0.00000E+00
         0.00000E+00
         0.00000E+00
         0.50873E-02
         0.19522E-02
         0.32387E-02
         0.71720E-02
         0.50156E-02
         0.43748E-02
         0.71625E-02
         0.61829E-02
         0.61545E-02
         0.41127E-02
         0.33946E-02
         0.56964E-02
         0.28293E-02
         0.19906E-02
         0.11251E-02
         0.17702E-02
         0.46506E-02
         0.22669E-02
         0.30404E-01
         0.31279E-01
         0.33003E-01
         0.32738E-01
         0.34988E-01
         0.37675E-01
         0.35967E-01
         0.31753E-01
         0.30885E-01
         0.33229E-01
         0.32600E-01
         0.32247E-01
         0.26019E-01
         0.24570E-01
         0.27395E-01
         0.29681E-01
         0.30932E-01
         0.34029E-01
         0.32444E-01
         0.33408E-01
         0.29718E-01
         0.28074E-01
         0.29962E-01
         0.29023E-01
         0.30013E-01
         0.29751E-01
         0.17223E-01
         0.16769E-01
         0.16437E-01
         0.14535E-01
         0.19753E-01
         0.17691E-01
         0.17793E-01
         0.19469E-01
         0.15658E-01
         0.19376E-01
         0.19895E-01
         0.26925E-01
         0.23092E-01
         0.20969E-01
         0.28322E-01
         0.15615E-01
         0.16053E-01
         0.13532E-01
         0.16811E-01
         0.17453E-01
         0.21629E-01
         0.21671E-01
         0.20352E-01
         0.15890E-01
         0.18709E-01
         0.15065E-01
         0.20893E-01
         0.19754E-01
         0.19968E-01
         0.19457E-01
         0.15490E-01
         0.15763E-01
         0.14647E-01
         0.15355E-01
         0.22575E-01
         0.19205E-01
         0.19955E-01
         0.26185E-01
         0.24208E-01
         0.23558E-01
         0.25777E-01
         0.24048E-01
         0.22952E-01
         0.19164E-01
         0.19395E-01
         0.22927E-01
         0.19772E-01
         0.18215E-01
         0.17446E-01
         0.18402E-01
         0.21511E-01
         0.18691E-01
         0.52353E-01
         0.52556E-01
         0.54723E-01
         0.53877E-01
         0.56733E-01
         0.60649E-01
         0.59722E-01
         0.55763E-01
         0.55026E-01
         0.57673E-01
         0.56377E-01
         0.54538E-01
         0.46367E-01
         0.43893E-01
         0.46387E-01
         0.48565E-01
         0.49909E-01
         0.54398E-01
         0.54256E-01
         0.55334E-01
         0.50374E-01
         0.48244E-01
         0.50664E-01
         0.49695E-01
         0.50340E-01
         0.49903E-01
  
SCALARS                            dam  double 1
LOOKUP_TABLE default
         0.00000E+00
         0.00000E+00
         0.00000E+00
         0.00000E+00
         0.00000E+00
         0.00000E+00
         0.00000E+00
         0.00000E+00
         0.00000E+00
         0.00000E+00
         0.00000E+00
         0.00000E+00
         0.00000E+00
         0.00000E+00
         0.00000E+00
         0.00000E+00
         0.00000E+00
         0.00000E+00
         0.00000E+00
         0.00000E+00
         0.00000E+00
         0.00000E+00
         0.00000E+00
         0.00000E+00
         0.00000E+00
         0.00000E+00
         0.00000E+00
         0.00000E+00
         0.00000E+00
         0.00000E+00
         0.00000E+00
         0.00000E+00
         0.00000E+00
         0.00000E+00
         0.00000E+00
         0.00000E+00
         0.00000E+00
         0.00000E+00
         0.00000E+00
         0.00000E+00
         0.00000E+00
         0.00000E+00
         0.00000E+00
         0.00000E+00
         0.00000E+00
         0.00000E+00
         0.00000E+00
         0.00000E+00
         0.00000E+00
         0.00000E+00
         0.00000E+00
         0.00000E+00
         0.00000E+00
         0.00000E+00
         0.00000E+00
         0.00000E+00
         0.00000E+00
         0.00000E+00
         0.00000E+00
         0.00000E+00
         0.00000E+00
         0.00000E+00
         0.00000E+00
         0.00000E+00
         0.00000E+00
         0.00000E+00
         0.00000E+00
         0.00000E+00
         0.00000E+00
         0.00000E+00
         0.00000E+00
         0.00000E+00
         0.00000E+00
         0.00000E+00
         0.00000E+00
         0.00000E+00
         0.00000E+00
         0.00000E+00
         0.00000E+00
         0.00000E+00
         0.00000E+00
         0.00000E+00
         0.00000E+00
         0.00000E+00
         0.00000E+00
         0.00000E+00
         0.00000E+00
         0.00000E+00
         0.00000E+00
         0.00000E+00
         0.00000E+00
         0.00000E+00
         0.00000E+00
         0.00000E+00
         0.00000E+00
         0.00000E+00
         0.00000E+00
         0.00000E+00
         0.00000E+00
         0.00000E+00
         0.00000E+00
         0.00000E+00
         0.00000E+00
         0.00000E+00
         0.00000E+00
         0.00000E+00
         0.00000E+00
         0.00000E+00
         0.00000E+00
         0.00000E+00
         0.00000E+00
         0.00000E+00
         0.00000E+00
         0.00000E+00
         0.00000E+00
         0.00000E+00
         0.00000E+00
         0.00000E+00
         0.00000E+00
         0.00000E+00
         0.00000E+00
         0.00000E+00
         0.00000E+00
         0.00000E+00
         0.00000E+00
         0.00000E+00
         0.00000E+00
         0.00000E+00
         0.00000E+00
         0.00000E+00
         0.00000E+00
         0.00000E+00
         0.00000E+00
         0.00000E+00
         0.00000E+00
         0.00000E+00
         0.00000E+00
         0.00000E+00
         0.00000E+00
         0.00000E+00
         0.00000E+00
         0.00000E+00
         0.00000E+00
         0.00000E+00
         0.00000E+00
         0.00000E+00
         0.00000E+00
         0.00000E+00
         0.00000E+00
         0.00000E+00
         0.00000E+00
         0.00000E+00
         0.00000E+00
         0.00000E+00
         0.00000E+00
         0.00000E+00
         0.00000E+00
         0.00000E+00
         0.00000E+00
         0.00000E+00
         0.00000E+00
         0.00000E+00
         0.00000E+00
         0.00000E+00
         0.00000E+00
         0.00000E+00
         0.00000E+00
         0.00000E+00
         0.00000E+00
         0.00000E+00
         0.00000E+00
         0.00000E+00
         0.00000E+00
         0.00000E+00
         0.00000E+00
         0.00000E+00
         0.00000E+00
         0.00000E+00
         0.00000E+00
         0.00000E+00
         0.00000E+00
         0.00000E+00
         0.00000E+00
         0.00000E+00
         0.00000E+00
         0.00000E+00
         0.00000E+00
         0.00000E+00
         0.00000E+00
         0.00000E+00
         0.00000E+00
         0.00000E+00
         0.00000E+00
         0.00000E+00
         0.00000E+00
         0.00000E+00
         0.00000E+00
         0.00000E+00
         0.00000E+00
         0.00000E+00
         0.00000E+00
         0.00000E+00
         0.00000E+00
         0.00000E+00
         0.00000E+00
         0.00000E+00
         0.00000E+00
         0.00000E+00
         0.00000E+00
         0.00000E+00
         0.00000E+00
         0.00000E+00
         0.00000E+00
         0.00000E+00
         0.00000E+00
         0.00000E+00
         0.00000E+00
         0.00000E+00
         0.00000E+00
         0.00000E+00
         0.00000E+00
         0.00000E+00
         0.00000E+00
         0.00000E+00
         0.00000E+00
         0.00000E+00
         0.00000E+00
         0.00000E+00
         0.00000E+00
         0.00000E+00
         0.00000E+00
         0.00000E+00
         0.00000E+00
         0.00000E+00
         0.00000E+00
         0.00000E+00
         0.00000E+00
         0.00000E+00
         0.00000E+00
         0.00000E+00
         0.00000E+00
         0.00000E+00
         0.00000E+00
         0.00000E+00
         0.00000E+00
         0.00000E+00
         0.00000E+00
         0.00000E+00
         0.00000E+00
         0.00000E+00
         0.00000E+00
         0.00000E+00
         0.00000E+00
         0.00000E+00
         0.00000E+00
         0.00000E+00
         0.00000E+00
         0.00000E+00
         0.00000E+00
         0.00000E+00
         0.00000E+00
         0.00000E+00
         0.00000E+00
         0.00000E+00
         0.00000E+00
         0.00000E+00
         0.00000E+00
         0.00000E+00
         0.00000E+00
         0.00000E+00
         0.00000E+00
         0.00000E+00
         0.00000E+00
         0.00000E+00
         0.00000E+00
         0.00000E+00
         0.00000E+00
         0.00000E+00
         0.00000E+00
         0.00000E+00
         0.00000E+00
         0.00000E+00
         0.00000E+00
         0.00000E+00
         0.00000E+00
         0.00000E+00
         0.00000E+00
         0.00000E+00
         0.00000E+00
         0.00000E+00
         0.00000E+00
         0.00000E+00
         0.00000E+00
         0.00000E+00
         0.00000E+00
         0.00000E+00
         0.00000E+00
         0.00000E+00
         0.00000E+00
         0.00000E+00
         0.00000E+00
         0.00000E+00
         0.00000E+00
         0.00000E+00
         0.00000E+00
         0.00000E+00
         0.00000E+00
         0.00000E+00
         0.00000E+00
         0.00000E+00
         0.00000E+00
         0.00000E+00
         0.00000E+00
         0.00000E+00
         0.00000E+00
         0.00000E+00
         0.00000E+00
         0.00000E+00
         0.00000E+00
         0.00000E+00
         0.00000E+00
         0.00000E+00
         0.00000E+00
         0.00000E+00
         0.00000E+00
         0.00000E+00
         0.00000E+00
         0.00000E+00
         0.00000E+00
         0.00000E+00
         0.00000E+00
         0.00000E+00
         0.00000E+00
         0.00000E+00
         0.00000E+00
         0.00000E+00
         0.00000E+00
         0.00000E+00
         0.00000E+00
         0.00000E+00
         0.00000E+00
         0.00000E+00
         0.00000E+00
         0.00000E+00
         0.00000E+00
         0.00000E+00
         0.00000E+00
         0.00000E+00
         0.00000E+00
         0.00000E+00
         0.00000E+00
         0.00000E+00
         0.00000E+00
         0.00000E+00
         0.00000E+00
         0.00000E+00
         0.00000E+00
         0.00000E+00
         0.00000E+00
         0.00000E+00
         0.00000E+00
         0.00000E+00
         0.00000E+00
         0.00000E+00
         0.00000E+00
         0.00000E+00
         0.00000E+00
         0.00000E+00
         0.00000E+00
         0.00000E+00
         0.00000E+00
         0.00000E+00
         0.00000E+00
         0.00000E+00
         0.00000E+00
         0.00000E+00
         0.00000E+00
         0.00000E+00
         0.00000E+00
         0.00000E+00
         0.00000E+00
         0.00000E+00
         0.00000E+00
         0.00000E+00
         0.00000E+00
         0.00000E+00
         0.00000E+00
         0.00000E+00
         0.00000E+00
         0.00000E+00
         0.00000E+00
         0.00000E+00
         0.00000E+00
         0.00000E+00
         0.00000E+00
         0.00000E+00
         0.00000E+00
         0.00000E+00
         0.00000E+00
         0.00000E+00
         0.00000E+00
         0.00000E+00
         0.00000E+00
         0.00000E+00
         0.00000E+00
         0.00000E+00
         0.00000E+00
         0.00000E+00
         0.00000E+00
         0.00000E+00
         0.00000E+00
         0.00000E+00
         0.00000E+00
         0.00000E+00
         0.00000E+00
         0.00000E+00
         0.00000E+00
         0.00000E+00
         0.00000E+00
         0.00000E+00
         0.00000E+00
         0.00000E+00
         0.00000E+00
         0.00000E+00
         0.00000E+00
         0.00000E+00
         0.00000E+00
         0.00000E+00
         0.00000E+00
         0.00000E+00
         0.00000E+00
         0.00000E+00
         0.00000E+00
         0.00000E+00
         0.00000E+00
         0.00000E+00
         0.00000E+00
         0.00000E+00
         0.00000E+00
         0.00000E+00
         0.00000E+00
         0.00000E+00
         0.00000E+00
         0.00000E+00
         0.00000E+00
         0.00000E+00
         0.00000E+00
         0.00000E+00
         0.00000E+00
         0.00000E+00
         0.00000E+00
         0.00000E+00
         0.00000E+00
         0.00000E+00
         0.00000E+00
         0.00000E+00
         0.00000E+00
         0.00000E+00
         0.00000E+00
         0.00000E+00
         0.00000E+00
         0.00000E+00
         0.00000E+00
         0.00000E+00
         0.00000E+00
         0.00000E+00
         0.00000E+00
         0.00000E+00
         0.00000E+00
         0.00000E+00
         0.00000E+00
         0.00000E+00
         0.00000E+00
         0.00000E+00
         0.00000E+00
         0.00000E+00
         0.00000E+00
         0.00000E+00
         0.00000E+00
         0.00000E+00
         0.00000E+00
         0.00000E+00
         0.00000E+00
         0.00000E+00
         0.00000E+00
         0.00000E+00
         0.00000E+00
         0.00000E+00
         0.00000E+00
         0.00000E+00
         0.00000E+00
         0.00000E+00
         0.00000E+00
         0.00000E+00
         0.00000E+00
         0.00000E+00
         0.00000E+00
         0.00000E+00
         0.00000E+00
         0.00000E+00
         0.00000E+00
         0.00000E+00
         0.00000E+00
         0.00000E+00
         0.00000E+00
         0.00000E+00
         0.00000E+00
         0.00000E+00
         0.00000E+00
         0.00000E+00
         0.00000E+00
         0.00000E+00
         0.00000E+00
         0.00000E+00
         0.00000E+00
         0.00000E+00
         0.00000E+00
         0.00000E+00
         0.00000E+00
         0.00000E+00
         0.00000E+00
         0.00000E+00
         0.00000E+00
         0.00000E+00
         0.00000E+00
         0.00000E+00
         0.00000E+00
         0.00000E+00
         0.00000E+00
         0.00000E+00
         0.00000E+00
         0.00000E+00
         0.00000E+00
         0.00000E+00
         0.00000E+00
         0.00000E+00
         0.00000E+00
         0.00000E+00
         0.00000E+00
         0.00000E+00
         0.00000E+00
         0.00000E+00
         0.00000E+00
         0.00000E+00
         0.00000E+00
         0.00000E+00
         0.00000E+00
         0.00000E+00
         0.00000E+00
         0.00000E+00
         0.00000E+00
         0.00000E+00
         0.00000E+00
         0.00000E+00
         0.00000E+00
         0.00000E+00
         0.00000E+00
         0.00000E+00
         0.00000E+00
         0.00000E+00
         0.00000E+00
         0.00000E+00
         0.00000E+00
         0.00000E+00
         0.00000E+00
         0.00000E+00
         0.00000E+00
         0.00000E+00
         0.00000E+00
         0.00000E+00
         0.00000E+00
         0.00000E+00
         0.00000E+00
         0.00000E+00
         0.00000E+00
         0.00000E+00
         0.00000E+00
         0.00000E+00
         0.00000E+00
         0.00000E+00
         0.00000E+00
         0.00000E+00
         0.00000E+00
         0.00000E+00
         0.00000E+00
         0.00000E+00
         0.00000E+00
         0.00000E+00
         0.00000E+00
         0.00000E+00
         0.00000E+00
         0.00000E+00
         0.00000E+00
         0.00000E+00
         0.00000E+00
         0.00000E+00
         0.00000E+00
         0.00000E+00
         0.00000E+00
         0.00000E+00
         0.00000E+00
         0.00000E+00
         0.00000E+00
         0.00000E+00
         0.00000E+00
         0.00000E+00
         0.00000E+00
         0.00000E+00
         0.00000E+00
         0.00000E+00
         0.00000E+00
         0.00000E+00
         0.00000E+00
         0.00000E+00
         0.00000E+00
         0.00000E+00
         0.00000E+00
         0.00000E+00
         0.00000E+00
         0.00000E+00
         0.00000E+00
         0.00000E+00
         0.00000E+00
         0.00000E+00
         0.00000E+00
         0.00000E+00
         0.00000E+00
         0.00000E+00
         0.00000E+00
         0.00000E+00
         0.00000E+00
         0.00000E+00
         0.00000E+00
         0.00000E+00
         0.00000E+00
         0.00000E+00
         0.00000E+00
         0.00000E+00
         0.00000E+00
         0.00000E+00
         0.00000E+00
         0.00000E+00
         0.00000E+00
         0.00000E+00
         0.00000E+00
         0.00000E+00
         0.00000E+00
         0.00000E+00
         0.00000E+00
         0.00000E+00
         0.00000E+00
         0.00000E+00
         0.00000E+00
         0.00000E+00
         0.00000E+00
         0.00000E+00
         0.00000E+00
         0.00000E+00
         0.00000E+00
         0.00000E+00
         0.00000E+00
         0.00000E+00
         0.00000E+00
         0.00000E+00
         0.00000E+00
         0.00000E+00
         0.00000E+00
         0.00000E+00
         0.00000E+00
         0.00000E+00
         0.00000E+00
         0.00000E+00
         0.00000E+00
         0.00000E+00
         0.00000E+00
         0.00000E+00
         0.00000E+00
         0.00000E+00
         0.00000E+00
         0.00000E+00
         0.00000E+00
         0.00000E+00
         0.00000E+00
         0.00000E+00
         0.00000E+00
         0.00000E+00
         0.00000E+00
         0.00000E+00
         0.00000E+00
         0.00000E+00
         0.00000E+00
         0.00000E+00
         0.00000E+00
         0.00000E+00
         0.00000E+00
         0.00000E+00
         0.00000E+00
         0.00000E+00
         0.00000E+00
         0.00000E+00
         0.00000E+00
         0.00000E+00
         0.00000E+00
         0.00000E+00
         0.00000E+00
         0.00000E+00
         0.00000E+00
         0.00000E+00
         0.00000E+00
         0.00000E+00
         0.00000E+00
         0.00000E+00
         0.00000E+00
         0.00000E+00
         0.00000E+00
         0.00000E+00
         0.00000E+00
         0.00000E+00
         0.00000E+00
         0.00000E+00
         0.00000E+00
         0.00000E+00
         0.00000E+00
         0.00000E+00
         0.00000E+00
         0.00000E+00
         0.00000E+00
         0.00000E+00
         0.00000E+00
         0.00000E+00
         0.00000E+00
         0.00000E+00
         0.00000E+00
         0.00000E+00
         0.00000E+00
         0.00000E+00
         0.00000E+00
         0.00000E+00
         0.00000E+00
         0.00000E+00
         0.00000E+00
         0.00000E+00
         0.00000E+00
         0.00000E+00
         0.00000E+00
         0.00000E+00
         0.00000E+00
         0.00000E+00
         0.00000E+00
         0.00000E+00
         0.00000E+00
         0.00000E+00
         0.00000E+00
         0.00000E+00
         0.00000E+00
         0.00000E+00
         0.00000E+00
         0.00000E+00
         0.00000E+00
         0.00000E+00
         0.00000E+00
         0.00000E+00
         0.00000E+00
         0.00000E+00
         0.00000E+00
         0.00000E+00
         0.00000E+00
         0.00000E+00
         0.00000E+00
         0.00000E+00
         0.00000E+00
         0.00000E+00
         0.00000E+00
         0.00000E+00
         0.00000E+00
         0.00000E+00
         0.00000E+00
         0.00000E+00
         0.00000E+00
         0.00000E+00
         0.00000E+00
         0.00000E+00
         0.00000E+00
         0.00000E+00
         0.00000E+00
         0.00000E+00
         0.00000E+00
         0.00000E+00
         0.00000E+00
         0.00000E+00
         0.00000E+00
         0.00000E+00
         0.00000E+00
         0.00000E+00
         0.00000E+00
         0.00000E+00
         0.00000E+00
         0.00000E+00
         0.00000E+00
         0.00000E+00
         0.00000E+00
         0.00000E+00
         0.00000E+00
         0.00000E+00
         0.00000E+00
         0.00000E+00
         0.00000E+00
         0.00000E+00
         0.00000E+00
         0.00000E+00
         0.00000E+00
         0.00000E+00
         0.00000E+00
         0.00000E+00
         0.00000E+00
         0.00000E+00
         0.00000E+00
         0.00000E+00
         0.00000E+00
         0.00000E+00
         0.00000E+00
         0.00000E+00
         0.00000E+00
         0.00000E+00
         0.00000E+00
         0.00000E+00
         0.00000E+00
         0.00000E+00
         0.00000E+00
         0.00000E+00
         0.00000E+00
         0.00000E+00
         0.00000E+00
         0.00000E+00
         0.00000E+00
         0.00000E+00
         0.00000E+00
         0.00000E+00
         0.00000E+00
         0.00000E+00
         0.00000E+00
         0.00000E+00
         0.00000E+00
         0.00000E+00
         0.00000E+00
         0.00000E+00
         0.00000E+00
         0.00000E+00
         0.00000E+00
         0.00000E+00
         0.00000E+00
         0.00000E+00
         0.00000E+00
         0.00000E+00
         0.00000E+00
         0.00000E+00
         0.00000E+00
         0.00000E+00
         0.00000E+00
         0.00000E+00
         0.00000E+00
         0.00000E+00
         0.00000E+00
         0.00000E+00
         0.00000E+00
         0.00000E+00
         0.00000E+00
         0.00000E+00
         0.00000E+00
         0.00000E+00
         0.00000E+00
         0.00000E+00
         0.00000E+00
         0.00000E+00
         0.00000E+00
         0.00000E+00
         0.00000E+00
         0.00000E+00
         0.00000E+00
         0.00000E+00
         0.00000E+00
         0.00000E+00
         0.00000E+00
         0.00000E+00
         0.00000E+00
         0.00000E+00
         0.00000E+00
         0.00000E+00
         0.00000E+00
         0.00000E+00
         0.00000E+00
         0.00000E+00
         0.00000E+00
         0.00000E+00
         0.00000E+00
         0.00000E+00
         0.00000E+00
         0.00000E+00
         0.00000E+00
         0.00000E+00
         0.00000E+00
         0.00000E+00
         0.00000E+00
         0.00000E+00
         0.00000E+00
         0.00000E+00
         0.00000E+00
         0.00000E+00
         0.00000E+00
         0.00000E+00
         0.00000E+00
         0.00000E+00
         0.00000E+00
         0.00000E+00
         0.00000E+00
         0.00000E+00
         0.00000E+00
         0.00000E+00
         0.00000E+00
         0.00000E+00
         0.00000E+00
         0.00000E+00
         0.00000E+00
         0.00000E+00
         0.00000E+00
         0.00000E+00
         0.00000E+00
         0.00000E+00
         0.00000E+00
         0.00000E+00
         0.00000E+00
         0.00000E+00
         0.00000E+00
         0.00000E+00
         0.00000E+00
         0.00000E+00
         0.00000E+00
         0.00000E+00
         0.00000E+00
         0.00000E+00
         0.00000E+00
         0.00000E+00
         0.00000E+00
         0.00000E+00
         0.00000E+00
         0.00000E+00
         0.00000E+00
         0.00000E+00
         0.00000E+00
         0.00000E+00
         0.00000E+00
         0.00000E+00
         0.00000E+00
         0.00000E+00
         0.00000E+00
         0.00000E+00
         0.00000E+00
         0.00000E+00
         0.00000E+00
         0.00000E+00
         0.00000E+00
         0.00000E+00
         0.00000E+00
         0.00000E+00
         0.00000E+00
         0.00000E+00
         0.00000E+00
         0.00000E+00
         0.00000E+00
         0.00000E+00
         0.00000E+00
         0.00000E+00
         0.00000E+00
         0.00000E+00
         0.00000E+00
         0.00000E+00
         0.00000E+00
         0.00000E+00
         0.00000E+00
         0.00000E+00
         0.00000E+00
         0.00000E+00
         0.00000E+00
         0.00000E+00
         0.00000E+00
         0.00000E+00
         0.00000E+00
         0.00000E+00
         0.00000E+00
         0.00000E+00
         0.00000E+00
         0.00000E+00
         0.00000E+00
         0.00000E+00
         0.00000E+00
         0.00000E+00
         0.00000E+00
         0.00000E+00
         0.00000E+00
         0.00000E+00
         0.00000E+00
         0.00000E+00
         0.00000E+00
         0.00000E+00
         0.00000E+00
         0.00000E+00
         0.00000E+00
         0.00000E+00
         0.00000E+00
         0.00000E+00
         0.00000E+00
         0.00000E+00
         0.00000E+00
         0.00000E+00
         0.00000E+00
         0.00000E+00
         0.00000E+00
         0.00000E+00
         0.00000E+00
         0.00000E+00
         0.00000E+00
         0.00000E+00
         0.00000E+00
         0.00000E+00
         0.00000E+00
         0.00000E+00
         0.00000E+00
         0.00000E+00
         0.00000E+00
         0.00000E+00
         0.00000E+00
         0.00000E+00
         0.00000E+00
         0.00000E+00
         0.00000E+00
         0.00000E+00
         0.00000E+00
         0.00000E+00
         0.00000E+00
         0.00000E+00
         0.00000E+00
         0.00000E+00
         0.00000E+00
         0.00000E+00
         0.00000E+00
         0.00000E+00
         0.00000E+00
         0.00000E+00
         0.00000E+00
         0.00000E+00
         0.00000E+00
         0.00000E+00
         0.00000E+00
         0.00000E+00
         0.00000E+00
         0.00000E+00
         0.00000E+00
         0.00000E+00
         0.00000E+00
         0.00000E+00
         0.00000E+00
         0.00000E+00
         0.00000E+00
         0.00000E+00
         0.00000E+00
         0.00000E+00
         0.00000E+00
         0.00000E+00
         0.00000E+00
         0.00000E+00
         0.00000E+00
         0.00000E+00
         0.00000E+00
         0.00000E+00
         0.00000E+00
         0.00000E+00
         0.00000E+00
         0.00000E+00
         0.00000E+00
         0.00000E+00
         0.00000E+00
         0.00000E+00
         0.00000E+00
         0.00000E+00
         0.00000E+00
         0.00000E+00
         0.00000E+00
         0.00000E+00
         0.00000E+00
         0.00000E+00
         0.00000E+00
         0.00000E+00
         0.00000E+00
         0.00000E+00
         0.00000E+00
         0.00000E+00
         0.00000E+00
         0.00000E+00
         0.00000E+00
         0.00000E+00
         0.00000E+00
         0.00000E+00
         0.00000E+00
         0.00000E+00
         0.00000E+00
         0.00000E+00
         0.00000E+00
         0.00000E+00
         0.00000E+00
         0.00000E+00
         0.00000E+00
         0.00000E+00
         0.00000E+00
         0.00000E+00
         0.00000E+00
         0.00000E+00
         0.00000E+00
         0.00000E+00
         0.00000E+00
         0.00000E+00
         0.00000E+00
         0.00000E+00
         0.00000E+00
         0.00000E+00
         0.00000E+00
         0.00000E+00
         0.00000E+00
         0.00000E+00
         0.00000E+00
         0.00000E+00
         0.00000E+00
         0.00000E+00
         0.00000E+00
         0.00000E+00
         0.00000E+00
         0.00000E+00
         0.00000E+00
         0.00000E+00
         0.00000E+00
         0.00000E+00
         0.00000E+00
         0.00000E+00
         0.00000E+00
         0.00000E+00
         0.00000E+00
         0.00000E+00
         0.00000E+00
         0.00000E+00
         0.00000E+00
         0.00000E+00
         0.00000E+00
         0.00000E+00
         0.00000E+00
         0.00000E+00
         0.00000E+00
         0.00000E+00
         0.00000E+00
         0.00000E+00
         0.00000E+00
         0.00000E+00
         0.00000E+00
         0.00000E+00
         0.00000E+00
         0.00000E+00
         0.00000E+00
         0.00000E+00
         0.00000E+00
         0.00000E+00
         0.00000E+00
         0.00000E+00
         0.00000E+00
         0.00000E+00
         0.00000E+00
         0.00000E+00
         0.00000E+00
         0.00000E+00
         0.00000E+00
         0.00000E+00
         0.00000E+00
         0.00000E+00
         0.00000E+00
         0.00000E+00
         0.00000E+00
         0.00000E+00
         0.00000E+00
         0.00000E+00
         0.00000E+00
         0.00000E+00
         0.00000E+00
         0.00000E+00
         0.00000E+00
         0.00000E+00
         0.00000E+00
         0.00000E+00
         0.00000E+00
         0.00000E+00
         0.00000E+00
         0.00000E+00
         0.00000E+00
         0.00000E+00
         0.00000E+00
         0.00000E+00
         0.00000E+00
         0.00000E+00
         0.00000E+00
         0.00000E+00
         0.00000E+00
         0.00000E+00
         0.00000E+00
         0.00000E+00
         0.00000E+00
         0.00000E+00
         0.00000E+00
         0.00000E+00
         0.00000E+00
         0.00000E+00
         0.00000E+00
         0.00000E+00
         0.00000E+00
         0.00000E+00
         0.00000E+00
         0.00000E+00
         0.00000E+00
         0.00000E+00
         0.00000E+00
         0.00000E+00
         0.00000E+00
         0.00000E+00
         0.00000E+00
         0.00000E+00
         0.00000E+00
         0.00000E+00
         0.00000E+00
         0.00000E+00
         0.00000E+00
         0.00000E+00
         0.00000E+00
         0.00000E+00
         0.00000E+00
         0.00000E+00
         0.00000E+00
         0.00000E+00
         0.00000E+00
         0.00000E+00
         0.00000E+00
         0.00000E+00
         0.00000E+00
         0.00000E+00
         0.00000E+00
         0.00000E+00
         0.00000E+00
         0.00000E+00
         0.00000E+00
         0.00000E+00
         0.00000E+00
         0.00000E+00
         0.00000E+00
         0.00000E+00
         0.00000E+00
         0.00000E+00
         0.00000E+00
         0.00000E+00
         0.00000E+00
         0.00000E+00
         0.00000E+00
         0.00000E+00
         0.00000E+00
         0.00000E+00
         0.00000E+00
         0.00000E+00
         0.00000E+00
         0.00000E+00
         0.00000E+00
         0.00000E+00
         0.00000E+00
         0.00000E+00
         0.00000E+00
         0.00000E+00
         0.00000E+00
         0.00000E+00
         0.00000E+00
         0.00000E+00
         0.00000E+00
         0.00000E+00
         0.00000E+00
         0.00000E+00
         0.00000E+00
         0.00000E+00
         0.00000E+00
         0.00000E+00
         0.00000E+00
         0.00000E+00
         0.00000E+00
         0.00000E+00
         0.00000E+00
         0.00000E+00
         0.00000E+00
         0.00000E+00
         0.00000E+00
         0.00000E+00
         0.00000E+00
         0.00000E+00
         0.00000E+00
         0.00000E+00
         0.00000E+00
         0.00000E+00
         0.00000E+00
         0.00000E+00
         0.00000E+00
         0.00000E+00
         0.00000E+00
         0.00000E+00
         0.00000E+00
         0.00000E+00
         0.00000E+00
         0.00000E+00
         0.00000E+00
         0.00000E+00
         0.00000E+00
         0.00000E+00
         0.00000E+00
         0.00000E+00
         0.00000E+00
         0.00000E+00
         0.00000E+00
         0.00000E+00
         0.00000E+00
         0.00000E+00
         0.00000E+00
         0.00000E+00
         0.00000E+00
         0.00000E+00
         0.00000E+00
         0.00000E+00
         0.00000E+00
         0.00000E+00
         0.00000E+00
         0.00000E+00
         0.00000E+00
         0.00000E+00
         0.00000E+00
         0.00000E+00
         0.00000E+00
         0.00000E+00
         0.00000E+00
         0.00000E+00
         0.00000E+00
         0.00000E+00
         0.00000E+00
         0.00000E+00
         0.00000E+00
         0.00000E+00
         0.00000E+00
         0.00000E+00
         0.00000E+00
         0.00000E+00
         0.00000E+00
         0.00000E+00
         0.00000E+00
         0.00000E+00
         0.00000E+00
         0.00000E+00
         0.00000E+00
         0.00000E+00
         0.00000E+00
         0.00000E+00
         0.00000E+00
         0.00000E+00
         0.00000E+00
         0.00000E+00
         0.00000E+00
         0.00000E+00
         0.00000E+00
         0.00000E+00
         0.00000E+00
         0.00000E+00
         0.00000E+00
         0.00000E+00
         0.00000E+00
         0.00000E+00
         0.00000E+00
         0.00000E+00
         0.00000E+00
         0.00000E+00
         0.00000E+00
         0.00000E+00
         0.00000E+00
         0.00000E+00
         0.00000E+00
         0.00000E+00
         0.00000E+00
         0.00000E+00
         0.00000E+00
         0.00000E+00
         0.00000E+00
         0.00000E+00
         0.00000E+00
         0.00000E+00
         0.00000E+00
         0.00000E+00
         0.00000E+00
         0.00000E+00
         0.00000E+00
         0.00000E+00
         0.00000E+00
         0.00000E+00
         0.00000E+00
         0.00000E+00
         0.00000E+00
         0.00000E+00
         0.00000E+00
         0.00000E+00
         0.00000E+00
         0.00000E+00
         0.00000E+00
         0.00000E+00
         0.00000E+00
         0.00000E+00
         0.00000E+00
         0.00000E+00
         0.00000E+00
         0.00000E+00
         0.00000E+00
         0.00000E+00
         0.00000E+00
         0.00000E+00
         0.00000E+00
         0.00000E+00
         0.00000E+00
         0.00000E+00
         0.00000E+00
         0.00000E+00
         0.00000E+00
         0.00000E+00
         0.00000E+00
         0.00000E+00
         0.00000E+00
         0.00000E+00
         0.00000E+00
         0.00000E+00
         0.00000E+00
         0.00000E+00
         0.00000E+00
         0.00000E+00
         0.00000E+00
         0.00000E+00
         0.00000E+00
         0.00000E+00
         0.00000E+00
         0.00000E+00
         0.00000E+00
         0.00000E+00
         0.00000E+00
         0.00000E+00
         0.00000E+00
         0.00000E+00
         0.00000E+00
         0.00000E+00
         0.00000E+00
         0.00000E+00
         0.00000E+00
         0.00000E+00
         0.00000E+00
         0.00000E+00
         0.00000E+00
         0.00000E+00
         0.00000E+00
         0.00000E+00
         0.00000E+00
         0.00000E+00
         0.00000E+00
         0.00000E+00
         0.00000E+00
         0.00000E+00
         0.00000E+00
         0.00000E+00
         0.00000E+00
         0.00000E+00
         0.00000E+00
         0.00000E+00
         0.00000E+00
         0.00000E+00
         0.00000E+00
         0.00000E+00
         0.00000E+00
         0.00000E+00
         0.00000E+00
         0.00000E+00
         0.00000E+00
         0.00000E+00
         0.00000E+00
         0.00000E+00
         0.00000E+00
         0.00000E+00
         0.00000E+00
         0.00000E+00
         0.00000E+00
         0.00000E+00
         0.00000E+00
         0.00000E+00
         0.00000E+00
         0.00000E+00
         0.00000E+00
         0.00000E+00
         0.00000E+00
         0.00000E+00
         0.00000E+00
         0.00000E+00
         0.00000E+00
         0.00000E+00
         0.00000E+00
         0.00000E+00
         0.00000E+00
         0.00000E+00
         0.00000E+00
         0.00000E+00
         0.00000E+00
         0.00000E+00
         0.00000E+00
         0.00000E+00
         0.00000E+00
         0.00000E+00
         0.00000E+00
         0.00000E+00
         0.00000E+00
         0.00000E+00
         0.00000E+00
         0.00000E+00
         0.00000E+00
         0.00000E+00
         0.00000E+00
         0.00000E+00
         0.00000E+00
         0.00000E+00
         0.00000E+00
         0.00000E+00
         0.00000E+00
         0.00000E+00
         0.00000E+00
         0.00000E+00
         0.00000E+00
         0.00000E+00
         0.00000E+00
         0.00000E+00
         0.00000E+00
         0.00000E+00
         0.00000E+00
         0.00000E+00
         0.00000E+00
         0.00000E+00
         0.00000E+00
         0.00000E+00
         0.00000E+00
         0.00000E+00
         0.00000E+00
         0.00000E+00
         0.00000E+00
         0.00000E+00
         0.00000E+00
         0.00000E+00
         0.00000E+00
         0.00000E+00
         0.00000E+00
         0.00000E+00
         0.00000E+00
         0.00000E+00
         0.00000E+00
         0.00000E+00
         0.00000E+00
         0.00000E+00
         0.00000E+00
         0.00000E+00
         0.00000E+00
         0.00000E+00
         0.00000E+00
         0.00000E+00
         0.00000E+00
         0.00000E+00
         0.00000E+00
         0.00000E+00
         0.00000E+00
         0.00000E+00
         0.00000E+00
         0.00000E+00
         0.00000E+00
         0.00000E+00
         0.00000E+00
         0.00000E+00
         0.00000E+00
         0.00000E+00
         0.00000E+00
         0.00000E+00
         0.00000E+00
         0.00000E+00
         0.00000E+00
         0.00000E+00
         0.00000E+00
         0.00000E+00
         0.00000E+00
         0.00000E+00
         0.00000E+00
         0.00000E+00
         0.00000E+00
         0.00000E+00
         0.00000E+00
         0.00000E+00
         0.00000E+00
         0.00000E+00
         0.00000E+00
         0.00000E+00
         0.00000E+00
         0.00000E+00
         0.00000E+00
         0.00000E+00
         0.00000E+00
         0.00000E+00
         0.00000E+00
         0.00000E+00
         0.00000E+00
         0.00000E+00
         0.00000E+00
         0.00000E+00
         0.00000E+00
         0.00000E+00
         0.00000E+00
         0.00000E+00
         0.00000E+00
         0.00000E+00
         0.00000E+00
         0.00000E+00
         0.00000E+00
         0.00000E+00
         0.00000E+00
         0.00000E+00
         0.00000E+00
         0.00000E+00
         0.00000E+00
         0.00000E+00
         0.00000E+00
         0.00000E+00
         0.00000E+00
         0.00000E+00
         0.00000E+00
         0.00000E+00
         0.00000E+00
         0.00000E+00
         0.00000E+00
         0.00000E+00
         0.00000E+00
         0.00000E+00
         0.00000E+00
         0.00000E+00
         0.00000E+00
         0.00000E+00
         0.00000E+00
         0.00000E+00
         0.00000E+00
         0.00000E+00
         0.00000E+00
         0.00000E+00
         0.00000E+00
         0.00000E+00
         0.00000E+00
         0.00000E+00
         0.00000E+00
         0.00000E+00
         0.00000E+00
         0.00000E+00
         0.00000E+00
         0.00000E+00
         0.00000E+00
         0.00000E+00
         0.00000E+00
         0.00000E+00
         0.00000E+00
         0.00000E+00
         0.00000E+00
         0.00000E+00
         0.00000E+00
         0.00000E+00
         0.00000E+00
         0.00000E+00
         0.00000E+00
         0.00000E+00
         0.00000E+00
         0.00000E+00
         0.00000E+00
         0.00000E+00
         0.00000E+00
         0.00000E+00
         0.00000E+00
         0.00000E+00
         0.00000E+00
         0.00000E+00
         0.00000E+00
         0.00000E+00
         0.00000E+00
         0.00000E+00
         0.00000E+00
         0.00000E+00
         0.00000E+00
         0.00000E+00
         0.00000E+00
         0.00000E+00
         0.00000E+00
         0.00000E+00
         0.00000E+00
         0.00000E+00
         0.00000E+00
         0.00000E+00
         0.00000E+00
         0.00000E+00
         0.00000E+00
         0.00000E+00
         0.00000E+00
         0.00000E+00
         0.00000E+00
         0.00000E+00
         0.00000E+00
         0.00000E+00
         0.00000E+00
         0.00000E+00
         0.00000E+00
         0.00000E+00
         0.00000E+00
         0.00000E+00
         0.00000E+00
         0.00000E+00
         0.00000E+00
         0.00000E+00
         0.00000E+00
         0.00000E+00
         0.00000E+00
         0.00000E+00
         0.00000E+00
         0.00000E+00
         0.00000E+00
         0.00000E+00
         0.00000E+00
         0.00000E+00
         0.00000E+00
         0.00000E+00
         0.00000E+00
         0.00000E+00
         0.00000E+00
         0.00000E+00
         0.00000E+00
         0.00000E+00
         0.00000E+00
         0.00000E+00
         0.00000E+00
         0.00000E+00
         0.00000E+00
         0.00000E+00
         0.00000E+00
         0.00000E+00
         0.00000E+00
         0.00000E+00
         0.00000E+00
         0.00000E+00
         0.00000E+00
         0.00000E+00
         0.00000E+00
         0.00000E+00
         0.00000E+00
         0.00000E+00
         0.00000E+00
         0.00000E+00
         0.00000E+00
         0.00000E+00
         0.00000E+00
         0.00000E+00
         0.00000E+00
         0.00000E+00
         0.00000E+00
         0.00000E+00
         0.00000E+00
         0.00000E+00
         0.00000E+00
         0.00000E+00
         0.00000E+00
         0.00000E+00
         0.00000E+00
         0.00000E+00
         0.00000E+00
         0.00000E+00
         0.00000E+00
         0.00000E+00
         0.00000E+00
         0.00000E+00
         0.00000E+00
         0.00000E+00
         0.00000E+00
         0.00000E+00
         0.00000E+00
         0.00000E+00
         0.00000E+00
         0.00000E+00
         0.00000E+00
         0.00000E+00
         0.00000E+00
         0.00000E+00
         0.00000E+00
         0.00000E+00
         0.00000E+00
         0.00000E+00
         0.00000E+00
         0.00000E+00
         0.00000E+00
         0.00000E+00
         0.00000E+00
         0.00000E+00
         0.00000E+00
         0.00000E+00
         0.00000E+00
         0.00000E+00
         0.00000E+00
         0.00000E+00
         0.00000E+00
         0.00000E+00
         0.00000E+00
         0.00000E+00
         0.00000E+00
         0.00000E+00
         0.00000E+00
         0.00000E+00
         0.00000E+00
         0.00000E+00
         0.00000E+00
         0.00000E+00
         0.00000E+00
         0.00000E+00
         0.00000E+00
         0.00000E+00
         0.00000E+00
         0.00000E+00
         0.00000E+00
         0.00000E+00
         0.00000E+00
         0.00000E+00
         0.00000E+00
         0.00000E+00
         0.00000E+00
         0.00000E+00
         0.00000E+00
         0.00000E+00
         0.00000E+00
         0.00000E+00
         0.00000E+00
         0.00000E+00
         0.00000E+00
         0.00000E+00
         0.00000E+00
         0.00000E+00
         0.00000E+00
         0.00000E+00
         0.00000E+00
         0.00000E+00
         0.00000E+00
         0.00000E+00
         0.00000E+00
         0.00000E+00
         0.00000E+00
         0.00000E+00
         0.00000E+00
         0.00000E+00
         0.00000E+00
         0.00000E+00
         0.00000E+00
         0.00000E+00
         0.00000E+00
         0.00000E+00
         0.00000E+00
         0.00000E+00
         0.00000E+00
         0.00000E+00
         0.00000E+00
         0.00000E+00
         0.00000E+00
         0.00000E+00
         0.00000E+00
         0.00000E+00
         0.00000E+00
         0.00000E+00
         0.00000E+00
         0.00000E+00
         0.00000E+00
         0.00000E+00
         0.00000E+00
         0.00000E+00
         0.00000E+00
         0.00000E+00
         0.00000E+00
         0.00000E+00
         0.00000E+00
         0.00000E+00
         0.00000E+00
         0.00000E+00
         0.00000E+00
         0.00000E+00
         0.00000E+00
         0.00000E+00
         0.00000E+00
         0.00000E+00
         0.00000E+00
         0.00000E+00
         0.00000E+00
         0.00000E+00
         0.00000E+00
         0.00000E+00
         0.00000E+00
         0.00000E+00
         0.00000E+00
         0.00000E+00
         0.00000E+00
         0.00000E+00
         0.00000E+00
         0.00000E+00
         0.00000E+00
         0.00000E+00
         0.00000E+00
         0.00000E+00
         0.00000E+00
         0.00000E+00
         0.00000E+00
         0.00000E+00
         0.00000E+00
         0.00000E+00
         0.00000E+00
         0.00000E+00
         0.00000E+00
         0.00000E+00
         0.00000E+00
         0.00000E+00
         0.00000E+00
         0.00000E+00
         0.00000E+00
         0.00000E+00
         0.00000E+00
         0.00000E+00
         0.00000E+00
         0.00000E+00
         0.00000E+00
         0.00000E+00
         0.00000E+00
         0.00000E+00
         0.00000E+00
         0.00000E+00
         0.00000E+00
         0.00000E+00
  
SCALARS           initial_coordinate_x  double 1
LOOKUP_TABLE default
         0.10378E-02
         0.17452E-02
         0.23177E-02
         0.16698E-02
         0.10379E-02
         0.17453E-02
         0.23178E-02
         0.16700E-02
         0.30377E-02
         0.27791E-02
         0.30377E-02
         0.27788E-02
         0.12850E-02
         0.65139E-03
         0.12851E-02
         0.65164E-03
         0.12757E-03
        -0.12822E-03
         0.12783E-03
        -0.12804E-03
         0.94500E-03
         0.11327E-02
         0.17490E-02
         0.94533E-03
         0.11330E-02
         0.17494E-02
         0.40588E-03
         0.39779E-03
         0.40594E-03
         0.39781E-03
        -0.76303E-03
        -0.86604E-03
         0.46119E-03
        -0.76268E-03
        -0.86593E-03
         0.46164E-03
        -0.18300E-02
        -0.18440E-02
        -0.18297E-02
        -0.18441E-02
        -0.27238E-02
        -0.28028E-02
        -0.27238E-02
        -0.28031E-02
        -0.25365E-02
        -0.19287E-02
        -0.25363E-02
        -0.19283E-02
        -0.99363E-03
        -0.99377E-03
        -0.14380E-02
        -0.14377E-02
        -0.31574E-03
        -0.31594E-03
        -0.11068E-02
        -0.11071E-02
        -0.18845E-02
        -0.18713E-02
        -0.18846E-02
        -0.18714E-02
        -0.15871E-03
        -0.94089E-03
        -0.15844E-03
        -0.94029E-03
         0.78856E-03
         0.78922E-03
         0.17211E-02
         0.17211E-02
         0.32050E-02
         0.28046E-02
         0.32047E-02
         0.28047E-02
         0.23059E-02
         0.23060E-02
        -0.40614E-03
        -0.40627E-03
        -0.12092E-02
        -0.12092E-02
        -0.19448E-02
        -0.19448E-02
        -0.25029E-02
        -0.26371E-02
        -0.25029E-02
        -0.26372E-02
        -0.27671E-02
        -0.27674E-02
        -0.21123E-02
        -0.21122E-02
        -0.16087E-02
        -0.16087E-02
        -0.11939E-02
        -0.58641E-03
        -0.11937E-02
        -0.58606E-03
         0.20912E-03
         0.20952E-03
         0.10586E-02
         0.10589E-02
         0.18413E-02
         0.18413E-02
         0.24544E-02
         0.26022E-02
         0.24543E-02
         0.26021E-02
         0.37964E-02
         0.39100E-02
         0.37964E-02
         0.39100E-02
         0.34621E-02
         0.34621E-02
         0.29267E-02
         0.29267E-02
         0.22211E-02
         0.22211E-02
         0.13865E-02
         0.13865E-02
         0.47130E-03
         0.47130E-03
        -0.47130E-03
        -0.47130E-03
        -0.13865E-02
        -0.13865E-02
        -0.22211E-02
        -0.22211E-02
        -0.29267E-02
        -0.29267E-02
        -0.34621E-02
        -0.34621E-02
        -0.37964E-02
        -0.37964E-02
        -0.39100E-02
        -0.39100E-02
        -0.37964E-02
        -0.37964E-02
        -0.34621E-02
        -0.34621E-02
        -0.29267E-02
        -0.29267E-02
        -0.22211E-02
        -0.22211E-02
        -0.13865E-02
        -0.13865E-02
        -0.47130E-03
        -0.47130E-03
         0.47130E-03
         0.47130E-03
         0.13865E-02
         0.13865E-02
         0.22211E-02
         0.22211E-02
         0.29267E-02
         0.29267E-02
         0.34621E-02
         0.34621E-02
         0.37964E-02
         0.37964E-02
         0.10376E-02
         0.17450E-02
         0.23175E-02
         0.16696E-02
         0.30377E-02
         0.27795E-02
         0.12849E-02
         0.65115E-03
         0.12731E-03
        -0.12841E-03
         0.94467E-03
         0.11323E-02
         0.17487E-02
         0.40583E-03
         0.39777E-03
        -0.76338E-03
        -0.86615E-03
         0.46074E-03
        -0.18303E-02
        -0.18439E-02
        -0.27238E-02
        -0.28025E-02
        -0.25366E-02
        -0.19292E-02
        -0.99349E-03
        -0.14384E-02
        -0.31554E-03
        -0.11064E-02
        -0.18845E-02
        -0.18712E-02
        -0.15899E-03
        -0.94149E-03
         0.78790E-03
         0.17210E-02
         0.32053E-02
         0.28046E-02
         0.23058E-02
        -0.40600E-03
        -0.12092E-02
        -0.19447E-02
        -0.25028E-02
        -0.26370E-02
        -0.27668E-02
        -0.21125E-02
        -0.16088E-02
        -0.11940E-02
        -0.58676E-03
         0.20871E-03
         0.10583E-02
         0.18413E-02
         0.24545E-02
         0.26022E-02
         0.37964E-02
         0.39100E-02
         0.34621E-02
         0.29267E-02
         0.22211E-02
         0.13865E-02
         0.47130E-03
        -0.47130E-03
        -0.13865E-02
        -0.22211E-02
        -0.29267E-02
        -0.34621E-02
        -0.37964E-02
        -0.39100E-02
        -0.37964E-02
        -0.34621E-02
        -0.29267E-02
        -0.22211E-02
        -0.13865E-02
        -0.47130E-03
         0.47130E-03
         0.13865E-02
         0.22211E-02
         0.29267E-02
         0.34621E-02
         0.37964E-02
         0.10375E-02
         0.17448E-02
         0.23174E-02
         0.16694E-02
         0.30377E-02
         0.27798E-02
         0.12848E-02
         0.65090E-03
         0.12705E-03
        -0.12859E-03
         0.94434E-03
         0.11320E-02
         0.17483E-02
         0.40577E-03
         0.39776E-03
        -0.76374E-03
        -0.86626E-03
         0.46029E-03
        -0.18306E-02
        -0.18438E-02
        -0.27238E-02
        -0.28022E-02
        -0.25368E-02
        -0.19296E-02
        -0.99334E-03
        -0.14387E-02
        -0.31534E-03
        -0.11061E-02
        -0.18844E-02
        -0.18710E-02
        -0.15926E-03
        -0.94209E-03
         0.78724E-03
         0.17210E-02
         0.32056E-02
         0.28046E-02
         0.23057E-02
        -0.40586E-03
        -0.12092E-02
        -0.19447E-02
        -0.25028E-02
        -0.26369E-02
        -0.27665E-02
        -0.21126E-02
        -0.16088E-02
        -0.11941E-02
        -0.58711E-03
         0.20830E-03
         0.10580E-02
         0.18414E-02
         0.24546E-02
         0.26023E-02
         0.37964E-02
         0.39100E-02
         0.34621E-02
         0.29267E-02
         0.22211E-02
         0.13865E-02
         0.47130E-03
        -0.47130E-03
        -0.13865E-02
        -0.22211E-02
        -0.29267E-02
        -0.34621E-02
        -0.37964E-02
        -0.39100E-02
        -0.37964E-02
        -0.34621E-02
        -0.29267E-02
        -0.22211E-02
        -0.13865E-02
        -0.47130E-03
         0.47130E-03
         0.13865E-02
         0.22211E-02
         0.29267E-02
         0.34621E-02
         0.37964E-02
         0.10374E-02
         0.17446E-02
         0.23173E-02
         0.16692E-02
         0.30376E-02
         0.27801E-02
         0.12847E-02
         0.65065E-03
         0.12678E-03
        -0.12878E-03
         0.94401E-03
         0.11316E-02
         0.17479E-02
         0.40572E-03
         0.39774E-03
        -0.76409E-03
        -0.86637E-03
         0.45985E-03
        -0.18309E-02
        -0.18437E-02
        -0.27237E-02
        -0.28020E-02
        -0.25369E-02
        -0.19300E-02
        -0.99320E-03
        -0.14391E-02
        -0.31514E-03
        -0.11057E-02
        -0.18844E-02
        -0.18709E-02
        -0.15954E-03
        -0.94269E-03
         0.78658E-03
         0.17209E-02
         0.32060E-02
         0.28046E-02
         0.23056E-02
        -0.40572E-03
        -0.12092E-02
        -0.19446E-02
        -0.25028E-02
        -0.26368E-02
        -0.27662E-02
        -0.21128E-02
        -0.16088E-02
        -0.11942E-02
        -0.58746E-03
         0.20790E-03
         0.10577E-02
         0.18414E-02
         0.24548E-02
         0.26024E-02
         0.37964E-02
         0.39100E-02
         0.34621E-02
         0.29267E-02
         0.22211E-02
         0.13865E-02
         0.47130E-03
        -0.47130E-03
        -0.13865E-02
        -0.22211E-02
        -0.29267E-02
        -0.34621E-02
        -0.37964E-02
        -0.39100E-02
        -0.37964E-02
        -0.34621E-02
        -0.29267E-02
        -0.22211E-02
        -0.13865E-02
        -0.47130E-03
         0.47130E-03
         0.13865E-02
         0.22211E-02
         0.29267E-02
         0.34621E-02
         0.37964E-02
         0.10373E-02
         0.17445E-02
         0.23172E-02
         0.16689E-02
         0.30376E-02
         0.27805E-02
         0.12846E-02
         0.65041E-03
         0.12652E-03
        -0.12896E-03
         0.94367E-03
         0.11313E-02
         0.17475E-02
         0.40566E-03
         0.39772E-03
        -0.76444E-03
        -0.86648E-03
         0.45940E-03
        -0.18312E-02
        -0.18436E-02
        -0.27237E-02
        -0.28017E-02
        -0.25371E-02
        -0.19305E-02
        -0.99305E-03
        -0.14394E-02
        -0.31494E-03
        -0.11054E-02
        -0.18843E-02
        -0.18708E-02
        -0.15981E-03
        -0.94328E-03
         0.78592E-03
         0.17209E-02
         0.32063E-02
         0.28045E-02
         0.23055E-02
        -0.40558E-03
        -0.12092E-02
        -0.19446E-02
        -0.25027E-02
        -0.26367E-02
        -0.27658E-02
        -0.21129E-02
        -0.16089E-02
        -0.11943E-02
        -0.58781E-03
         0.20749E-03
         0.10574E-02
         0.18415E-02
         0.24549E-02
         0.26025E-02
         0.37964E-02
         0.39100E-02
         0.34621E-02
         0.29267E-02
         0.22211E-02
         0.13865E-02
         0.47130E-03
        -0.47130E-03
        -0.13865E-02
        -0.22211E-02
        -0.29267E-02
        -0.34621E-02
        -0.37964E-02
        -0.39100E-02
        -0.37964E-02
        -0.34621E-02
        -0.29267E-02
        -0.22211E-02
        -0.13865E-02
        -0.47130E-03
         0.47130E-03
         0.13865E-02
         0.22211E-02
         0.29267E-02
         0.34621E-02
         0.37964E-02
         0.10372E-02
         0.17443E-02
         0.23171E-02
         0.16687E-02
         0.30376E-02
         0.27808E-02
         0.12845E-02
         0.65016E-03
         0.12626E-03
        -0.12915E-03
         0.94334E-03
         0.11310E-02
         0.17471E-02
         0.40561E-03
         0.39770E-03
        -0.76480E-03
        -0.86659E-03
         0.45895E-03
        -0.18315E-02
        -0.18435E-02
        -0.27237E-02
        -0.28014E-02
        -0.25372E-02
        -0.19309E-02
        -0.99291E-03
        -0.14398E-02
        -0.31474E-03
        -0.11051E-02
        -0.18843E-02
        -0.18706E-02
        -0.16009E-03
        -0.94388E-03
         0.78526E-03
         0.17208E-02
         0.32066E-02
         0.28045E-02
         0.23053E-02
        -0.40545E-03
        -0.12092E-02
        -0.19446E-02
        -0.25027E-02
        -0.26366E-02
        -0.27655E-02
        -0.21130E-02
        -0.16089E-02
        -0.11944E-02
        -0.58816E-03
         0.20709E-03
         0.10571E-02
         0.18415E-02
         0.24550E-02
         0.26025E-02
         0.37964E-02
         0.39100E-02
         0.34621E-02
         0.29267E-02
         0.22211E-02
         0.13865E-02
         0.47130E-03
        -0.47130E-03
        -0.13865E-02
        -0.22211E-02
        -0.29267E-02
        -0.34621E-02
        -0.37964E-02
        -0.39100E-02
        -0.37964E-02
        -0.34621E-02
        -0.29267E-02
        -0.22211E-02
        -0.13865E-02
        -0.47130E-03
         0.47130E-03
         0.13865E-02
         0.22211E-02
         0.29267E-02
         0.34621E-02
         0.37964E-02
         0.10371E-02
         0.17441E-02
         0.23169E-02
         0.16685E-02
         0.30376E-02
         0.27812E-02
         0.12844E-02
         0.64992E-03
         0.12600E-03
        -0.12933E-03
         0.94301E-03
         0.11306E-02
         0.17467E-02
         0.40556E-03
         0.39769E-03
        -0.76515E-03
        -0.86670E-03
         0.45850E-03
        -0.18318E-02
        -0.18434E-02
        -0.27236E-02
        -0.28011E-02
        -0.25374E-02
        -0.19313E-02
        -0.99277E-03
        -0.14401E-02
        -0.31454E-03
        -0.11047E-02
        -0.18842E-02
        -0.18705E-02
        -0.16036E-03
        -0.94448E-03
         0.78460E-03
         0.17208E-02
         0.32070E-02
         0.28045E-02
         0.23052E-02
        -0.40531E-03
        -0.12092E-02
        -0.19445E-02
        -0.25027E-02
        -0.26366E-02
        -0.27652E-02
        -0.21132E-02
        -0.16090E-02
        -0.11946E-02
        -0.58851E-03
         0.20668E-03
         0.10567E-02
         0.18416E-02
         0.24551E-02
         0.26026E-02
         0.37964E-02
         0.39100E-02
         0.34621E-02
         0.29267E-02
         0.22211E-02
         0.13865E-02
         0.47130E-03
        -0.47130E-03
        -0.13865E-02
        -0.22211E-02
        -0.29267E-02
        -0.34621E-02
        -0.37964E-02
        -0.39100E-02
        -0.37964E-02
        -0.34621E-02
        -0.29267E-02
        -0.22211E-02
        -0.13865E-02
        -0.47130E-03
         0.47130E-03
         0.13865E-02
         0.22211E-02
         0.29267E-02
         0.34621E-02
         0.37964E-02
         0.10370E-02
         0.17439E-02
         0.23168E-02
         0.16683E-02
         0.30375E-02
         0.27815E-02
         0.12843E-02
         0.64967E-03
         0.12573E-03
        -0.12952E-03
         0.94268E-03
         0.11303E-02
         0.17463E-02
         0.40550E-03
         0.39767E-03
        -0.76551E-03
        -0.86680E-03
         0.45806E-03
        -0.18321E-02
        -0.18433E-02
        -0.27236E-02
        -0.28009E-02
        -0.25375E-02
        -0.19317E-02
        -0.99262E-03
        -0.14405E-02
        -0.31434E-03
        -0.11044E-02
        -0.18842E-02
        -0.18704E-02
        -0.16064E-03
        -0.94508E-03
         0.78394E-03
         0.17208E-02
         0.32073E-02
         0.28045E-02
         0.23051E-02
        -0.40517E-03
        -0.12092E-02
        -0.19445E-02
        -0.25026E-02
        -0.26365E-02
        -0.27649E-02
        -0.21133E-02
        -0.16090E-02
        -0.11947E-02
        -0.58886E-03
         0.20627E-03
         0.10564E-02
         0.18416E-02
         0.24553E-02
         0.26027E-02
         0.37964E-02
         0.39100E-02
         0.34621E-02
         0.29267E-02
         0.22211E-02
         0.13865E-02
         0.47130E-03
        -0.47130E-03
        -0.13865E-02
        -0.22211E-02
        -0.29267E-02
        -0.34621E-02
        -0.37964E-02
        -0.39100E-02
        -0.37964E-02
        -0.34621E-02
        -0.29267E-02
        -0.22211E-02
        -0.13865E-02
        -0.47130E-03
         0.47130E-03
         0.13865E-02
         0.22211E-02
         0.29267E-02
         0.34621E-02
         0.37964E-02
         0.10368E-02
         0.17438E-02
         0.23167E-02
         0.16681E-02
         0.30375E-02
         0.27819E-02
         0.12842E-02
         0.64943E-03
         0.12547E-03
        -0.12970E-03
         0.94235E-03
         0.11300E-02
         0.17459E-02
         0.40545E-03
         0.39766E-03
        -0.76586E-03
        -0.86691E-03
         0.45761E-03
        -0.18324E-02
        -0.18432E-02
        -0.27236E-02
        -0.28006E-02
        -0.25377E-02
        -0.19322E-02
        -0.99248E-03
        -0.14408E-02
        -0.31414E-03
        -0.11040E-02
        -0.18841E-02
        -0.18703E-02
        -0.16091E-03
        -0.94568E-03
         0.78328E-03
         0.17207E-02
         0.32076E-02
         0.28044E-02
         0.23050E-02
        -0.40503E-03
        -0.12092E-02
        -0.19445E-02
        -0.25026E-02
        -0.26364E-02
        -0.27646E-02
        -0.21134E-02
        -0.16091E-02
        -0.11948E-02
        -0.58921E-03
         0.20587E-03
         0.10561E-02
         0.18416E-02
         0.24554E-02
         0.26027E-02
         0.37964E-02
         0.39100E-02
         0.34621E-02
         0.29267E-02
         0.22211E-02
         0.13865E-02
         0.47130E-03
        -0.47130E-03
        -0.13865E-02
        -0.22211E-02
        -0.29267E-02
        -0.34621E-02
        -0.37964E-02
        -0.39100E-02
        -0.37964E-02
        -0.34621E-02
        -0.29267E-02
        -0.22211E-02
        -0.13865E-02
        -0.47130E-03
         0.47130E-03
         0.13865E-02
         0.22211E-02
         0.29267E-02
         0.34621E-02
         0.37964E-02
         0.10367E-02
         0.17436E-02
         0.23166E-02
         0.16679E-02
         0.30375E-02
         0.27822E-02
         0.12841E-02
         0.64918E-03
         0.12521E-03
        -0.12989E-03
         0.94202E-03
         0.11296E-02
         0.17455E-02
         0.40539E-03
         0.39764E-03
        -0.76621E-03
        -0.86702E-03
         0.45716E-03
        -0.18326E-02
        -0.18431E-02
        -0.27235E-02
        -0.28003E-02
        -0.25379E-02
        -0.19326E-02
        -0.99233E-03
        -0.14412E-02
        -0.31394E-03
        -0.11037E-02
        -0.18841E-02
        -0.18701E-02
        -0.16119E-03
        -0.94628E-03
         0.78262E-03
         0.17207E-02
         0.32079E-02
         0.28044E-02
         0.23049E-02
        -0.40490E-03
        -0.12093E-02
        -0.19444E-02
        -0.25026E-02
        -0.26363E-02
        -0.27643E-02
        -0.21136E-02
        -0.16091E-02
        -0.11949E-02
        -0.58956E-03
         0.20546E-03
         0.10558E-02
         0.18417E-02
         0.24555E-02
         0.26028E-02
         0.37964E-02
         0.39100E-02
         0.34621E-02
         0.29267E-02
         0.22211E-02
         0.13865E-02
         0.47130E-03
        -0.47130E-03
        -0.13865E-02
        -0.22211E-02
        -0.29267E-02
        -0.34621E-02
        -0.37964E-02
        -0.39100E-02
        -0.37964E-02
        -0.34621E-02
        -0.29267E-02
        -0.22211E-02
        -0.13865E-02
        -0.47130E-03
         0.47130E-03
         0.13865E-02
         0.22211E-02
         0.29267E-02
         0.34621E-02
         0.37964E-02
         0.10366E-02
         0.17434E-02
         0.23164E-02
         0.16677E-02
         0.30375E-02
         0.27825E-02
         0.12840E-02
         0.64894E-03
         0.12495E-03
        -0.13007E-03
         0.94169E-03
         0.11293E-02
         0.17451E-02
         0.40534E-03
         0.39762E-03
        -0.76657E-03
        -0.86713E-03
         0.45671E-03
        -0.18329E-02
        -0.18430E-02
        -0.27235E-02
        -0.28001E-02
        -0.25380E-02
        -0.19330E-02
        -0.99219E-03
        -0.14415E-02
        -0.31374E-03
        -0.11033E-02
        -0.18840E-02
        -0.18700E-02
        -0.16146E-03
        -0.94687E-03
         0.78195E-03
         0.17207E-02
         0.32083E-02
         0.28044E-02
         0.23048E-02
        -0.40476E-03
        -0.12093E-02
        -0.19444E-02
        -0.25026E-02
        -0.26362E-02
        -0.27640E-02
        -0.21137E-02
        -0.16091E-02
        -0.11950E-02
        -0.58991E-03
         0.20505E-03
         0.10555E-02
         0.18417E-02
         0.24556E-02
         0.26029E-02
         0.37964E-02
         0.39100E-02
         0.34621E-02
         0.29267E-02
         0.22211E-02
         0.13865E-02
         0.47130E-03
        -0.47130E-03
        -0.13865E-02
        -0.22211E-02
        -0.29267E-02
        -0.34621E-02
        -0.37964E-02
        -0.39100E-02
        -0.37964E-02
        -0.34621E-02
        -0.29267E-02
        -0.22211E-02
        -0.13865E-02
        -0.47130E-03
         0.47130E-03
         0.13865E-02
         0.22211E-02
         0.29267E-02
         0.34621E-02
         0.37964E-02
         0.10365E-02
         0.17432E-02
         0.23163E-02
         0.16675E-02
         0.30374E-02
         0.27829E-02
         0.12839E-02
         0.64869E-03
         0.12468E-03
        -0.13026E-03
         0.94135E-03
         0.11289E-02
         0.17447E-02
         0.40528E-03
         0.39760E-03
        -0.76692E-03
        -0.86724E-03
         0.45626E-03
        -0.18332E-02
        -0.18430E-02
        -0.27235E-02
        -0.27998E-02
        -0.25382E-02
        -0.19334E-02
        -0.99205E-03
        -0.14419E-02
        -0.31354E-03
        -0.11030E-02
        -0.18840E-02
        -0.18699E-02
        -0.16174E-03
        -0.94747E-03
         0.78129E-03
         0.17206E-02
         0.32086E-02
         0.28044E-02
         0.23047E-02
        -0.40462E-03
        -0.12093E-02
        -0.19444E-02
        -0.25025E-02
        -0.26361E-02
        -0.27637E-02
        -0.21139E-02
        -0.16092E-02
        -0.11951E-02
        -0.59025E-03
         0.20465E-03
         0.10552E-02
         0.18418E-02
         0.24558E-02
         0.26030E-02
         0.37964E-02
         0.39100E-02
         0.34621E-02
         0.29267E-02
         0.22211E-02
         0.13865E-02
         0.47130E-03
        -0.47130E-03
        -0.13865E-02
        -0.22211E-02
        -0.29267E-02
        -0.34621E-02
        -0.37964E-02
        -0.39100E-02
        -0.37964E-02
        -0.34621E-02
        -0.29267E-02
        -0.22211E-02
        -0.13865E-02
        -0.47130E-03
         0.47130E-03
         0.13865E-02
         0.22211E-02
         0.29267E-02
         0.34621E-02
         0.37964E-02
         0.10364E-02
         0.17430E-02
         0.23162E-02
         0.16672E-02
         0.30374E-02
         0.27832E-02
         0.12838E-02
         0.64845E-03
         0.12442E-03
        -0.13044E-03
         0.94102E-03
         0.11286E-02
         0.17443E-02
         0.40523E-03
         0.39759E-03
        -0.76727E-03
        -0.86735E-03
         0.45582E-03
        -0.18335E-02
        -0.18429E-02
        -0.27235E-02
        -0.27995E-02
        -0.25383E-02
        -0.19339E-02
        -0.99190E-03
        -0.14422E-02
        -0.31334E-03
        -0.11026E-02
        -0.18839E-02
        -0.18697E-02
        -0.16201E-03
        -0.94807E-03
         0.78063E-03
         0.17206E-02
         0.32089E-02
         0.28043E-02
         0.23046E-02
        -0.40448E-03
        -0.12093E-02
        -0.19443E-02
        -0.25025E-02
        -0.26360E-02
        -0.27633E-02
        -0.21140E-02
        -0.16092E-02
        -0.11953E-02
        -0.59060E-03
         0.20424E-03
         0.10549E-02
         0.18418E-02
         0.24559E-02
         0.26030E-02
         0.37964E-02
         0.39100E-02
         0.34621E-02
         0.29267E-02
         0.22211E-02
         0.13865E-02
         0.47130E-03
        -0.47130E-03
        -0.13865E-02
        -0.22211E-02
        -0.29267E-02
        -0.34621E-02
        -0.37964E-02
        -0.39100E-02
        -0.37964E-02
        -0.34621E-02
        -0.29267E-02
        -0.22211E-02
        -0.13865E-02
        -0.47130E-03
         0.47130E-03
         0.13865E-02
         0.22211E-02
         0.29267E-02
         0.34621E-02
         0.37964E-02
         0.10363E-02
         0.17429E-02
         0.23161E-02
         0.16670E-02
         0.30374E-02
         0.27836E-02
         0.12837E-02
         0.64820E-03
         0.12416E-03
        -0.13063E-03
         0.94069E-03
         0.11282E-02
         0.17439E-02
         0.40518E-03
         0.39757E-03
        -0.76763E-03
        -0.86746E-03
         0.45537E-03
        -0.18338E-02
        -0.18428E-02
        -0.27234E-02
        -0.27992E-02
        -0.25385E-02
        -0.19343E-02
        -0.99176E-03
        -0.14425E-02
        -0.31314E-03
        -0.11023E-02
        -0.18839E-02
        -0.18696E-02
        -0.16229E-03
        -0.94867E-03
         0.77997E-03
         0.17205E-02
         0.32092E-02
         0.28043E-02
         0.23044E-02
        -0.40434E-03
        -0.12093E-02
        -0.19443E-02
        -0.25025E-02
        -0.26359E-02
        -0.27630E-02
        -0.21141E-02
        -0.16093E-02
        -0.11954E-02
        -0.59095E-03
         0.20384E-03
         0.10546E-02
         0.18419E-02
         0.24560E-02
         0.26031E-02
         0.37964E-02
         0.39100E-02
         0.34621E-02
         0.29267E-02
         0.22211E-02
         0.13865E-02
         0.47130E-03
        -0.47130E-03
        -0.13865E-02
        -0.22211E-02
        -0.29267E-02
        -0.34621E-02
        -0.37964E-02
        -0.39100E-02
        -0.37964E-02
        -0.34621E-02
        -0.29267E-02
        -0.22211E-02
        -0.13865E-02
        -0.47130E-03
         0.47130E-03
         0.13865E-02
         0.22211E-02
         0.29267E-02
         0.34621E-02
         0.37964E-02
         0.10362E-02
         0.17427E-02
         0.23160E-02
         0.16668E-02
         0.30373E-02
         0.27839E-02
         0.12836E-02
         0.64796E-03
         0.12390E-03
        -0.13082E-03
         0.94036E-03
         0.11279E-02
         0.17435E-02
         0.40512E-03
         0.39755E-03
        -0.76798E-03
        -0.86756E-03
         0.45492E-03
        -0.18341E-02
        -0.18427E-02
        -0.27234E-02
        -0.27990E-02
        -0.25386E-02
        -0.19347E-02
        -0.99161E-03
        -0.14429E-02
        -0.31294E-03
        -0.11019E-02
        -0.18838E-02
        -0.18695E-02
        -0.16256E-03
        -0.94927E-03
         0.77931E-03
         0.17205E-02
         0.32096E-02
         0.28043E-02
         0.23043E-02
        -0.40420E-03
        -0.12093E-02
        -0.19443E-02
        -0.25024E-02
        -0.26358E-02
        -0.27627E-02
        -0.21143E-02
        -0.16093E-02
        -0.11955E-02
        -0.59130E-03
         0.20343E-03
         0.10543E-02
         0.18419E-02
         0.24561E-02
         0.26032E-02
         0.37964E-02
         0.39100E-02
         0.34621E-02
         0.29267E-02
         0.22211E-02
         0.13865E-02
         0.47130E-03
        -0.47130E-03
        -0.13865E-02
        -0.22211E-02
        -0.29267E-02
        -0.34621E-02
        -0.37964E-02
        -0.39100E-02
        -0.37964E-02
        -0.34621E-02
        -0.29267E-02
        -0.22211E-02
        -0.13865E-02
        -0.47130E-03
         0.47130E-03
         0.13865E-02
         0.22211E-02
         0.29267E-02
         0.34621E-02
         0.37964E-02
         0.10360E-02
         0.17425E-02
         0.23158E-02
         0.16666E-02
         0.30373E-02
         0.27842E-02
         0.12835E-02
         0.64771E-03
         0.12363E-03
        -0.13100E-03
         0.94003E-03
         0.11276E-02
         0.17432E-02
         0.40507E-03
         0.39754E-03
        -0.76834E-03
        -0.86767E-03
         0.45447E-03
        -0.18344E-02
        -0.18426E-02
        -0.27234E-02
        -0.27987E-02
        -0.25388E-02
        -0.19352E-02
        -0.99147E-03
        -0.14433E-02
        -0.31274E-03
        -0.11016E-02
        -0.18838E-02
        -0.18694E-02
        -0.16284E-03
        -0.94986E-03
         0.77865E-03
         0.17205E-02
         0.32099E-02
         0.28042E-02
         0.23042E-02
        -0.40407E-03
        -0.12093E-02
        -0.19442E-02
        -0.25024E-02
        -0.26358E-02
        -0.27624E-02
        -0.21144E-02
        -0.16094E-02
        -0.11956E-02
        -0.59165E-03
         0.20302E-03
         0.10540E-02
         0.18419E-02
         0.24563E-02
         0.26033E-02
         0.37964E-02
         0.39100E-02
         0.34621E-02
         0.29267E-02
         0.22211E-02
         0.13865E-02
         0.47130E-03
        -0.47130E-03
        -0.13865E-02
        -0.22211E-02
        -0.29267E-02
        -0.34621E-02
        -0.37964E-02
        -0.39100E-02
        -0.37964E-02
        -0.34621E-02
        -0.29267E-02
        -0.22211E-02
        -0.13865E-02
        -0.47130E-03
         0.47130E-03
         0.13865E-02
         0.22211E-02
         0.29267E-02
         0.34621E-02
         0.37964E-02
         0.10359E-02
         0.17423E-02
         0.23157E-02
         0.16664E-02
         0.30373E-02
         0.27846E-02
         0.12834E-02
         0.64747E-03
         0.12337E-03
        -0.13118E-03
         0.93970E-03
         0.11272E-02
         0.17428E-02
         0.40501E-03
         0.39752E-03
        -0.76869E-03
        -0.86778E-03
         0.45402E-03
        -0.18347E-02
        -0.18425E-02
        -0.27234E-02
        -0.27984E-02
        -0.25389E-02
        -0.19356E-02
        -0.99133E-03
        -0.14436E-02
        -0.31254E-03
        -0.11013E-02
        -0.18837E-02
        -0.18692E-02
        -0.16311E-03
        -0.95046E-03
         0.77799E-03
         0.17204E-02
         0.32102E-02
         0.28042E-02
         0.23041E-02
        -0.40393E-03
        -0.12093E-02
        -0.19442E-02
        -0.25024E-02
        -0.26357E-02
        -0.27621E-02
        -0.21146E-02
        -0.16094E-02
        -0.11957E-02
        -0.59200E-03
         0.20262E-03
         0.10536E-02
         0.18420E-02
         0.24564E-02
         0.26033E-02
         0.37964E-02
         0.39100E-02
         0.34621E-02
         0.29267E-02
         0.22211E-02
         0.13865E-02
         0.47130E-03
        -0.47130E-03
        -0.13865E-02
        -0.22211E-02
        -0.29267E-02
        -0.34621E-02
        -0.37964E-02
        -0.39100E-02
        -0.37964E-02
        -0.34621E-02
        -0.29267E-02
        -0.22211E-02
        -0.13865E-02
        -0.47130E-03
         0.47130E-03
         0.13865E-02
         0.22211E-02
         0.29267E-02
         0.34621E-02
         0.37964E-02
         0.10358E-02
         0.17422E-02
         0.23156E-02
         0.16662E-02
         0.30373E-02
         0.27849E-02
         0.12833E-02
         0.64722E-03
         0.12311E-03
        -0.13137E-03
         0.93937E-03
         0.11269E-02
         0.17424E-02
         0.40496E-03
         0.39750E-03
        -0.76904E-03
        -0.86789E-03
         0.45358E-03
        -0.18350E-02
        -0.18424E-02
        -0.27233E-02
        -0.27981E-02
        -0.25391E-02
        -0.19360E-02
        -0.99118E-03
        -0.14440E-02
        -0.31234E-03
        -0.11009E-02
        -0.18836E-02
        -0.18691E-02
        -0.16339E-03
        -0.95106E-03
         0.77733E-03
         0.17204E-02
         0.32105E-02
         0.28042E-02
         0.23040E-02
        -0.40379E-03
        -0.12093E-02
        -0.19441E-02
        -0.25023E-02
        -0.26356E-02
        -0.27618E-02
        -0.21147E-02
        -0.16094E-02
        -0.11958E-02
        -0.59235E-03
         0.20221E-03
         0.10533E-02
         0.18420E-02
         0.24565E-02
         0.26034E-02
         0.37964E-02
         0.39100E-02
         0.34621E-02
         0.29267E-02
         0.22211E-02
         0.13865E-02
         0.47130E-03
        -0.47130E-03
        -0.13865E-02
        -0.22211E-02
        -0.29267E-02
        -0.34621E-02
        -0.37964E-02
        -0.39100E-02
        -0.37964E-02
        -0.34621E-02
        -0.29267E-02
        -0.22211E-02
        -0.13865E-02
        -0.47130E-03
         0.47130E-03
         0.13865E-02
         0.22211E-02
         0.29267E-02
         0.34621E-02
         0.37964E-02
         0.10357E-02
         0.17420E-02
         0.23155E-02
         0.16660E-02
         0.30372E-02
         0.27853E-02
         0.12832E-02
         0.64698E-03
         0.12285E-03
        -0.13155E-03
         0.93903E-03
         0.11266E-02
         0.17420E-02
         0.40490E-03
         0.39749E-03
        -0.76940E-03
        -0.86800E-03
         0.45313E-03
        -0.18353E-02
        -0.18423E-02
        -0.27233E-02
        -0.27979E-02
        -0.25393E-02
        -0.19365E-02
        -0.99104E-03
        -0.14443E-02
        -0.31214E-03
        -0.11006E-02
        -0.18836E-02
        -0.18690E-02
        -0.16366E-03
        -0.95166E-03
         0.77667E-03
         0.17203E-02
         0.32109E-02
         0.28042E-02
         0.23039E-02
        -0.40365E-03
        -0.12093E-02
        -0.19441E-02
        -0.25023E-02
        -0.26355E-02
        -0.27615E-02
        -0.21148E-02
        -0.16095E-02
        -0.11960E-02
        -0.59270E-03
         0.20180E-03
         0.10530E-02
         0.18421E-02
         0.24566E-02
         0.26035E-02
         0.37964E-02
         0.39100E-02
         0.34621E-02
         0.29267E-02
         0.22211E-02
         0.13865E-02
         0.47130E-03
        -0.47130E-03
        -0.13865E-02
        -0.22211E-02
        -0.29267E-02
        -0.34621E-02
        -0.37964E-02
        -0.39100E-02
        -0.37964E-02
        -0.34621E-02
        -0.29267E-02
        -0.22211E-02
        -0.13865E-02
        -0.47130E-03
         0.47130E-03
         0.13865E-02
         0.22211E-02
         0.29267E-02
         0.34621E-02
         0.37964E-02
         0.10356E-02
         0.17418E-02
         0.23153E-02
         0.16657E-02
         0.30372E-02
         0.27856E-02
         0.12830E-02
         0.64673E-03
         0.12259E-03
        -0.13174E-03
         0.93870E-03
         0.11262E-02
         0.17416E-02
         0.40485E-03
         0.39747E-03
        -0.76975E-03
        -0.86811E-03
         0.45268E-03
        -0.18356E-02
        -0.18422E-02
        -0.27233E-02
        -0.27976E-02
        -0.25394E-02
        -0.19369E-02
        -0.99090E-03
        -0.14446E-02
        -0.31194E-03
        -0.11002E-02
        -0.18835E-02
        -0.18689E-02
        -0.16394E-03
        -0.95226E-03
         0.77601E-03
         0.17203E-02
         0.32112E-02
         0.28042E-02
         0.23038E-02
        -0.40352E-03
        -0.12093E-02
        -0.19441E-02
        -0.25023E-02
        -0.26354E-02
        -0.27612E-02
        -0.21150E-02
        -0.16095E-02
        -0.11961E-02
        -0.59305E-03
         0.20140E-03
         0.10527E-02
         0.18421E-02
         0.24568E-02
         0.26036E-02
         0.37964E-02
         0.39100E-02
         0.34621E-02
         0.29267E-02
         0.22211E-02
         0.13865E-02
         0.47130E-03
        -0.47130E-03
        -0.13865E-02
        -0.22211E-02
        -0.29267E-02
        -0.34621E-02
        -0.37964E-02
        -0.39100E-02
        -0.37964E-02
        -0.34621E-02
        -0.29267E-02
        -0.22211E-02
        -0.13865E-02
        -0.47130E-03
         0.47130E-03
         0.13865E-02
         0.22211E-02
         0.29267E-02
         0.34621E-02
         0.37964E-02
         0.10355E-02
         0.17416E-02
         0.23152E-02
         0.16655E-02
         0.30372E-02
         0.27860E-02
         0.12829E-02
         0.64649E-03
         0.12232E-03
        -0.13193E-03
         0.93837E-03
         0.11259E-02
         0.17412E-02
         0.40480E-03
         0.39745E-03
        -0.77011E-03
        -0.86822E-03
         0.45223E-03
        -0.18359E-02
        -0.18421E-02
        -0.27232E-02
        -0.27973E-02
        -0.25396E-02
        -0.19373E-02
        -0.99075E-03
        -0.14450E-02
        -0.31173E-03
        -0.10999E-02
        -0.18835E-02
        -0.18687E-02
        -0.16421E-03
        -0.95285E-03
         0.77535E-03
         0.17202E-02
         0.32115E-02
         0.28041E-02
         0.23037E-02
        -0.40338E-03
        -0.12093E-02
        -0.19440E-02
        -0.25023E-02
        -0.26353E-02
        -0.27609E-02
        -0.21151E-02
        -0.16096E-02
        -0.11962E-02
        -0.59340E-03
         0.20099E-03
         0.10524E-02
         0.18422E-02
         0.24569E-02
         0.26036E-02
         0.37964E-02
         0.39100E-02
         0.34621E-02
         0.29267E-02
         0.22211E-02
         0.13865E-02
         0.47130E-03
        -0.47130E-03
        -0.13865E-02
        -0.22211E-02
        -0.29267E-02
        -0.34621E-02
        -0.37964E-02
        -0.39100E-02
        -0.37964E-02
        -0.34621E-02
        -0.29267E-02
        -0.22211E-02
        -0.13865E-02
        -0.47130E-03
         0.47130E-03
         0.13865E-02
         0.22211E-02
         0.29267E-02
         0.34621E-02
         0.37964E-02
         0.10354E-02
         0.17414E-02
         0.23151E-02
         0.16653E-02
         0.30372E-02
         0.27863E-02
         0.12829E-02
         0.64624E-03
         0.12206E-03
        -0.13211E-03
         0.93804E-03
         0.11255E-02
         0.17408E-02
         0.40474E-03
         0.39744E-03
        -0.77046E-03
        -0.86832E-03
         0.45179E-03
        -0.18362E-02
        -0.18420E-02
        -0.27232E-02
        -0.27970E-02
        -0.25397E-02
        -0.19377E-02
        -0.99061E-03
        -0.14453E-02
        -0.31153E-03
        -0.10995E-02
        -0.18834E-02
        -0.18686E-02
        -0.16449E-03
        -0.95345E-03
         0.77469E-03
         0.17202E-02
         0.32119E-02
         0.28041E-02
         0.23036E-02
        -0.40324E-03
        -0.12093E-02
        -0.19440E-02
        -0.25022E-02
        -0.26352E-02
        -0.27606E-02
        -0.21152E-02
        -0.16096E-02
        -0.11963E-02
        -0.59375E-03
         0.20059E-03
         0.10521E-02
         0.18422E-02
         0.24570E-02
         0.26037E-02
         0.37964E-02
         0.39100E-02
         0.34621E-02
         0.29267E-02
         0.22211E-02
         0.13865E-02
         0.47130E-03
        -0.47130E-03
        -0.13865E-02
        -0.22211E-02
        -0.29267E-02
        -0.34621E-02
        -0.37964E-02
        -0.39100E-02
        -0.37964E-02
        -0.34621E-02
        -0.29267E-02
        -0.22211E-02
        -0.13865E-02
        -0.47130E-03
         0.47130E-03
         0.13865E-02
         0.22211E-02
         0.29267E-02
         0.34621E-02
         0.37964E-02
         0.10352E-02
         0.17413E-02
         0.23150E-02
         0.16651E-02
         0.30371E-02
         0.27866E-02
         0.12827E-02
         0.64600E-03
         0.12180E-03
        -0.13230E-03
         0.93771E-03
         0.11252E-02
         0.17404E-02
         0.40469E-03
         0.39742E-03
        -0.77081E-03
        -0.86843E-03
         0.45134E-03
        -0.18365E-02
        -0.18419E-02
        -0.27232E-02
        -0.27968E-02
        -0.25399E-02
        -0.19382E-02
        -0.99046E-03
        -0.14457E-02
        -0.31133E-03
        -0.10992E-02
        -0.18834E-02
        -0.18685E-02
        -0.16476E-03
        -0.95405E-03
         0.77402E-03
         0.17202E-02
         0.32122E-02
         0.28041E-02
         0.23034E-02
        -0.40310E-03
        -0.12093E-02
        -0.19440E-02
        -0.25022E-02
        -0.26351E-02
        -0.27602E-02
        -0.21154E-02
        -0.16097E-02
        -0.11964E-02
        -0.59409E-03
         0.20018E-03
         0.10518E-02
         0.18422E-02
         0.24571E-02
         0.26038E-02
         0.37964E-02
         0.39100E-02
         0.34621E-02
         0.29267E-02
         0.22211E-02
         0.13865E-02
         0.47130E-03
        -0.47130E-03
        -0.13865E-02
        -0.22211E-02
        -0.29267E-02
        -0.34621E-02
        -0.37964E-02
        -0.39100E-02
        -0.37964E-02
        -0.34621E-02
        -0.29267E-02
        -0.22211E-02
        -0.13865E-02
        -0.47130E-03
         0.47130E-03
         0.13865E-02
         0.22211E-02
         0.29267E-02
         0.34621E-02
         0.37964E-02
         0.10351E-02
         0.17411E-02
         0.23149E-02
         0.16649E-02
         0.30371E-02
         0.27870E-02
         0.12826E-02
         0.64575E-03
         0.12154E-03
        -0.13248E-03
         0.93738E-03
         0.11249E-02
         0.17400E-02
         0.40463E-03
         0.39740E-03
        -0.77117E-03
        -0.86854E-03
         0.45089E-03
        -0.18368E-02
        -0.18418E-02
        -0.27232E-02
        -0.27965E-02
        -0.25400E-02
        -0.19386E-02
        -0.99032E-03
        -0.14460E-02
        -0.31113E-03
        -0.10988E-02
        -0.18833E-02
        -0.18683E-02
        -0.16504E-03
        -0.95465E-03
         0.77336E-03
         0.17201E-02
         0.32125E-02
         0.28041E-02
         0.23033E-02
        -0.40296E-03
        -0.12093E-02
        -0.19439E-02
        -0.25022E-02
        -0.26350E-02
        -0.27599E-02
        -0.21155E-02
        -0.16097E-02
        -0.11965E-02
        -0.59444E-03
         0.19977E-03
         0.10515E-02
         0.18423E-02
         0.24573E-02
         0.26039E-02
         0.37964E-02
         0.39100E-02
         0.34621E-02
         0.29267E-02
         0.22211E-02
         0.13865E-02
         0.47130E-03
        -0.47130E-03
        -0.13865E-02
        -0.22211E-02
        -0.29267E-02
        -0.34621E-02
        -0.37964E-02
        -0.39100E-02
        -0.37964E-02
        -0.34621E-02
        -0.29267E-02
        -0.22211E-02
        -0.13865E-02
        -0.47130E-03
         0.47130E-03
         0.13865E-02
         0.22211E-02
         0.29267E-02
         0.34621E-02
         0.37964E-02
  
SCALARS           initial_coordinate_y  double 1
LOOKUP_TABLE default
         0.67292E-03
         0.12308E-02
         0.59151E-03
        -0.33775E-03
         0.67237E-03
         0.12301E-02
         0.59098E-03
        -0.33851E-03
         0.14882E-03
        -0.67643E-03
         0.14846E-03
        -0.67692E-03
         0.18412E-02
         0.14576E-02
         0.18410E-02
         0.14566E-02
         0.29933E-03
         0.11672E-02
         0.29819E-03
         0.11655E-02
         0.22748E-02
         0.28286E-02
         0.24238E-02
         0.22746E-02
         0.28291E-02
         0.24236E-02
         0.21685E-02
         0.29366E-02
         0.21684E-02
         0.29369E-02
        -0.10033E-02
         0.78969E-04
        -0.70318E-03
        -0.10032E-02
         0.78160E-04
        -0.70391E-03
        -0.71196E-03
         0.82749E-04
        -0.71210E-03
         0.82626E-04
        -0.77865E-03
         0.40713E-04
        -0.77882E-03
         0.40439E-04
        -0.15195E-02
        -0.13230E-02
        -0.15195E-02
        -0.13231E-02
         0.98847E-03
         0.98712E-03
        -0.17325E-02
        -0.17325E-02
         0.20220E-02
         0.20217E-02
         0.18615E-02
         0.18616E-02
         0.17175E-02
         0.90940E-03
         0.17175E-02
         0.90916E-03
        -0.19800E-02
        -0.23489E-02
        -0.19800E-02
        -0.23489E-02
        -0.17074E-02
        -0.17074E-02
        -0.14894E-02
        -0.14892E-02
         0.76036E-03
         0.12477E-02
         0.75936E-03
         0.12473E-02
         0.18665E-02
         0.18664E-02
         0.29038E-02
         0.29049E-02
         0.27207E-02
         0.27212E-02
         0.24642E-02
         0.24645E-02
         0.22359E-02
         0.16503E-02
         0.22359E-02
         0.16503E-02
         0.87493E-03
         0.87466E-03
        -0.21373E-02
        -0.21373E-02
        -0.26931E-02
        -0.26931E-02
        -0.31291E-02
        -0.30382E-02
        -0.31291E-02
        -0.30382E-02
        -0.28748E-02
        -0.28748E-02
        -0.26423E-02
        -0.26420E-02
        -0.23707E-02
        -0.23705E-02
        -0.21445E-02
        -0.15105E-02
        -0.21439E-02
        -0.15106E-02
         0.93572E-03
         0.00000E+00
         0.93572E-03
         0.00000E+00
         0.18171E-02
         0.18171E-02
         0.25928E-02
         0.25928E-02
         0.32179E-02
         0.32179E-02
         0.36559E-02
         0.36559E-02
         0.38815E-02
         0.38815E-02
         0.38815E-02
         0.38815E-02
         0.36559E-02
         0.36559E-02
         0.32179E-02
         0.32179E-02
         0.25928E-02
         0.25928E-02
         0.18171E-02
         0.18171E-02
         0.93572E-03
         0.93572E-03
         0.22152E-17
        -0.47884E-18
        -0.93572E-03
        -0.93572E-03
        -0.18171E-02
        -0.18171E-02
        -0.25928E-02
        -0.25928E-02
        -0.32179E-02
        -0.32179E-02
        -0.36559E-02
        -0.36559E-02
        -0.38815E-02
        -0.38815E-02
        -0.38815E-02
        -0.38815E-02
        -0.36559E-02
        -0.36559E-02
        -0.32179E-02
        -0.32179E-02
        -0.25928E-02
        -0.25928E-02
        -0.18171E-02
        -0.18171E-02
        -0.93572E-03
        -0.93572E-03
         0.67348E-03
         0.12314E-02
         0.59203E-03
        -0.33700E-03
         0.14918E-03
        -0.67594E-03
         0.18414E-02
         0.14586E-02
         0.30048E-03
         0.11690E-02
         0.22749E-02
         0.28282E-02
         0.24239E-02
         0.21685E-02
         0.29364E-02
        -0.10035E-02
         0.79778E-04
        -0.70245E-03
        -0.71182E-03
         0.82873E-04
        -0.77848E-03
         0.40986E-04
        -0.15194E-02
        -0.13228E-02
         0.98983E-03
        -0.17324E-02
         0.20223E-02
         0.18614E-02
         0.17175E-02
         0.90964E-03
        -0.19800E-02
        -0.23489E-02
        -0.17074E-02
        -0.14896E-02
         0.76137E-03
         0.12481E-02
         0.18665E-02
         0.29027E-02
         0.27202E-02
         0.24640E-02
         0.22359E-02
         0.16503E-02
         0.87519E-03
        -0.21373E-02
        -0.26932E-02
        -0.31291E-02
        -0.30382E-02
        -0.28748E-02
        -0.26426E-02
        -0.23709E-02
        -0.21450E-02
        -0.15104E-02
         0.93572E-03
         0.00000E+00
         0.18171E-02
         0.25928E-02
         0.32179E-02
         0.36559E-02
         0.38815E-02
         0.38815E-02
         0.36559E-02
         0.32179E-02
         0.25928E-02
         0.18171E-02
         0.93572E-03
        -0.47884E-18
        -0.93572E-03
        -0.18171E-02
        -0.25928E-02
        -0.32179E-02
        -0.36559E-02
        -0.38815E-02
        -0.38815E-02
        -0.36559E-02
        -0.32179E-02
        -0.25928E-02
        -0.18171E-02
        -0.93572E-03
         0.67403E-03
         0.12321E-02
         0.59255E-03
        -0.33624E-03
         0.14955E-03
        -0.67544E-03
         0.18415E-02
         0.14596E-02
         0.30163E-03
         0.11707E-02
         0.22750E-02
         0.28277E-02
         0.24241E-02
         0.21685E-02
         0.29361E-02
        -0.10036E-02
         0.80588E-04
        -0.70173E-03
        -0.71168E-03
         0.82996E-04
        -0.77831E-03
         0.41259E-04
        -0.15194E-02
        -0.13227E-02
         0.99119E-03
        -0.17324E-02
         0.20226E-02
         0.18613E-02
         0.17175E-02
         0.90988E-03
        -0.19801E-02
        -0.23490E-02
        -0.17074E-02
        -0.14899E-02
         0.76237E-03
         0.12485E-02
         0.18666E-02
         0.29017E-02
         0.27198E-02
         0.24638E-02
         0.22359E-02
         0.16503E-02
         0.87545E-03
        -0.21374E-02
        -0.26932E-02
        -0.31291E-02
        -0.30382E-02
        -0.28748E-02
        -0.26428E-02
        -0.23711E-02
        -0.21456E-02
        -0.15103E-02
         0.93572E-03
         0.00000E+00
         0.18171E-02
         0.25928E-02
         0.32179E-02
         0.36559E-02
         0.38815E-02
         0.38815E-02
         0.36559E-02
         0.32179E-02
         0.25928E-02
         0.18171E-02
         0.93572E-03
         0.39516E-17
        -0.93572E-03
        -0.18171E-02
        -0.25928E-02
        -0.32179E-02
        -0.36559E-02
        -0.38815E-02
        -0.38815E-02
        -0.36559E-02
        -0.32179E-02
        -0.25928E-02
        -0.18171E-02
        -0.93572E-03
         0.67459E-03
         0.12328E-02
         0.59308E-03
        -0.33549E-03
         0.14991E-03
        -0.67495E-03
         0.18417E-02
         0.14606E-02
         0.30278E-03
         0.11725E-02
         0.22752E-02
         0.28273E-02
         0.24242E-02
         0.21686E-02
         0.29359E-02
        -0.10038E-02
         0.81397E-04
        -0.70100E-03
        -0.71154E-03
         0.83120E-04
        -0.77814E-03
         0.41533E-04
        -0.15193E-02
        -0.13227E-02
         0.99254E-03
        -0.17324E-02
         0.20228E-02
         0.18611E-02
         0.17175E-02
         0.91012E-03
        -0.19801E-02
        -0.23490E-02
        -0.17074E-02
        -0.14901E-02
         0.76338E-03
         0.12490E-02
         0.18666E-02
         0.29006E-02
         0.27193E-02
         0.24636E-02
         0.22359E-02
         0.16503E-02
         0.87571E-03
        -0.21374E-02
        -0.26932E-02
        -0.31291E-02
        -0.30382E-02
        -0.28748E-02
        -0.26431E-02
        -0.23713E-02
        -0.21461E-02
        -0.15102E-02
         0.93572E-03
         0.00000E+00
         0.18171E-02
         0.25928E-02
         0.32179E-02
         0.36559E-02
         0.38815E-02
         0.38815E-02
         0.36559E-02
         0.32179E-02
         0.25928E-02
         0.18171E-02
         0.93572E-03
        -0.47884E-18
        -0.93572E-03
        -0.18171E-02
        -0.25928E-02
        -0.32179E-02
        -0.36559E-02
        -0.38815E-02
        -0.38815E-02
        -0.36559E-02
        -0.32179E-02
        -0.25928E-02
        -0.18171E-02
        -0.93572E-03
         0.67514E-03
         0.12334E-02
         0.59360E-03
        -0.33474E-03
         0.15027E-03
        -0.67446E-03
         0.18419E-02
         0.14616E-02
         0.30393E-03
         0.11742E-02
         0.22753E-02
         0.28269E-02
         0.24244E-02
         0.21686E-02
         0.29356E-02
        -0.10039E-02
         0.82206E-04
        -0.70028E-03
        -0.71140E-03
         0.83243E-04
        -0.77797E-03
         0.41806E-04
        -0.15193E-02
        -0.13226E-02
         0.99390E-03
        -0.17323E-02
         0.20231E-02
         0.18610E-02
         0.17175E-02
         0.91036E-03
        -0.19801E-02
        -0.23490E-02
        -0.17074E-02
        -0.14904E-02
         0.76439E-03
         0.12494E-02
         0.18666E-02
         0.28995E-02
         0.27188E-02
         0.24633E-02
         0.22359E-02
         0.16503E-02
         0.87597E-03
        -0.21374E-02
        -0.26932E-02
        -0.31291E-02
        -0.30382E-02
        -0.28748E-02
        -0.26434E-02
        -0.23715E-02
        -0.21467E-02
        -0.15101E-02
         0.93572E-03
         0.00000E+00
         0.18171E-02
         0.25928E-02
         0.32179E-02
         0.36559E-02
         0.38815E-02
         0.38815E-02
         0.36559E-02
         0.32179E-02
         0.25928E-02
         0.18171E-02
         0.93572E-03
        -0.47884E-18
        -0.93572E-03
        -0.18171E-02
        -0.25928E-02
        -0.32179E-02
        -0.36559E-02
        -0.38815E-02
        -0.38815E-02
        -0.36559E-02
        -0.32179E-02
        -0.25928E-02
        -0.18171E-02
        -0.93572E-03
         0.67570E-03
         0.12341E-02
         0.59412E-03
        -0.33398E-03
         0.15064E-03
        -0.67396E-03
         0.18421E-02
         0.14626E-02
         0.30507E-03
         0.11760E-02
         0.22754E-02
         0.28264E-02
         0.24245E-02
         0.21686E-02
         0.29353E-02
        -0.10040E-02
         0.83015E-04
        -0.69955E-03
        -0.71126E-03
         0.83367E-04
        -0.77780E-03
         0.42080E-04
        -0.15192E-02
        -0.13224E-02
         0.99526E-03
        -0.17323E-02
         0.20234E-02
         0.18609E-02
         0.17175E-02
         0.91060E-03
        -0.19801E-02
        -0.23490E-02
        -0.17074E-02
        -0.14906E-02
         0.76539E-03
         0.12498E-02
         0.18667E-02
         0.28984E-02
         0.27184E-02
         0.24631E-02
         0.22359E-02
         0.16503E-02
         0.87623E-03
        -0.21374E-02
        -0.26932E-02
        -0.31291E-02
        -0.30382E-02
        -0.28748E-02
        -0.26436E-02
        -0.23717E-02
        -0.21472E-02
        -0.15100E-02
         0.93572E-03
         0.00000E+00
         0.18171E-02
         0.25928E-02
         0.32179E-02
         0.36559E-02
         0.38815E-02
         0.38815E-02
         0.36559E-02
         0.32179E-02
         0.25928E-02
         0.18171E-02
         0.93572E-03
        -0.47884E-18
        -0.93572E-03
        -0.18171E-02
        -0.25928E-02
        -0.32179E-02
        -0.36559E-02
        -0.38815E-02
        -0.38815E-02
        -0.36559E-02
        -0.32179E-02
        -0.25928E-02
        -0.18171E-02
        -0.93572E-03
         0.67625E-03
         0.12348E-02
         0.59465E-03
        -0.33323E-03
         0.15100E-03
        -0.67347E-03
         0.18423E-02
         0.14636E-02
         0.30622E-03
         0.11777E-02
         0.22755E-02
         0.28260E-02
         0.24247E-02
         0.21687E-02
         0.29351E-02
        -0.10042E-02
         0.83825E-04
        -0.69882E-03
        -0.71112E-03
         0.83490E-04
        -0.77763E-03
         0.42353E-04
        -0.15192E-02
        -0.13223E-02
         0.99661E-03
        -0.17322E-02
         0.20237E-02
         0.18607E-02
         0.17175E-02
         0.91084E-03
        -0.19801E-02
        -0.23491E-02
        -0.17074E-02
        -0.14909E-02
         0.76640E-03
         0.12503E-02
         0.18667E-02
         0.28974E-02
         0.27179E-02
         0.24629E-02
         0.22359E-02
         0.16503E-02
         0.87650E-03
        -0.21374E-02
        -0.26933E-02
        -0.31291E-02
        -0.30382E-02
        -0.28749E-02
        -0.26439E-02
        -0.23719E-02
        -0.21478E-02
        -0.15099E-02
         0.93572E-03
         0.00000E+00
         0.18171E-02
         0.25928E-02
         0.32179E-02
         0.36559E-02
         0.38815E-02
         0.38815E-02
         0.36559E-02
         0.32179E-02
         0.25928E-02
         0.18171E-02
         0.93572E-03
        -0.47884E-18
        -0.93572E-03
        -0.18171E-02
        -0.25928E-02
        -0.32179E-02
        -0.36559E-02
        -0.38815E-02
        -0.38815E-02
        -0.36559E-02
        -0.32179E-02
        -0.25928E-02
        -0.18171E-02
        -0.93572E-03
         0.67680E-03
         0.12354E-02
         0.59517E-03
        -0.33247E-03
         0.15136E-03
        -0.67298E-03
         0.18425E-02
         0.14646E-02
         0.30737E-03
         0.11795E-02
         0.22757E-02
         0.28255E-02
         0.24248E-02
         0.21687E-02
         0.29348E-02
        -0.10043E-02
         0.84634E-04
        -0.69810E-03
        -0.71098E-03
         0.83614E-04
        -0.77746E-03
         0.42626E-04
        -0.15191E-02
        -0.13223E-02
         0.99797E-03
        -0.17322E-02
         0.20240E-02
         0.18606E-02
         0.17175E-02
         0.91108E-03
        -0.19802E-02
        -0.23491E-02
        -0.17074E-02
        -0.14911E-02
         0.76740E-03
         0.12507E-02
         0.18668E-02
         0.28963E-02
         0.27174E-02
         0.24627E-02
         0.22358E-02
         0.16503E-02
         0.87676E-03
        -0.21374E-02
        -0.26933E-02
        -0.31291E-02
        -0.30382E-02
        -0.28749E-02
        -0.26442E-02
        -0.23721E-02
        -0.21483E-02
        -0.15097E-02
         0.93572E-03
         0.00000E+00
         0.18171E-02
         0.25928E-02
         0.32179E-02
         0.36559E-02
         0.38815E-02
         0.38815E-02
         0.36559E-02
         0.32179E-02
         0.25928E-02
         0.18171E-02
         0.93572E-03
        -0.47884E-18
        -0.93572E-03
        -0.18171E-02
        -0.25928E-02
        -0.32179E-02
        -0.36559E-02
        -0.38815E-02
        -0.38815E-02
        -0.36559E-02
        -0.32179E-02
        -0.25928E-02
        -0.18171E-02
        -0.93572E-03
         0.67736E-03
         0.12361E-02
         0.59570E-03
        -0.33172E-03
         0.15173E-03
        -0.67248E-03
         0.18427E-02
         0.14656E-02
         0.30852E-03
         0.11812E-02
         0.22758E-02
         0.28251E-02
         0.24249E-02
         0.21688E-02
         0.29345E-02
        -0.10044E-02
         0.85443E-04
        -0.69737E-03
        -0.71084E-03
         0.83737E-04
        -0.77729E-03
         0.42899E-04
        -0.15191E-02
        -0.13222E-02
         0.99932E-03
        -0.17322E-02
         0.20243E-02
         0.18605E-02
         0.17175E-02
         0.91132E-03
        -0.19802E-02
        -0.23491E-02
        -0.17074E-02
        -0.14914E-02
         0.76841E-03
         0.12511E-02
         0.18668E-02
         0.28952E-02
         0.27170E-02
         0.24624E-02
         0.22358E-02
         0.16503E-02
         0.87702E-03
        -0.21374E-02
        -0.26933E-02
        -0.31291E-02
        -0.30382E-02
        -0.28749E-02
        -0.26444E-02
        -0.23723E-02
        -0.21489E-02
        -0.15096E-02
         0.93572E-03
         0.00000E+00
         0.18171E-02
         0.25928E-02
         0.32179E-02
         0.36559E-02
         0.38815E-02
         0.38815E-02
         0.36559E-02
         0.32179E-02
         0.25928E-02
         0.18171E-02
         0.93572E-03
        -0.47884E-18
        -0.93572E-03
        -0.18171E-02
        -0.25928E-02
        -0.32179E-02
        -0.36559E-02
        -0.38815E-02
        -0.38815E-02
        -0.36559E-02
        -0.32179E-02
        -0.25928E-02
        -0.18171E-02
        -0.93572E-03
         0.67791E-03
         0.12368E-02
         0.59622E-03
        -0.33096E-03
         0.15209E-03
        -0.67199E-03
         0.18429E-02
         0.14666E-02
         0.30967E-03
         0.11830E-02
         0.22759E-02
         0.28247E-02
         0.24251E-02
         0.21688E-02
         0.29343E-02
        -0.10046E-02
         0.86253E-04
        -0.69665E-03
        -0.71070E-03
         0.83861E-04
        -0.77712E-03
         0.43173E-04
        -0.15190E-02
        -0.13220E-02
         0.10007E-02
        -0.17321E-02
         0.20245E-02
         0.18603E-02
         0.17175E-02
         0.91156E-03
        -0.19802E-02
        -0.23491E-02
        -0.17074E-02
        -0.14916E-02
         0.76941E-03
         0.12515E-02
         0.18668E-02
         0.28942E-02
         0.27165E-02
         0.24622E-02
         0.22358E-02
         0.16503E-02
         0.87728E-03
        -0.21374E-02
        -0.26933E-02
        -0.31291E-02
        -0.30382E-02
        -0.28749E-02
        -0.26447E-02
        -0.23725E-02
        -0.21494E-02
        -0.15095E-02
         0.93572E-03
         0.00000E+00
         0.18171E-02
         0.25928E-02
         0.32179E-02
         0.36559E-02
         0.38815E-02
         0.38815E-02
         0.36559E-02
         0.32179E-02
         0.25928E-02
         0.18171E-02
         0.93572E-03
        -0.47884E-18
        -0.93572E-03
        -0.18171E-02
        -0.25928E-02
        -0.32179E-02
        -0.36559E-02
        -0.38815E-02
        -0.38815E-02
        -0.36559E-02
        -0.32179E-02
        -0.25928E-02
        -0.18171E-02
        -0.93572E-03
         0.67847E-03
         0.12374E-02
         0.59674E-03
        -0.33021E-03
         0.15245E-03
        -0.67150E-03
         0.18430E-02
         0.14676E-02
         0.31081E-03
         0.11847E-02
         0.22761E-02
         0.28242E-02
         0.24252E-02
         0.21688E-02
         0.29340E-02
        -0.10047E-02
         0.87062E-04
        -0.69592E-03
        -0.71056E-03
         0.83985E-04
        -0.77695E-03
         0.43446E-04
        -0.15190E-02
        -0.13219E-02
         0.10020E-02
        -0.17321E-02
         0.20248E-02
         0.18602E-02
         0.17175E-02
         0.91180E-03
        -0.19803E-02
        -0.23491E-02
        -0.17073E-02
        -0.14919E-02
         0.77042E-03
         0.12520E-02
         0.18669E-02
         0.28931E-02
         0.27160E-02
         0.24620E-02
         0.22358E-02
         0.16503E-02
         0.87754E-03
        -0.21374E-02
        -0.26933E-02
        -0.31291E-02
        -0.30382E-02
        -0.28749E-02
        -0.26450E-02
        -0.23727E-02
        -0.21500E-02
        -0.15094E-02
         0.93572E-03
         0.00000E+00
         0.18171E-02
         0.25928E-02
         0.32179E-02
         0.36559E-02
         0.38815E-02
         0.38815E-02
         0.36559E-02
         0.32179E-02
         0.25928E-02
         0.18171E-02
         0.93572E-03
         0.39516E-17
        -0.93572E-03
        -0.18171E-02
        -0.25928E-02
        -0.32179E-02
        -0.36559E-02
        -0.38815E-02
        -0.38815E-02
        -0.36559E-02
        -0.32179E-02
        -0.25928E-02
        -0.18171E-02
        -0.93572E-03
         0.67902E-03
         0.12381E-02
         0.59727E-03
        -0.32945E-03
         0.15282E-03
        -0.67100E-03
         0.18432E-02
         0.14686E-02
         0.31196E-03
         0.11865E-02
         0.22762E-02
         0.28238E-02
         0.24254E-02
         0.21688E-02
         0.29337E-02
        -0.10049E-02
         0.87871E-04
        -0.69519E-03
        -0.71042E-03
         0.84108E-04
        -0.77678E-03
         0.43720E-04
        -0.15189E-02
        -0.13219E-02
         0.10034E-02
        -0.17320E-02
         0.20251E-02
         0.18601E-02
         0.17175E-02
         0.91204E-03
        -0.19803E-02
        -0.23492E-02
        -0.17073E-02
        -0.14921E-02
         0.77142E-03
         0.12524E-02
         0.18669E-02
         0.28920E-02
         0.27155E-02
         0.24618E-02
         0.22358E-02
         0.16503E-02
         0.87781E-03
        -0.21374E-02
        -0.26934E-02
        -0.31291E-02
        -0.30382E-02
        -0.28749E-02
        -0.26452E-02
        -0.23729E-02
        -0.21505E-02
        -0.15093E-02
         0.93572E-03
         0.00000E+00
         0.18171E-02
         0.25928E-02
         0.32179E-02
         0.36559E-02
         0.38815E-02
         0.38815E-02
         0.36559E-02
         0.32179E-02
         0.25928E-02
         0.18171E-02
         0.93572E-03
        -0.47884E-18
        -0.93572E-03
        -0.18171E-02
        -0.25928E-02
        -0.32179E-02
        -0.36559E-02
        -0.38815E-02
        -0.38815E-02
        -0.36559E-02
        -0.32179E-02
        -0.25928E-02
        -0.18171E-02
        -0.93572E-03
         0.67958E-03
         0.12387E-02
         0.59779E-03
        -0.32870E-03
         0.15318E-03
        -0.67051E-03
         0.18434E-02
         0.14696E-02
         0.31311E-03
         0.11882E-02
         0.22763E-02
         0.28233E-02
         0.24255E-02
         0.21689E-02
         0.29335E-02
        -0.10050E-02
         0.88681E-04
        -0.69447E-03
        -0.71028E-03
         0.84232E-04
        -0.77661E-03
         0.43993E-04
        -0.15189E-02
        -0.13218E-02
         0.10048E-02
        -0.17320E-02
         0.20254E-02
         0.18599E-02
         0.17175E-02
         0.91228E-03
        -0.19803E-02
        -0.23492E-02
        -0.17073E-02
        -0.14923E-02
         0.77243E-03
         0.12528E-02
         0.18670E-02
         0.28910E-02
         0.27151E-02
         0.24615E-02
         0.22358E-02
         0.16503E-02
         0.87807E-03
        -0.21374E-02
        -0.26934E-02
        -0.31291E-02
        -0.30382E-02
        -0.28749E-02
        -0.26455E-02
        -0.23732E-02
        -0.21511E-02
        -0.15092E-02
         0.93572E-03
         0.00000E+00
         0.18171E-02
         0.25928E-02
         0.32179E-02
         0.36559E-02
         0.38815E-02
         0.38815E-02
         0.36559E-02
         0.32179E-02
         0.25928E-02
         0.18171E-02
         0.93572E-03
         0.22152E-17
        -0.93572E-03
        -0.18171E-02
        -0.25928E-02
        -0.32179E-02
        -0.36559E-02
        -0.38815E-02
        -0.38815E-02
        -0.36559E-02
        -0.32179E-02
        -0.25928E-02
        -0.18171E-02
        -0.93572E-03
         0.68013E-03
         0.12394E-02
         0.59831E-03
        -0.32794E-03
         0.15354E-03
        -0.67002E-03
         0.18436E-02
         0.14706E-02
         0.31426E-03
         0.11900E-02
         0.22765E-02
         0.28229E-02
         0.24257E-02
         0.21689E-02
         0.29332E-02
        -0.10051E-02
         0.89490E-04
        -0.69374E-03
        -0.71013E-03
         0.84355E-04
        -0.77644E-03
         0.44266E-04
        -0.15188E-02
        -0.13216E-02
         0.10061E-02
        -0.17320E-02
         0.20257E-02
         0.18598E-02
         0.17175E-02
         0.91252E-03
        -0.19803E-02
        -0.23492E-02
        -0.17073E-02
        -0.14926E-02
         0.77343E-03
         0.12533E-02
         0.18670E-02
         0.28899E-02
         0.27146E-02
         0.24613E-02
         0.22358E-02
         0.16503E-02
         0.87833E-03
        -0.21374E-02
        -0.26934E-02
        -0.31291E-02
        -0.30382E-02
        -0.28750E-02
        -0.26458E-02
        -0.23734E-02
        -0.21516E-02
        -0.15091E-02
         0.93572E-03
         0.00000E+00
         0.18171E-02
         0.25928E-02
         0.32179E-02
         0.36559E-02
         0.38815E-02
         0.38815E-02
         0.36559E-02
         0.32179E-02
         0.25928E-02
         0.18171E-02
         0.93572E-03
        -0.47884E-18
        -0.93572E-03
        -0.18171E-02
        -0.25928E-02
        -0.32179E-02
        -0.36559E-02
        -0.38815E-02
        -0.38815E-02
        -0.36559E-02
        -0.32179E-02
        -0.25928E-02
        -0.18171E-02
        -0.93572E-03
         0.68068E-03
         0.12401E-02
         0.59884E-03
        -0.32719E-03
         0.15391E-03
        -0.66953E-03
         0.18438E-02
         0.14716E-02
         0.31541E-03
         0.11917E-02
         0.22766E-02
         0.28225E-02
         0.24258E-02
         0.21690E-02
         0.29330E-02
        -0.10053E-02
         0.90299E-04
        -0.69302E-03
        -0.70999E-03
         0.84479E-04
        -0.77627E-03
         0.44540E-04
        -0.15188E-02
        -0.13215E-02
         0.10075E-02
        -0.17319E-02
         0.20260E-02
         0.18597E-02
         0.17175E-02
         0.91276E-03
        -0.19804E-02
        -0.23493E-02
        -0.17073E-02
        -0.14928E-02
         0.77444E-03
         0.12537E-02
         0.18670E-02
         0.28888E-02
         0.27141E-02
         0.24611E-02
         0.22358E-02
         0.16503E-02
         0.87859E-03
        -0.21374E-02
        -0.26934E-02
        -0.31291E-02
        -0.30382E-02
        -0.28750E-02
        -0.26460E-02
        -0.23736E-02
        -0.21521E-02
        -0.15090E-02
         0.93572E-03
         0.00000E+00
         0.18171E-02
         0.25928E-02
         0.32179E-02
         0.36559E-02
         0.38815E-02
         0.38815E-02
         0.36559E-02
         0.32179E-02
         0.25928E-02
         0.18171E-02
         0.93572E-03
         0.22152E-17
        -0.93572E-03
        -0.18171E-02
        -0.25928E-02
        -0.32179E-02
        -0.36559E-02
        -0.38815E-02
        -0.38815E-02
        -0.36559E-02
        -0.32179E-02
        -0.25928E-02
        -0.18171E-02
        -0.93572E-03
         0.68124E-03
         0.12407E-02
         0.59936E-03
        -0.32643E-03
         0.15427E-03
        -0.66903E-03
         0.18440E-02
         0.14727E-02
         0.31656E-03
         0.11935E-02
         0.22767E-02
         0.28220E-02
         0.24260E-02
         0.21690E-02
         0.29327E-02
        -0.10054E-02
         0.91108E-04
        -0.69229E-03
        -0.70985E-03
         0.84602E-04
        -0.77610E-03
         0.44813E-04
        -0.15187E-02
        -0.13215E-02
         0.10088E-02
        -0.17319E-02
         0.20262E-02
         0.18595E-02
         0.17175E-02
         0.91300E-03
        -0.19804E-02
        -0.23493E-02
        -0.17073E-02
        -0.14931E-02
         0.77544E-03
         0.12541E-02
         0.18671E-02
         0.28877E-02
         0.27137E-02
         0.24609E-02
         0.22358E-02
         0.16503E-02
         0.87885E-03
        -0.21374E-02
        -0.26934E-02
        -0.31291E-02
        -0.30382E-02
        -0.28750E-02
        -0.26463E-02
        -0.23738E-02
        -0.21527E-02
        -0.15088E-02
         0.93572E-03
         0.00000E+00
         0.18171E-02
         0.25928E-02
         0.32179E-02
         0.36559E-02
         0.38815E-02
         0.38815E-02
         0.36559E-02
         0.32179E-02
         0.25928E-02
         0.18171E-02
         0.93572E-03
        -0.47884E-18
        -0.93572E-03
        -0.18171E-02
        -0.25928E-02
        -0.32179E-02
        -0.36559E-02
        -0.38815E-02
        -0.38815E-02
        -0.36559E-02
        -0.32179E-02
        -0.25928E-02
        -0.18171E-02
        -0.93572E-03
         0.68179E-03
         0.12414E-02
         0.59988E-03
        -0.32568E-03
         0.15463E-03
        -0.66854E-03
         0.18442E-02
         0.14736E-02
         0.31770E-03
         0.11952E-02
         0.22768E-02
         0.28216E-02
         0.24261E-02
         0.21690E-02
         0.29324E-02
        -0.10056E-02
         0.91918E-04
        -0.69156E-03
        -0.70971E-03
         0.84726E-04
        -0.77593E-03
         0.45086E-04
        -0.15187E-02
        -0.13213E-02
         0.10102E-02
        -0.17318E-02
         0.20265E-02
         0.18594E-02
         0.17175E-02
         0.91324E-03
        -0.19804E-02
        -0.23493E-02
        -0.17073E-02
        -0.14933E-02
         0.77645E-03
         0.12545E-02
         0.18671E-02
         0.28867E-02
         0.27132E-02
         0.24606E-02
         0.22358E-02
         0.16503E-02
         0.87912E-03
        -0.21374E-02
        -0.26935E-02
        -0.31291E-02
        -0.30381E-02
        -0.28750E-02
        -0.26466E-02
        -0.23740E-02
        -0.21533E-02
        -0.15087E-02
         0.93572E-03
         0.00000E+00
         0.18171E-02
         0.25928E-02
         0.32179E-02
         0.36559E-02
         0.38815E-02
         0.38815E-02
         0.36559E-02
         0.32179E-02
         0.25928E-02
         0.18171E-02
         0.93572E-03
        -0.47884E-18
        -0.93572E-03
        -0.18171E-02
        -0.25928E-02
        -0.32179E-02
        -0.36559E-02
        -0.38815E-02
        -0.38815E-02
        -0.36559E-02
        -0.32179E-02
        -0.25928E-02
        -0.18171E-02
        -0.93572E-03
         0.68235E-03
         0.12421E-02
         0.60041E-03
        -0.32493E-03
         0.15500E-03
        -0.66805E-03
         0.18444E-02
         0.14747E-02
         0.31885E-03
         0.11970E-02
         0.22770E-02
         0.28211E-02
         0.24262E-02
         0.21691E-02
         0.29322E-02
        -0.10057E-02
         0.92727E-04
        -0.69084E-03
        -0.70957E-03
         0.84849E-04
        -0.77576E-03
         0.45359E-04
        -0.15186E-02
        -0.13212E-02
         0.10115E-02
        -0.17318E-02
         0.20268E-02
         0.18593E-02
         0.17175E-02
         0.91347E-03
        -0.19804E-02
        -0.23493E-02
        -0.17073E-02
        -0.14936E-02
         0.77745E-03
         0.12550E-02
         0.18671E-02
         0.28856E-02
         0.27127E-02
         0.24604E-02
         0.22358E-02
         0.16503E-02
         0.87938E-03
        -0.21374E-02
        -0.26935E-02
        -0.31291E-02
        -0.30381E-02
        -0.28750E-02
        -0.26468E-02
        -0.23742E-02
        -0.21538E-02
        -0.15086E-02
         0.93572E-03
         0.00000E+00
         0.18171E-02
         0.25928E-02
         0.32179E-02
         0.36559E-02
         0.38815E-02
         0.38815E-02
         0.36559E-02
         0.32179E-02
         0.25928E-02
         0.18171E-02
         0.93572E-03
        -0.47884E-18
        -0.93572E-03
        -0.18171E-02
        -0.25928E-02
        -0.32179E-02
        -0.36559E-02
        -0.38815E-02
        -0.38815E-02
        -0.36559E-02
        -0.32179E-02
        -0.25928E-02
        -0.18171E-02
        -0.93572E-03
         0.68290E-03
         0.12427E-02
         0.60093E-03
        -0.32417E-03
         0.15536E-03
        -0.66755E-03
         0.18445E-02
         0.14757E-02
         0.32000E-03
         0.11987E-02
         0.22771E-02
         0.28207E-02
         0.24264E-02
         0.21691E-02
         0.29319E-02
        -0.10058E-02
         0.93536E-04
        -0.69011E-03
        -0.70943E-03
         0.84973E-04
        -0.77559E-03
         0.45633E-04
        -0.15186E-02
        -0.13212E-02
         0.10129E-02
        -0.17318E-02
         0.20271E-02
         0.18592E-02
         0.17175E-02
         0.91371E-03
        -0.19805E-02
        -0.23493E-02
        -0.17073E-02
        -0.14938E-02
         0.77846E-03
         0.12554E-02
         0.18672E-02
         0.28845E-02
         0.27122E-02
         0.24602E-02
         0.22358E-02
         0.16502E-02
         0.87964E-03
        -0.21374E-02
        -0.26935E-02
        -0.31291E-02
        -0.30381E-02
        -0.28750E-02
        -0.26471E-02
        -0.23744E-02
        -0.21543E-02
        -0.15085E-02
         0.93572E-03
         0.00000E+00
         0.18171E-02
         0.25928E-02
         0.32179E-02
         0.36559E-02
         0.38815E-02
         0.38815E-02
         0.36559E-02
         0.32179E-02
         0.25928E-02
         0.18171E-02
         0.93572E-03
        -0.47884E-18
        -0.93572E-03
        -0.18171E-02
        -0.25928E-02
        -0.32179E-02
        -0.36559E-02
        -0.38815E-02
        -0.38815E-02
        -0.36559E-02
        -0.32179E-02
        -0.25928E-02
        -0.18171E-02
        -0.93572E-03
         0.68346E-03
         0.12434E-02
         0.60145E-03
        -0.32342E-03
         0.15572E-03
        -0.66706E-03
         0.18447E-02
         0.14767E-02
         0.32115E-03
         0.12005E-02
         0.22772E-02
         0.28203E-02
         0.24265E-02
         0.21691E-02
         0.29316E-02
        -0.10060E-02
         0.94345E-04
        -0.68939E-03
        -0.70929E-03
         0.85096E-04
        -0.77542E-03
         0.45906E-04
        -0.15185E-02
        -0.13211E-02
         0.10142E-02
        -0.17317E-02
         0.20274E-02
         0.18590E-02
         0.17175E-02
         0.91395E-03
        -0.19805E-02
        -0.23494E-02
        -0.17073E-02
        -0.14941E-02
         0.77946E-03
         0.12558E-02
         0.18672E-02
         0.28835E-02
         0.27118E-02
         0.24600E-02
         0.22358E-02
         0.16502E-02
         0.87990E-03
        -0.21374E-02
        -0.26935E-02
        -0.31291E-02
        -0.30381E-02
        -0.28750E-02
        -0.26474E-02
        -0.23746E-02
        -0.21549E-02
        -0.15084E-02
         0.93572E-03
         0.00000E+00
         0.18171E-02
         0.25928E-02
         0.32179E-02
         0.36559E-02
         0.38815E-02
         0.38815E-02
         0.36559E-02
         0.32179E-02
         0.25928E-02
         0.18171E-02
         0.93572E-03
         0.22152E-17
        -0.93572E-03
        -0.18171E-02
        -0.25928E-02
        -0.32179E-02
        -0.36559E-02
        -0.38815E-02
        -0.38815E-02
        -0.36559E-02
        -0.32179E-02
        -0.25928E-02
        -0.18171E-02
        -0.93572E-03
         0.68401E-03
         0.12440E-02
         0.60198E-03
        -0.32266E-03
         0.15609E-03
        -0.66657E-03
         0.18449E-02
         0.14777E-02
         0.32230E-03
         0.12022E-02
         0.22774E-02
         0.28198E-02
         0.24267E-02
         0.21692E-02
         0.29314E-02
        -0.10061E-02
         0.95155E-04
        -0.68866E-03
        -0.70915E-03
         0.85220E-04
        -0.77525E-03
         0.46180E-04
        -0.15185E-02
        -0.13210E-02
         0.10156E-02
        -0.17317E-02
         0.20277E-02
         0.18589E-02
         0.17175E-02
         0.91419E-03
        -0.19805E-02
        -0.23494E-02
        -0.17073E-02
        -0.14943E-02
         0.78047E-03
         0.12563E-02
         0.18672E-02
         0.28824E-02
         0.27113E-02
         0.24597E-02
         0.22358E-02
         0.16502E-02
         0.88016E-03
        -0.21374E-02
        -0.26935E-02
        -0.31291E-02
        -0.30381E-02
        -0.28751E-02
        -0.26476E-02
        -0.23748E-02
        -0.21554E-02
        -0.15083E-02
         0.93572E-03
         0.00000E+00
         0.18171E-02
         0.25928E-02
         0.32179E-02
         0.36559E-02
         0.38815E-02
         0.38815E-02
         0.36559E-02
         0.32179E-02
         0.25928E-02
         0.18171E-02
         0.93572E-03
        -0.47884E-18
        -0.93572E-03
        -0.18171E-02
        -0.25928E-02
        -0.32179E-02
        -0.36559E-02
        -0.38815E-02
        -0.38815E-02
        -0.36559E-02
        -0.32179E-02
        -0.25928E-02
        -0.18171E-02
        -0.93572E-03
         0.68457E-03
         0.12447E-02
         0.60250E-03
        -0.32191E-03
         0.15645E-03
        -0.66607E-03
         0.18451E-02
         0.14787E-02
         0.32345E-03
         0.12040E-02
         0.22775E-02
         0.28194E-02
         0.24268E-02
         0.21692E-02
         0.29311E-02
        -0.10062E-02
         0.95964E-04
        -0.68793E-03
        -0.70901E-03
         0.85343E-04
        -0.77507E-03
         0.46453E-04
        -0.15184E-02
        -0.13209E-02
         0.10169E-02
        -0.17316E-02
         0.20280E-02
         0.18588E-02
         0.17175E-02
         0.91443E-03
        -0.19806E-02
        -0.23494E-02
        -0.17073E-02
        -0.14945E-02
         0.78148E-03
         0.12567E-02
         0.18673E-02
         0.28813E-02
         0.27108E-02
         0.24595E-02
         0.22358E-02
         0.16502E-02
         0.88043E-03
        -0.21374E-02
        -0.26936E-02
        -0.31291E-02
        -0.30381E-02
        -0.28751E-02
        -0.26479E-02
        -0.23750E-02
        -0.21560E-02
        -0.15082E-02
         0.93572E-03
         0.00000E+00
         0.18171E-02
         0.25928E-02
         0.32179E-02
         0.36559E-02
         0.38815E-02
         0.38815E-02
         0.36559E-02
         0.32179E-02
         0.25928E-02
         0.18171E-02
         0.93572E-03
        -0.47884E-18
        -0.93572E-03
        -0.18171E-02
        -0.25928E-02
        -0.32179E-02
        -0.36559E-02
        -0.38815E-02
        -0.38815E-02
        -0.36559E-02
        -0.32179E-02
        -0.25928E-02
        -0.18171E-02
        -0.93572E-03
         0.68512E-03
         0.12454E-02
         0.60302E-03
        -0.32115E-03
         0.15681E-03
        -0.66558E-03
         0.18453E-02
         0.14797E-02
         0.32459E-03
         0.12058E-02
         0.22776E-02
         0.28189E-02
         0.24270E-02
         0.21693E-02
         0.29308E-02
        -0.10064E-02
         0.96773E-04
        -0.68721E-03
        -0.70887E-03
         0.85467E-04
        -0.77490E-03
         0.46726E-04
        -0.15184E-02
        -0.13208E-02
         0.10183E-02
        -0.17316E-02
         0.20283E-02
         0.18586E-02
         0.17175E-02
         0.91467E-03
        -0.19806E-02
        -0.23494E-02
        -0.17073E-02
        -0.14948E-02
         0.78248E-03
         0.12571E-02
         0.18673E-02
         0.28802E-02
         0.27103E-02
         0.24593E-02
         0.22358E-02
         0.16502E-02
         0.88069E-03
        -0.21374E-02
        -0.26936E-02
        -0.31291E-02
        -0.30381E-02
        -0.28751E-02
        -0.26482E-02
        -0.23752E-02
        -0.21565E-02
        -0.15081E-02
         0.93572E-03
         0.00000E+00
         0.18171E-02
         0.25928E-02
         0.32179E-02
         0.36559E-02
         0.38815E-02
         0.38815E-02
         0.36559E-02
         0.32179E-02
         0.25928E-02
         0.18171E-02
         0.93572E-03
        -0.47884E-18
        -0.93572E-03
        -0.18171E-02
        -0.25928E-02
        -0.32179E-02
        -0.36559E-02
        -0.38815E-02
        -0.38815E-02
        -0.36559E-02
        -0.32179E-02
        -0.25928E-02
        -0.18171E-02
        -0.93572E-03
         0.68567E-03
         0.12460E-02
         0.60355E-03
        -0.32040E-03
         0.15718E-03
        -0.66509E-03
         0.18455E-02
         0.14807E-02
         0.32574E-03
         0.12075E-02
         0.22777E-02
         0.28185E-02
         0.24271E-02
         0.21693E-02
         0.29306E-02
        -0.10065E-02
         0.97583E-04
        -0.68648E-03
        -0.70873E-03
         0.85591E-04
        -0.77474E-03
         0.47000E-04
        -0.15183E-02
        -0.13207E-02
         0.10197E-02
        -0.17316E-02
         0.20285E-02
         0.18585E-02
         0.17175E-02
         0.91491E-03
        -0.19806E-02
        -0.23495E-02
        -0.17073E-02
        -0.14950E-02
         0.78348E-03
         0.12576E-02
         0.18674E-02
         0.28792E-02
         0.27099E-02
         0.24591E-02
         0.22358E-02
         0.16502E-02
         0.88095E-03
        -0.21374E-02
        -0.26936E-02
        -0.31290E-02
        -0.30381E-02
        -0.28751E-02
        -0.26484E-02
        -0.23754E-02
        -0.21571E-02
        -0.15080E-02
         0.93572E-03
         0.00000E+00
         0.18171E-02
         0.25928E-02
         0.32179E-02
         0.36559E-02
         0.38815E-02
         0.38815E-02
         0.36559E-02
         0.32179E-02
         0.25928E-02
         0.18171E-02
         0.93572E-03
         0.47884E-18
        -0.93572E-03
        -0.18171E-02
        -0.25928E-02
        -0.32179E-02
        -0.36559E-02
        -0.38815E-02
        -0.38815E-02
        -0.36559E-02
        -0.32179E-02
        -0.25928E-02
        -0.18171E-02
        -0.93572E-03
  
SCALARS           initial_coordinate_z  double 1
LOOKUP_TABLE default
        -0.10771E-01
        -0.10771E-01
        -0.10771E-01
        -0.10771E-01
        -0.11750E-01
        -0.11750E-01
        -0.11750E-01
        -0.11750E-01
        -0.10771E-01
        -0.10771E-01
        -0.11750E-01
        -0.11750E-01
        -0.10771E-01
        -0.10771E-01
        -0.11750E-01
        -0.11750E-01
        -0.10771E-01
        -0.10771E-01
        -0.11750E-01
        -0.11750E-01
        -0.10771E-01
        -0.10771E-01
        -0.10771E-01
        -0.11750E-01
        -0.11750E-01
        -0.11750E-01
        -0.10771E-01
        -0.10771E-01
        -0.11750E-01
        -0.11750E-01
        -0.10771E-01
        -0.10771E-01
        -0.10771E-01
        -0.11750E-01
        -0.11750E-01
        -0.11750E-01
        -0.10771E-01
        -0.10771E-01
        -0.11750E-01
        -0.11750E-01
        -0.10771E-01
        -0.10771E-01
        -0.11750E-01
        -0.11750E-01
        -0.10771E-01
        -0.10771E-01
        -0.11750E-01
        -0.11750E-01
        -0.10771E-01
        -0.11750E-01
        -0.10771E-01
        -0.11750E-01
        -0.10771E-01
        -0.11750E-01
        -0.10771E-01
        -0.11750E-01
        -0.10771E-01
        -0.10771E-01
        -0.11750E-01
        -0.11750E-01
        -0.10771E-01
        -0.10771E-01
        -0.11750E-01
        -0.11750E-01
        -0.10771E-01
        -0.11750E-01
        -0.10771E-01
        -0.11750E-01
        -0.10771E-01
        -0.10771E-01
        -0.11750E-01
        -0.11750E-01
        -0.10771E-01
        -0.11750E-01
        -0.10771E-01
        -0.11750E-01
        -0.10771E-01
        -0.11750E-01
        -0.10771E-01
        -0.11750E-01
        -0.10771E-01
        -0.10771E-01
        -0.11750E-01
        -0.11750E-01
        -0.10771E-01
        -0.11750E-01
        -0.10771E-01
        -0.11750E-01
        -0.10771E-01
        -0.11750E-01
        -0.10771E-01
        -0.10771E-01
        -0.11750E-01
        -0.11750E-01
        -0.10771E-01
        -0.11750E-01
        -0.10771E-01
        -0.11750E-01
        -0.10771E-01
        -0.11750E-01
        -0.10771E-01
        -0.10771E-01
        -0.11750E-01
        -0.11750E-01
        -0.10771E-01
        -0.10771E-01
        -0.11750E-01
        -0.11750E-01
        -0.10771E-01
        -0.11750E-01
        -0.10771E-01
        -0.11750E-01
        -0.10771E-01
        -0.11750E-01
        -0.10771E-01
        -0.11750E-01
        -0.10771E-01
        -0.11750E-01
        -0.10771E-01
        -0.11750E-01
        -0.10771E-01
        -0.11750E-01
        -0.10771E-01
        -0.11750E-01
        -0.10771E-01
        -0.11750E-01
        -0.10771E-01
        -0.11750E-01
        -0.10771E-01
        -0.11750E-01
        -0.10771E-01
        -0.11750E-01
        -0.10771E-01
        -0.11750E-01
        -0.10771E-01
        -0.11750E-01
        -0.10771E-01
        -0.11750E-01
        -0.10771E-01
        -0.11750E-01
        -0.10771E-01
        -0.11750E-01
        -0.10771E-01
        -0.11750E-01
        -0.10771E-01
        -0.11750E-01
        -0.10771E-01
        -0.11750E-01
        -0.10771E-01
        -0.11750E-01
        -0.10771E-01
        -0.11750E-01
        -0.10771E-01
        -0.11750E-01
        -0.10771E-01
        -0.11750E-01
        -0.97917E-02
        -0.97917E-02
        -0.97917E-02
        -0.97917E-02
        -0.97917E-02
        -0.97917E-02
        -0.97917E-02
        -0.97917E-02
        -0.97917E-02
        -0.97917E-02
        -0.97917E-02
        -0.97917E-02
        -0.97917E-02
        -0.97917E-02
        -0.97917E-02
        -0.97917E-02
        -0.97917E-02
        -0.97917E-02
        -0.97917E-02
        -0.97917E-02
        -0.97917E-02
        -0.97917E-02
        -0.97917E-02
        -0.97917E-02
        -0.97917E-02
        -0.97917E-02
        -0.97917E-02
        -0.97917E-02
        -0.97917E-02
        -0.97917E-02
        -0.97917E-02
        -0.97917E-02
        -0.97917E-02
        -0.97917E-02
        -0.97917E-02
        -0.97917E-02
        -0.97917E-02
        -0.97917E-02
        -0.97917E-02
        -0.97917E-02
        -0.97917E-02
        -0.97917E-02
        -0.97917E-02
        -0.97917E-02
        -0.97917E-02
        -0.97917E-02
        -0.97917E-02
        -0.97917E-02
        -0.97917E-02
        -0.97917E-02
        -0.97917E-02
        -0.97917E-02
        -0.97917E-02
        -0.97917E-02
        -0.97917E-02
        -0.97917E-02
        -0.97917E-02
        -0.97917E-02
        -0.97917E-02
        -0.97917E-02
        -0.97917E-02
        -0.97917E-02
        -0.97917E-02
        -0.97917E-02
        -0.97917E-02
        -0.97917E-02
        -0.97917E-02
        -0.97917E-02
        -0.97917E-02
        -0.97917E-02
        -0.97917E-02
        -0.97917E-02
        -0.97917E-02
        -0.97917E-02
        -0.97917E-02
        -0.97917E-02
        -0.97917E-02
        -0.97917E-02
        -0.88125E-02
        -0.88125E-02
        -0.88125E-02
        -0.88125E-02
        -0.88125E-02
        -0.88125E-02
        -0.88125E-02
        -0.88125E-02
        -0.88125E-02
        -0.88125E-02
        -0.88125E-02
        -0.88125E-02
        -0.88125E-02
        -0.88125E-02
        -0.88125E-02
        -0.88125E-02
        -0.88125E-02
        -0.88125E-02
        -0.88125E-02
        -0.88125E-02
        -0.88125E-02
        -0.88125E-02
        -0.88125E-02
        -0.88125E-02
        -0.88125E-02
        -0.88125E-02
        -0.88125E-02
        -0.88125E-02
        -0.88125E-02
        -0.88125E-02
        -0.88125E-02
        -0.88125E-02
        -0.88125E-02
        -0.88125E-02
        -0.88125E-02
        -0.88125E-02
        -0.88125E-02
        -0.88125E-02
        -0.88125E-02
        -0.88125E-02
        -0.88125E-02
        -0.88125E-02
        -0.88125E-02
        -0.88125E-02
        -0.88125E-02
        -0.88125E-02
        -0.88125E-02
        -0.88125E-02
        -0.88125E-02
        -0.88125E-02
        -0.88125E-02
        -0.88125E-02
        -0.88125E-02
        -0.88125E-02
        -0.88125E-02
        -0.88125E-02
        -0.88125E-02
        -0.88125E-02
        -0.88125E-02
        -0.88125E-02
        -0.88125E-02
        -0.88125E-02
        -0.88125E-02
        -0.88125E-02
        -0.88125E-02
        -0.88125E-02
        -0.88125E-02
        -0.88125E-02
        -0.88125E-02
        -0.88125E-02
        -0.88125E-02
        -0.88125E-02
        -0.88125E-02
        -0.88125E-02
        -0.88125E-02
        -0.88125E-02
        -0.88125E-02
        -0.88125E-02
        -0.78333E-02
        -0.78333E-02
        -0.78333E-02
        -0.78333E-02
        -0.78333E-02
        -0.78333E-02
        -0.78333E-02
        -0.78333E-02
        -0.78333E-02
        -0.78333E-02
        -0.78333E-02
        -0.78333E-02
        -0.78333E-02
        -0.78333E-02
        -0.78333E-02
        -0.78333E-02
        -0.78333E-02
        -0.78333E-02
        -0.78333E-02
        -0.78333E-02
        -0.78333E-02
        -0.78333E-02
        -0.78333E-02
        -0.78333E-02
        -0.78333E-02
        -0.78333E-02
        -0.78333E-02
        -0.78333E-02
        -0.78333E-02
        -0.78333E-02
        -0.78333E-02
        -0.78333E-02
        -0.78333E-02
        -0.78333E-02
        -0.78333E-02
        -0.78333E-02
        -0.78333E-02
        -0.78333E-02
        -0.78333E-02
        -0.78333E-02
        -0.78333E-02
        -0.78333E-02
        -0.78333E-02
        -0.78333E-02
        -0.78333E-02
        -0.78333E-02
        -0.78333E-02
        -0.78333E-02
        -0.78333E-02
        -0.78333E-02
        -0.78333E-02
        -0.78333E-02
        -0.78333E-02
        -0.78333E-02
        -0.78333E-02
        -0.78333E-02
        -0.78333E-02
        -0.78333E-02
        -0.78333E-02
        -0.78333E-02
        -0.78333E-02
        -0.78333E-02
        -0.78333E-02
        -0.78333E-02
        -0.78333E-02
        -0.78333E-02
        -0.78333E-02
        -0.78333E-02
        -0.78333E-02
        -0.78333E-02
        -0.78333E-02
        -0.78333E-02
        -0.78333E-02
        -0.78333E-02
        -0.78333E-02
        -0.78333E-02
        -0.78333E-02
        -0.78333E-02
        -0.68542E-02
        -0.68542E-02
        -0.68542E-02
        -0.68542E-02
        -0.68542E-02
        -0.68542E-02
        -0.68542E-02
        -0.68542E-02
        -0.68542E-02
        -0.68542E-02
        -0.68542E-02
        -0.68542E-02
        -0.68542E-02
        -0.68542E-02
        -0.68542E-02
        -0.68542E-02
        -0.68542E-02
        -0.68542E-02
        -0.68542E-02
        -0.68542E-02
        -0.68542E-02
        -0.68542E-02
        -0.68542E-02
        -0.68542E-02
        -0.68542E-02
        -0.68542E-02
        -0.68542E-02
        -0.68542E-02
        -0.68542E-02
        -0.68542E-02
        -0.68542E-02
        -0.68542E-02
        -0.68542E-02
        -0.68542E-02
        -0.68542E-02
        -0.68542E-02
        -0.68542E-02
        -0.68542E-02
        -0.68542E-02
        -0.68542E-02
        -0.68542E-02
        -0.68542E-02
        -0.68542E-02
        -0.68542E-02
        -0.68542E-02
        -0.68542E-02
        -0.68542E-02
        -0.68542E-02
        -0.68542E-02
        -0.68542E-02
        -0.68542E-02
        -0.68542E-02
        -0.68542E-02
        -0.68542E-02
        -0.68542E-02
        -0.68542E-02
        -0.68542E-02
        -0.68542E-02
        -0.68542E-02
        -0.68542E-02
        -0.68542E-02
        -0.68542E-02
        -0.68542E-02
        -0.68542E-02
        -0.68542E-02
        -0.68542E-02
        -0.68542E-02
        -0.68542E-02
        -0.68542E-02
        -0.68542E-02
        -0.68542E-02
        -0.68542E-02
        -0.68542E-02
        -0.68542E-02
        -0.68542E-02
        -0.68542E-02
        -0.68542E-02
        -0.68542E-02
        -0.58750E-02
        -0.58750E-02
        -0.58750E-02
        -0.58750E-02
        -0.58750E-02
        -0.58750E-02
        -0.58750E-02
        -0.58750E-02
        -0.58750E-02
        -0.58750E-02
        -0.58750E-02
        -0.58750E-02
        -0.58750E-02
        -0.58750E-02
        -0.58750E-02
        -0.58750E-02
        -0.58750E-02
        -0.58750E-02
        -0.58750E-02
        -0.58750E-02
        -0.58750E-02
        -0.58750E-02
        -0.58750E-02
        -0.58750E-02
        -0.58750E-02
        -0.58750E-02
        -0.58750E-02
        -0.58750E-02
        -0.58750E-02
        -0.58750E-02
        -0.58750E-02
        -0.58750E-02
        -0.58750E-02
        -0.58750E-02
        -0.58750E-02
        -0.58750E-02
        -0.58750E-02
        -0.58750E-02
        -0.58750E-02
        -0.58750E-02
        -0.58750E-02
        -0.58750E-02
        -0.58750E-02
        -0.58750E-02
        -0.58750E-02
        -0.58750E-02
        -0.58750E-02
        -0.58750E-02
        -0.58750E-02
        -0.58750E-02
        -0.58750E-02
        -0.58750E-02
        -0.58750E-02
        -0.58750E-02
        -0.58750E-02
        -0.58750E-02
        -0.58750E-02
        -0.58750E-02
        -0.58750E-02
        -0.58750E-02
        -0.58750E-02
        -0.58750E-02
        -0.58750E-02
        -0.58750E-02
        -0.58750E-02
        -0.58750E-02
        -0.58750E-02
        -0.58750E-02
        -0.58750E-02
        -0.58750E-02
        -0.58750E-02
        -0.58750E-02
        -0.58750E-02
        -0.58750E-02
        -0.58750E-02
        -0.58750E-02
        -0.58750E-02
        -0.58750E-02
        -0.48958E-02
        -0.48958E-02
        -0.48958E-02
        -0.48958E-02
        -0.48958E-02
        -0.48958E-02
        -0.48958E-02
        -0.48958E-02
        -0.48958E-02
        -0.48958E-02
        -0.48958E-02
        -0.48958E-02
        -0.48958E-02
        -0.48958E-02
        -0.48958E-02
        -0.48958E-02
        -0.48958E-02
        -0.48958E-02
        -0.48958E-02
        -0.48958E-02
        -0.48958E-02
        -0.48958E-02
        -0.48958E-02
        -0.48958E-02
        -0.48958E-02
        -0.48958E-02
        -0.48958E-02
        -0.48958E-02
        -0.48958E-02
        -0.48958E-02
        -0.48958E-02
        -0.48958E-02
        -0.48958E-02
        -0.48958E-02
        -0.48958E-02
        -0.48958E-02
        -0.48958E-02
        -0.48958E-02
        -0.48958E-02
        -0.48958E-02
        -0.48958E-02
        -0.48958E-02
        -0.48958E-02
        -0.48958E-02
        -0.48958E-02
        -0.48958E-02
        -0.48958E-02
        -0.48958E-02
        -0.48958E-02
        -0.48958E-02
        -0.48958E-02
        -0.48958E-02
        -0.48958E-02
        -0.48958E-02
        -0.48958E-02
        -0.48958E-02
        -0.48958E-02
        -0.48958E-02
        -0.48958E-02
        -0.48958E-02
        -0.48958E-02
        -0.48958E-02
        -0.48958E-02
        -0.48958E-02
        -0.48958E-02
        -0.48958E-02
        -0.48958E-02
        -0.48958E-02
        -0.48958E-02
        -0.48958E-02
        -0.48958E-02
        -0.48958E-02
        -0.48958E-02
        -0.48958E-02
        -0.48958E-02
        -0.48958E-02
        -0.48958E-02
        -0.48958E-02
        -0.39167E-02
        -0.39167E-02
        -0.39167E-02
        -0.39167E-02
        -0.39167E-02
        -0.39167E-02
        -0.39167E-02
        -0.39167E-02
        -0.39167E-02
        -0.39167E-02
        -0.39167E-02
        -0.39167E-02
        -0.39167E-02
        -0.39167E-02
        -0.39167E-02
        -0.39167E-02
        -0.39167E-02
        -0.39167E-02
        -0.39167E-02
        -0.39167E-02
        -0.39167E-02
        -0.39167E-02
        -0.39167E-02
        -0.39167E-02
        -0.39167E-02
        -0.39167E-02
        -0.39167E-02
        -0.39167E-02
        -0.39167E-02
        -0.39167E-02
        -0.39167E-02
        -0.39167E-02
        -0.39167E-02
        -0.39167E-02
        -0.39167E-02
        -0.39167E-02
        -0.39167E-02
        -0.39167E-02
        -0.39167E-02
        -0.39167E-02
        -0.39167E-02
        -0.39167E-02
        -0.39167E-02
        -0.39167E-02
        -0.39167E-02
        -0.39167E-02
        -0.39167E-02
        -0.39167E-02
        -0.39167E-02
        -0.39167E-02
        -0.39167E-02
        -0.39167E-02
        -0.39167E-02
        -0.39167E-02
        -0.39167E-02
        -0.39167E-02
        -0.39167E-02
        -0.39167E-02
        -0.39167E-02
        -0.39167E-02
        -0.39167E-02
        -0.39167E-02
        -0.39167E-02
        -0.39167E-02
        -0.39167E-02
        -0.39167E-02
        -0.39167E-02
        -0.39167E-02
        -0.39167E-02
        -0.39167E-02
        -0.39167E-02
        -0.39167E-02
        -0.39167E-02
        -0.39167E-02
        -0.39167E-02
        -0.39167E-02
        -0.39167E-02
        -0.39167E-02
        -0.29375E-02
        -0.29375E-02
        -0.29375E-02
        -0.29375E-02
        -0.29375E-02
        -0.29375E-02
        -0.29375E-02
        -0.29375E-02
        -0.29375E-02
        -0.29375E-02
        -0.29375E-02
        -0.29375E-02
        -0.29375E-02
        -0.29375E-02
        -0.29375E-02
        -0.29375E-02
        -0.29375E-02
        -0.29375E-02
        -0.29375E-02
        -0.29375E-02
        -0.29375E-02
        -0.29375E-02
        -0.29375E-02
        -0.29375E-02
        -0.29375E-02
        -0.29375E-02
        -0.29375E-02
        -0.29375E-02
        -0.29375E-02
        -0.29375E-02
        -0.29375E-02
        -0.29375E-02
        -0.29375E-02
        -0.29375E-02
        -0.29375E-02
        -0.29375E-02
        -0.29375E-02
        -0.29375E-02
        -0.29375E-02
        -0.29375E-02
        -0.29375E-02
        -0.29375E-02
        -0.29375E-02
        -0.29375E-02
        -0.29375E-02
        -0.29375E-02
        -0.29375E-02
        -0.29375E-02
        -0.29375E-02
        -0.29375E-02
        -0.29375E-02
        -0.29375E-02
        -0.29375E-02
        -0.29375E-02
        -0.29375E-02
        -0.29375E-02
        -0.29375E-02
        -0.29375E-02
        -0.29375E-02
        -0.29375E-02
        -0.29375E-02
        -0.29375E-02
        -0.29375E-02
        -0.29375E-02
        -0.29375E-02
        -0.29375E-02
        -0.29375E-02
        -0.29375E-02
        -0.29375E-02
        -0.29375E-02
        -0.29375E-02
        -0.29375E-02
        -0.29375E-02
        -0.29375E-02
        -0.29375E-02
        -0.29375E-02
        -0.29375E-02
        -0.29375E-02
        -0.19583E-02
        -0.19583E-02
        -0.19583E-02
        -0.19583E-02
        -0.19583E-02
        -0.19583E-02
        -0.19583E-02
        -0.19583E-02
        -0.19583E-02
        -0.19583E-02
        -0.19583E-02
        -0.19583E-02
        -0.19583E-02
        -0.19583E-02
        -0.19583E-02
        -0.19583E-02
        -0.19583E-02
        -0.19583E-02
        -0.19583E-02
        -0.19583E-02
        -0.19583E-02
        -0.19583E-02
        -0.19583E-02
        -0.19583E-02
        -0.19583E-02
        -0.19583E-02
        -0.19583E-02
        -0.19583E-02
        -0.19583E-02
        -0.19583E-02
        -0.19583E-02
        -0.19583E-02
        -0.19583E-02
        -0.19583E-02
        -0.19583E-02
        -0.19583E-02
        -0.19583E-02
        -0.19583E-02
        -0.19583E-02
        -0.19583E-02
        -0.19583E-02
        -0.19583E-02
        -0.19583E-02
        -0.19583E-02
        -0.19583E-02
        -0.19583E-02
        -0.19583E-02
        -0.19583E-02
        -0.19583E-02
        -0.19583E-02
        -0.19583E-02
        -0.19583E-02
        -0.19583E-02
        -0.19583E-02
        -0.19583E-02
        -0.19583E-02
        -0.19583E-02
        -0.19583E-02
        -0.19583E-02
        -0.19583E-02
        -0.19583E-02
        -0.19583E-02
        -0.19583E-02
        -0.19583E-02
        -0.19583E-02
        -0.19583E-02
        -0.19583E-02
        -0.19583E-02
        -0.19583E-02
        -0.19583E-02
        -0.19583E-02
        -0.19583E-02
        -0.19583E-02
        -0.19583E-02
        -0.19583E-02
        -0.19583E-02
        -0.19583E-02
        -0.19583E-02
        -0.97917E-03
        -0.97917E-03
        -0.97917E-03
        -0.97917E-03
        -0.97917E-03
        -0.97917E-03
        -0.97917E-03
        -0.97917E-03
        -0.97917E-03
        -0.97917E-03
        -0.97917E-03
        -0.97917E-03
        -0.97917E-03
        -0.97917E-03
        -0.97917E-03
        -0.97917E-03
        -0.97917E-03
        -0.97917E-03
        -0.97917E-03
        -0.97917E-03
        -0.97917E-03
        -0.97917E-03
        -0.97917E-03
        -0.97917E-03
        -0.97917E-03
        -0.97917E-03
        -0.97917E-03
        -0.97917E-03
        -0.97917E-03
        -0.97917E-03
        -0.97917E-03
        -0.97917E-03
        -0.97917E-03
        -0.97917E-03
        -0.97917E-03
        -0.97917E-03
        -0.97917E-03
        -0.97917E-03
        -0.97917E-03
        -0.97917E-03
        -0.97917E-03
        -0.97917E-03
        -0.97917E-03
        -0.97917E-03
        -0.97917E-03
        -0.97917E-03
        -0.97917E-03
        -0.97917E-03
        -0.97917E-03
        -0.97917E-03
        -0.97917E-03
        -0.97917E-03
        -0.97917E-03
        -0.97917E-03
        -0.97917E-03
        -0.97917E-03
        -0.97917E-03
        -0.97917E-03
        -0.97917E-03
        -0.97917E-03
        -0.97917E-03
        -0.97917E-03
        -0.97917E-03
        -0.97917E-03
        -0.97917E-03
        -0.97917E-03
        -0.97917E-03
        -0.97917E-03
        -0.97917E-03
        -0.97917E-03
        -0.97917E-03
        -0.97917E-03
        -0.97917E-03
        -0.97917E-03
        -0.97917E-03
        -0.97917E-03
        -0.97917E-03
        -0.97917E-03
         0.38917E-18
         0.44621E-18
         0.34485E-18
         0.23671E-18
         0.26613E-18
         0.16162E-18
         0.53980E-18
         0.50579E-18
         0.36337E-18
         0.48798E-18
         0.60712E-18
         0.67611E-18
         0.60634E-18
         0.60658E-18
         0.70997E-18
         0.20892E-18
         0.35894E-18
         0.21887E-18
         0.27638E-18
         0.38382E-18
         0.29058E-18
         0.40326E-18
         0.18564E-18
         0.19650E-18
         0.48570E-18
         0.12837E-18
         0.60589E-18
         0.60416E-18
         0.60524E-18
         0.49621E-18
         0.61582E-19
         0.32255E-19
         0.73874E-19
         0.78478E-19
         0.34514E-18
         0.42054E-18
         0.51644E-18
         0.72521E-18
         0.72233E-18
         0.70722E-18
         0.69126E-18
         0.61573E-18
         0.51484E-18
         0.91170E-19
         0.30347E-20
        -0.66516E-19
        -0.69988E-19
        -0.68643E-19
        -0.59779E-19
        -0.43507E-19
        -0.29471E-19
         0.53205E-19
         0.86819E-18
         0.00000E+00
         0.86819E-18
         0.86819E-18
         0.00000E+00
         0.00000E+00
         0.00000E+00
         0.17364E-17
         0.17364E-17
         0.17364E-17
         0.43410E-18
         0.43410E-18
         0.43410E-18
         0.00000E+00
         0.00000E+00
         0.00000E+00
         0.00000E+00
         0.00000E+00
         0.21705E-18
        -0.21705E-18
         0.00000E+00
         0.00000E+00
         0.00000E+00
        -0.32557E-18
         0.54262E-19
        -0.40697E-18
         0.97917E-03
         0.97917E-03
         0.97917E-03
         0.97917E-03
         0.97917E-03
         0.97917E-03
         0.97917E-03
         0.97917E-03
         0.97917E-03
         0.97917E-03
         0.97917E-03
         0.97917E-03
         0.97917E-03
         0.97917E-03
         0.97917E-03
         0.97917E-03
         0.97917E-03
         0.97917E-03
         0.97917E-03
         0.97917E-03
         0.97917E-03
         0.97917E-03
         0.97917E-03
         0.97917E-03
         0.97917E-03
         0.97917E-03
         0.97917E-03
         0.97917E-03
         0.97917E-03
         0.97917E-03
         0.97917E-03
         0.97917E-03
         0.97917E-03
         0.97917E-03
         0.97917E-03
         0.97917E-03
         0.97917E-03
         0.97917E-03
         0.97917E-03
         0.97917E-03
         0.97917E-03
         0.97917E-03
         0.97917E-03
         0.97917E-03
         0.97917E-03
         0.97917E-03
         0.97917E-03
         0.97917E-03
         0.97917E-03
         0.97917E-03
         0.97917E-03
         0.97917E-03
         0.97917E-03
         0.97917E-03
         0.97917E-03
         0.97917E-03
         0.97917E-03
         0.97917E-03
         0.97917E-03
         0.97917E-03
         0.97917E-03
         0.97917E-03
         0.97917E-03
         0.97917E-03
         0.97917E-03
         0.97917E-03
         0.97917E-03
         0.97917E-03
         0.97917E-03
         0.97917E-03
         0.97917E-03
         0.97917E-03
         0.97917E-03
         0.97917E-03
         0.97917E-03
         0.97917E-03
         0.97917E-03
         0.97917E-03
         0.19583E-02
         0.19583E-02
         0.19583E-02
         0.19583E-02
         0.19583E-02
         0.19583E-02
         0.19583E-02
         0.19583E-02
         0.19583E-02
         0.19583E-02
         0.19583E-02
         0.19583E-02
         0.19583E-02
         0.19583E-02
         0.19583E-02
         0.19583E-02
         0.19583E-02
         0.19583E-02
         0.19583E-02
         0.19583E-02
         0.19583E-02
         0.19583E-02
         0.19583E-02
         0.19583E-02
         0.19583E-02
         0.19583E-02
         0.19583E-02
         0.19583E-02
         0.19583E-02
         0.19583E-02
         0.19583E-02
         0.19583E-02
         0.19583E-02
         0.19583E-02
         0.19583E-02
         0.19583E-02
         0.19583E-02
         0.19583E-02
         0.19583E-02
         0.19583E-02
         0.19583E-02
         0.19583E-02
         0.19583E-02
         0.19583E-02
         0.19583E-02
         0.19583E-02
         0.19583E-02
         0.19583E-02
         0.19583E-02
         0.19583E-02
         0.19583E-02
         0.19583E-02
         0.19583E-02
         0.19583E-02
         0.19583E-02
         0.19583E-02
         0.19583E-02
         0.19583E-02
         0.19583E-02
         0.19583E-02
         0.19583E-02
         0.19583E-02
         0.19583E-02
         0.19583E-02
         0.19583E-02
         0.19583E-02
         0.19583E-02
         0.19583E-02
         0.19583E-02
         0.19583E-02
         0.19583E-02
         0.19583E-02
         0.19583E-02
         0.19583E-02
         0.19583E-02
         0.19583E-02
         0.19583E-02
         0.19583E-02
         0.29375E-02
         0.29375E-02
         0.29375E-02
         0.29375E-02
         0.29375E-02
         0.29375E-02
         0.29375E-02
         0.29375E-02
         0.29375E-02
         0.29375E-02
         0.29375E-02
         0.29375E-02
         0.29375E-02
         0.29375E-02
         0.29375E-02
         0.29375E-02
         0.29375E-02
         0.29375E-02
         0.29375E-02
         0.29375E-02
         0.29375E-02
         0.29375E-02
         0.29375E-02
         0.29375E-02
         0.29375E-02
         0.29375E-02
         0.29375E-02
         0.29375E-02
         0.29375E-02
         0.29375E-02
         0.29375E-02
         0.29375E-02
         0.29375E-02
         0.29375E-02
         0.29375E-02
         0.29375E-02
         0.29375E-02
         0.29375E-02
         0.29375E-02
         0.29375E-02
         0.29375E-02
         0.29375E-02
         0.29375E-02
         0.29375E-02
         0.29375E-02
         0.29375E-02
         0.29375E-02
         0.29375E-02
         0.29375E-02
         0.29375E-02
         0.29375E-02
         0.29375E-02
         0.29375E-02
         0.29375E-02
         0.29375E-02
         0.29375E-02
         0.29375E-02
         0.29375E-02
         0.29375E-02
         0.29375E-02
         0.29375E-02
         0.29375E-02
         0.29375E-02
         0.29375E-02
         0.29375E-02
         0.29375E-02
         0.29375E-02
         0.29375E-02
         0.29375E-02
         0.29375E-02
         0.29375E-02
         0.29375E-02
         0.29375E-02
         0.29375E-02
         0.29375E-02
         0.29375E-02
         0.29375E-02
         0.29375E-02
         0.39167E-02
         0.39167E-02
         0.39167E-02
         0.39167E-02
         0.39167E-02
         0.39167E-02
         0.39167E-02
         0.39167E-02
         0.39167E-02
         0.39167E-02
         0.39167E-02
         0.39167E-02
         0.39167E-02
         0.39167E-02
         0.39167E-02
         0.39167E-02
         0.39167E-02
         0.39167E-02
         0.39167E-02
         0.39167E-02
         0.39167E-02
         0.39167E-02
         0.39167E-02
         0.39167E-02
         0.39167E-02
         0.39167E-02
         0.39167E-02
         0.39167E-02
         0.39167E-02
         0.39167E-02
         0.39167E-02
         0.39167E-02
         0.39167E-02
         0.39167E-02
         0.39167E-02
         0.39167E-02
         0.39167E-02
         0.39167E-02
         0.39167E-02
         0.39167E-02
         0.39167E-02
         0.39167E-02
         0.39167E-02
         0.39167E-02
         0.39167E-02
         0.39167E-02
         0.39167E-02
         0.39167E-02
         0.39167E-02
         0.39167E-02
         0.39167E-02
         0.39167E-02
         0.39167E-02
         0.39167E-02
         0.39167E-02
         0.39167E-02
         0.39167E-02
         0.39167E-02
         0.39167E-02
         0.39167E-02
         0.39167E-02
         0.39167E-02
         0.39167E-02
         0.39167E-02
         0.39167E-02
         0.39167E-02
         0.39167E-02
         0.39167E-02
         0.39167E-02
         0.39167E-02
         0.39167E-02
         0.39167E-02
         0.39167E-02
         0.39167E-02
         0.39167E-02
         0.39167E-02
         0.39167E-02
         0.39167E-02
         0.48958E-02
         0.48958E-02
         0.48958E-02
         0.48958E-02
         0.48958E-02
         0.48958E-02
         0.48958E-02
         0.48958E-02
         0.48958E-02
         0.48958E-02
         0.48958E-02
         0.48958E-02
         0.48958E-02
         0.48958E-02
         0.48958E-02
         0.48958E-02
         0.48958E-02
         0.48958E-02
         0.48958E-02
         0.48958E-02
         0.48958E-02
         0.48958E-02
         0.48958E-02
         0.48958E-02
         0.48958E-02
         0.48958E-02
         0.48958E-02
         0.48958E-02
         0.48958E-02
         0.48958E-02
         0.48958E-02
         0.48958E-02
         0.48958E-02
         0.48958E-02
         0.48958E-02
         0.48958E-02
         0.48958E-02
         0.48958E-02
         0.48958E-02
         0.48958E-02
         0.48958E-02
         0.48958E-02
         0.48958E-02
         0.48958E-02
         0.48958E-02
         0.48958E-02
         0.48958E-02
         0.48958E-02
         0.48958E-02
         0.48958E-02
         0.48958E-02
         0.48958E-02
         0.48958E-02
         0.48958E-02
         0.48958E-02
         0.48958E-02
         0.48958E-02
         0.48958E-02
         0.48958E-02
         0.48958E-02
         0.48958E-02
         0.48958E-02
         0.48958E-02
         0.48958E-02
         0.48958E-02
         0.48958E-02
         0.48958E-02
         0.48958E-02
         0.48958E-02
         0.48958E-02
         0.48958E-02
         0.48958E-02
         0.48958E-02
         0.48958E-02
         0.48958E-02
         0.48958E-02
         0.48958E-02
         0.48958E-02
         0.58750E-02
         0.58750E-02
         0.58750E-02
         0.58750E-02
         0.58750E-02
         0.58750E-02
         0.58750E-02
         0.58750E-02
         0.58750E-02
         0.58750E-02
         0.58750E-02
         0.58750E-02
         0.58750E-02
         0.58750E-02
         0.58750E-02
         0.58750E-02
         0.58750E-02
         0.58750E-02
         0.58750E-02
         0.58750E-02
         0.58750E-02
         0.58750E-02
         0.58750E-02
         0.58750E-02
         0.58750E-02
         0.58750E-02
         0.58750E-02
         0.58750E-02
         0.58750E-02
         0.58750E-02
         0.58750E-02
         0.58750E-02
         0.58750E-02
         0.58750E-02
         0.58750E-02
         0.58750E-02
         0.58750E-02
         0.58750E-02
         0.58750E-02
         0.58750E-02
         0.58750E-02
         0.58750E-02
         0.58750E-02
         0.58750E-02
         0.58750E-02
         0.58750E-02
         0.58750E-02
         0.58750E-02
         0.58750E-02
         0.58750E-02
         0.58750E-02
         0.58750E-02
         0.58750E-02
         0.58750E-02
         0.58750E-02
         0.58750E-02
         0.58750E-02
         0.58750E-02
         0.58750E-02
         0.58750E-02
         0.58750E-02
         0.58750E-02
         0.58750E-02
         0.58750E-02
         0.58750E-02
         0.58750E-02
         0.58750E-02
         0.58750E-02
         0.58750E-02
         0.58750E-02
         0.58750E-02
         0.58750E-02
         0.58750E-02
         0.58750E-02
         0.58750E-02
         0.58750E-02
         0.58750E-02
         0.58750E-02
         0.68542E-02
         0.68542E-02
         0.68542E-02
         0.68542E-02
         0.68542E-02
         0.68542E-02
         0.68542E-02
         0.68542E-02
         0.68542E-02
         0.68542E-02
         0.68542E-02
         0.68542E-02
         0.68542E-02
         0.68542E-02
         0.68542E-02
         0.68542E-02
         0.68542E-02
         0.68542E-02
         0.68542E-02
         0.68542E-02
         0.68542E-02
         0.68542E-02
         0.68542E-02
         0.68542E-02
         0.68542E-02
         0.68542E-02
         0.68542E-02
         0.68542E-02
         0.68542E-02
         0.68542E-02
         0.68542E-02
         0.68542E-02
         0.68542E-02
         0.68542E-02
         0.68542E-02
         0.68542E-02
         0.68542E-02
         0.68542E-02
         0.68542E-02
         0.68542E-02
         0.68542E-02
         0.68542E-02
         0.68542E-02
         0.68542E-02
         0.68542E-02
         0.68542E-02
         0.68542E-02
         0.68542E-02
         0.68542E-02
         0.68542E-02
         0.68542E-02
         0.68542E-02
         0.68542E-02
         0.68542E-02
         0.68542E-02
         0.68542E-02
         0.68542E-02
         0.68542E-02
         0.68542E-02
         0.68542E-02
         0.68542E-02
         0.68542E-02
         0.68542E-02
         0.68542E-02
         0.68542E-02
         0.68542E-02
         0.68542E-02
         0.68542E-02
         0.68542E-02
         0.68542E-02
         0.68542E-02
         0.68542E-02
         0.68542E-02
         0.68542E-02
         0.68542E-02
         0.68542E-02
         0.68542E-02
         0.68542E-02
         0.78333E-02
         0.78333E-02
         0.78333E-02
         0.78333E-02
         0.78333E-02
         0.78333E-02
         0.78333E-02
         0.78333E-02
         0.78333E-02
         0.78333E-02
         0.78333E-02
         0.78333E-02
         0.78333E-02
         0.78333E-02
         0.78333E-02
         0.78333E-02
         0.78333E-02
         0.78333E-02
         0.78333E-02
         0.78333E-02
         0.78333E-02
         0.78333E-02
         0.78333E-02
         0.78333E-02
         0.78333E-02
         0.78333E-02
         0.78333E-02
         0.78333E-02
         0.78333E-02
         0.78333E-02
         0.78333E-02
         0.78333E-02
         0.78333E-02
         0.78333E-02
         0.78333E-02
         0.78333E-02
         0.78333E-02
         0.78333E-02
         0.78333E-02
         0.78333E-02
         0.78333E-02
         0.78333E-02
         0.78333E-02
         0.78333E-02
         0.78333E-02
         0.78333E-02
         0.78333E-02
         0.78333E-02
         0.78333E-02
         0.78333E-02
         0.78333E-02
         0.78333E-02
         0.78333E-02
         0.78333E-02
         0.78333E-02
         0.78333E-02
         0.78333E-02
         0.78333E-02
         0.78333E-02
         0.78333E-02
         0.78333E-02
         0.78333E-02
         0.78333E-02
         0.78333E-02
         0.78333E-02
         0.78333E-02
         0.78333E-02
         0.78333E-02
         0.78333E-02
         0.78333E-02
         0.78333E-02
         0.78333E-02
         0.78333E-02
         0.78333E-02
         0.78333E-02
         0.78333E-02
         0.78333E-02
         0.78333E-02
         0.88125E-02
         0.88125E-02
         0.88125E-02
         0.88125E-02
         0.88125E-02
         0.88125E-02
         0.88125E-02
         0.88125E-02
         0.88125E-02
         0.88125E-02
         0.88125E-02
         0.88125E-02
         0.88125E-02
         0.88125E-02
         0.88125E-02
         0.88125E-02
         0.88125E-02
         0.88125E-02
         0.88125E-02
         0.88125E-02
         0.88125E-02
         0.88125E-02
         0.88125E-02
         0.88125E-02
         0.88125E-02
         0.88125E-02
         0.88125E-02
         0.88125E-02
         0.88125E-02
         0.88125E-02
         0.88125E-02
         0.88125E-02
         0.88125E-02
         0.88125E-02
         0.88125E-02
         0.88125E-02
         0.88125E-02
         0.88125E-02
         0.88125E-02
         0.88125E-02
         0.88125E-02
         0.88125E-02
         0.88125E-02
         0.88125E-02
         0.88125E-02
         0.88125E-02
         0.88125E-02
         0.88125E-02
         0.88125E-02
         0.88125E-02
         0.88125E-02
         0.88125E-02
         0.88125E-02
         0.88125E-02
         0.88125E-02
         0.88125E-02
         0.88125E-02
         0.88125E-02
         0.88125E-02
         0.88125E-02
         0.88125E-02
         0.88125E-02
         0.88125E-02
         0.88125E-02
         0.88125E-02
         0.88125E-02
         0.88125E-02
         0.88125E-02
         0.88125E-02
         0.88125E-02
         0.88125E-02
         0.88125E-02
         0.88125E-02
         0.88125E-02
         0.88125E-02
         0.88125E-02
         0.88125E-02
         0.88125E-02
         0.97917E-02
         0.97917E-02
         0.97917E-02
         0.97917E-02
         0.97917E-02
         0.97917E-02
         0.97917E-02
         0.97917E-02
         0.97917E-02
         0.97917E-02
         0.97917E-02
         0.97917E-02
         0.97917E-02
         0.97917E-02
         0.97917E-02
         0.97917E-02
         0.97917E-02
         0.97917E-02
         0.97917E-02
         0.97917E-02
         0.97917E-02
         0.97917E-02
         0.97917E-02
         0.97917E-02
         0.97917E-02
         0.97917E-02
         0.97917E-02
         0.97917E-02
         0.97917E-02
         0.97917E-02
         0.97917E-02
         0.97917E-02
         0.97917E-02
         0.97917E-02
         0.97917E-02
         0.97917E-02
         0.97917E-02
         0.97917E-02
         0.97917E-02
         0.97917E-02
         0.97917E-02
         0.97917E-02
         0.97917E-02
         0.97917E-02
         0.97917E-02
         0.97917E-02
         0.97917E-02
         0.97917E-02
         0.97917E-02
         0.97917E-02
         0.97917E-02
         0.97917E-02
         0.97917E-02
         0.97917E-02
         0.97917E-02
         0.97917E-02
         0.97917E-02
         0.97917E-02
         0.97917E-02
         0.97917E-02
         0.97917E-02
         0.97917E-02
         0.97917E-02
         0.97917E-02
         0.97917E-02
         0.97917E-02
         0.97917E-02
         0.97917E-02
         0.97917E-02
         0.97917E-02
         0.97917E-02
         0.97917E-02
         0.97917E-02
         0.97917E-02
         0.97917E-02
         0.97917E-02
         0.97917E-02
         0.97917E-02
         0.10771E-01
         0.10771E-01
         0.10771E-01
         0.10771E-01
         0.10771E-01
         0.10771E-01
         0.10771E-01
         0.10771E-01
         0.10771E-01
         0.10771E-01
         0.10771E-01
         0.10771E-01
         0.10771E-01
         0.10771E-01
         0.10771E-01
         0.10771E-01
         0.10771E-01
         0.10771E-01
         0.10771E-01
         0.10771E-01
         0.10771E-01
         0.10771E-01
         0.10771E-01
         0.10771E-01
         0.10771E-01
         0.10771E-01
         0.10771E-01
         0.10771E-01
         0.10771E-01
         0.10771E-01
         0.10771E-01
         0.10771E-01
         0.10771E-01
         0.10771E-01
         0.10771E-01
         0.10771E-01
         0.10771E-01
         0.10771E-01
         0.10771E-01
         0.10771E-01
         0.10771E-01
         0.10771E-01
         0.10771E-01
         0.10771E-01
         0.10771E-01
         0.10771E-01
         0.10771E-01
         0.10771E-01
         0.10771E-01
         0.10771E-01
         0.10771E-01
         0.10771E-01
         0.10771E-01
         0.10771E-01
         0.10771E-01
         0.10771E-01
         0.10771E-01
         0.10771E-01
         0.10771E-01
         0.10771E-01
         0.10771E-01
         0.10771E-01
         0.10771E-01
         0.10771E-01
         0.10771E-01
         0.10771E-01
         0.10771E-01
         0.10771E-01
         0.10771E-01
         0.10771E-01
         0.10771E-01
         0.10771E-01
         0.10771E-01
         0.10771E-01
         0.10771E-01
         0.10771E-01
         0.10771E-01
         0.10771E-01
         0.11750E-01
         0.11750E-01
         0.11750E-01
         0.11750E-01
         0.11750E-01
         0.11750E-01
         0.11750E-01
         0.11750E-01
         0.11750E-01
         0.11750E-01
         0.11750E-01
         0.11750E-01
         0.11750E-01
         0.11750E-01
         0.11750E-01
         0.11750E-01
         0.11750E-01
         0.11750E-01
         0.11750E-01
         0.11750E-01
         0.11750E-01
         0.11750E-01
         0.11750E-01
         0.11750E-01
         0.11750E-01
         0.11750E-01
         0.11750E-01
         0.11750E-01
         0.11750E-01
         0.11750E-01
         0.11750E-01
         0.11750E-01
         0.11750E-01
         0.11750E-01
         0.11750E-01
         0.11750E-01
         0.11750E-01
         0.11750E-01
         0.11750E-01
         0.11750E-01
         0.11750E-01
         0.11750E-01
         0.11750E-01
         0.11750E-01
         0.11750E-01
         0.11750E-01
         0.11750E-01
         0.11750E-01
         0.11750E-01
         0.11750E-01
         0.11750E-01
         0.11750E-01
         0.11750E-01
         0.11750E-01
         0.11750E-01
         0.11750E-01
         0.11750E-01
         0.11750E-01
         0.11750E-01
         0.11750E-01
         0.11750E-01
         0.11750E-01
         0.11750E-01
         0.11750E-01
         0.11750E-01
         0.11750E-01
         0.11750E-01
         0.11750E-01
         0.11750E-01
         0.11750E-01
         0.11750E-01
         0.11750E-01
         0.11750E-01
         0.11750E-01
         0.11750E-01
         0.11750E-01
         0.11750E-01
         0.11750E-01
  
SCALARS                init_velocity_x  double 1
LOOKUP_TABLE default
         0.00000E+00
         0.00000E+00
         0.00000E+00
         0.00000E+00
         0.00000E+00
         0.00000E+00
         0.00000E+00
         0.00000E+00
         0.00000E+00
         0.00000E+00
         0.00000E+00
         0.00000E+00
         0.00000E+00
         0.00000E+00
         0.00000E+00
         0.00000E+00
         0.00000E+00
         0.00000E+00
         0.00000E+00
         0.00000E+00
         0.00000E+00
         0.00000E+00
         0.00000E+00
         0.00000E+00
         0.00000E+00
         0.00000E+00
         0.00000E+00
         0.00000E+00
         0.00000E+00
         0.00000E+00
         0.00000E+00
         0.00000E+00
         0.00000E+00
         0.00000E+00
         0.00000E+00
         0.00000E+00
         0.00000E+00
         0.00000E+00
         0.00000E+00
         0.00000E+00
         0.00000E+00
         0.00000E+00
         0.00000E+00
         0.00000E+00
         0.00000E+00
         0.00000E+00
         0.00000E+00
         0.00000E+00
         0.00000E+00
         0.00000E+00
         0.00000E+00
         0.00000E+00
         0.00000E+00
         0.00000E+00
         0.00000E+00
         0.00000E+00
         0.00000E+00
         0.00000E+00
         0.00000E+00
         0.00000E+00
         0.00000E+00
         0.00000E+00
         0.00000E+00
         0.00000E+00
         0.00000E+00
         0.00000E+00
         0.00000E+00
         0.00000E+00
         0.00000E+00
         0.00000E+00
         0.00000E+00
         0.00000E+00
         0.00000E+00
         0.00000E+00
         0.00000E+00
         0.00000E+00
         0.00000E+00
         0.00000E+00
         0.00000E+00
         0.00000E+00
         0.00000E+00
         0.00000E+00
         0.00000E+00
         0.00000E+00
         0.00000E+00
         0.00000E+00
         0.00000E+00
         0.00000E+00
         0.00000E+00
         0.00000E+00
         0.00000E+00
         0.00000E+00
         0.00000E+00
         0.00000E+00
         0.00000E+00
         0.00000E+00
         0.00000E+00
         0.00000E+00
         0.00000E+00
         0.00000E+00
         0.00000E+00
         0.00000E+00
         0.00000E+00
         0.00000E+00
         0.00000E+00
         0.00000E+00
         0.00000E+00
         0.00000E+00
         0.00000E+00
         0.00000E+00
         0.00000E+00
         0.00000E+00
         0.00000E+00
         0.00000E+00
         0.00000E+00
         0.00000E+00
         0.00000E+00
         0.00000E+00
         0.00000E+00
         0.00000E+00
         0.00000E+00
         0.00000E+00
         0.00000E+00
         0.00000E+00
         0.00000E+00
         0.00000E+00
         0.00000E+00
         0.00000E+00
         0.00000E+00
         0.00000E+00
         0.00000E+00
         0.00000E+00
         0.00000E+00
         0.00000E+00
         0.00000E+00
         0.00000E+00
         0.00000E+00
         0.00000E+00
         0.00000E+00
         0.00000E+00
         0.00000E+00
         0.00000E+00
         0.00000E+00
         0.00000E+00
         0.00000E+00
         0.00000E+00
         0.00000E+00
         0.00000E+00
         0.00000E+00
         0.00000E+00
         0.00000E+00
         0.00000E+00
         0.00000E+00
         0.00000E+00
         0.00000E+00
         0.00000E+00
         0.00000E+00
         0.00000E+00
         0.00000E+00
         0.00000E+00
         0.00000E+00
         0.00000E+00
         0.00000E+00
         0.00000E+00
         0.00000E+00
         0.00000E+00
         0.00000E+00
         0.00000E+00
         0.00000E+00
         0.00000E+00
         0.00000E+00
         0.00000E+00
         0.00000E+00
         0.00000E+00
         0.00000E+00
         0.00000E+00
         0.00000E+00
         0.00000E+00
         0.00000E+00
         0.00000E+00
         0.00000E+00
         0.00000E+00
         0.00000E+00
         0.00000E+00
         0.00000E+00
         0.00000E+00
         0.00000E+00
         0.00000E+00
         0.00000E+00
         0.00000E+00
         0.00000E+00
         0.00000E+00
         0.00000E+00
         0.00000E+00
         0.00000E+00
         0.00000E+00
         0.00000E+00
         0.00000E+00
         0.00000E+00
         0.00000E+00
         0.00000E+00
         0.00000E+00
         0.00000E+00
         0.00000E+00
         0.00000E+00
         0.00000E+00
         0.00000E+00
         0.00000E+00
         0.00000E+00
         0.00000E+00
         0.00000E+00
         0.00000E+00
         0.00000E+00
         0.00000E+00
         0.00000E+00
         0.00000E+00
         0.00000E+00
         0.00000E+00
         0.00000E+00
         0.00000E+00
         0.00000E+00
         0.00000E+00
         0.00000E+00
         0.00000E+00
         0.00000E+00
         0.00000E+00
         0.00000E+00
         0.00000E+00
         0.00000E+00
         0.00000E+00
         0.00000E+00
         0.00000E+00
         0.00000E+00
         0.00000E+00
         0.00000E+00
         0.00000E+00
         0.00000E+00
         0.00000E+00
         0.00000E+00
         0.00000E+00
         0.00000E+00
         0.00000E+00
         0.00000E+00
         0.00000E+00
         0.00000E+00
         0.00000E+00
         0.00000E+00
         0.00000E+00
         0.00000E+00
         0.00000E+00
         0.00000E+00
         0.00000E+00
         0.00000E+00
         0.00000E+00
         0.00000E+00
         0.00000E+00
         0.00000E+00
         0.00000E+00
         0.00000E+00
         0.00000E+00
         0.00000E+00
         0.00000E+00
         0.00000E+00
         0.00000E+00
         0.00000E+00
         0.00000E+00
         0.00000E+00
         0.00000E+00
         0.00000E+00
         0.00000E+00
         0.00000E+00
         0.00000E+00
         0.00000E+00
         0.00000E+00
         0.00000E+00
         0.00000E+00
         0.00000E+00
         0.00000E+00
         0.00000E+00
         0.00000E+00
         0.00000E+00
         0.00000E+00
         0.00000E+00
         0.00000E+00
         0.00000E+00
         0.00000E+00
         0.00000E+00
         0.00000E+00
         0.00000E+00
         0.00000E+00
         0.00000E+00
         0.00000E+00
         0.00000E+00
         0.00000E+00
         0.00000E+00
         0.00000E+00
         0.00000E+00
         0.00000E+00
         0.00000E+00
         0.00000E+00
         0.00000E+00
         0.00000E+00
         0.00000E+00
         0.00000E+00
         0.00000E+00
         0.00000E+00
         0.00000E+00
         0.00000E+00
         0.00000E+00
         0.00000E+00
         0.00000E+00
         0.00000E+00
         0.00000E+00
         0.00000E+00
         0.00000E+00
         0.00000E+00
         0.00000E+00
         0.00000E+00
         0.00000E+00
         0.00000E+00
         0.00000E+00
         0.00000E+00
         0.00000E+00
         0.00000E+00
         0.00000E+00
         0.00000E+00
         0.00000E+00
         0.00000E+00
         0.00000E+00
         0.00000E+00
         0.00000E+00
         0.00000E+00
         0.00000E+00
         0.00000E+00
         0.00000E+00
         0.00000E+00
         0.00000E+00
         0.00000E+00
         0.00000E+00
         0.00000E+00
         0.00000E+00
         0.00000E+00
         0.00000E+00
         0.00000E+00
         0.00000E+00
         0.00000E+00
         0.00000E+00
         0.00000E+00
         0.00000E+00
         0.00000E+00
         0.00000E+00
         0.00000E+00
         0.00000E+00
         0.00000E+00
         0.00000E+00
         0.00000E+00
         0.00000E+00
         0.00000E+00
         0.00000E+00
         0.00000E+00
         0.00000E+00
         0.00000E+00
         0.00000E+00
         0.00000E+00
         0.00000E+00
         0.00000E+00
         0.00000E+00
         0.00000E+00
         0.00000E+00
         0.00000E+00
         0.00000E+00
         0.00000E+00
         0.00000E+00
         0.00000E+00
         0.00000E+00
         0.00000E+00
         0.00000E+00
         0.00000E+00
         0.00000E+00
         0.00000E+00
         0.00000E+00
         0.00000E+00
         0.00000E+00
         0.00000E+00
         0.00000E+00
         0.00000E+00
         0.00000E+00
         0.00000E+00
         0.00000E+00
         0.00000E+00
         0.00000E+00
         0.00000E+00
         0.00000E+00
         0.00000E+00
         0.00000E+00
         0.00000E+00
         0.00000E+00
         0.00000E+00
         0.00000E+00
         0.00000E+00
         0.00000E+00
         0.00000E+00
         0.00000E+00
         0.00000E+00
         0.00000E+00
         0.00000E+00
         0.00000E+00
         0.00000E+00
         0.00000E+00
         0.00000E+00
         0.00000E+00
         0.00000E+00
         0.00000E+00
         0.00000E+00
         0.00000E+00
         0.00000E+00
         0.00000E+00
         0.00000E+00
         0.00000E+00
         0.00000E+00
         0.00000E+00
         0.00000E+00
         0.00000E+00
         0.00000E+00
         0.00000E+00
         0.00000E+00
         0.00000E+00
         0.00000E+00
         0.00000E+00
         0.00000E+00
         0.00000E+00
         0.00000E+00
         0.00000E+00
         0.00000E+00
         0.00000E+00
         0.00000E+00
         0.00000E+00
         0.00000E+00
         0.00000E+00
         0.00000E+00
         0.00000E+00
         0.00000E+00
         0.00000E+00
         0.00000E+00
         0.00000E+00
         0.00000E+00
         0.00000E+00
         0.00000E+00
         0.00000E+00
         0.00000E+00
         0.00000E+00
         0.00000E+00
         0.00000E+00
         0.00000E+00
         0.00000E+00
         0.00000E+00
         0.00000E+00
         0.00000E+00
         0.00000E+00
         0.00000E+00
         0.00000E+00
         0.00000E+00
         0.00000E+00
         0.00000E+00
         0.00000E+00
         0.00000E+00
         0.00000E+00
         0.00000E+00
         0.00000E+00
         0.00000E+00
         0.00000E+00
         0.00000E+00
         0.00000E+00
         0.00000E+00
         0.00000E+00
         0.00000E+00
         0.00000E+00
         0.00000E+00
         0.00000E+00
         0.00000E+00
         0.00000E+00
         0.00000E+00
         0.00000E+00
         0.00000E+00
         0.00000E+00
         0.00000E+00
         0.00000E+00
         0.00000E+00
         0.00000E+00
         0.00000E+00
         0.00000E+00
         0.00000E+00
         0.00000E+00
         0.00000E+00
         0.00000E+00
         0.00000E+00
         0.00000E+00
         0.00000E+00
         0.00000E+00
         0.00000E+00
         0.00000E+00
         0.00000E+00
         0.00000E+00
         0.00000E+00
         0.00000E+00
         0.00000E+00
         0.00000E+00
         0.00000E+00
         0.00000E+00
         0.00000E+00
         0.00000E+00
         0.00000E+00
         0.00000E+00
         0.00000E+00
         0.00000E+00
         0.00000E+00
         0.00000E+00
         0.00000E+00
         0.00000E+00
         0.00000E+00
         0.00000E+00
         0.00000E+00
         0.00000E+00
         0.00000E+00
         0.00000E+00
         0.00000E+00
         0.00000E+00
         0.00000E+00
         0.00000E+00
         0.00000E+00
         0.00000E+00
         0.00000E+00
         0.00000E+00
         0.00000E+00
         0.00000E+00
         0.00000E+00
         0.00000E+00
         0.00000E+00
         0.00000E+00
         0.00000E+00
         0.00000E+00
         0.00000E+00
         0.00000E+00
         0.00000E+00
         0.00000E+00
         0.00000E+00
         0.00000E+00
         0.00000E+00
         0.00000E+00
         0.00000E+00
         0.00000E+00
         0.00000E+00
         0.00000E+00
         0.00000E+00
         0.00000E+00
         0.00000E+00
         0.00000E+00
         0.00000E+00
         0.00000E+00
         0.00000E+00
         0.00000E+00
         0.00000E+00
         0.00000E+00
         0.00000E+00
         0.00000E+00
         0.00000E+00
         0.00000E+00
         0.00000E+00
         0.00000E+00
         0.00000E+00
         0.00000E+00
         0.00000E+00
         0.00000E+00
         0.00000E+00
         0.00000E+00
         0.00000E+00
         0.00000E+00
         0.00000E+00
         0.00000E+00
         0.00000E+00
         0.00000E+00
         0.00000E+00
         0.00000E+00
         0.00000E+00
         0.00000E+00
         0.00000E+00
         0.00000E+00
         0.00000E+00
         0.00000E+00
         0.00000E+00
         0.00000E+00
         0.00000E+00
         0.00000E+00
         0.00000E+00
         0.00000E+00
         0.00000E+00
         0.00000E+00
         0.00000E+00
         0.00000E+00
         0.00000E+00
         0.00000E+00
         0.00000E+00
         0.00000E+00
         0.00000E+00
         0.00000E+00
         0.00000E+00
         0.00000E+00
         0.00000E+00
         0.00000E+00
         0.00000E+00
         0.00000E+00
         0.00000E+00
         0.00000E+00
         0.00000E+00
         0.00000E+00
         0.00000E+00
         0.00000E+00
         0.00000E+00
         0.00000E+00
         0.00000E+00
         0.00000E+00
         0.00000E+00
         0.00000E+00
         0.00000E+00
         0.00000E+00
         0.00000E+00
         0.00000E+00
         0.00000E+00
         0.00000E+00
         0.00000E+00
         0.00000E+00
         0.00000E+00
         0.00000E+00
         0.00000E+00
         0.00000E+00
         0.00000E+00
         0.00000E+00
         0.00000E+00
         0.00000E+00
         0.00000E+00
         0.00000E+00
         0.00000E+00
         0.00000E+00
         0.00000E+00
         0.00000E+00
         0.00000E+00
         0.00000E+00
         0.00000E+00
         0.00000E+00
         0.00000E+00
         0.00000E+00
         0.00000E+00
         0.00000E+00
         0.00000E+00
         0.00000E+00
         0.00000E+00
         0.00000E+00
         0.00000E+00
         0.00000E+00
         0.00000E+00
         0.00000E+00
         0.00000E+00
         0.00000E+00
         0.00000E+00
         0.00000E+00
         0.00000E+00
         0.00000E+00
         0.00000E+00
         0.00000E+00
         0.00000E+00
         0.00000E+00
         0.00000E+00
         0.00000E+00
         0.00000E+00
         0.00000E+00
         0.00000E+00
         0.00000E+00
         0.00000E+00
         0.00000E+00
         0.00000E+00
         0.00000E+00
         0.00000E+00
         0.00000E+00
         0.00000E+00
         0.00000E+00
         0.00000E+00
         0.00000E+00
         0.00000E+00
         0.00000E+00
         0.00000E+00
         0.00000E+00
         0.00000E+00
         0.00000E+00
         0.00000E+00
         0.00000E+00
         0.00000E+00
         0.00000E+00
         0.00000E+00
         0.00000E+00
         0.00000E+00
         0.00000E+00
         0.00000E+00
         0.00000E+00
         0.00000E+00
         0.00000E+00
         0.00000E+00
         0.00000E+00
         0.00000E+00
         0.00000E+00
         0.00000E+00
         0.00000E+00
         0.00000E+00
         0.00000E+00
         0.00000E+00
         0.00000E+00
         0.00000E+00
         0.00000E+00
         0.00000E+00
         0.00000E+00
         0.00000E+00
         0.00000E+00
         0.00000E+00
         0.00000E+00
         0.00000E+00
         0.00000E+00
         0.00000E+00
         0.00000E+00
         0.00000E+00
         0.00000E+00
         0.00000E+00
         0.00000E+00
         0.00000E+00
         0.00000E+00
         0.00000E+00
         0.00000E+00
         0.00000E+00
         0.00000E+00
         0.00000E+00
         0.00000E+00
         0.00000E+00
         0.00000E+00
         0.00000E+00
         0.00000E+00
         0.00000E+00
         0.00000E+00
         0.00000E+00
         0.00000E+00
         0.00000E+00
         0.00000E+00
         0.00000E+00
         0.00000E+00
         0.00000E+00
         0.00000E+00
         0.00000E+00
         0.00000E+00
         0.00000E+00
         0.00000E+00
         0.00000E+00
         0.00000E+00
         0.00000E+00
         0.00000E+00
         0.00000E+00
         0.00000E+00
         0.00000E+00
         0.00000E+00
         0.00000E+00
         0.00000E+00
         0.00000E+00
         0.00000E+00
         0.00000E+00
         0.00000E+00
         0.00000E+00
         0.00000E+00
         0.00000E+00
         0.00000E+00
         0.00000E+00
         0.00000E+00
         0.00000E+00
         0.00000E+00
         0.00000E+00
         0.00000E+00
         0.00000E+00
         0.00000E+00
         0.00000E+00
         0.00000E+00
         0.00000E+00
         0.00000E+00
         0.00000E+00
         0.00000E+00
         0.00000E+00
         0.00000E+00
         0.00000E+00
         0.00000E+00
         0.00000E+00
         0.00000E+00
         0.00000E+00
         0.00000E+00
         0.00000E+00
         0.00000E+00
         0.00000E+00
         0.00000E+00
         0.00000E+00
         0.00000E+00
         0.00000E+00
         0.00000E+00
         0.00000E+00
         0.00000E+00
         0.00000E+00
         0.00000E+00
         0.00000E+00
         0.00000E+00
         0.00000E+00
         0.00000E+00
         0.00000E+00
         0.00000E+00
         0.00000E+00
         0.00000E+00
         0.00000E+00
         0.00000E+00
         0.00000E+00
         0.00000E+00
         0.00000E+00
         0.00000E+00
         0.00000E+00
         0.00000E+00
         0.00000E+00
         0.00000E+00
         0.00000E+00
         0.00000E+00
         0.00000E+00
         0.00000E+00
         0.00000E+00
         0.00000E+00
         0.00000E+00
         0.00000E+00
         0.00000E+00
         0.00000E+00
         0.00000E+00
         0.00000E+00
         0.00000E+00
         0.00000E+00
         0.00000E+00
         0.00000E+00
         0.00000E+00
         0.00000E+00
         0.00000E+00
         0.00000E+00
         0.00000E+00
         0.00000E+00
         0.00000E+00
         0.00000E+00
         0.00000E+00
         0.00000E+00
         0.00000E+00
         0.00000E+00
         0.00000E+00
         0.00000E+00
         0.00000E+00
         0.00000E+00
         0.00000E+00
         0.00000E+00
         0.00000E+00
         0.00000E+00
         0.00000E+00
         0.00000E+00
         0.00000E+00
         0.00000E+00
         0.00000E+00
         0.00000E+00
         0.00000E+00
         0.00000E+00
         0.00000E+00
         0.00000E+00
         0.00000E+00
         0.00000E+00
         0.00000E+00
         0.00000E+00
         0.00000E+00
         0.00000E+00
         0.00000E+00
         0.00000E+00
         0.00000E+00
         0.00000E+00
         0.00000E+00
         0.00000E+00
         0.00000E+00
         0.00000E+00
         0.00000E+00
         0.00000E+00
         0.00000E+00
         0.00000E+00
         0.00000E+00
         0.00000E+00
         0.00000E+00
         0.00000E+00
         0.00000E+00
         0.00000E+00
         0.00000E+00
         0.00000E+00
         0.00000E+00
         0.00000E+00
         0.00000E+00
         0.00000E+00
         0.00000E+00
         0.00000E+00
         0.00000E+00
         0.00000E+00
         0.00000E+00
         0.00000E+00
         0.00000E+00
         0.00000E+00
         0.00000E+00
         0.00000E+00
         0.00000E+00
         0.00000E+00
         0.00000E+00
         0.00000E+00
         0.00000E+00
         0.00000E+00
         0.00000E+00
         0.00000E+00
         0.00000E+00
         0.00000E+00
         0.00000E+00
         0.00000E+00
         0.00000E+00
         0.00000E+00
         0.00000E+00
         0.00000E+00
         0.00000E+00
         0.00000E+00
         0.00000E+00
         0.00000E+00
         0.00000E+00
         0.00000E+00
         0.00000E+00
         0.00000E+00
         0.00000E+00
         0.00000E+00
         0.00000E+00
         0.00000E+00
         0.00000E+00
         0.00000E+00
         0.00000E+00
         0.00000E+00
         0.00000E+00
         0.00000E+00
         0.00000E+00
         0.00000E+00
         0.00000E+00
         0.00000E+00
         0.00000E+00
         0.00000E+00
         0.00000E+00
         0.00000E+00
         0.00000E+00
         0.00000E+00
         0.00000E+00
         0.00000E+00
         0.00000E+00
         0.00000E+00
         0.00000E+00
         0.00000E+00
         0.00000E+00
         0.00000E+00
         0.00000E+00
         0.00000E+00
         0.00000E+00
         0.00000E+00
         0.00000E+00
         0.00000E+00
         0.00000E+00
         0.00000E+00
         0.00000E+00
         0.00000E+00
         0.00000E+00
         0.00000E+00
         0.00000E+00
         0.00000E+00
         0.00000E+00
         0.00000E+00
         0.00000E+00
         0.00000E+00
         0.00000E+00
         0.00000E+00
         0.00000E+00
         0.00000E+00
         0.00000E+00
         0.00000E+00
         0.00000E+00
         0.00000E+00
         0.00000E+00
         0.00000E+00
         0.00000E+00
         0.00000E+00
         0.00000E+00
         0.00000E+00
         0.00000E+00
         0.00000E+00
         0.00000E+00
         0.00000E+00
         0.00000E+00
         0.00000E+00
         0.00000E+00
         0.00000E+00
         0.00000E+00
         0.00000E+00
         0.00000E+00
         0.00000E+00
         0.00000E+00
         0.00000E+00
         0.00000E+00
         0.00000E+00
         0.00000E+00
         0.00000E+00
         0.00000E+00
         0.00000E+00
         0.00000E+00
         0.00000E+00
         0.00000E+00
         0.00000E+00
         0.00000E+00
         0.00000E+00
         0.00000E+00
         0.00000E+00
         0.00000E+00
         0.00000E+00
         0.00000E+00
         0.00000E+00
         0.00000E+00
         0.00000E+00
         0.00000E+00
         0.00000E+00
         0.00000E+00
         0.00000E+00
         0.00000E+00
         0.00000E+00
         0.00000E+00
         0.00000E+00
         0.00000E+00
         0.00000E+00
         0.00000E+00
         0.00000E+00
         0.00000E+00
         0.00000E+00
         0.00000E+00
         0.00000E+00
         0.00000E+00
         0.00000E+00
         0.00000E+00
         0.00000E+00
         0.00000E+00
         0.00000E+00
         0.00000E+00
         0.00000E+00
         0.00000E+00
         0.00000E+00
         0.00000E+00
         0.00000E+00
         0.00000E+00
         0.00000E+00
         0.00000E+00
         0.00000E+00
         0.00000E+00
         0.00000E+00
         0.00000E+00
         0.00000E+00
         0.00000E+00
         0.00000E+00
         0.00000E+00
         0.00000E+00
         0.00000E+00
         0.00000E+00
         0.00000E+00
         0.00000E+00
         0.00000E+00
         0.00000E+00
         0.00000E+00
         0.00000E+00
         0.00000E+00
         0.00000E+00
         0.00000E+00
         0.00000E+00
         0.00000E+00
         0.00000E+00
         0.00000E+00
         0.00000E+00
         0.00000E+00
         0.00000E+00
         0.00000E+00
         0.00000E+00
         0.00000E+00
         0.00000E+00
         0.00000E+00
         0.00000E+00
         0.00000E+00
         0.00000E+00
         0.00000E+00
         0.00000E+00
         0.00000E+00
         0.00000E+00
         0.00000E+00
         0.00000E+00
         0.00000E+00
         0.00000E+00
         0.00000E+00
         0.00000E+00
         0.00000E+00
         0.00000E+00
         0.00000E+00
         0.00000E+00
         0.00000E+00
         0.00000E+00
         0.00000E+00
         0.00000E+00
         0.00000E+00
         0.00000E+00
         0.00000E+00
         0.00000E+00
         0.00000E+00
         0.00000E+00
         0.00000E+00
         0.00000E+00
         0.00000E+00
         0.00000E+00
         0.00000E+00
         0.00000E+00
         0.00000E+00
         0.00000E+00
         0.00000E+00
         0.00000E+00
         0.00000E+00
         0.00000E+00
         0.00000E+00
         0.00000E+00
         0.00000E+00
         0.00000E+00
         0.00000E+00
         0.00000E+00
         0.00000E+00
         0.00000E+00
         0.00000E+00
         0.00000E+00
         0.00000E+00
         0.00000E+00
         0.00000E+00
         0.00000E+00
         0.00000E+00
         0.00000E+00
         0.00000E+00
         0.00000E+00
         0.00000E+00
         0.00000E+00
         0.00000E+00
         0.00000E+00
         0.00000E+00
         0.00000E+00
         0.00000E+00
         0.00000E+00
         0.00000E+00
         0.00000E+00
         0.00000E+00
         0.00000E+00
         0.00000E+00
         0.00000E+00
         0.00000E+00
         0.00000E+00
         0.00000E+00
         0.00000E+00
         0.00000E+00
         0.00000E+00
         0.00000E+00
         0.00000E+00
         0.00000E+00
         0.00000E+00
         0.00000E+00
         0.00000E+00
         0.00000E+00
         0.00000E+00
         0.00000E+00
         0.00000E+00
         0.00000E+00
         0.00000E+00
         0.00000E+00
         0.00000E+00
         0.00000E+00
         0.00000E+00
         0.00000E+00
         0.00000E+00
         0.00000E+00
         0.00000E+00
         0.00000E+00
         0.00000E+00
         0.00000E+00
         0.00000E+00
         0.00000E+00
         0.00000E+00
         0.00000E+00
         0.00000E+00
         0.00000E+00
         0.00000E+00
         0.00000E+00
         0.00000E+00
         0.00000E+00
         0.00000E+00
         0.00000E+00
         0.00000E+00
         0.00000E+00
         0.00000E+00
         0.00000E+00
         0.00000E+00
         0.00000E+00
         0.00000E+00
         0.00000E+00
         0.00000E+00
         0.00000E+00
         0.00000E+00
         0.00000E+00
         0.00000E+00
         0.00000E+00
         0.00000E+00
         0.00000E+00
         0.00000E+00
         0.00000E+00
         0.00000E+00
         0.00000E+00
         0.00000E+00
         0.00000E+00
         0.00000E+00
         0.00000E+00
         0.00000E+00
         0.00000E+00
         0.00000E+00
         0.00000E+00
         0.00000E+00
         0.00000E+00
         0.00000E+00
         0.00000E+00
         0.00000E+00
         0.00000E+00
         0.00000E+00
         0.00000E+00
         0.00000E+00
         0.00000E+00
         0.00000E+00
         0.00000E+00
         0.00000E+00
         0.00000E+00
         0.00000E+00
         0.00000E+00
         0.00000E+00
         0.00000E+00
         0.00000E+00
         0.00000E+00
         0.00000E+00
         0.00000E+00
         0.00000E+00
         0.00000E+00
         0.00000E+00
         0.00000E+00
         0.00000E+00
         0.00000E+00
         0.00000E+00
         0.00000E+00
         0.00000E+00
         0.00000E+00
         0.00000E+00
         0.00000E+00
         0.00000E+00
         0.00000E+00
         0.00000E+00
         0.00000E+00
         0.00000E+00
         0.00000E+00
         0.00000E+00
         0.00000E+00
         0.00000E+00
         0.00000E+00
         0.00000E+00
         0.00000E+00
         0.00000E+00
         0.00000E+00
         0.00000E+00
         0.00000E+00
         0.00000E+00
         0.00000E+00
         0.00000E+00
         0.00000E+00
         0.00000E+00
         0.00000E+00
         0.00000E+00
         0.00000E+00
         0.00000E+00
         0.00000E+00
         0.00000E+00
         0.00000E+00
         0.00000E+00
         0.00000E+00
         0.00000E+00
         0.00000E+00
         0.00000E+00
         0.00000E+00
         0.00000E+00
         0.00000E+00
         0.00000E+00
         0.00000E+00
         0.00000E+00
         0.00000E+00
         0.00000E+00
         0.00000E+00
         0.00000E+00
         0.00000E+00
         0.00000E+00
         0.00000E+00
         0.00000E+00
         0.00000E+00
         0.00000E+00
         0.00000E+00
         0.00000E+00
         0.00000E+00
         0.00000E+00
         0.00000E+00
         0.00000E+00
         0.00000E+00
         0.00000E+00
         0.00000E+00
         0.00000E+00
         0.00000E+00
         0.00000E+00
         0.00000E+00
         0.00000E+00
         0.00000E+00
         0.00000E+00
         0.00000E+00
         0.00000E+00
         0.00000E+00
         0.00000E+00
         0.00000E+00
         0.00000E+00
         0.00000E+00
         0.00000E+00
         0.00000E+00
         0.00000E+00
         0.00000E+00
         0.00000E+00
         0.00000E+00
         0.00000E+00
         0.00000E+00
         0.00000E+00
         0.00000E+00
         0.00000E+00
         0.00000E+00
         0.00000E+00
         0.00000E+00
         0.00000E+00
         0.00000E+00
         0.00000E+00
         0.00000E+00
         0.00000E+00
         0.00000E+00
         0.00000E+00
         0.00000E+00
         0.00000E+00
         0.00000E+00
         0.00000E+00
         0.00000E+00
         0.00000E+00
         0.00000E+00
         0.00000E+00
         0.00000E+00
         0.00000E+00
         0.00000E+00
         0.00000E+00
         0.00000E+00
         0.00000E+00
         0.00000E+00
         0.00000E+00
         0.00000E+00
         0.00000E+00
         0.00000E+00
         0.00000E+00
         0.00000E+00
         0.00000E+00
         0.00000E+00
         0.00000E+00
         0.00000E+00
         0.00000E+00
         0.00000E+00
         0.00000E+00
         0.00000E+00
         0.00000E+00
         0.00000E+00
         0.00000E+00
         0.00000E+00
         0.00000E+00
         0.00000E+00
         0.00000E+00
         0.00000E+00
         0.00000E+00
         0.00000E+00
         0.00000E+00
         0.00000E+00
         0.00000E+00
         0.00000E+00
         0.00000E+00
         0.00000E+00
         0.00000E+00
         0.00000E+00
         0.00000E+00
         0.00000E+00
         0.00000E+00
         0.00000E+00
         0.00000E+00
         0.00000E+00
         0.00000E+00
         0.00000E+00
         0.00000E+00
         0.00000E+00
         0.00000E+00
         0.00000E+00
         0.00000E+00
         0.00000E+00
         0.00000E+00
         0.00000E+00
         0.00000E+00
         0.00000E+00
         0.00000E+00
         0.00000E+00
         0.00000E+00
         0.00000E+00
         0.00000E+00
         0.00000E+00
         0.00000E+00
         0.00000E+00
         0.00000E+00
         0.00000E+00
         0.00000E+00
         0.00000E+00
         0.00000E+00
         0.00000E+00
         0.00000E+00
         0.00000E+00
         0.00000E+00
         0.00000E+00
         0.00000E+00
         0.00000E+00
         0.00000E+00
         0.00000E+00
         0.00000E+00
         0.00000E+00
         0.00000E+00
         0.00000E+00
         0.00000E+00
         0.00000E+00
         0.00000E+00
         0.00000E+00
         0.00000E+00
         0.00000E+00
         0.00000E+00
         0.00000E+00
         0.00000E+00
         0.00000E+00
         0.00000E+00
         0.00000E+00
         0.00000E+00
         0.00000E+00
         0.00000E+00
         0.00000E+00
         0.00000E+00
         0.00000E+00
         0.00000E+00
         0.00000E+00
         0.00000E+00
         0.00000E+00
         0.00000E+00
         0.00000E+00
         0.00000E+00
         0.00000E+00
         0.00000E+00
         0.00000E+00
         0.00000E+00
         0.00000E+00
         0.00000E+00
         0.00000E+00
         0.00000E+00
         0.00000E+00
         0.00000E+00
         0.00000E+00
         0.00000E+00
         0.00000E+00
         0.00000E+00
         0.00000E+00
         0.00000E+00
         0.00000E+00
         0.00000E+00
         0.00000E+00
         0.00000E+00
         0.00000E+00
         0.00000E+00
         0.00000E+00
         0.00000E+00
         0.00000E+00
         0.00000E+00
         0.00000E+00
         0.00000E+00
         0.00000E+00
         0.00000E+00
         0.00000E+00
         0.00000E+00
         0.00000E+00
         0.00000E+00
         0.00000E+00
         0.00000E+00
         0.00000E+00
         0.00000E+00
         0.00000E+00
         0.00000E+00
         0.00000E+00
         0.00000E+00
         0.00000E+00
         0.00000E+00
         0.00000E+00
         0.00000E+00
         0.00000E+00
         0.00000E+00
         0.00000E+00
         0.00000E+00
         0.00000E+00
         0.00000E+00
         0.00000E+00
         0.00000E+00
         0.00000E+00
         0.00000E+00
         0.00000E+00
         0.00000E+00
         0.00000E+00
         0.00000E+00
         0.00000E+00
         0.00000E+00
         0.00000E+00
         0.00000E+00
         0.00000E+00
         0.00000E+00
         0.00000E+00
         0.00000E+00
         0.00000E+00
         0.00000E+00
         0.00000E+00
         0.00000E+00
         0.00000E+00
         0.00000E+00
         0.00000E+00
         0.00000E+00
         0.00000E+00
         0.00000E+00
         0.00000E+00
         0.00000E+00
         0.00000E+00
         0.00000E+00
         0.00000E+00
         0.00000E+00
         0.00000E+00
         0.00000E+00
         0.00000E+00
         0.00000E+00
         0.00000E+00
         0.00000E+00
         0.00000E+00
         0.00000E+00
         0.00000E+00
         0.00000E+00
         0.00000E+00
         0.00000E+00
         0.00000E+00
         0.00000E+00
         0.00000E+00
         0.00000E+00
         0.00000E+00
         0.00000E+00
         0.00000E+00
         0.00000E+00
         0.00000E+00
         0.00000E+00
         0.00000E+00
         0.00000E+00
         0.00000E+00
         0.00000E+00
         0.00000E+00
         0.00000E+00
         0.00000E+00
         0.00000E+00
         0.00000E+00
         0.00000E+00
         0.00000E+00
         0.00000E+00
         0.00000E+00
         0.00000E+00
         0.00000E+00
         0.00000E+00
         0.00000E+00
         0.00000E+00
         0.00000E+00
         0.00000E+00
         0.00000E+00
         0.00000E+00
         0.00000E+00
         0.00000E+00
         0.00000E+00
         0.00000E+00
         0.00000E+00
         0.00000E+00
         0.00000E+00
         0.00000E+00
         0.00000E+00
         0.00000E+00
         0.00000E+00
         0.00000E+00
         0.00000E+00
         0.00000E+00
         0.00000E+00
         0.00000E+00
         0.00000E+00
         0.00000E+00
         0.00000E+00
         0.00000E+00
         0.00000E+00
         0.00000E+00
         0.00000E+00
         0.00000E+00
         0.00000E+00
         0.00000E+00
         0.00000E+00
         0.00000E+00
         0.00000E+00
         0.00000E+00
         0.00000E+00
         0.00000E+00
         0.00000E+00
         0.00000E+00
         0.00000E+00
         0.00000E+00
         0.00000E+00
         0.00000E+00
         0.00000E+00
         0.00000E+00
         0.00000E+00
         0.00000E+00
         0.00000E+00
         0.00000E+00
         0.00000E+00
         0.00000E+00
         0.00000E+00
         0.00000E+00
         0.00000E+00
         0.00000E+00
         0.00000E+00
         0.00000E+00
         0.00000E+00
         0.00000E+00
         0.00000E+00
         0.00000E+00
         0.00000E+00
         0.00000E+00
         0.00000E+00
         0.00000E+00
         0.00000E+00
         0.00000E+00
         0.00000E+00
         0.00000E+00
         0.00000E+00
         0.00000E+00
         0.00000E+00
         0.00000E+00
         0.00000E+00
         0.00000E+00
         0.00000E+00
         0.00000E+00
         0.00000E+00
         0.00000E+00
         0.00000E+00
         0.00000E+00
         0.00000E+00
         0.00000E+00
         0.00000E+00
         0.00000E+00
         0.00000E+00
         0.00000E+00
         0.00000E+00
         0.00000E+00
         0.00000E+00
         0.00000E+00
         0.00000E+00
         0.00000E+00
         0.00000E+00
         0.00000E+00
         0.00000E+00
         0.00000E+00
         0.00000E+00
         0.00000E+00
         0.00000E+00
         0.00000E+00
         0.00000E+00
         0.00000E+00
         0.00000E+00
         0.00000E+00
         0.00000E+00
         0.00000E+00
         0.00000E+00
         0.00000E+00
         0.00000E+00
         0.00000E+00
         0.00000E+00
         0.00000E+00
         0.00000E+00
         0.00000E+00
         0.00000E+00
         0.00000E+00
         0.00000E+00
         0.00000E+00
         0.00000E+00
         0.00000E+00
         0.00000E+00
         0.00000E+00
         0.00000E+00
         0.00000E+00
         0.00000E+00
         0.00000E+00
         0.00000E+00
         0.00000E+00
         0.00000E+00
         0.00000E+00
         0.00000E+00
         0.00000E+00
         0.00000E+00
         0.00000E+00
         0.00000E+00
         0.00000E+00
         0.00000E+00
         0.00000E+00
         0.00000E+00
         0.00000E+00
         0.00000E+00
         0.00000E+00
         0.00000E+00
         0.00000E+00
         0.00000E+00
         0.00000E+00
         0.00000E+00
         0.00000E+00
         0.00000E+00
         0.00000E+00
         0.00000E+00
         0.00000E+00
         0.00000E+00
         0.00000E+00
         0.00000E+00
         0.00000E+00
         0.00000E+00
         0.00000E+00
         0.00000E+00
         0.00000E+00
         0.00000E+00
         0.00000E+00
         0.00000E+00
         0.00000E+00
         0.00000E+00
         0.00000E+00
         0.00000E+00
         0.00000E+00
         0.00000E+00
         0.00000E+00
         0.00000E+00
         0.00000E+00
         0.00000E+00
         0.00000E+00
         0.00000E+00
         0.00000E+00
         0.00000E+00
         0.00000E+00
         0.00000E+00
         0.00000E+00
         0.00000E+00
         0.00000E+00
         0.00000E+00
         0.00000E+00
         0.00000E+00
         0.00000E+00
         0.00000E+00
         0.00000E+00
         0.00000E+00
         0.00000E+00
         0.00000E+00
         0.00000E+00
         0.00000E+00
         0.00000E+00
         0.00000E+00
         0.00000E+00
         0.00000E+00
         0.00000E+00
         0.00000E+00
         0.00000E+00
         0.00000E+00
         0.00000E+00
         0.00000E+00
         0.00000E+00
         0.00000E+00
         0.00000E+00
         0.00000E+00
         0.00000E+00
         0.00000E+00
         0.00000E+00
         0.00000E+00
         0.00000E+00
         0.00000E+00
         0.00000E+00
         0.00000E+00
         0.00000E+00
         0.00000E+00
         0.00000E+00
         0.00000E+00
         0.00000E+00
         0.00000E+00
         0.00000E+00
         0.00000E+00
         0.00000E+00
         0.00000E+00
         0.00000E+00
         0.00000E+00
         0.00000E+00
         0.00000E+00
         0.00000E+00
         0.00000E+00
         0.00000E+00
         0.00000E+00
         0.00000E+00
         0.00000E+00
         0.00000E+00
         0.00000E+00
         0.00000E+00
         0.00000E+00
         0.00000E+00
         0.00000E+00
         0.00000E+00
         0.00000E+00
         0.00000E+00
         0.00000E+00
         0.00000E+00
         0.00000E+00
         0.00000E+00
         0.00000E+00
         0.00000E+00
         0.00000E+00
         0.00000E+00
         0.00000E+00
         0.00000E+00
         0.00000E+00
         0.00000E+00
         0.00000E+00
         0.00000E+00
         0.00000E+00
         0.00000E+00
         0.00000E+00
         0.00000E+00
         0.00000E+00
         0.00000E+00
         0.00000E+00
         0.00000E+00
         0.00000E+00
         0.00000E+00
         0.00000E+00
         0.00000E+00
         0.00000E+00
         0.00000E+00
         0.00000E+00
         0.00000E+00
         0.00000E+00
         0.00000E+00
         0.00000E+00
         0.00000E+00
         0.00000E+00
         0.00000E+00
         0.00000E+00
         0.00000E+00
         0.00000E+00
         0.00000E+00
         0.00000E+00
         0.00000E+00
         0.00000E+00
         0.00000E+00
         0.00000E+00
         0.00000E+00
         0.00000E+00
         0.00000E+00
         0.00000E+00
         0.00000E+00
         0.00000E+00
         0.00000E+00
         0.00000E+00
         0.00000E+00
         0.00000E+00
         0.00000E+00
         0.00000E+00
         0.00000E+00
         0.00000E+00
         0.00000E+00
         0.00000E+00
         0.00000E+00
         0.00000E+00
         0.00000E+00
         0.00000E+00
         0.00000E+00
         0.00000E+00
         0.00000E+00
         0.00000E+00
         0.00000E+00
         0.00000E+00
         0.00000E+00
         0.00000E+00
         0.00000E+00
         0.00000E+00
         0.00000E+00
         0.00000E+00
         0.00000E+00
         0.00000E+00
         0.00000E+00
         0.00000E+00
         0.00000E+00
         0.00000E+00
         0.00000E+00
         0.00000E+00
         0.00000E+00
         0.00000E+00
         0.00000E+00
         0.00000E+00
         0.00000E+00
         0.00000E+00
         0.00000E+00
         0.00000E+00
         0.00000E+00
         0.00000E+00
         0.00000E+00
         0.00000E+00
         0.00000E+00
         0.00000E+00
         0.00000E+00
         0.00000E+00
         0.00000E+00
         0.00000E+00
         0.00000E+00
         0.00000E+00
  
SCALARS                init_velocity_y  double 1
LOOKUP_TABLE default
         0.00000E+00
         0.00000E+00
         0.00000E+00
         0.00000E+00
         0.00000E+00
         0.00000E+00
         0.00000E+00
         0.00000E+00
         0.00000E+00
         0.00000E+00
         0.00000E+00
         0.00000E+00
         0.00000E+00
         0.00000E+00
         0.00000E+00
         0.00000E+00
         0.00000E+00
         0.00000E+00
         0.00000E+00
         0.00000E+00
         0.00000E+00
         0.00000E+00
         0.00000E+00
         0.00000E+00
         0.00000E+00
         0.00000E+00
         0.00000E+00
         0.00000E+00
         0.00000E+00
         0.00000E+00
         0.00000E+00
         0.00000E+00
         0.00000E+00
         0.00000E+00
         0.00000E+00
         0.00000E+00
         0.00000E+00
         0.00000E+00
         0.00000E+00
         0.00000E+00
         0.00000E+00
         0.00000E+00
         0.00000E+00
         0.00000E+00
         0.00000E+00
         0.00000E+00
         0.00000E+00
         0.00000E+00
         0.00000E+00
         0.00000E+00
         0.00000E+00
         0.00000E+00
         0.00000E+00
         0.00000E+00
         0.00000E+00
         0.00000E+00
         0.00000E+00
         0.00000E+00
         0.00000E+00
         0.00000E+00
         0.00000E+00
         0.00000E+00
         0.00000E+00
         0.00000E+00
         0.00000E+00
         0.00000E+00
         0.00000E+00
         0.00000E+00
         0.00000E+00
         0.00000E+00
         0.00000E+00
         0.00000E+00
         0.00000E+00
         0.00000E+00
         0.00000E+00
         0.00000E+00
         0.00000E+00
         0.00000E+00
         0.00000E+00
         0.00000E+00
         0.00000E+00
         0.00000E+00
         0.00000E+00
         0.00000E+00
         0.00000E+00
         0.00000E+00
         0.00000E+00
         0.00000E+00
         0.00000E+00
         0.00000E+00
         0.00000E+00
         0.00000E+00
         0.00000E+00
         0.00000E+00
         0.00000E+00
         0.00000E+00
         0.00000E+00
         0.00000E+00
         0.00000E+00
         0.00000E+00
         0.00000E+00
         0.00000E+00
         0.00000E+00
         0.00000E+00
         0.00000E+00
         0.00000E+00
         0.00000E+00
         0.00000E+00
         0.00000E+00
         0.00000E+00
         0.00000E+00
         0.00000E+00
         0.00000E+00
         0.00000E+00
         0.00000E+00
         0.00000E+00
         0.00000E+00
         0.00000E+00
         0.00000E+00
         0.00000E+00
         0.00000E+00
         0.00000E+00
         0.00000E+00
         0.00000E+00
         0.00000E+00
         0.00000E+00
         0.00000E+00
         0.00000E+00
         0.00000E+00
         0.00000E+00
         0.00000E+00
         0.00000E+00
         0.00000E+00
         0.00000E+00
         0.00000E+00
         0.00000E+00
         0.00000E+00
         0.00000E+00
         0.00000E+00
         0.00000E+00
         0.00000E+00
         0.00000E+00
         0.00000E+00
         0.00000E+00
         0.00000E+00
         0.00000E+00
         0.00000E+00
         0.00000E+00
         0.00000E+00
         0.00000E+00
         0.00000E+00
         0.00000E+00
         0.00000E+00
         0.00000E+00
         0.00000E+00
         0.00000E+00
         0.00000E+00
         0.00000E+00
         0.00000E+00
         0.00000E+00
         0.00000E+00
         0.00000E+00
         0.00000E+00
         0.00000E+00
         0.00000E+00
         0.00000E+00
         0.00000E+00
         0.00000E+00
         0.00000E+00
         0.00000E+00
         0.00000E+00
         0.00000E+00
         0.00000E+00
         0.00000E+00
         0.00000E+00
         0.00000E+00
         0.00000E+00
         0.00000E+00
         0.00000E+00
         0.00000E+00
         0.00000E+00
         0.00000E+00
         0.00000E+00
         0.00000E+00
         0.00000E+00
         0.00000E+00
         0.00000E+00
         0.00000E+00
         0.00000E+00
         0.00000E+00
         0.00000E+00
         0.00000E+00
         0.00000E+00
         0.00000E+00
         0.00000E+00
         0.00000E+00
         0.00000E+00
         0.00000E+00
         0.00000E+00
         0.00000E+00
         0.00000E+00
         0.00000E+00
         0.00000E+00
         0.00000E+00
         0.00000E+00
         0.00000E+00
         0.00000E+00
         0.00000E+00
         0.00000E+00
         0.00000E+00
         0.00000E+00
         0.00000E+00
         0.00000E+00
         0.00000E+00
         0.00000E+00
         0.00000E+00
         0.00000E+00
         0.00000E+00
         0.00000E+00
         0.00000E+00
         0.00000E+00
         0.00000E+00
         0.00000E+00
         0.00000E+00
         0.00000E+00
         0.00000E+00
         0.00000E+00
         0.00000E+00
         0.00000E+00
         0.00000E+00
         0.00000E+00
         0.00000E+00
         0.00000E+00
         0.00000E+00
         0.00000E+00
         0.00000E+00
         0.00000E+00
         0.00000E+00
         0.00000E+00
         0.00000E+00
         0.00000E+00
         0.00000E+00
         0.00000E+00
         0.00000E+00
         0.00000E+00
         0.00000E+00
         0.00000E+00
         0.00000E+00
         0.00000E+00
         0.00000E+00
         0.00000E+00
         0.00000E+00
         0.00000E+00
         0.00000E+00
         0.00000E+00
         0.00000E+00
         0.00000E+00
         0.00000E+00
         0.00000E+00
         0.00000E+00
         0.00000E+00
         0.00000E+00
         0.00000E+00
         0.00000E+00
         0.00000E+00
         0.00000E+00
         0.00000E+00
         0.00000E+00
         0.00000E+00
         0.00000E+00
         0.00000E+00
         0.00000E+00
         0.00000E+00
         0.00000E+00
         0.00000E+00
         0.00000E+00
         0.00000E+00
         0.00000E+00
         0.00000E+00
         0.00000E+00
         0.00000E+00
         0.00000E+00
         0.00000E+00
         0.00000E+00
         0.00000E+00
         0.00000E+00
         0.00000E+00
         0.00000E+00
         0.00000E+00
         0.00000E+00
         0.00000E+00
         0.00000E+00
         0.00000E+00
         0.00000E+00
         0.00000E+00
         0.00000E+00
         0.00000E+00
         0.00000E+00
         0.00000E+00
         0.00000E+00
         0.00000E+00
         0.00000E+00
         0.00000E+00
         0.00000E+00
         0.00000E+00
         0.00000E+00
         0.00000E+00
         0.00000E+00
         0.00000E+00
         0.00000E+00
         0.00000E+00
         0.00000E+00
         0.00000E+00
         0.00000E+00
         0.00000E+00
         0.00000E+00
         0.00000E+00
         0.00000E+00
         0.00000E+00
         0.00000E+00
         0.00000E+00
         0.00000E+00
         0.00000E+00
         0.00000E+00
         0.00000E+00
         0.00000E+00
         0.00000E+00
         0.00000E+00
         0.00000E+00
         0.00000E+00
         0.00000E+00
         0.00000E+00
         0.00000E+00
         0.00000E+00
         0.00000E+00
         0.00000E+00
         0.00000E+00
         0.00000E+00
         0.00000E+00
         0.00000E+00
         0.00000E+00
         0.00000E+00
         0.00000E+00
         0.00000E+00
         0.00000E+00
         0.00000E+00
         0.00000E+00
         0.00000E+00
         0.00000E+00
         0.00000E+00
         0.00000E+00
         0.00000E+00
         0.00000E+00
         0.00000E+00
         0.00000E+00
         0.00000E+00
         0.00000E+00
         0.00000E+00
         0.00000E+00
         0.00000E+00
         0.00000E+00
         0.00000E+00
         0.00000E+00
         0.00000E+00
         0.00000E+00
         0.00000E+00
         0.00000E+00
         0.00000E+00
         0.00000E+00
         0.00000E+00
         0.00000E+00
         0.00000E+00
         0.00000E+00
         0.00000E+00
         0.00000E+00
         0.00000E+00
         0.00000E+00
         0.00000E+00
         0.00000E+00
         0.00000E+00
         0.00000E+00
         0.00000E+00
         0.00000E+00
         0.00000E+00
         0.00000E+00
         0.00000E+00
         0.00000E+00
         0.00000E+00
         0.00000E+00
         0.00000E+00
         0.00000E+00
         0.00000E+00
         0.00000E+00
         0.00000E+00
         0.00000E+00
         0.00000E+00
         0.00000E+00
         0.00000E+00
         0.00000E+00
         0.00000E+00
         0.00000E+00
         0.00000E+00
         0.00000E+00
         0.00000E+00
         0.00000E+00
         0.00000E+00
         0.00000E+00
         0.00000E+00
         0.00000E+00
         0.00000E+00
         0.00000E+00
         0.00000E+00
         0.00000E+00
         0.00000E+00
         0.00000E+00
         0.00000E+00
         0.00000E+00
         0.00000E+00
         0.00000E+00
         0.00000E+00
         0.00000E+00
         0.00000E+00
         0.00000E+00
         0.00000E+00
         0.00000E+00
         0.00000E+00
         0.00000E+00
         0.00000E+00
         0.00000E+00
         0.00000E+00
         0.00000E+00
         0.00000E+00
         0.00000E+00
         0.00000E+00
         0.00000E+00
         0.00000E+00
         0.00000E+00
         0.00000E+00
         0.00000E+00
         0.00000E+00
         0.00000E+00
         0.00000E+00
         0.00000E+00
         0.00000E+00
         0.00000E+00
         0.00000E+00
         0.00000E+00
         0.00000E+00
         0.00000E+00
         0.00000E+00
         0.00000E+00
         0.00000E+00
         0.00000E+00
         0.00000E+00
         0.00000E+00
         0.00000E+00
         0.00000E+00
         0.00000E+00
         0.00000E+00
         0.00000E+00
         0.00000E+00
         0.00000E+00
         0.00000E+00
         0.00000E+00
         0.00000E+00
         0.00000E+00
         0.00000E+00
         0.00000E+00
         0.00000E+00
         0.00000E+00
         0.00000E+00
         0.00000E+00
         0.00000E+00
         0.00000E+00
         0.00000E+00
         0.00000E+00
         0.00000E+00
         0.00000E+00
         0.00000E+00
         0.00000E+00
         0.00000E+00
         0.00000E+00
         0.00000E+00
         0.00000E+00
         0.00000E+00
         0.00000E+00
         0.00000E+00
         0.00000E+00
         0.00000E+00
         0.00000E+00
         0.00000E+00
         0.00000E+00
         0.00000E+00
         0.00000E+00
         0.00000E+00
         0.00000E+00
         0.00000E+00
         0.00000E+00
         0.00000E+00
         0.00000E+00
         0.00000E+00
         0.00000E+00
         0.00000E+00
         0.00000E+00
         0.00000E+00
         0.00000E+00
         0.00000E+00
         0.00000E+00
         0.00000E+00
         0.00000E+00
         0.00000E+00
         0.00000E+00
         0.00000E+00
         0.00000E+00
         0.00000E+00
         0.00000E+00
         0.00000E+00
         0.00000E+00
         0.00000E+00
         0.00000E+00
         0.00000E+00
         0.00000E+00
         0.00000E+00
         0.00000E+00
         0.00000E+00
         0.00000E+00
         0.00000E+00
         0.00000E+00
         0.00000E+00
         0.00000E+00
         0.00000E+00
         0.00000E+00
         0.00000E+00
         0.00000E+00
         0.00000E+00
         0.00000E+00
         0.00000E+00
         0.00000E+00
         0.00000E+00
         0.00000E+00
         0.00000E+00
         0.00000E+00
         0.00000E+00
         0.00000E+00
         0.00000E+00
         0.00000E+00
         0.00000E+00
         0.00000E+00
         0.00000E+00
         0.00000E+00
         0.00000E+00
         0.00000E+00
         0.00000E+00
         0.00000E+00
         0.00000E+00
         0.00000E+00
         0.00000E+00
         0.00000E+00
         0.00000E+00
         0.00000E+00
         0.00000E+00
         0.00000E+00
         0.00000E+00
         0.00000E+00
         0.00000E+00
         0.00000E+00
         0.00000E+00
         0.00000E+00
         0.00000E+00
         0.00000E+00
         0.00000E+00
         0.00000E+00
         0.00000E+00
         0.00000E+00
         0.00000E+00
         0.00000E+00
         0.00000E+00
         0.00000E+00
         0.00000E+00
         0.00000E+00
         0.00000E+00
         0.00000E+00
         0.00000E+00
         0.00000E+00
         0.00000E+00
         0.00000E+00
         0.00000E+00
         0.00000E+00
         0.00000E+00
         0.00000E+00
         0.00000E+00
         0.00000E+00
         0.00000E+00
         0.00000E+00
         0.00000E+00
         0.00000E+00
         0.00000E+00
         0.00000E+00
         0.00000E+00
         0.00000E+00
         0.00000E+00
         0.00000E+00
         0.00000E+00
         0.00000E+00
         0.00000E+00
         0.00000E+00
         0.00000E+00
         0.00000E+00
         0.00000E+00
         0.00000E+00
         0.00000E+00
         0.00000E+00
         0.00000E+00
         0.00000E+00
         0.00000E+00
         0.00000E+00
         0.00000E+00
         0.00000E+00
         0.00000E+00
         0.00000E+00
         0.00000E+00
         0.00000E+00
         0.00000E+00
         0.00000E+00
         0.00000E+00
         0.00000E+00
         0.00000E+00
         0.00000E+00
         0.00000E+00
         0.00000E+00
         0.00000E+00
         0.00000E+00
         0.00000E+00
         0.00000E+00
         0.00000E+00
         0.00000E+00
         0.00000E+00
         0.00000E+00
         0.00000E+00
         0.00000E+00
         0.00000E+00
         0.00000E+00
         0.00000E+00
         0.00000E+00
         0.00000E+00
         0.00000E+00
         0.00000E+00
         0.00000E+00
         0.00000E+00
         0.00000E+00
         0.00000E+00
         0.00000E+00
         0.00000E+00
         0.00000E+00
         0.00000E+00
         0.00000E+00
         0.00000E+00
         0.00000E+00
         0.00000E+00
         0.00000E+00
         0.00000E+00
         0.00000E+00
         0.00000E+00
         0.00000E+00
         0.00000E+00
         0.00000E+00
         0.00000E+00
         0.00000E+00
         0.00000E+00
         0.00000E+00
         0.00000E+00
         0.00000E+00
         0.00000E+00
         0.00000E+00
         0.00000E+00
         0.00000E+00
         0.00000E+00
         0.00000E+00
         0.00000E+00
         0.00000E+00
         0.00000E+00
         0.00000E+00
         0.00000E+00
         0.00000E+00
         0.00000E+00
         0.00000E+00
         0.00000E+00
         0.00000E+00
         0.00000E+00
         0.00000E+00
         0.00000E+00
         0.00000E+00
         0.00000E+00
         0.00000E+00
         0.00000E+00
         0.00000E+00
         0.00000E+00
         0.00000E+00
         0.00000E+00
         0.00000E+00
         0.00000E+00
         0.00000E+00
         0.00000E+00
         0.00000E+00
         0.00000E+00
         0.00000E+00
         0.00000E+00
         0.00000E+00
         0.00000E+00
         0.00000E+00
         0.00000E+00
         0.00000E+00
         0.00000E+00
         0.00000E+00
         0.00000E+00
         0.00000E+00
         0.00000E+00
         0.00000E+00
         0.00000E+00
         0.00000E+00
         0.00000E+00
         0.00000E+00
         0.00000E+00
         0.00000E+00
         0.00000E+00
         0.00000E+00
         0.00000E+00
         0.00000E+00
         0.00000E+00
         0.00000E+00
         0.00000E+00
         0.00000E+00
         0.00000E+00
         0.00000E+00
         0.00000E+00
         0.00000E+00
         0.00000E+00
         0.00000E+00
         0.00000E+00
         0.00000E+00
         0.00000E+00
         0.00000E+00
         0.00000E+00
         0.00000E+00
         0.00000E+00
         0.00000E+00
         0.00000E+00
         0.00000E+00
         0.00000E+00
         0.00000E+00
         0.00000E+00
         0.00000E+00
         0.00000E+00
         0.00000E+00
         0.00000E+00
         0.00000E+00
         0.00000E+00
         0.00000E+00
         0.00000E+00
         0.00000E+00
         0.00000E+00
         0.00000E+00
         0.00000E+00
         0.00000E+00
         0.00000E+00
         0.00000E+00
         0.00000E+00
         0.00000E+00
         0.00000E+00
         0.00000E+00
         0.00000E+00
         0.00000E+00
         0.00000E+00
         0.00000E+00
         0.00000E+00
         0.00000E+00
         0.00000E+00
         0.00000E+00
         0.00000E+00
         0.00000E+00
         0.00000E+00
         0.00000E+00
         0.00000E+00
         0.00000E+00
         0.00000E+00
         0.00000E+00
         0.00000E+00
         0.00000E+00
         0.00000E+00
         0.00000E+00
         0.00000E+00
         0.00000E+00
         0.00000E+00
         0.00000E+00
         0.00000E+00
         0.00000E+00
         0.00000E+00
         0.00000E+00
         0.00000E+00
         0.00000E+00
         0.00000E+00
         0.00000E+00
         0.00000E+00
         0.00000E+00
         0.00000E+00
         0.00000E+00
         0.00000E+00
         0.00000E+00
         0.00000E+00
         0.00000E+00
         0.00000E+00
         0.00000E+00
         0.00000E+00
         0.00000E+00
         0.00000E+00
         0.00000E+00
         0.00000E+00
         0.00000E+00
         0.00000E+00
         0.00000E+00
         0.00000E+00
         0.00000E+00
         0.00000E+00
         0.00000E+00
         0.00000E+00
         0.00000E+00
         0.00000E+00
         0.00000E+00
         0.00000E+00
         0.00000E+00
         0.00000E+00
         0.00000E+00
         0.00000E+00
         0.00000E+00
         0.00000E+00
         0.00000E+00
         0.00000E+00
         0.00000E+00
         0.00000E+00
         0.00000E+00
         0.00000E+00
         0.00000E+00
         0.00000E+00
         0.00000E+00
         0.00000E+00
         0.00000E+00
         0.00000E+00
         0.00000E+00
         0.00000E+00
         0.00000E+00
         0.00000E+00
         0.00000E+00
         0.00000E+00
         0.00000E+00
         0.00000E+00
         0.00000E+00
         0.00000E+00
         0.00000E+00
         0.00000E+00
         0.00000E+00
         0.00000E+00
         0.00000E+00
         0.00000E+00
         0.00000E+00
         0.00000E+00
         0.00000E+00
         0.00000E+00
         0.00000E+00
         0.00000E+00
         0.00000E+00
         0.00000E+00
         0.00000E+00
         0.00000E+00
         0.00000E+00
         0.00000E+00
         0.00000E+00
         0.00000E+00
         0.00000E+00
         0.00000E+00
         0.00000E+00
         0.00000E+00
         0.00000E+00
         0.00000E+00
         0.00000E+00
         0.00000E+00
         0.00000E+00
         0.00000E+00
         0.00000E+00
         0.00000E+00
         0.00000E+00
         0.00000E+00
         0.00000E+00
         0.00000E+00
         0.00000E+00
         0.00000E+00
         0.00000E+00
         0.00000E+00
         0.00000E+00
         0.00000E+00
         0.00000E+00
         0.00000E+00
         0.00000E+00
         0.00000E+00
         0.00000E+00
         0.00000E+00
         0.00000E+00
         0.00000E+00
         0.00000E+00
         0.00000E+00
         0.00000E+00
         0.00000E+00
         0.00000E+00
         0.00000E+00
         0.00000E+00
         0.00000E+00
         0.00000E+00
         0.00000E+00
         0.00000E+00
         0.00000E+00
         0.00000E+00
         0.00000E+00
         0.00000E+00
         0.00000E+00
         0.00000E+00
         0.00000E+00
         0.00000E+00
         0.00000E+00
         0.00000E+00
         0.00000E+00
         0.00000E+00
         0.00000E+00
         0.00000E+00
         0.00000E+00
         0.00000E+00
         0.00000E+00
         0.00000E+00
         0.00000E+00
         0.00000E+00
         0.00000E+00
         0.00000E+00
         0.00000E+00
         0.00000E+00
         0.00000E+00
         0.00000E+00
         0.00000E+00
         0.00000E+00
         0.00000E+00
         0.00000E+00
         0.00000E+00
         0.00000E+00
         0.00000E+00
         0.00000E+00
         0.00000E+00
         0.00000E+00
         0.00000E+00
         0.00000E+00
         0.00000E+00
         0.00000E+00
         0.00000E+00
         0.00000E+00
         0.00000E+00
         0.00000E+00
         0.00000E+00
         0.00000E+00
         0.00000E+00
         0.00000E+00
         0.00000E+00
         0.00000E+00
         0.00000E+00
         0.00000E+00
         0.00000E+00
         0.00000E+00
         0.00000E+00
         0.00000E+00
         0.00000E+00
         0.00000E+00
         0.00000E+00
         0.00000E+00
         0.00000E+00
         0.00000E+00
         0.00000E+00
         0.00000E+00
         0.00000E+00
         0.00000E+00
         0.00000E+00
         0.00000E+00
         0.00000E+00
         0.00000E+00
         0.00000E+00
         0.00000E+00
         0.00000E+00
         0.00000E+00
         0.00000E+00
         0.00000E+00
         0.00000E+00
         0.00000E+00
         0.00000E+00
         0.00000E+00
         0.00000E+00
         0.00000E+00
         0.00000E+00
         0.00000E+00
         0.00000E+00
         0.00000E+00
         0.00000E+00
         0.00000E+00
         0.00000E+00
         0.00000E+00
         0.00000E+00
         0.00000E+00
         0.00000E+00
         0.00000E+00
         0.00000E+00
         0.00000E+00
         0.00000E+00
         0.00000E+00
         0.00000E+00
         0.00000E+00
         0.00000E+00
         0.00000E+00
         0.00000E+00
         0.00000E+00
         0.00000E+00
         0.00000E+00
         0.00000E+00
         0.00000E+00
         0.00000E+00
         0.00000E+00
         0.00000E+00
         0.00000E+00
         0.00000E+00
         0.00000E+00
         0.00000E+00
         0.00000E+00
         0.00000E+00
         0.00000E+00
         0.00000E+00
         0.00000E+00
         0.00000E+00
         0.00000E+00
         0.00000E+00
         0.00000E+00
         0.00000E+00
         0.00000E+00
         0.00000E+00
         0.00000E+00
         0.00000E+00
         0.00000E+00
         0.00000E+00
         0.00000E+00
         0.00000E+00
         0.00000E+00
         0.00000E+00
         0.00000E+00
         0.00000E+00
         0.00000E+00
         0.00000E+00
         0.00000E+00
         0.00000E+00
         0.00000E+00
         0.00000E+00
         0.00000E+00
         0.00000E+00
         0.00000E+00
         0.00000E+00
         0.00000E+00
         0.00000E+00
         0.00000E+00
         0.00000E+00
         0.00000E+00
         0.00000E+00
         0.00000E+00
         0.00000E+00
         0.00000E+00
         0.00000E+00
         0.00000E+00
         0.00000E+00
         0.00000E+00
         0.00000E+00
         0.00000E+00
         0.00000E+00
         0.00000E+00
         0.00000E+00
         0.00000E+00
         0.00000E+00
         0.00000E+00
         0.00000E+00
         0.00000E+00
         0.00000E+00
         0.00000E+00
         0.00000E+00
         0.00000E+00
         0.00000E+00
         0.00000E+00
         0.00000E+00
         0.00000E+00
         0.00000E+00
         0.00000E+00
         0.00000E+00
         0.00000E+00
         0.00000E+00
         0.00000E+00
         0.00000E+00
         0.00000E+00
         0.00000E+00
         0.00000E+00
         0.00000E+00
         0.00000E+00
         0.00000E+00
         0.00000E+00
         0.00000E+00
         0.00000E+00
         0.00000E+00
         0.00000E+00
         0.00000E+00
         0.00000E+00
         0.00000E+00
         0.00000E+00
         0.00000E+00
         0.00000E+00
         0.00000E+00
         0.00000E+00
         0.00000E+00
         0.00000E+00
         0.00000E+00
         0.00000E+00
         0.00000E+00
         0.00000E+00
         0.00000E+00
         0.00000E+00
         0.00000E+00
         0.00000E+00
         0.00000E+00
         0.00000E+00
         0.00000E+00
         0.00000E+00
         0.00000E+00
         0.00000E+00
         0.00000E+00
         0.00000E+00
         0.00000E+00
         0.00000E+00
         0.00000E+00
         0.00000E+00
         0.00000E+00
         0.00000E+00
         0.00000E+00
         0.00000E+00
         0.00000E+00
         0.00000E+00
         0.00000E+00
         0.00000E+00
         0.00000E+00
         0.00000E+00
         0.00000E+00
         0.00000E+00
         0.00000E+00
         0.00000E+00
         0.00000E+00
         0.00000E+00
         0.00000E+00
         0.00000E+00
         0.00000E+00
         0.00000E+00
         0.00000E+00
         0.00000E+00
         0.00000E+00
         0.00000E+00
         0.00000E+00
         0.00000E+00
         0.00000E+00
         0.00000E+00
         0.00000E+00
         0.00000E+00
         0.00000E+00
         0.00000E+00
         0.00000E+00
         0.00000E+00
         0.00000E+00
         0.00000E+00
         0.00000E+00
         0.00000E+00
         0.00000E+00
         0.00000E+00
         0.00000E+00
         0.00000E+00
         0.00000E+00
         0.00000E+00
         0.00000E+00
         0.00000E+00
         0.00000E+00
         0.00000E+00
         0.00000E+00
         0.00000E+00
         0.00000E+00
         0.00000E+00
         0.00000E+00
         0.00000E+00
         0.00000E+00
         0.00000E+00
         0.00000E+00
         0.00000E+00
         0.00000E+00
         0.00000E+00
         0.00000E+00
         0.00000E+00
         0.00000E+00
         0.00000E+00
         0.00000E+00
         0.00000E+00
         0.00000E+00
         0.00000E+00
         0.00000E+00
         0.00000E+00
         0.00000E+00
         0.00000E+00
         0.00000E+00
         0.00000E+00
         0.00000E+00
         0.00000E+00
         0.00000E+00
         0.00000E+00
         0.00000E+00
         0.00000E+00
         0.00000E+00
         0.00000E+00
         0.00000E+00
         0.00000E+00
         0.00000E+00
         0.00000E+00
         0.00000E+00
         0.00000E+00
         0.00000E+00
         0.00000E+00
         0.00000E+00
         0.00000E+00
         0.00000E+00
         0.00000E+00
         0.00000E+00
         0.00000E+00
         0.00000E+00
         0.00000E+00
         0.00000E+00
         0.00000E+00
         0.00000E+00
         0.00000E+00
         0.00000E+00
         0.00000E+00
         0.00000E+00
         0.00000E+00
         0.00000E+00
         0.00000E+00
         0.00000E+00
         0.00000E+00
         0.00000E+00
         0.00000E+00
         0.00000E+00
         0.00000E+00
         0.00000E+00
         0.00000E+00
         0.00000E+00
         0.00000E+00
         0.00000E+00
         0.00000E+00
         0.00000E+00
         0.00000E+00
         0.00000E+00
         0.00000E+00
         0.00000E+00
         0.00000E+00
         0.00000E+00
         0.00000E+00
         0.00000E+00
         0.00000E+00
         0.00000E+00
         0.00000E+00
         0.00000E+00
         0.00000E+00
         0.00000E+00
         0.00000E+00
         0.00000E+00
         0.00000E+00
         0.00000E+00
         0.00000E+00
         0.00000E+00
         0.00000E+00
         0.00000E+00
         0.00000E+00
         0.00000E+00
         0.00000E+00
         0.00000E+00
         0.00000E+00
         0.00000E+00
         0.00000E+00
         0.00000E+00
         0.00000E+00
         0.00000E+00
         0.00000E+00
         0.00000E+00
         0.00000E+00
         0.00000E+00
         0.00000E+00
         0.00000E+00
         0.00000E+00
         0.00000E+00
         0.00000E+00
         0.00000E+00
         0.00000E+00
         0.00000E+00
         0.00000E+00
         0.00000E+00
         0.00000E+00
         0.00000E+00
         0.00000E+00
         0.00000E+00
         0.00000E+00
         0.00000E+00
         0.00000E+00
         0.00000E+00
         0.00000E+00
         0.00000E+00
         0.00000E+00
         0.00000E+00
         0.00000E+00
         0.00000E+00
         0.00000E+00
         0.00000E+00
         0.00000E+00
         0.00000E+00
         0.00000E+00
         0.00000E+00
         0.00000E+00
         0.00000E+00
         0.00000E+00
         0.00000E+00
         0.00000E+00
         0.00000E+00
         0.00000E+00
         0.00000E+00
         0.00000E+00
         0.00000E+00
         0.00000E+00
         0.00000E+00
         0.00000E+00
         0.00000E+00
         0.00000E+00
         0.00000E+00
         0.00000E+00
         0.00000E+00
         0.00000E+00
         0.00000E+00
         0.00000E+00
         0.00000E+00
         0.00000E+00
         0.00000E+00
         0.00000E+00
         0.00000E+00
         0.00000E+00
         0.00000E+00
         0.00000E+00
         0.00000E+00
         0.00000E+00
         0.00000E+00
         0.00000E+00
         0.00000E+00
         0.00000E+00
         0.00000E+00
         0.00000E+00
         0.00000E+00
         0.00000E+00
         0.00000E+00
         0.00000E+00
         0.00000E+00
         0.00000E+00
         0.00000E+00
         0.00000E+00
         0.00000E+00
         0.00000E+00
         0.00000E+00
         0.00000E+00
         0.00000E+00
         0.00000E+00
         0.00000E+00
         0.00000E+00
         0.00000E+00
         0.00000E+00
         0.00000E+00
         0.00000E+00
         0.00000E+00
         0.00000E+00
         0.00000E+00
         0.00000E+00
         0.00000E+00
         0.00000E+00
         0.00000E+00
         0.00000E+00
         0.00000E+00
         0.00000E+00
         0.00000E+00
         0.00000E+00
         0.00000E+00
         0.00000E+00
         0.00000E+00
         0.00000E+00
         0.00000E+00
         0.00000E+00
         0.00000E+00
         0.00000E+00
         0.00000E+00
         0.00000E+00
         0.00000E+00
         0.00000E+00
         0.00000E+00
         0.00000E+00
         0.00000E+00
         0.00000E+00
         0.00000E+00
         0.00000E+00
         0.00000E+00
         0.00000E+00
         0.00000E+00
         0.00000E+00
         0.00000E+00
         0.00000E+00
         0.00000E+00
         0.00000E+00
         0.00000E+00
         0.00000E+00
         0.00000E+00
         0.00000E+00
         0.00000E+00
         0.00000E+00
         0.00000E+00
         0.00000E+00
         0.00000E+00
         0.00000E+00
         0.00000E+00
         0.00000E+00
         0.00000E+00
         0.00000E+00
         0.00000E+00
         0.00000E+00
         0.00000E+00
         0.00000E+00
         0.00000E+00
         0.00000E+00
         0.00000E+00
         0.00000E+00
         0.00000E+00
         0.00000E+00
         0.00000E+00
         0.00000E+00
         0.00000E+00
         0.00000E+00
         0.00000E+00
         0.00000E+00
         0.00000E+00
         0.00000E+00
         0.00000E+00
         0.00000E+00
         0.00000E+00
         0.00000E+00
         0.00000E+00
         0.00000E+00
         0.00000E+00
         0.00000E+00
         0.00000E+00
         0.00000E+00
         0.00000E+00
         0.00000E+00
         0.00000E+00
         0.00000E+00
         0.00000E+00
         0.00000E+00
         0.00000E+00
         0.00000E+00
         0.00000E+00
         0.00000E+00
         0.00000E+00
         0.00000E+00
         0.00000E+00
         0.00000E+00
         0.00000E+00
         0.00000E+00
         0.00000E+00
         0.00000E+00
         0.00000E+00
         0.00000E+00
         0.00000E+00
         0.00000E+00
         0.00000E+00
         0.00000E+00
         0.00000E+00
         0.00000E+00
         0.00000E+00
         0.00000E+00
         0.00000E+00
         0.00000E+00
         0.00000E+00
         0.00000E+00
         0.00000E+00
         0.00000E+00
         0.00000E+00
         0.00000E+00
         0.00000E+00
         0.00000E+00
         0.00000E+00
         0.00000E+00
         0.00000E+00
         0.00000E+00
         0.00000E+00
         0.00000E+00
         0.00000E+00
         0.00000E+00
         0.00000E+00
         0.00000E+00
         0.00000E+00
         0.00000E+00
         0.00000E+00
         0.00000E+00
         0.00000E+00
         0.00000E+00
         0.00000E+00
         0.00000E+00
         0.00000E+00
         0.00000E+00
         0.00000E+00
         0.00000E+00
         0.00000E+00
         0.00000E+00
         0.00000E+00
         0.00000E+00
         0.00000E+00
         0.00000E+00
         0.00000E+00
         0.00000E+00
         0.00000E+00
         0.00000E+00
         0.00000E+00
         0.00000E+00
         0.00000E+00
         0.00000E+00
         0.00000E+00
         0.00000E+00
         0.00000E+00
         0.00000E+00
         0.00000E+00
         0.00000E+00
         0.00000E+00
         0.00000E+00
         0.00000E+00
         0.00000E+00
         0.00000E+00
         0.00000E+00
         0.00000E+00
         0.00000E+00
         0.00000E+00
         0.00000E+00
         0.00000E+00
         0.00000E+00
         0.00000E+00
         0.00000E+00
         0.00000E+00
         0.00000E+00
         0.00000E+00
         0.00000E+00
         0.00000E+00
         0.00000E+00
         0.00000E+00
         0.00000E+00
         0.00000E+00
         0.00000E+00
         0.00000E+00
         0.00000E+00
         0.00000E+00
         0.00000E+00
         0.00000E+00
         0.00000E+00
         0.00000E+00
         0.00000E+00
         0.00000E+00
         0.00000E+00
         0.00000E+00
         0.00000E+00
         0.00000E+00
         0.00000E+00
         0.00000E+00
         0.00000E+00
         0.00000E+00
         0.00000E+00
         0.00000E+00
         0.00000E+00
         0.00000E+00
         0.00000E+00
         0.00000E+00
         0.00000E+00
         0.00000E+00
         0.00000E+00
         0.00000E+00
         0.00000E+00
         0.00000E+00
         0.00000E+00
         0.00000E+00
         0.00000E+00
         0.00000E+00
         0.00000E+00
         0.00000E+00
         0.00000E+00
         0.00000E+00
         0.00000E+00
         0.00000E+00
         0.00000E+00
         0.00000E+00
         0.00000E+00
         0.00000E+00
         0.00000E+00
         0.00000E+00
         0.00000E+00
         0.00000E+00
         0.00000E+00
         0.00000E+00
         0.00000E+00
         0.00000E+00
         0.00000E+00
         0.00000E+00
         0.00000E+00
         0.00000E+00
         0.00000E+00
         0.00000E+00
         0.00000E+00
         0.00000E+00
         0.00000E+00
         0.00000E+00
         0.00000E+00
         0.00000E+00
         0.00000E+00
         0.00000E+00
         0.00000E+00
         0.00000E+00
         0.00000E+00
         0.00000E+00
         0.00000E+00
         0.00000E+00
         0.00000E+00
         0.00000E+00
         0.00000E+00
         0.00000E+00
         0.00000E+00
         0.00000E+00
         0.00000E+00
         0.00000E+00
         0.00000E+00
         0.00000E+00
         0.00000E+00
         0.00000E+00
         0.00000E+00
         0.00000E+00
         0.00000E+00
         0.00000E+00
         0.00000E+00
         0.00000E+00
         0.00000E+00
         0.00000E+00
         0.00000E+00
         0.00000E+00
         0.00000E+00
         0.00000E+00
         0.00000E+00
         0.00000E+00
         0.00000E+00
         0.00000E+00
         0.00000E+00
         0.00000E+00
         0.00000E+00
         0.00000E+00
         0.00000E+00
         0.00000E+00
         0.00000E+00
         0.00000E+00
         0.00000E+00
         0.00000E+00
         0.00000E+00
         0.00000E+00
         0.00000E+00
         0.00000E+00
         0.00000E+00
         0.00000E+00
         0.00000E+00
         0.00000E+00
         0.00000E+00
         0.00000E+00
         0.00000E+00
         0.00000E+00
         0.00000E+00
         0.00000E+00
         0.00000E+00
         0.00000E+00
         0.00000E+00
         0.00000E+00
         0.00000E+00
         0.00000E+00
         0.00000E+00
         0.00000E+00
         0.00000E+00
         0.00000E+00
         0.00000E+00
         0.00000E+00
         0.00000E+00
         0.00000E+00
         0.00000E+00
         0.00000E+00
         0.00000E+00
         0.00000E+00
         0.00000E+00
         0.00000E+00
         0.00000E+00
         0.00000E+00
         0.00000E+00
         0.00000E+00
         0.00000E+00
         0.00000E+00
         0.00000E+00
         0.00000E+00
         0.00000E+00
         0.00000E+00
         0.00000E+00
         0.00000E+00
         0.00000E+00
         0.00000E+00
         0.00000E+00
         0.00000E+00
         0.00000E+00
         0.00000E+00
         0.00000E+00
         0.00000E+00
         0.00000E+00
         0.00000E+00
         0.00000E+00
         0.00000E+00
         0.00000E+00
         0.00000E+00
         0.00000E+00
         0.00000E+00
         0.00000E+00
         0.00000E+00
         0.00000E+00
         0.00000E+00
         0.00000E+00
         0.00000E+00
         0.00000E+00
         0.00000E+00
         0.00000E+00
         0.00000E+00
         0.00000E+00
         0.00000E+00
         0.00000E+00
         0.00000E+00
         0.00000E+00
         0.00000E+00
         0.00000E+00
         0.00000E+00
         0.00000E+00
         0.00000E+00
         0.00000E+00
         0.00000E+00
         0.00000E+00
         0.00000E+00
         0.00000E+00
         0.00000E+00
         0.00000E+00
         0.00000E+00
         0.00000E+00
         0.00000E+00
         0.00000E+00
         0.00000E+00
         0.00000E+00
         0.00000E+00
         0.00000E+00
         0.00000E+00
         0.00000E+00
         0.00000E+00
         0.00000E+00
         0.00000E+00
         0.00000E+00
         0.00000E+00
         0.00000E+00
         0.00000E+00
         0.00000E+00
         0.00000E+00
         0.00000E+00
         0.00000E+00
         0.00000E+00
         0.00000E+00
         0.00000E+00
         0.00000E+00
         0.00000E+00
         0.00000E+00
         0.00000E+00
         0.00000E+00
         0.00000E+00
         0.00000E+00
         0.00000E+00
         0.00000E+00
         0.00000E+00
         0.00000E+00
         0.00000E+00
         0.00000E+00
         0.00000E+00
         0.00000E+00
         0.00000E+00
         0.00000E+00
         0.00000E+00
         0.00000E+00
         0.00000E+00
         0.00000E+00
         0.00000E+00
         0.00000E+00
         0.00000E+00
         0.00000E+00
         0.00000E+00
         0.00000E+00
         0.00000E+00
         0.00000E+00
         0.00000E+00
         0.00000E+00
         0.00000E+00
         0.00000E+00
         0.00000E+00
         0.00000E+00
         0.00000E+00
         0.00000E+00
         0.00000E+00
         0.00000E+00
         0.00000E+00
         0.00000E+00
         0.00000E+00
         0.00000E+00
         0.00000E+00
         0.00000E+00
         0.00000E+00
         0.00000E+00
         0.00000E+00
         0.00000E+00
         0.00000E+00
         0.00000E+00
         0.00000E+00
         0.00000E+00
         0.00000E+00
         0.00000E+00
         0.00000E+00
         0.00000E+00
         0.00000E+00
         0.00000E+00
         0.00000E+00
         0.00000E+00
         0.00000E+00
         0.00000E+00
         0.00000E+00
         0.00000E+00
         0.00000E+00
         0.00000E+00
         0.00000E+00
         0.00000E+00
         0.00000E+00
         0.00000E+00
         0.00000E+00
         0.00000E+00
         0.00000E+00
         0.00000E+00
         0.00000E+00
         0.00000E+00
         0.00000E+00
         0.00000E+00
         0.00000E+00
         0.00000E+00
         0.00000E+00
         0.00000E+00
         0.00000E+00
         0.00000E+00
         0.00000E+00
         0.00000E+00
         0.00000E+00
         0.00000E+00
         0.00000E+00
         0.00000E+00
         0.00000E+00
         0.00000E+00
         0.00000E+00
         0.00000E+00
         0.00000E+00
         0.00000E+00
         0.00000E+00
         0.00000E+00
         0.00000E+00
         0.00000E+00
         0.00000E+00
         0.00000E+00
         0.00000E+00
         0.00000E+00
         0.00000E+00
         0.00000E+00
         0.00000E+00
         0.00000E+00
         0.00000E+00
         0.00000E+00
         0.00000E+00
         0.00000E+00
         0.00000E+00
         0.00000E+00
         0.00000E+00
         0.00000E+00
         0.00000E+00
         0.00000E+00
         0.00000E+00
         0.00000E+00
         0.00000E+00
         0.00000E+00
         0.00000E+00
         0.00000E+00
         0.00000E+00
         0.00000E+00
         0.00000E+00
         0.00000E+00
         0.00000E+00
         0.00000E+00
         0.00000E+00
         0.00000E+00
         0.00000E+00
         0.00000E+00
         0.00000E+00
         0.00000E+00
         0.00000E+00
         0.00000E+00
         0.00000E+00
         0.00000E+00
         0.00000E+00
         0.00000E+00
         0.00000E+00
         0.00000E+00
         0.00000E+00
         0.00000E+00
         0.00000E+00
         0.00000E+00
         0.00000E+00
         0.00000E+00
         0.00000E+00
         0.00000E+00
         0.00000E+00
         0.00000E+00
         0.00000E+00
  
SCALARS                init_velocity_z  double 1
LOOKUP_TABLE default
        -0.37300E+03
        -0.37300E+03
        -0.37300E+03
        -0.37300E+03
        -0.37300E+03
        -0.37300E+03
        -0.37300E+03
        -0.37300E+03
        -0.37300E+03
        -0.37300E+03
        -0.37300E+03
        -0.37300E+03
        -0.37300E+03
        -0.37300E+03
        -0.37300E+03
        -0.37300E+03
        -0.37300E+03
        -0.37300E+03
        -0.37300E+03
        -0.37300E+03
        -0.37300E+03
        -0.37300E+03
        -0.37300E+03
        -0.37300E+03
        -0.37300E+03
        -0.37300E+03
        -0.37300E+03
        -0.37300E+03
        -0.37300E+03
        -0.37300E+03
        -0.37300E+03
        -0.37300E+03
        -0.37300E+03
        -0.37300E+03
        -0.37300E+03
        -0.37300E+03
        -0.37300E+03
        -0.37300E+03
        -0.37300E+03
        -0.37300E+03
        -0.37300E+03
        -0.37300E+03
        -0.37300E+03
        -0.37300E+03
        -0.37300E+03
        -0.37300E+03
        -0.37300E+03
        -0.37300E+03
        -0.37300E+03
        -0.37300E+03
        -0.37300E+03
        -0.37300E+03
        -0.37300E+03
        -0.37300E+03
        -0.37300E+03
        -0.37300E+03
        -0.37300E+03
        -0.37300E+03
        -0.37300E+03
        -0.37300E+03
        -0.37300E+03
        -0.37300E+03
        -0.37300E+03
        -0.37300E+03
        -0.37300E+03
        -0.37300E+03
        -0.37300E+03
        -0.37300E+03
        -0.37300E+03
        -0.37300E+03
        -0.37300E+03
        -0.37300E+03
        -0.37300E+03
        -0.37300E+03
        -0.37300E+03
        -0.37300E+03
        -0.37300E+03
        -0.37300E+03
        -0.37300E+03
        -0.37300E+03
        -0.37300E+03
        -0.37300E+03
        -0.37300E+03
        -0.37300E+03
        -0.37300E+03
        -0.37300E+03
        -0.37300E+03
        -0.37300E+03
        -0.37300E+03
        -0.37300E+03
        -0.37300E+03
        -0.37300E+03
        -0.37300E+03
        -0.37300E+03
        -0.37300E+03
        -0.37300E+03
        -0.37300E+03
        -0.37300E+03
        -0.37300E+03
        -0.37300E+03
        -0.37300E+03
        -0.37300E+03
        -0.37300E+03
        -0.37300E+03
        -0.37300E+03
        -0.37300E+03
        -0.37300E+03
        -0.37300E+03
        -0.37300E+03
        -0.37300E+03
        -0.37300E+03
        -0.37300E+03
        -0.37300E+03
        -0.37300E+03
        -0.37300E+03
        -0.37300E+03
        -0.37300E+03
        -0.37300E+03
        -0.37300E+03
        -0.37300E+03
        -0.37300E+03
        -0.37300E+03
        -0.37300E+03
        -0.37300E+03
        -0.37300E+03
        -0.37300E+03
        -0.37300E+03
        -0.37300E+03
        -0.37300E+03
        -0.37300E+03
        -0.37300E+03
        -0.37300E+03
        -0.37300E+03
        -0.37300E+03
        -0.37300E+03
        -0.37300E+03
        -0.37300E+03
        -0.37300E+03
        -0.37300E+03
        -0.37300E+03
        -0.37300E+03
        -0.37300E+03
        -0.37300E+03
        -0.37300E+03
        -0.37300E+03
        -0.37300E+03
        -0.37300E+03
        -0.37300E+03
        -0.37300E+03
        -0.37300E+03
        -0.37300E+03
        -0.37300E+03
        -0.37300E+03
        -0.37300E+03
        -0.37300E+03
        -0.37300E+03
        -0.37300E+03
        -0.37300E+03
        -0.37300E+03
        -0.37300E+03
        -0.37300E+03
        -0.37300E+03
        -0.37300E+03
        -0.37300E+03
        -0.37300E+03
        -0.37300E+03
        -0.37300E+03
        -0.37300E+03
        -0.37300E+03
        -0.37300E+03
        -0.37300E+03
        -0.37300E+03
        -0.37300E+03
        -0.37300E+03
        -0.37300E+03
        -0.37300E+03
        -0.37300E+03
        -0.37300E+03
        -0.37300E+03
        -0.37300E+03
        -0.37300E+03
        -0.37300E+03
        -0.37300E+03
        -0.37300E+03
        -0.37300E+03
        -0.37300E+03
        -0.37300E+03
        -0.37300E+03
        -0.37300E+03
        -0.37300E+03
        -0.37300E+03
        -0.37300E+03
        -0.37300E+03
        -0.37300E+03
        -0.37300E+03
        -0.37300E+03
        -0.37300E+03
        -0.37300E+03
        -0.37300E+03
        -0.37300E+03
        -0.37300E+03
        -0.37300E+03
        -0.37300E+03
        -0.37300E+03
        -0.37300E+03
        -0.37300E+03
        -0.37300E+03
        -0.37300E+03
        -0.37300E+03
        -0.37300E+03
        -0.37300E+03
        -0.37300E+03
        -0.37300E+03
        -0.37300E+03
        -0.37300E+03
        -0.37300E+03
        -0.37300E+03
        -0.37300E+03
        -0.37300E+03
        -0.37300E+03
        -0.37300E+03
        -0.37300E+03
        -0.37300E+03
        -0.37300E+03
        -0.37300E+03
        -0.37300E+03
        -0.37300E+03
        -0.37300E+03
        -0.37300E+03
        -0.37300E+03
        -0.37300E+03
        -0.37300E+03
        -0.37300E+03
        -0.37300E+03
        -0.37300E+03
        -0.37300E+03
        -0.37300E+03
        -0.37300E+03
        -0.37300E+03
        -0.37300E+03
        -0.37300E+03
        -0.37300E+03
        -0.37300E+03
        -0.37300E+03
        -0.37300E+03
        -0.37300E+03
        -0.37300E+03
        -0.37300E+03
        -0.37300E+03
        -0.37300E+03
        -0.37300E+03
        -0.37300E+03
        -0.37300E+03
        -0.37300E+03
        -0.37300E+03
        -0.37300E+03
        -0.37300E+03
        -0.37300E+03
        -0.37300E+03
        -0.37300E+03
        -0.37300E+03
        -0.37300E+03
        -0.37300E+03
        -0.37300E+03
        -0.37300E+03
        -0.37300E+03
        -0.37300E+03
        -0.37300E+03
        -0.37300E+03
        -0.37300E+03
        -0.37300E+03
        -0.37300E+03
        -0.37300E+03
        -0.37300E+03
        -0.37300E+03
        -0.37300E+03
        -0.37300E+03
        -0.37300E+03
        -0.37300E+03
        -0.37300E+03
        -0.37300E+03
        -0.37300E+03
        -0.37300E+03
        -0.37300E+03
        -0.37300E+03
        -0.37300E+03
        -0.37300E+03
        -0.37300E+03
        -0.37300E+03
        -0.37300E+03
        -0.37300E+03
        -0.37300E+03
        -0.37300E+03
        -0.37300E+03
        -0.37300E+03
        -0.37300E+03
        -0.37300E+03
        -0.37300E+03
        -0.37300E+03
        -0.37300E+03
        -0.37300E+03
        -0.37300E+03
        -0.37300E+03
        -0.37300E+03
        -0.37300E+03
        -0.37300E+03
        -0.37300E+03
        -0.37300E+03
        -0.37300E+03
        -0.37300E+03
        -0.37300E+03
        -0.37300E+03
        -0.37300E+03
        -0.37300E+03
        -0.37300E+03
        -0.37300E+03
        -0.37300E+03
        -0.37300E+03
        -0.37300E+03
        -0.37300E+03
        -0.37300E+03
        -0.37300E+03
        -0.37300E+03
        -0.37300E+03
        -0.37300E+03
        -0.37300E+03
        -0.37300E+03
        -0.37300E+03
        -0.37300E+03
        -0.37300E+03
        -0.37300E+03
        -0.37300E+03
        -0.37300E+03
        -0.37300E+03
        -0.37300E+03
        -0.37300E+03
        -0.37300E+03
        -0.37300E+03
        -0.37300E+03
        -0.37300E+03
        -0.37300E+03
        -0.37300E+03
        -0.37300E+03
        -0.37300E+03
        -0.37300E+03
        -0.37300E+03
        -0.37300E+03
        -0.37300E+03
        -0.37300E+03
        -0.37300E+03
        -0.37300E+03
        -0.37300E+03
        -0.37300E+03
        -0.37300E+03
        -0.37300E+03
        -0.37300E+03
        -0.37300E+03
        -0.37300E+03
        -0.37300E+03
        -0.37300E+03
        -0.37300E+03
        -0.37300E+03
        -0.37300E+03
        -0.37300E+03
        -0.37300E+03
        -0.37300E+03
        -0.37300E+03
        -0.37300E+03
        -0.37300E+03
        -0.37300E+03
        -0.37300E+03
        -0.37300E+03
        -0.37300E+03
        -0.37300E+03
        -0.37300E+03
        -0.37300E+03
        -0.37300E+03
        -0.37300E+03
        -0.37300E+03
        -0.37300E+03
        -0.37300E+03
        -0.37300E+03
        -0.37300E+03
        -0.37300E+03
        -0.37300E+03
        -0.37300E+03
        -0.37300E+03
        -0.37300E+03
        -0.37300E+03
        -0.37300E+03
        -0.37300E+03
        -0.37300E+03
        -0.37300E+03
        -0.37300E+03
        -0.37300E+03
        -0.37300E+03
        -0.37300E+03
        -0.37300E+03
        -0.37300E+03
        -0.37300E+03
        -0.37300E+03
        -0.37300E+03
        -0.37300E+03
        -0.37300E+03
        -0.37300E+03
        -0.37300E+03
        -0.37300E+03
        -0.37300E+03
        -0.37300E+03
        -0.37300E+03
        -0.37300E+03
        -0.37300E+03
        -0.37300E+03
        -0.37300E+03
        -0.37300E+03
        -0.37300E+03
        -0.37300E+03
        -0.37300E+03
        -0.37300E+03
        -0.37300E+03
        -0.37300E+03
        -0.37300E+03
        -0.37300E+03
        -0.37300E+03
        -0.37300E+03
        -0.37300E+03
        -0.37300E+03
        -0.37300E+03
        -0.37300E+03
        -0.37300E+03
        -0.37300E+03
        -0.37300E+03
        -0.37300E+03
        -0.37300E+03
        -0.37300E+03
        -0.37300E+03
        -0.37300E+03
        -0.37300E+03
        -0.37300E+03
        -0.37300E+03
        -0.37300E+03
        -0.37300E+03
        -0.37300E+03
        -0.37300E+03
        -0.37300E+03
        -0.37300E+03
        -0.37300E+03
        -0.37300E+03
        -0.37300E+03
        -0.37300E+03
        -0.37300E+03
        -0.37300E+03
        -0.37300E+03
        -0.37300E+03
        -0.37300E+03
        -0.37300E+03
        -0.37300E+03
        -0.37300E+03
        -0.37300E+03
        -0.37300E+03
        -0.37300E+03
        -0.37300E+03
        -0.37300E+03
        -0.37300E+03
        -0.37300E+03
        -0.37300E+03
        -0.37300E+03
        -0.37300E+03
        -0.37300E+03
        -0.37300E+03
        -0.37300E+03
        -0.37300E+03
        -0.37300E+03
        -0.37300E+03
        -0.37300E+03
        -0.37300E+03
        -0.37300E+03
        -0.37300E+03
        -0.37300E+03
        -0.37300E+03
        -0.37300E+03
        -0.37300E+03
        -0.37300E+03
        -0.37300E+03
        -0.37300E+03
        -0.37300E+03
        -0.37300E+03
        -0.37300E+03
        -0.37300E+03
        -0.37300E+03
        -0.37300E+03
        -0.37300E+03
        -0.37300E+03
        -0.37300E+03
        -0.37300E+03
        -0.37300E+03
        -0.37300E+03
        -0.37300E+03
        -0.37300E+03
        -0.37300E+03
        -0.37300E+03
        -0.37300E+03
        -0.37300E+03
        -0.37300E+03
        -0.37300E+03
        -0.37300E+03
        -0.37300E+03
        -0.37300E+03
        -0.37300E+03
        -0.37300E+03
        -0.37300E+03
        -0.37300E+03
        -0.37300E+03
        -0.37300E+03
        -0.37300E+03
        -0.37300E+03
        -0.37300E+03
        -0.37300E+03
        -0.37300E+03
        -0.37300E+03
        -0.37300E+03
        -0.37300E+03
        -0.37300E+03
        -0.37300E+03
        -0.37300E+03
        -0.37300E+03
        -0.37300E+03
        -0.37300E+03
        -0.37300E+03
        -0.37300E+03
        -0.37300E+03
        -0.37300E+03
        -0.37300E+03
        -0.37300E+03
        -0.37300E+03
        -0.37300E+03
        -0.37300E+03
        -0.37300E+03
        -0.37300E+03
        -0.37300E+03
        -0.37300E+03
        -0.37300E+03
        -0.37300E+03
        -0.37300E+03
        -0.37300E+03
        -0.37300E+03
        -0.37300E+03
        -0.37300E+03
        -0.37300E+03
        -0.37300E+03
        -0.37300E+03
        -0.37300E+03
        -0.37300E+03
        -0.37300E+03
        -0.37300E+03
        -0.37300E+03
        -0.37300E+03
        -0.37300E+03
        -0.37300E+03
        -0.37300E+03
        -0.37300E+03
        -0.37300E+03
        -0.37300E+03
        -0.37300E+03
        -0.37300E+03
        -0.37300E+03
        -0.37300E+03
        -0.37300E+03
        -0.37300E+03
        -0.37300E+03
        -0.37300E+03
        -0.37300E+03
        -0.37300E+03
        -0.37300E+03
        -0.37300E+03
        -0.37300E+03
        -0.37300E+03
        -0.37300E+03
        -0.37300E+03
        -0.37300E+03
        -0.37300E+03
        -0.37300E+03
        -0.37300E+03
        -0.37300E+03
        -0.37300E+03
        -0.37300E+03
        -0.37300E+03
        -0.37300E+03
        -0.37300E+03
        -0.37300E+03
        -0.37300E+03
        -0.37300E+03
        -0.37300E+03
        -0.37300E+03
        -0.37300E+03
        -0.37300E+03
        -0.37300E+03
        -0.37300E+03
        -0.37300E+03
        -0.37300E+03
        -0.37300E+03
        -0.37300E+03
        -0.37300E+03
        -0.37300E+03
        -0.37300E+03
        -0.37300E+03
        -0.37300E+03
        -0.37300E+03
        -0.37300E+03
        -0.37300E+03
        -0.37300E+03
        -0.37300E+03
        -0.37300E+03
        -0.37300E+03
        -0.37300E+03
        -0.37300E+03
        -0.37300E+03
        -0.37300E+03
        -0.37300E+03
        -0.37300E+03
        -0.37300E+03
        -0.37300E+03
        -0.37300E+03
        -0.37300E+03
        -0.37300E+03
        -0.37300E+03
        -0.37300E+03
        -0.37300E+03
        -0.37300E+03
        -0.37300E+03
        -0.37300E+03
        -0.37300E+03
        -0.37300E+03
        -0.37300E+03
        -0.37300E+03
        -0.37300E+03
        -0.37300E+03
        -0.37300E+03
        -0.37300E+03
        -0.37300E+03
        -0.37300E+03
        -0.37300E+03
        -0.37300E+03
        -0.37300E+03
        -0.37300E+03
        -0.37300E+03
        -0.37300E+03
        -0.37300E+03
        -0.37300E+03
        -0.37300E+03
        -0.37300E+03
        -0.37300E+03
        -0.37300E+03
        -0.37300E+03
        -0.37300E+03
        -0.37300E+03
        -0.37300E+03
        -0.37300E+03
        -0.37300E+03
        -0.37300E+03
        -0.37300E+03
        -0.37300E+03
        -0.37300E+03
        -0.37300E+03
        -0.37300E+03
        -0.37300E+03
        -0.37300E+03
        -0.37300E+03
        -0.37300E+03
        -0.37300E+03
        -0.37300E+03
        -0.37300E+03
        -0.37300E+03
        -0.37300E+03
        -0.37300E+03
        -0.37300E+03
        -0.37300E+03
        -0.37300E+03
        -0.37300E+03
        -0.37300E+03
        -0.37300E+03
        -0.37300E+03
        -0.37300E+03
        -0.37300E+03
        -0.37300E+03
        -0.37300E+03
        -0.37300E+03
        -0.37300E+03
        -0.37300E+03
        -0.37300E+03
        -0.37300E+03
        -0.37300E+03
        -0.37300E+03
        -0.37300E+03
        -0.37300E+03
        -0.37300E+03
        -0.37300E+03
        -0.37300E+03
        -0.37300E+03
        -0.37300E+03
        -0.37300E+03
        -0.37300E+03
        -0.37300E+03
        -0.37300E+03
        -0.37300E+03
        -0.37300E+03
        -0.37300E+03
        -0.37300E+03
        -0.37300E+03
        -0.37300E+03
        -0.37300E+03
        -0.37300E+03
        -0.37300E+03
        -0.37300E+03
        -0.37300E+03
        -0.37300E+03
        -0.37300E+03
        -0.37300E+03
        -0.37300E+03
        -0.37300E+03
        -0.37300E+03
        -0.37300E+03
        -0.37300E+03
        -0.37300E+03
        -0.37300E+03
        -0.37300E+03
        -0.37300E+03
        -0.37300E+03
        -0.37300E+03
        -0.37300E+03
        -0.37300E+03
        -0.37300E+03
        -0.37300E+03
        -0.37300E+03
        -0.37300E+03
        -0.37300E+03
        -0.37300E+03
        -0.37300E+03
        -0.37300E+03
        -0.37300E+03
        -0.37300E+03
        -0.37300E+03
        -0.37300E+03
        -0.37300E+03
        -0.37300E+03
        -0.37300E+03
        -0.37300E+03
        -0.37300E+03
        -0.37300E+03
        -0.37300E+03
        -0.37300E+03
        -0.37300E+03
        -0.37300E+03
        -0.37300E+03
        -0.37300E+03
        -0.37300E+03
        -0.37300E+03
        -0.37300E+03
        -0.37300E+03
        -0.37300E+03
        -0.37300E+03
        -0.37300E+03
        -0.37300E+03
        -0.37300E+03
        -0.37300E+03
        -0.37300E+03
        -0.37300E+03
        -0.37300E+03
        -0.37300E+03
        -0.37300E+03
        -0.37300E+03
        -0.37300E+03
        -0.37300E+03
        -0.37300E+03
        -0.37300E+03
        -0.37300E+03
        -0.37300E+03
        -0.37300E+03
        -0.37300E+03
        -0.37300E+03
        -0.37300E+03
        -0.37300E+03
        -0.37300E+03
        -0.37300E+03
        -0.37300E+03
        -0.37300E+03
        -0.37300E+03
        -0.37300E+03
        -0.37300E+03
        -0.37300E+03
        -0.37300E+03
        -0.37300E+03
        -0.37300E+03
        -0.37300E+03
        -0.37300E+03
        -0.37300E+03
        -0.37300E+03
        -0.37300E+03
        -0.37300E+03
        -0.37300E+03
        -0.37300E+03
        -0.37300E+03
        -0.37300E+03
        -0.37300E+03
        -0.37300E+03
        -0.37300E+03
        -0.37300E+03
        -0.37300E+03
        -0.37300E+03
        -0.37300E+03
        -0.37300E+03
        -0.37300E+03
        -0.37300E+03
        -0.37300E+03
        -0.37300E+03
        -0.37300E+03
        -0.37300E+03
        -0.37300E+03
        -0.37300E+03
        -0.37300E+03
        -0.37300E+03
        -0.37300E+03
        -0.37300E+03
        -0.37300E+03
        -0.37300E+03
        -0.37300E+03
        -0.37300E+03
        -0.37300E+03
        -0.37300E+03
        -0.37300E+03
        -0.37300E+03
        -0.37300E+03
        -0.37300E+03
        -0.37300E+03
        -0.37300E+03
        -0.37300E+03
        -0.37300E+03
        -0.37300E+03
        -0.37300E+03
        -0.37300E+03
        -0.37300E+03
        -0.37300E+03
        -0.37300E+03
        -0.37300E+03
        -0.37300E+03
        -0.37300E+03
        -0.37300E+03
        -0.37300E+03
        -0.37300E+03
        -0.37300E+03
        -0.37300E+03
        -0.37300E+03
        -0.37300E+03
        -0.37300E+03
        -0.37300E+03
        -0.37300E+03
        -0.37300E+03
        -0.37300E+03
        -0.37300E+03
        -0.37300E+03
        -0.37300E+03
        -0.37300E+03
        -0.37300E+03
        -0.37300E+03
        -0.37300E+03
        -0.37300E+03
        -0.37300E+03
        -0.37300E+03
        -0.37300E+03
        -0.37300E+03
        -0.37300E+03
        -0.37300E+03
        -0.37300E+03
        -0.37300E+03
        -0.37300E+03
        -0.37300E+03
        -0.37300E+03
        -0.37300E+03
        -0.37300E+03
        -0.37300E+03
        -0.37300E+03
        -0.37300E+03
        -0.37300E+03
        -0.37300E+03
        -0.37300E+03
        -0.37300E+03
        -0.37300E+03
        -0.37300E+03
        -0.37300E+03
        -0.37300E+03
        -0.37300E+03
        -0.37300E+03
        -0.37300E+03
        -0.37300E+03
        -0.37300E+03
        -0.37300E+03
        -0.37300E+03
        -0.37300E+03
        -0.37300E+03
        -0.37300E+03
        -0.37300E+03
        -0.37300E+03
        -0.37300E+03
        -0.37300E+03
        -0.37300E+03
        -0.37300E+03
        -0.37300E+03
        -0.37300E+03
        -0.37300E+03
        -0.37300E+03
        -0.37300E+03
        -0.37300E+03
        -0.37300E+03
        -0.37300E+03
        -0.37300E+03
        -0.37300E+03
        -0.37300E+03
        -0.37300E+03
        -0.37300E+03
        -0.37300E+03
        -0.37300E+03
        -0.37300E+03
        -0.37300E+03
        -0.37300E+03
        -0.37300E+03
        -0.37300E+03
        -0.37300E+03
        -0.37300E+03
        -0.37300E+03
        -0.37300E+03
        -0.37300E+03
        -0.37300E+03
        -0.37300E+03
        -0.37300E+03
        -0.37300E+03
        -0.37300E+03
        -0.37300E+03
        -0.37300E+03
        -0.37300E+03
        -0.37300E+03
        -0.37300E+03
        -0.37300E+03
        -0.37300E+03
        -0.37300E+03
        -0.37300E+03
        -0.37300E+03
        -0.37300E+03
        -0.37300E+03
        -0.37300E+03
        -0.37300E+03
        -0.37300E+03
        -0.37300E+03
        -0.37300E+03
        -0.37300E+03
        -0.37300E+03
        -0.37300E+03
        -0.37300E+03
        -0.37300E+03
        -0.37300E+03
        -0.37300E+03
        -0.37300E+03
        -0.37300E+03
        -0.37300E+03
        -0.37300E+03
        -0.37300E+03
        -0.37300E+03
        -0.37300E+03
        -0.37300E+03
        -0.37300E+03
        -0.37300E+03
        -0.37300E+03
        -0.37300E+03
        -0.37300E+03
        -0.37300E+03
        -0.37300E+03
        -0.37300E+03
        -0.37300E+03
        -0.37300E+03
        -0.37300E+03
        -0.37300E+03
        -0.37300E+03
        -0.37300E+03
        -0.37300E+03
        -0.37300E+03
        -0.37300E+03
        -0.37300E+03
        -0.37300E+03
        -0.37300E+03
        -0.37300E+03
        -0.37300E+03
        -0.37300E+03
        -0.37300E+03
        -0.37300E+03
        -0.37300E+03
        -0.37300E+03
        -0.37300E+03
        -0.37300E+03
        -0.37300E+03
        -0.37300E+03
        -0.37300E+03
        -0.37300E+03
        -0.37300E+03
        -0.37300E+03
        -0.37300E+03
        -0.37300E+03
        -0.37300E+03
        -0.37300E+03
        -0.37300E+03
        -0.37300E+03
        -0.37300E+03
        -0.37300E+03
        -0.37300E+03
        -0.37300E+03
        -0.37300E+03
        -0.37300E+03
        -0.37300E+03
        -0.37300E+03
        -0.37300E+03
        -0.37300E+03
        -0.37300E+03
        -0.37300E+03
        -0.37300E+03
        -0.37300E+03
        -0.37300E+03
        -0.37300E+03
        -0.37300E+03
        -0.37300E+03
        -0.37300E+03
        -0.37300E+03
        -0.37300E+03
        -0.37300E+03
        -0.37300E+03
        -0.37300E+03
        -0.37300E+03
        -0.37300E+03
        -0.37300E+03
        -0.37300E+03
        -0.37300E+03
        -0.37300E+03
        -0.37300E+03
        -0.37300E+03
        -0.37300E+03
        -0.37300E+03
        -0.37300E+03
        -0.37300E+03
        -0.37300E+03
        -0.37300E+03
        -0.37300E+03
        -0.37300E+03
        -0.37300E+03
        -0.37300E+03
        -0.37300E+03
        -0.37300E+03
        -0.37300E+03
        -0.37300E+03
        -0.37300E+03
        -0.37300E+03
        -0.37300E+03
        -0.37300E+03
        -0.37300E+03
        -0.37300E+03
        -0.37300E+03
        -0.37300E+03
        -0.37300E+03
        -0.37300E+03
        -0.37300E+03
        -0.37300E+03
        -0.37300E+03
        -0.37300E+03
        -0.37300E+03
        -0.37300E+03
        -0.37300E+03
        -0.37300E+03
        -0.37300E+03
        -0.37300E+03
        -0.37300E+03
        -0.37300E+03
        -0.37300E+03
        -0.37300E+03
        -0.37300E+03
        -0.37300E+03
        -0.37300E+03
        -0.37300E+03
        -0.37300E+03
        -0.37300E+03
        -0.37300E+03
        -0.37300E+03
        -0.37300E+03
        -0.37300E+03
        -0.37300E+03
        -0.37300E+03
        -0.37300E+03
        -0.37300E+03
        -0.37300E+03
        -0.37300E+03
        -0.37300E+03
        -0.37300E+03
        -0.37300E+03
        -0.37300E+03
        -0.37300E+03
        -0.37300E+03
        -0.37300E+03
        -0.37300E+03
        -0.37300E+03
        -0.37300E+03
        -0.37300E+03
        -0.37300E+03
        -0.37300E+03
        -0.37300E+03
        -0.37300E+03
        -0.37300E+03
        -0.37300E+03
        -0.37300E+03
        -0.37300E+03
        -0.37300E+03
        -0.37300E+03
        -0.37300E+03
        -0.37300E+03
        -0.37300E+03
        -0.37300E+03
        -0.37300E+03
        -0.37300E+03
        -0.37300E+03
        -0.37300E+03
        -0.37300E+03
        -0.37300E+03
        -0.37300E+03
        -0.37300E+03
        -0.37300E+03
        -0.37300E+03
        -0.37300E+03
        -0.37300E+03
        -0.37300E+03
        -0.37300E+03
        -0.37300E+03
        -0.37300E+03
        -0.37300E+03
        -0.37300E+03
        -0.37300E+03
        -0.37300E+03
        -0.37300E+03
        -0.37300E+03
        -0.37300E+03
        -0.37300E+03
        -0.37300E+03
        -0.37300E+03
        -0.37300E+03
        -0.37300E+03
        -0.37300E+03
        -0.37300E+03
        -0.37300E+03
        -0.37300E+03
        -0.37300E+03
        -0.37300E+03
        -0.37300E+03
        -0.37300E+03
        -0.37300E+03
        -0.37300E+03
        -0.37300E+03
        -0.37300E+03
        -0.37300E+03
        -0.37300E+03
        -0.37300E+03
        -0.37300E+03
        -0.37300E+03
        -0.37300E+03
        -0.37300E+03
        -0.37300E+03
        -0.37300E+03
        -0.37300E+03
        -0.37300E+03
        -0.37300E+03
        -0.37300E+03
        -0.37300E+03
        -0.37300E+03
        -0.37300E+03
        -0.37300E+03
        -0.37300E+03
        -0.37300E+03
        -0.37300E+03
        -0.37300E+03
        -0.37300E+03
        -0.37300E+03
        -0.37300E+03
        -0.37300E+03
        -0.37300E+03
        -0.37300E+03
        -0.37300E+03
        -0.37300E+03
        -0.37300E+03
        -0.37300E+03
        -0.37300E+03
        -0.37300E+03
        -0.37300E+03
        -0.37300E+03
        -0.37300E+03
        -0.37300E+03
        -0.37300E+03
        -0.37300E+03
        -0.37300E+03
        -0.37300E+03
        -0.37300E+03
        -0.37300E+03
        -0.37300E+03
        -0.37300E+03
        -0.37300E+03
        -0.37300E+03
        -0.37300E+03
        -0.37300E+03
        -0.37300E+03
        -0.37300E+03
        -0.37300E+03
        -0.37300E+03
        -0.37300E+03
        -0.37300E+03
        -0.37300E+03
        -0.37300E+03
        -0.37300E+03
        -0.37300E+03
        -0.37300E+03
        -0.37300E+03
        -0.37300E+03
        -0.37300E+03
        -0.37300E+03
        -0.37300E+03
        -0.37300E+03
        -0.37300E+03
        -0.37300E+03
        -0.37300E+03
        -0.37300E+03
        -0.37300E+03
        -0.37300E+03
        -0.37300E+03
        -0.37300E+03
        -0.37300E+03
        -0.37300E+03
        -0.37300E+03
        -0.37300E+03
        -0.37300E+03
        -0.37300E+03
        -0.37300E+03
        -0.37300E+03
        -0.37300E+03
        -0.37300E+03
        -0.37300E+03
        -0.37300E+03
        -0.37300E+03
        -0.37300E+03
        -0.37300E+03
        -0.37300E+03
        -0.37300E+03
        -0.37300E+03
        -0.37300E+03
        -0.37300E+03
        -0.37300E+03
        -0.37300E+03
        -0.37300E+03
        -0.37300E+03
        -0.37300E+03
        -0.37300E+03
        -0.37300E+03
        -0.37300E+03
        -0.37300E+03
        -0.37300E+03
        -0.37300E+03
        -0.37300E+03
        -0.37300E+03
        -0.37300E+03
        -0.37300E+03
        -0.37300E+03
        -0.37300E+03
        -0.37300E+03
        -0.37300E+03
        -0.37300E+03
        -0.37300E+03
        -0.37300E+03
        -0.37300E+03
        -0.37300E+03
        -0.37300E+03
        -0.37300E+03
        -0.37300E+03
        -0.37300E+03
        -0.37300E+03
        -0.37300E+03
        -0.37300E+03
        -0.37300E+03
        -0.37300E+03
        -0.37300E+03
        -0.37300E+03
        -0.37300E+03
        -0.37300E+03
        -0.37300E+03
        -0.37300E+03
        -0.37300E+03
        -0.37300E+03
        -0.37300E+03
        -0.37300E+03
        -0.37300E+03
        -0.37300E+03
        -0.37300E+03
        -0.37300E+03
        -0.37300E+03
        -0.37300E+03
        -0.37300E+03
        -0.37300E+03
        -0.37300E+03
        -0.37300E+03
        -0.37300E+03
        -0.37300E+03
        -0.37300E+03
        -0.37300E+03
        -0.37300E+03
        -0.37300E+03
        -0.37300E+03
        -0.37300E+03
        -0.37300E+03
        -0.37300E+03
        -0.37300E+03
        -0.37300E+03
        -0.37300E+03
        -0.37300E+03
        -0.37300E+03
        -0.37300E+03
        -0.37300E+03
        -0.37300E+03
        -0.37300E+03
        -0.37300E+03
        -0.37300E+03
        -0.37300E+03
        -0.37300E+03
        -0.37300E+03
        -0.37300E+03
        -0.37300E+03
        -0.37300E+03
        -0.37300E+03
        -0.37300E+03
        -0.37300E+03
        -0.37300E+03
        -0.37300E+03
        -0.37300E+03
        -0.37300E+03
        -0.37300E+03
        -0.37300E+03
        -0.37300E+03
        -0.37300E+03
        -0.37300E+03
        -0.37300E+03
        -0.37300E+03
        -0.37300E+03
        -0.37300E+03
        -0.37300E+03
        -0.37300E+03
        -0.37300E+03
        -0.37300E+03
        -0.37300E+03
        -0.37300E+03
        -0.37300E+03
        -0.37300E+03
        -0.37300E+03
        -0.37300E+03
        -0.37300E+03
        -0.37300E+03
        -0.37300E+03
        -0.37300E+03
        -0.37300E+03
        -0.37300E+03
        -0.37300E+03
        -0.37300E+03
        -0.37300E+03
        -0.37300E+03
        -0.37300E+03
        -0.37300E+03
        -0.37300E+03
        -0.37300E+03
        -0.37300E+03
        -0.37300E+03
        -0.37300E+03
        -0.37300E+03
        -0.37300E+03
        -0.37300E+03
        -0.37300E+03
        -0.37300E+03
        -0.37300E+03
        -0.37300E+03
        -0.37300E+03
        -0.37300E+03
        -0.37300E+03
        -0.37300E+03
        -0.37300E+03
        -0.37300E+03
        -0.37300E+03
        -0.37300E+03
        -0.37300E+03
        -0.37300E+03
        -0.37300E+03
        -0.37300E+03
        -0.37300E+03
        -0.37300E+03
        -0.37300E+03
        -0.37300E+03
        -0.37300E+03
        -0.37300E+03
        -0.37300E+03
        -0.37300E+03
        -0.37300E+03
        -0.37300E+03
        -0.37300E+03
        -0.37300E+03
        -0.37300E+03
        -0.37300E+03
        -0.37300E+03
        -0.37300E+03
        -0.37300E+03
        -0.37300E+03
        -0.37300E+03
        -0.37300E+03
        -0.37300E+03
        -0.37300E+03
        -0.37300E+03
        -0.37300E+03
        -0.37300E+03
        -0.37300E+03
        -0.37300E+03
        -0.37300E+03
        -0.37300E+03
        -0.37300E+03
        -0.37300E+03
        -0.37300E+03
        -0.37300E+03
        -0.37300E+03
        -0.37300E+03
        -0.37300E+03
        -0.37300E+03
        -0.37300E+03
        -0.37300E+03
        -0.37300E+03
        -0.37300E+03
        -0.37300E+03
        -0.37300E+03
        -0.37300E+03
        -0.37300E+03
        -0.37300E+03
        -0.37300E+03
        -0.37300E+03
        -0.37300E+03
        -0.37300E+03
        -0.37300E+03
        -0.37300E+03
        -0.37300E+03
        -0.37300E+03
        -0.37300E+03
        -0.37300E+03
        -0.37300E+03
        -0.37300E+03
        -0.37300E+03
        -0.37300E+03
        -0.37300E+03
        -0.37300E+03
        -0.37300E+03
        -0.37300E+03
        -0.37300E+03
        -0.37300E+03
        -0.37300E+03
        -0.37300E+03
        -0.37300E+03
        -0.37300E+03
        -0.37300E+03
        -0.37300E+03
        -0.37300E+03
        -0.37300E+03
        -0.37300E+03
        -0.37300E+03
        -0.37300E+03
        -0.37300E+03
        -0.37300E+03
        -0.37300E+03
        -0.37300E+03
        -0.37300E+03
        -0.37300E+03
        -0.37300E+03
        -0.37300E+03
        -0.37300E+03
        -0.37300E+03
        -0.37300E+03
        -0.37300E+03
        -0.37300E+03
        -0.37300E+03
        -0.37300E+03
        -0.37300E+03
        -0.37300E+03
        -0.37300E+03
        -0.37300E+03
        -0.37300E+03
        -0.37300E+03
        -0.37300E+03
        -0.37300E+03
        -0.37300E+03
        -0.37300E+03
        -0.37300E+03
        -0.37300E+03
        -0.37300E+03
        -0.37300E+03
        -0.37300E+03
        -0.37300E+03
        -0.37300E+03
        -0.37300E+03
        -0.37300E+03
        -0.37300E+03
        -0.37300E+03
        -0.37300E+03
        -0.37300E+03
        -0.37300E+03
        -0.37300E+03
        -0.37300E+03
        -0.37300E+03
        -0.37300E+03
        -0.37300E+03
        -0.37300E+03
        -0.37300E+03
        -0.37300E+03
        -0.37300E+03
        -0.37300E+03
        -0.37300E+03
        -0.37300E+03
        -0.37300E+03
        -0.37300E+03
        -0.37300E+03
        -0.37300E+03
        -0.37300E+03
        -0.37300E+03
        -0.37300E+03
        -0.37300E+03
        -0.37300E+03
        -0.37300E+03
        -0.37300E+03
        -0.37300E+03
        -0.37300E+03
        -0.37300E+03
        -0.37300E+03
        -0.37300E+03
        -0.37300E+03
        -0.37300E+03
        -0.37300E+03
        -0.37300E+03
        -0.37300E+03
        -0.37300E+03
        -0.37300E+03
        -0.37300E+03
        -0.37300E+03
        -0.37300E+03
        -0.37300E+03
        -0.37300E+03
        -0.37300E+03
        -0.37300E+03
        -0.37300E+03
        -0.37300E+03
        -0.37300E+03
        -0.37300E+03
        -0.37300E+03
        -0.37300E+03
        -0.37300E+03
        -0.37300E+03
        -0.37300E+03
        -0.37300E+03
        -0.37300E+03
        -0.37300E+03
        -0.37300E+03
        -0.37300E+03
        -0.37300E+03
        -0.37300E+03
        -0.37300E+03
        -0.37300E+03
        -0.37300E+03
        -0.37300E+03
        -0.37300E+03
        -0.37300E+03
        -0.37300E+03
        -0.37300E+03
        -0.37300E+03
        -0.37300E+03
        -0.37300E+03
        -0.37300E+03
        -0.37300E+03
        -0.37300E+03
        -0.37300E+03
        -0.37300E+03
        -0.37300E+03
        -0.37300E+03
        -0.37300E+03
        -0.37300E+03
        -0.37300E+03
        -0.37300E+03
        -0.37300E+03
        -0.37300E+03
        -0.37300E+03
        -0.37300E+03
        -0.37300E+03
        -0.37300E+03
        -0.37300E+03
        -0.37300E+03
        -0.37300E+03
        -0.37300E+03
        -0.37300E+03
        -0.37300E+03
        -0.37300E+03
        -0.37300E+03
        -0.37300E+03
        -0.37300E+03
        -0.37300E+03
        -0.37300E+03
        -0.37300E+03
        -0.37300E+03
        -0.37300E+03
        -0.37300E+03
        -0.37300E+03
        -0.37300E+03
        -0.37300E+03
        -0.37300E+03
        -0.37300E+03
        -0.37300E+03
        -0.37300E+03
        -0.37300E+03
        -0.37300E+03
        -0.37300E+03
        -0.37300E+03
        -0.37300E+03
        -0.37300E+03
        -0.37300E+03
        -0.37300E+03
        -0.37300E+03
        -0.37300E+03
        -0.37300E+03
        -0.37300E+03
        -0.37300E+03
        -0.37300E+03
        -0.37300E+03
        -0.37300E+03
        -0.37300E+03
        -0.37300E+03
        -0.37300E+03
        -0.37300E+03
        -0.37300E+03
        -0.37300E+03
        -0.37300E+03
        -0.37300E+03
        -0.37300E+03
        -0.37300E+03
        -0.37300E+03
        -0.37300E+03
        -0.37300E+03
        -0.37300E+03
        -0.37300E+03
        -0.37300E+03
        -0.37300E+03
        -0.37300E+03
        -0.37300E+03
        -0.37300E+03
        -0.37300E+03
        -0.37300E+03
        -0.37300E+03
        -0.37300E+03
        -0.37300E+03
        -0.37300E+03
        -0.37300E+03
        -0.37300E+03
        -0.37300E+03
        -0.37300E+03
        -0.37300E+03
        -0.37300E+03
        -0.37300E+03
        -0.37300E+03
        -0.37300E+03
        -0.37300E+03
        -0.37300E+03
        -0.37300E+03
        -0.37300E+03
        -0.37300E+03
        -0.37300E+03
        -0.37300E+03
        -0.37300E+03
        -0.37300E+03
        -0.37300E+03
        -0.37300E+03
        -0.37300E+03
        -0.37300E+03
        -0.37300E+03
        -0.37300E+03
        -0.37300E+03
        -0.37300E+03
        -0.37300E+03
        -0.37300E+03
        -0.37300E+03
        -0.37300E+03
        -0.37300E+03
        -0.37300E+03
        -0.37300E+03
        -0.37300E+03
        -0.37300E+03
        -0.37300E+03
        -0.37300E+03
        -0.37300E+03
        -0.37300E+03
        -0.37300E+03
        -0.37300E+03
        -0.37300E+03
        -0.37300E+03
        -0.37300E+03
        -0.37300E+03
        -0.37300E+03
        -0.37300E+03
        -0.37300E+03
        -0.37300E+03
        -0.37300E+03
        -0.37300E+03
        -0.37300E+03
        -0.37300E+03
        -0.37300E+03
        -0.37300E+03
        -0.37300E+03
        -0.37300E+03
        -0.37300E+03
        -0.37300E+03
        -0.37300E+03
        -0.37300E+03
        -0.37300E+03
        -0.37300E+03
        -0.37300E+03
        -0.37300E+03
        -0.37300E+03
        -0.37300E+03
        -0.37300E+03
        -0.37300E+03
        -0.37300E+03
        -0.37300E+03
        -0.37300E+03
        -0.37300E+03
        -0.37300E+03
        -0.37300E+03
        -0.37300E+03
        -0.37300E+03
        -0.37300E+03
        -0.37300E+03
        -0.37300E+03
        -0.37300E+03
        -0.37300E+03
        -0.37300E+03
        -0.37300E+03
        -0.37300E+03
        -0.37300E+03
        -0.37300E+03
        -0.37300E+03
        -0.37300E+03
        -0.37300E+03
        -0.37300E+03
        -0.37300E+03
        -0.37300E+03
        -0.37300E+03
        -0.37300E+03
        -0.37300E+03
        -0.37300E+03
        -0.37300E+03
        -0.37300E+03
        -0.37300E+03
        -0.37300E+03
        -0.37300E+03
        -0.37300E+03
        -0.37300E+03
        -0.37300E+03
        -0.37300E+03
        -0.37300E+03
        -0.37300E+03
        -0.37300E+03
        -0.37300E+03
        -0.37300E+03
        -0.37300E+03
        -0.37300E+03
        -0.37300E+03
        -0.37300E+03
        -0.37300E+03
        -0.37300E+03
        -0.37300E+03
        -0.37300E+03
        -0.37300E+03
        -0.37300E+03
        -0.37300E+03
        -0.37300E+03
        -0.37300E+03
        -0.37300E+03
        -0.37300E+03
        -0.37300E+03
        -0.37300E+03
        -0.37300E+03
        -0.37300E+03
        -0.37300E+03
        -0.37300E+03
        -0.37300E+03
        -0.37300E+03
        -0.37300E+03
        -0.37300E+03
        -0.37300E+03
        -0.37300E+03
        -0.37300E+03
        -0.37300E+03
        -0.37300E+03
        -0.37300E+03
        -0.37300E+03
        -0.37300E+03
        -0.37300E+03
        -0.37300E+03
        -0.37300E+03
        -0.37300E+03
        -0.37300E+03
        -0.37300E+03
        -0.37300E+03
        -0.37300E+03
        -0.37300E+03
        -0.37300E+03
        -0.37300E+03
        -0.37300E+03
        -0.37300E+03
        -0.37300E+03
        -0.37300E+03
        -0.37300E+03
        -0.37300E+03
        -0.37300E+03
        -0.37300E+03
        -0.37300E+03
        -0.37300E+03
        -0.37300E+03
        -0.37300E+03
        -0.37300E+03
        -0.37300E+03
        -0.37300E+03
        -0.37300E+03
        -0.37300E+03
        -0.37300E+03
        -0.37300E+03
        -0.37300E+03
        -0.37300E+03
        -0.37300E+03
        -0.37300E+03
        -0.37300E+03
        -0.37300E+03
        -0.37300E+03
        -0.37300E+03
        -0.37300E+03
        -0.37300E+03
        -0.37300E+03
        -0.37300E+03
        -0.37300E+03
        -0.37300E+03
        -0.37300E+03
        -0.37300E+03
        -0.37300E+03
        -0.37300E+03
        -0.37300E+03
        -0.37300E+03
        -0.37300E+03
        -0.37300E+03
        -0.37300E+03
        -0.37300E+03
        -0.37300E+03
        -0.37300E+03
        -0.37300E+03
        -0.37300E+03
        -0.37300E+03
        -0.37300E+03
        -0.37300E+03
        -0.37300E+03
        -0.37300E+03
        -0.37300E+03
        -0.37300E+03
        -0.37300E+03
        -0.37300E+03
        -0.37300E+03
        -0.37300E+03
        -0.37300E+03
        -0.37300E+03
        -0.37300E+03
        -0.37300E+03
        -0.37300E+03
        -0.37300E+03
        -0.37300E+03
        -0.37300E+03
        -0.37300E+03
        -0.37300E+03
        -0.37300E+03
        -0.37300E+03
        -0.37300E+03
        -0.37300E+03
        -0.37300E+03
        -0.37300E+03
        -0.37300E+03
        -0.37300E+03
        -0.37300E+03
        -0.37300E+03
        -0.37300E+03
        -0.37300E+03
        -0.37300E+03
        -0.37300E+03
        -0.37300E+03
        -0.37300E+03
        -0.37300E+03
        -0.37300E+03
        -0.37300E+03
        -0.37300E+03
        -0.37300E+03
        -0.37300E+03
        -0.37300E+03
        -0.37300E+03
        -0.37300E+03
        -0.37300E+03
        -0.37300E+03
        -0.37300E+03
        -0.37300E+03
        -0.37300E+03
        -0.37300E+03
        -0.37300E+03
        -0.37300E+03
        -0.37300E+03
        -0.37300E+03
        -0.37300E+03
        -0.37300E+03
        -0.37300E+03
        -0.37300E+03
        -0.37300E+03
        -0.37300E+03
        -0.37300E+03
        -0.37300E+03
        -0.37300E+03
        -0.37300E+03
        -0.37300E+03
        -0.37300E+03
        -0.37300E+03
        -0.37300E+03
        -0.37300E+03
        -0.37300E+03
        -0.37300E+03
        -0.37300E+03
        -0.37300E+03
        -0.37300E+03
        -0.37300E+03
        -0.37300E+03
        -0.37300E+03
        -0.37300E+03
        -0.37300E+03
        -0.37300E+03
        -0.37300E+03
        -0.37300E+03
        -0.37300E+03
  
SCALARS              normalized_window  double 1
LOOKUP_TABLE default
         0.27500E+01
         0.27500E+01
         0.27500E+01
         0.27500E+01
         0.27500E+01
         0.27500E+01
         0.27500E+01
         0.27500E+01
         0.27500E+01
         0.27500E+01
         0.27500E+01
         0.27500E+01
         0.27500E+01
         0.27500E+01
         0.27500E+01
         0.27500E+01
         0.27500E+01
         0.27500E+01
         0.27500E+01
         0.27500E+01
         0.27500E+01
         0.27500E+01
         0.27500E+01
         0.27500E+01
         0.27500E+01
         0.27500E+01
         0.27500E+01
         0.27500E+01
         0.27500E+01
         0.27500E+01
         0.27500E+01
         0.27500E+01
         0.27500E+01
         0.27500E+01
         0.27500E+01
         0.27500E+01
         0.27500E+01
         0.27500E+01
         0.27500E+01
         0.27500E+01
         0.27500E+01
         0.27500E+01
         0.27500E+01
         0.27500E+01
         0.27500E+01
         0.27500E+01
         0.27500E+01
         0.27500E+01
         0.27500E+01
         0.27500E+01
         0.27500E+01
         0.27500E+01
         0.27500E+01
         0.27500E+01
         0.27500E+01
         0.27500E+01
         0.27500E+01
         0.27500E+01
         0.27500E+01
         0.27500E+01
         0.27500E+01
         0.27500E+01
         0.27500E+01
         0.27500E+01
         0.27500E+01
         0.27500E+01
         0.27500E+01
         0.27500E+01
         0.27500E+01
         0.27500E+01
         0.27500E+01
         0.27500E+01
         0.27500E+01
         0.27500E+01
         0.27500E+01
         0.27500E+01
         0.27500E+01
         0.27500E+01
         0.27500E+01
         0.27500E+01
         0.27500E+01
         0.27500E+01
         0.27500E+01
         0.27500E+01
         0.27500E+01
         0.27500E+01
         0.27500E+01
         0.27500E+01
         0.27500E+01
         0.27500E+01
         0.27500E+01
         0.27500E+01
         0.27500E+01
         0.27500E+01
         0.27500E+01
         0.27500E+01
         0.27500E+01
         0.27500E+01
         0.27500E+01
         0.27500E+01
         0.27500E+01
         0.27500E+01
         0.27500E+01
         0.27500E+01
         0.27500E+01
         0.27500E+01
         0.27500E+01
         0.27500E+01
         0.27500E+01
         0.27500E+01
         0.27500E+01
         0.27500E+01
         0.27500E+01
         0.27500E+01
         0.27500E+01
         0.27500E+01
         0.27500E+01
         0.27500E+01
         0.27500E+01
         0.27500E+01
         0.27500E+01
         0.27500E+01
         0.27500E+01
         0.27500E+01
         0.27500E+01
         0.27500E+01
         0.27500E+01
         0.27500E+01
         0.27500E+01
         0.27500E+01
         0.27500E+01
         0.27500E+01
         0.27500E+01
         0.27500E+01
         0.27500E+01
         0.27500E+01
         0.27500E+01
         0.27500E+01
         0.27500E+01
         0.27500E+01
         0.27500E+01
         0.27500E+01
         0.27500E+01
         0.27500E+01
         0.27500E+01
         0.27500E+01
         0.27500E+01
         0.27500E+01
         0.27500E+01
         0.27500E+01
         0.27500E+01
         0.27500E+01
         0.27500E+01
         0.27500E+01
         0.27500E+01
         0.27500E+01
         0.27500E+01
         0.27500E+01
         0.27500E+01
         0.27500E+01
         0.27500E+01
         0.27500E+01
         0.27500E+01
         0.27500E+01
         0.27500E+01
         0.27500E+01
         0.27500E+01
         0.27500E+01
         0.27500E+01
         0.27500E+01
         0.27500E+01
         0.27500E+01
         0.27500E+01
         0.27500E+01
         0.27500E+01
         0.27500E+01
         0.27500E+01
         0.27500E+01
         0.27500E+01
         0.27500E+01
         0.27500E+01
         0.27500E+01
         0.27500E+01
         0.27500E+01
         0.27500E+01
         0.27500E+01
         0.27500E+01
         0.27500E+01
         0.27500E+01
         0.27500E+01
         0.27500E+01
         0.27500E+01
         0.27500E+01
         0.27500E+01
         0.27500E+01
         0.27500E+01
         0.27500E+01
         0.27500E+01
         0.27500E+01
         0.27500E+01
         0.27500E+01
         0.27500E+01
         0.27500E+01
         0.27500E+01
         0.27500E+01
         0.27500E+01
         0.27500E+01
         0.27500E+01
         0.27500E+01
         0.27500E+01
         0.27500E+01
         0.27500E+01
         0.27500E+01
         0.27500E+01
         0.27500E+01
         0.27500E+01
         0.27500E+01
         0.27500E+01
         0.27500E+01
         0.27500E+01
         0.27500E+01
         0.27500E+01
         0.27500E+01
         0.27500E+01
         0.27500E+01
         0.27500E+01
         0.27500E+01
         0.27500E+01
         0.27500E+01
         0.27500E+01
         0.27500E+01
         0.27500E+01
         0.27500E+01
         0.27500E+01
         0.27500E+01
         0.27500E+01
         0.27500E+01
         0.27500E+01
         0.27500E+01
         0.27500E+01
         0.27500E+01
         0.27500E+01
         0.27500E+01
         0.27500E+01
         0.27500E+01
         0.27500E+01
         0.27500E+01
         0.27500E+01
         0.27500E+01
         0.27500E+01
         0.27500E+01
         0.27500E+01
         0.27500E+01
         0.27500E+01
         0.27500E+01
         0.27500E+01
         0.27500E+01
         0.27500E+01
         0.27500E+01
         0.27500E+01
         0.27500E+01
         0.27500E+01
         0.27500E+01
         0.27500E+01
         0.27500E+01
         0.27500E+01
         0.27500E+01
         0.27500E+01
         0.27500E+01
         0.27500E+01
         0.27500E+01
         0.27500E+01
         0.27500E+01
         0.27500E+01
         0.27500E+01
         0.27500E+01
         0.27500E+01
         0.27500E+01
         0.27500E+01
         0.27500E+01
         0.27500E+01
         0.27500E+01
         0.27500E+01
         0.27500E+01
         0.27500E+01
         0.27500E+01
         0.27500E+01
         0.27500E+01
         0.27500E+01
         0.27500E+01
         0.27500E+01
         0.27500E+01
         0.27500E+01
         0.27500E+01
         0.27500E+01
         0.27500E+01
         0.27500E+01
         0.27500E+01
         0.27500E+01
         0.27500E+01
         0.27500E+01
         0.27500E+01
         0.27500E+01
         0.27500E+01
         0.27500E+01
         0.27500E+01
         0.27500E+01
         0.27500E+01
         0.27500E+01
         0.27500E+01
         0.27500E+01
         0.27500E+01
         0.27500E+01
         0.27500E+01
         0.27500E+01
         0.27500E+01
         0.27500E+01
         0.27500E+01
         0.27500E+01
         0.27500E+01
         0.27500E+01
         0.27500E+01
         0.27500E+01
         0.27500E+01
         0.27500E+01
         0.27500E+01
         0.27500E+01
         0.27500E+01
         0.27500E+01
         0.27500E+01
         0.27500E+01
         0.27500E+01
         0.27500E+01
         0.27500E+01
         0.27500E+01
         0.27500E+01
         0.27500E+01
         0.27500E+01
         0.27500E+01
         0.27500E+01
         0.27500E+01
         0.27500E+01
         0.27500E+01
         0.27500E+01
         0.27500E+01
         0.27500E+01
         0.27500E+01
         0.27500E+01
         0.27500E+01
         0.27500E+01
         0.27500E+01
         0.27500E+01
         0.27500E+01
         0.27500E+01
         0.27500E+01
         0.27500E+01
         0.27500E+01
         0.27500E+01
         0.27500E+01
         0.27500E+01
         0.27500E+01
         0.27500E+01
         0.27500E+01
         0.27500E+01
         0.27500E+01
         0.27500E+01
         0.27500E+01
         0.27500E+01
         0.27500E+01
         0.27500E+01
         0.27500E+01
         0.27500E+01
         0.27500E+01
         0.27500E+01
         0.27500E+01
         0.27500E+01
         0.27500E+01
         0.27500E+01
         0.27500E+01
         0.27500E+01
         0.27500E+01
         0.27500E+01
         0.27500E+01
         0.27500E+01
         0.27500E+01
         0.27500E+01
         0.27500E+01
         0.27500E+01
         0.27500E+01
         0.27500E+01
         0.27500E+01
         0.27500E+01
         0.27500E+01
         0.27500E+01
         0.27500E+01
         0.27500E+01
         0.27500E+01
         0.27500E+01
         0.27500E+01
         0.27500E+01
         0.27500E+01
         0.27500E+01
         0.27500E+01
         0.27500E+01
         0.27500E+01
         0.27500E+01
         0.27500E+01
         0.27500E+01
         0.27500E+01
         0.27500E+01
         0.27500E+01
         0.27500E+01
         0.27500E+01
         0.27500E+01
         0.27500E+01
         0.27500E+01
         0.27500E+01
         0.27500E+01
         0.27500E+01
         0.27500E+01
         0.27500E+01
         0.27500E+01
         0.27500E+01
         0.27500E+01
         0.27500E+01
         0.27500E+01
         0.27500E+01
         0.27500E+01
         0.27500E+01
         0.27500E+01
         0.27500E+01
         0.27500E+01
         0.27500E+01
         0.27500E+01
         0.27500E+01
         0.27500E+01
         0.27500E+01
         0.27500E+01
         0.27500E+01
         0.27500E+01
         0.27500E+01
         0.27500E+01
         0.27500E+01
         0.27500E+01
         0.27500E+01
         0.27500E+01
         0.27500E+01
         0.27500E+01
         0.27500E+01
         0.27500E+01
         0.27500E+01
         0.27500E+01
         0.27500E+01
         0.27500E+01
         0.27500E+01
         0.27500E+01
         0.27500E+01
         0.27500E+01
         0.27500E+01
         0.27500E+01
         0.27500E+01
         0.27500E+01
         0.27500E+01
         0.27500E+01
         0.27500E+01
         0.27500E+01
         0.27500E+01
         0.27500E+01
         0.27500E+01
         0.27500E+01
         0.27500E+01
         0.27500E+01
         0.27500E+01
         0.27500E+01
         0.27500E+01
         0.27500E+01
         0.27500E+01
         0.27500E+01
         0.27500E+01
         0.27500E+01
         0.27500E+01
         0.27500E+01
         0.27500E+01
         0.27500E+01
         0.27500E+01
         0.27500E+01
         0.27500E+01
         0.27500E+01
         0.27500E+01
         0.27500E+01
         0.27500E+01
         0.27500E+01
         0.27500E+01
         0.27500E+01
         0.27500E+01
         0.27500E+01
         0.27500E+01
         0.27500E+01
         0.27500E+01
         0.27500E+01
         0.27500E+01
         0.27500E+01
         0.27500E+01
         0.27500E+01
         0.27500E+01
         0.27500E+01
         0.27500E+01
         0.27500E+01
         0.27500E+01
         0.27500E+01
         0.27500E+01
         0.27500E+01
         0.27500E+01
         0.27500E+01
         0.27500E+01
         0.27500E+01
         0.27500E+01
         0.27500E+01
         0.27500E+01
         0.27500E+01
         0.27500E+01
         0.27500E+01
         0.27500E+01
         0.27500E+01
         0.27500E+01
         0.27500E+01
         0.27500E+01
         0.27500E+01
         0.27500E+01
         0.27500E+01
         0.27500E+01
         0.27500E+01
         0.27500E+01
         0.27500E+01
         0.27500E+01
         0.27500E+01
         0.27500E+01
         0.27500E+01
         0.27500E+01
         0.27500E+01
         0.27500E+01
         0.27500E+01
         0.27500E+01
         0.27500E+01
         0.27500E+01
         0.27500E+01
         0.27500E+01
         0.27500E+01
         0.27500E+01
         0.27500E+01
         0.27500E+01
         0.27500E+01
         0.27500E+01
         0.27500E+01
         0.27500E+01
         0.27500E+01
         0.27500E+01
         0.27500E+01
         0.27500E+01
         0.27500E+01
         0.27500E+01
         0.27500E+01
         0.27500E+01
         0.27500E+01
         0.27500E+01
         0.27500E+01
         0.27500E+01
         0.27500E+01
         0.27500E+01
         0.27500E+01
         0.27500E+01
         0.27500E+01
         0.27500E+01
         0.27500E+01
         0.27500E+01
         0.27500E+01
         0.27500E+01
         0.27500E+01
         0.27500E+01
         0.27500E+01
         0.27500E+01
         0.27500E+01
         0.27500E+01
         0.27500E+01
         0.27500E+01
         0.27500E+01
         0.27500E+01
         0.27500E+01
         0.27500E+01
         0.27500E+01
         0.27500E+01
         0.27500E+01
         0.27500E+01
         0.27500E+01
         0.27500E+01
         0.27500E+01
         0.27500E+01
         0.27500E+01
         0.27500E+01
         0.27500E+01
         0.27500E+01
         0.27500E+01
         0.27500E+01
         0.27500E+01
         0.27500E+01
         0.27500E+01
         0.27500E+01
         0.27500E+01
         0.27500E+01
         0.27500E+01
         0.27500E+01
         0.27500E+01
         0.27500E+01
         0.27500E+01
         0.27500E+01
         0.27500E+01
         0.27500E+01
         0.27500E+01
         0.27500E+01
         0.27500E+01
         0.27500E+01
         0.27500E+01
         0.27500E+01
         0.27500E+01
         0.27500E+01
         0.27500E+01
         0.27500E+01
         0.27500E+01
         0.27500E+01
         0.27500E+01
         0.27500E+01
         0.27500E+01
         0.27500E+01
         0.27500E+01
         0.27500E+01
         0.27500E+01
         0.27500E+01
         0.27500E+01
         0.27500E+01
         0.27500E+01
         0.27500E+01
         0.27500E+01
         0.27500E+01
         0.27500E+01
         0.27500E+01
         0.27500E+01
         0.27500E+01
         0.27500E+01
         0.27500E+01
         0.27500E+01
         0.27500E+01
         0.27500E+01
         0.27500E+01
         0.27500E+01
         0.27500E+01
         0.27500E+01
         0.27500E+01
         0.27500E+01
         0.27500E+01
         0.27500E+01
         0.27500E+01
         0.27500E+01
         0.27500E+01
         0.27500E+01
         0.27500E+01
         0.27500E+01
         0.27500E+01
         0.27500E+01
         0.27500E+01
         0.27500E+01
         0.27500E+01
         0.27500E+01
         0.27500E+01
         0.27500E+01
         0.27500E+01
         0.27500E+01
         0.27500E+01
         0.27500E+01
         0.27500E+01
         0.27500E+01
         0.27500E+01
         0.27500E+01
         0.27500E+01
         0.27500E+01
         0.27500E+01
         0.27500E+01
         0.27500E+01
         0.27500E+01
         0.27500E+01
         0.27500E+01
         0.27500E+01
         0.27500E+01
         0.27500E+01
         0.27500E+01
         0.27500E+01
         0.27500E+01
         0.27500E+01
         0.27500E+01
         0.27500E+01
         0.27500E+01
         0.27500E+01
         0.27500E+01
         0.27500E+01
         0.27500E+01
         0.27500E+01
         0.27500E+01
         0.27500E+01
         0.27500E+01
         0.27500E+01
         0.27500E+01
         0.27500E+01
         0.27500E+01
         0.27500E+01
         0.27500E+01
         0.27500E+01
         0.27500E+01
         0.27500E+01
         0.27500E+01
         0.27500E+01
         0.27500E+01
         0.27500E+01
         0.27500E+01
         0.27500E+01
         0.27500E+01
         0.27500E+01
         0.27500E+01
         0.27500E+01
         0.27500E+01
         0.27500E+01
         0.27500E+01
         0.27500E+01
         0.27500E+01
         0.27500E+01
         0.27500E+01
         0.27500E+01
         0.27500E+01
         0.27500E+01
         0.27500E+01
         0.27500E+01
         0.27500E+01
         0.27500E+01
         0.27500E+01
         0.27500E+01
         0.27500E+01
         0.27500E+01
         0.27500E+01
         0.27500E+01
         0.27500E+01
         0.27500E+01
         0.27500E+01
         0.27500E+01
         0.27500E+01
         0.27500E+01
         0.27500E+01
         0.27500E+01
         0.27500E+01
         0.27500E+01
         0.27500E+01
         0.27500E+01
         0.27500E+01
         0.27500E+01
         0.27500E+01
         0.27500E+01
         0.27500E+01
         0.27500E+01
         0.27500E+01
         0.27500E+01
         0.27500E+01
         0.27500E+01
         0.27500E+01
         0.27500E+01
         0.27500E+01
         0.27500E+01
         0.27500E+01
         0.27500E+01
         0.27500E+01
         0.27500E+01
         0.27500E+01
         0.27500E+01
         0.27500E+01
         0.27500E+01
         0.27500E+01
         0.27500E+01
         0.27500E+01
         0.27500E+01
         0.27500E+01
         0.27500E+01
         0.27500E+01
         0.27500E+01
         0.27500E+01
         0.27500E+01
         0.27500E+01
         0.27500E+01
         0.27500E+01
         0.27500E+01
         0.27500E+01
         0.27500E+01
         0.27500E+01
         0.27500E+01
         0.27500E+01
         0.27500E+01
         0.27500E+01
         0.27500E+01
         0.27500E+01
         0.27500E+01
         0.27500E+01
         0.27500E+01
         0.27500E+01
         0.27500E+01
         0.27500E+01
         0.27500E+01
         0.27500E+01
         0.27500E+01
         0.27500E+01
         0.27500E+01
         0.27500E+01
         0.27500E+01
         0.27500E+01
         0.27500E+01
         0.27500E+01
         0.27500E+01
         0.27500E+01
         0.27500E+01
         0.27500E+01
         0.27500E+01
         0.27500E+01
         0.27500E+01
         0.27500E+01
         0.27500E+01
         0.27500E+01
         0.27500E+01
         0.27500E+01
         0.27500E+01
         0.27500E+01
         0.27500E+01
         0.27500E+01
         0.27500E+01
         0.27500E+01
         0.27500E+01
         0.27500E+01
         0.27500E+01
         0.27500E+01
         0.27500E+01
         0.27500E+01
         0.27500E+01
         0.27500E+01
         0.27500E+01
         0.27500E+01
         0.27500E+01
         0.27500E+01
         0.27500E+01
         0.27500E+01
         0.27500E+01
         0.27500E+01
         0.27500E+01
         0.27500E+01
         0.27500E+01
         0.27500E+01
         0.27500E+01
         0.27500E+01
         0.27500E+01
         0.27500E+01
         0.27500E+01
         0.27500E+01
         0.27500E+01
         0.27500E+01
         0.27500E+01
         0.27500E+01
         0.27500E+01
         0.27500E+01
         0.27500E+01
         0.27500E+01
         0.27500E+01
         0.27500E+01
         0.27500E+01
         0.27500E+01
         0.27500E+01
         0.27500E+01
         0.27500E+01
         0.27500E+01
         0.27500E+01
         0.27500E+01
         0.27500E+01
         0.27500E+01
         0.27500E+01
         0.27500E+01
         0.27500E+01
         0.27500E+01
         0.27500E+01
         0.27500E+01
         0.27500E+01
         0.27500E+01
         0.27500E+01
         0.27500E+01
         0.27500E+01
         0.27500E+01
         0.27500E+01
         0.27500E+01
         0.27500E+01
         0.27500E+01
         0.27500E+01
         0.27500E+01
         0.27500E+01
         0.27500E+01
         0.27500E+01
         0.27500E+01
         0.27500E+01
         0.27500E+01
         0.27500E+01
         0.27500E+01
         0.27500E+01
         0.27500E+01
         0.27500E+01
         0.27500E+01
         0.27500E+01
         0.27500E+01
         0.27500E+01
         0.27500E+01
         0.27500E+01
         0.27500E+01
         0.27500E+01
         0.27500E+01
         0.27500E+01
         0.27500E+01
         0.27500E+01
         0.27500E+01
         0.27500E+01
         0.27500E+01
         0.27500E+01
         0.27500E+01
         0.27500E+01
         0.27500E+01
         0.27500E+01
         0.27500E+01
         0.27500E+01
         0.27500E+01
         0.27500E+01
         0.27500E+01
         0.27500E+01
         0.27500E+01
         0.27500E+01
         0.27500E+01
         0.27500E+01
         0.27500E+01
         0.27500E+01
         0.27500E+01
         0.27500E+01
         0.27500E+01
         0.27500E+01
         0.27500E+01
         0.27500E+01
         0.27500E+01
         0.27500E+01
         0.27500E+01
         0.27500E+01
         0.27500E+01
         0.27500E+01
         0.27500E+01
         0.27500E+01
         0.27500E+01
         0.27500E+01
         0.27500E+01
         0.27500E+01
         0.27500E+01
         0.27500E+01
         0.27500E+01
         0.27500E+01
         0.27500E+01
         0.27500E+01
         0.27500E+01
         0.27500E+01
         0.27500E+01
         0.27500E+01
         0.27500E+01
         0.27500E+01
         0.27500E+01
         0.27500E+01
         0.27500E+01
         0.27500E+01
         0.27500E+01
         0.27500E+01
         0.27500E+01
         0.27500E+01
         0.27500E+01
         0.27500E+01
         0.27500E+01
         0.27500E+01
         0.27500E+01
         0.27500E+01
         0.27500E+01
         0.27500E+01
         0.27500E+01
         0.27500E+01
         0.27500E+01
         0.27500E+01
         0.27500E+01
         0.27500E+01
         0.27500E+01
         0.27500E+01
         0.27500E+01
         0.27500E+01
         0.27500E+01
         0.27500E+01
         0.27500E+01
         0.27500E+01
         0.27500E+01
         0.27500E+01
         0.27500E+01
         0.27500E+01
         0.27500E+01
         0.27500E+01
         0.27500E+01
         0.27500E+01
         0.27500E+01
         0.27500E+01
         0.27500E+01
         0.27500E+01
         0.27500E+01
         0.27500E+01
         0.27500E+01
         0.27500E+01
         0.27500E+01
         0.27500E+01
         0.27500E+01
         0.27500E+01
         0.27500E+01
         0.27500E+01
         0.27500E+01
         0.27500E+01
         0.27500E+01
         0.27500E+01
         0.27500E+01
         0.27500E+01
         0.27500E+01
         0.27500E+01
         0.27500E+01
         0.27500E+01
         0.27500E+01
         0.27500E+01
         0.27500E+01
         0.27500E+01
         0.27500E+01
         0.27500E+01
         0.27500E+01
         0.27500E+01
         0.27500E+01
         0.27500E+01
         0.27500E+01
         0.27500E+01
         0.27500E+01
         0.27500E+01
         0.27500E+01
         0.27500E+01
         0.27500E+01
         0.27500E+01
         0.27500E+01
         0.27500E+01
         0.27500E+01
         0.27500E+01
         0.27500E+01
         0.27500E+01
         0.27500E+01
         0.27500E+01
         0.27500E+01
         0.27500E+01
         0.27500E+01
         0.27500E+01
         0.27500E+01
         0.27500E+01
         0.27500E+01
         0.27500E+01
         0.27500E+01
         0.27500E+01
         0.27500E+01
         0.27500E+01
         0.27500E+01
         0.27500E+01
         0.27500E+01
         0.27500E+01
         0.27500E+01
         0.27500E+01
         0.27500E+01
         0.27500E+01
         0.27500E+01
         0.27500E+01
         0.27500E+01
         0.27500E+01
         0.27500E+01
         0.27500E+01
         0.27500E+01
         0.27500E+01
         0.27500E+01
         0.27500E+01
         0.27500E+01
         0.27500E+01
         0.27500E+01
         0.27500E+01
         0.27500E+01
         0.27500E+01
         0.27500E+01
         0.27500E+01
         0.27500E+01
         0.27500E+01
         0.27500E+01
         0.27500E+01
         0.27500E+01
         0.27500E+01
         0.27500E+01
         0.27500E+01
         0.27500E+01
         0.27500E+01
         0.27500E+01
         0.27500E+01
         0.27500E+01
         0.27500E+01
         0.27500E+01
         0.27500E+01
         0.27500E+01
         0.27500E+01
         0.27500E+01
         0.27500E+01
         0.27500E+01
         0.27500E+01
         0.27500E+01
         0.27500E+01
         0.27500E+01
         0.27500E+01
         0.27500E+01
         0.27500E+01
         0.27500E+01
         0.27500E+01
         0.27500E+01
         0.27500E+01
         0.27500E+01
         0.27500E+01
         0.27500E+01
         0.27500E+01
         0.27500E+01
         0.27500E+01
         0.27500E+01
         0.27500E+01
         0.27500E+01
         0.27500E+01
         0.27500E+01
         0.27500E+01
         0.27500E+01
         0.27500E+01
         0.27500E+01
         0.27500E+01
         0.27500E+01
         0.27500E+01
         0.27500E+01
         0.27500E+01
         0.27500E+01
         0.27500E+01
         0.27500E+01
         0.27500E+01
         0.27500E+01
         0.27500E+01
         0.27500E+01
         0.27500E+01
         0.27500E+01
         0.27500E+01
         0.27500E+01
         0.27500E+01
         0.27500E+01
         0.27500E+01
         0.27500E+01
         0.27500E+01
         0.27500E+01
         0.27500E+01
         0.27500E+01
         0.27500E+01
         0.27500E+01
         0.27500E+01
         0.27500E+01
         0.27500E+01
         0.27500E+01
         0.27500E+01
         0.27500E+01
         0.27500E+01
         0.27500E+01
         0.27500E+01
         0.27500E+01
         0.27500E+01
         0.27500E+01
         0.27500E+01
         0.27500E+01
         0.27500E+01
         0.27500E+01
         0.27500E+01
         0.27500E+01
         0.27500E+01
         0.27500E+01
         0.27500E+01
         0.27500E+01
         0.27500E+01
         0.27500E+01
         0.27500E+01
         0.27500E+01
         0.27500E+01
         0.27500E+01
         0.27500E+01
         0.27500E+01
         0.27500E+01
         0.27500E+01
         0.27500E+01
         0.27500E+01
         0.27500E+01
         0.27500E+01
         0.27500E+01
         0.27500E+01
         0.27500E+01
         0.27500E+01
         0.27500E+01
         0.27500E+01
         0.27500E+01
         0.27500E+01
         0.27500E+01
         0.27500E+01
         0.27500E+01
         0.27500E+01
         0.27500E+01
         0.27500E+01
         0.27500E+01
         0.27500E+01
         0.27500E+01
         0.27500E+01
         0.27500E+01
         0.27500E+01
         0.27500E+01
         0.27500E+01
         0.27500E+01
         0.27500E+01
         0.27500E+01
         0.27500E+01
         0.27500E+01
         0.27500E+01
         0.27500E+01
         0.27500E+01
         0.27500E+01
         0.27500E+01
         0.27500E+01
         0.27500E+01
         0.27500E+01
         0.27500E+01
         0.27500E+01
         0.27500E+01
         0.27500E+01
         0.27500E+01
         0.27500E+01
         0.27500E+01
         0.27500E+01
         0.27500E+01
         0.27500E+01
         0.27500E+01
         0.27500E+01
         0.27500E+01
         0.27500E+01
         0.27500E+01
         0.27500E+01
         0.27500E+01
         0.27500E+01
         0.27500E+01
         0.27500E+01
         0.27500E+01
         0.27500E+01
         0.27500E+01
         0.27500E+01
         0.27500E+01
         0.27500E+01
         0.27500E+01
         0.27500E+01
         0.27500E+01
         0.27500E+01
         0.27500E+01
         0.27500E+01
         0.27500E+01
         0.27500E+01
         0.27500E+01
         0.27500E+01
         0.27500E+01
         0.27500E+01
         0.27500E+01
         0.27500E+01
         0.27500E+01
         0.27500E+01
         0.27500E+01
         0.27500E+01
         0.27500E+01
         0.27500E+01
         0.27500E+01
         0.27500E+01
         0.27500E+01
         0.27500E+01
         0.27500E+01
         0.27500E+01
         0.27500E+01
         0.27500E+01
         0.27500E+01
         0.27500E+01
         0.27500E+01
         0.27500E+01
         0.27500E+01
         0.27500E+01
         0.27500E+01
         0.27500E+01
         0.27500E+01
         0.27500E+01
         0.27500E+01
         0.27500E+01
         0.27500E+01
         0.27500E+01
         0.27500E+01
         0.27500E+01
         0.27500E+01
         0.27500E+01
         0.27500E+01
         0.27500E+01
         0.27500E+01
         0.27500E+01
         0.27500E+01
         0.27500E+01
         0.27500E+01
         0.27500E+01
         0.27500E+01
         0.27500E+01
         0.27500E+01
         0.27500E+01
         0.27500E+01
         0.27500E+01
         0.27500E+01
         0.27500E+01
         0.27500E+01
         0.27500E+01
         0.27500E+01
         0.27500E+01
         0.27500E+01
         0.27500E+01
         0.27500E+01
         0.27500E+01
         0.27500E+01
         0.27500E+01
         0.27500E+01
         0.27500E+01
         0.27500E+01
         0.27500E+01
         0.27500E+01
         0.27500E+01
         0.27500E+01
         0.27500E+01
         0.27500E+01
         0.27500E+01
         0.27500E+01
         0.27500E+01
         0.27500E+01
         0.27500E+01
         0.27500E+01
         0.27500E+01
         0.27500E+01
         0.27500E+01
         0.27500E+01
         0.27500E+01
         0.27500E+01
         0.27500E+01
         0.27500E+01
         0.27500E+01
         0.27500E+01
         0.27500E+01
         0.27500E+01
         0.27500E+01
         0.27500E+01
         0.27500E+01
         0.27500E+01
         0.27500E+01
         0.27500E+01
         0.27500E+01
         0.27500E+01
         0.27500E+01
         0.27500E+01
         0.27500E+01
         0.27500E+01
         0.27500E+01
         0.27500E+01
         0.27500E+01
         0.27500E+01
         0.27500E+01
         0.27500E+01
         0.27500E+01
         0.27500E+01
         0.27500E+01
         0.27500E+01
         0.27500E+01
         0.27500E+01
         0.27500E+01
         0.27500E+01
         0.27500E+01
         0.27500E+01
         0.27500E+01
         0.27500E+01
         0.27500E+01
         0.27500E+01
         0.27500E+01
         0.27500E+01
         0.27500E+01
         0.27500E+01
         0.27500E+01
         0.27500E+01
         0.27500E+01
         0.27500E+01
         0.27500E+01
         0.27500E+01
         0.27500E+01
         0.27500E+01
         0.27500E+01
         0.27500E+01
         0.27500E+01
         0.27500E+01
         0.27500E+01
         0.27500E+01
         0.27500E+01
         0.27500E+01
         0.27500E+01
         0.27500E+01
         0.27500E+01
         0.27500E+01
         0.27500E+01
         0.27500E+01
         0.27500E+01
         0.27500E+01
         0.27500E+01
         0.27500E+01
         0.27500E+01
         0.27500E+01
         0.27500E+01
         0.27500E+01
         0.27500E+01
         0.27500E+01
         0.27500E+01
         0.27500E+01
         0.27500E+01
         0.27500E+01
         0.27500E+01
         0.27500E+01
         0.27500E+01
         0.27500E+01
         0.27500E+01
         0.27500E+01
         0.27500E+01
         0.27500E+01
         0.27500E+01
         0.27500E+01
         0.27500E+01
         0.27500E+01
         0.27500E+01
         0.27500E+01
         0.27500E+01
         0.27500E+01
         0.27500E+01
         0.27500E+01
         0.27500E+01
         0.27500E+01
         0.27500E+01
         0.27500E+01
         0.27500E+01
         0.27500E+01
         0.27500E+01
         0.27500E+01
         0.27500E+01
         0.27500E+01
         0.27500E+01
         0.27500E+01
         0.27500E+01
         0.27500E+01
         0.27500E+01
         0.27500E+01
         0.27500E+01
         0.27500E+01
         0.27500E+01
         0.27500E+01
         0.27500E+01
         0.27500E+01
         0.27500E+01
         0.27500E+01
         0.27500E+01
         0.27500E+01
         0.27500E+01
         0.27500E+01
         0.27500E+01
         0.27500E+01
         0.27500E+01
         0.27500E+01
         0.27500E+01
         0.27500E+01
         0.27500E+01
         0.27500E+01
         0.27500E+01
         0.27500E+01
         0.27500E+01
         0.27500E+01
         0.27500E+01
         0.27500E+01
         0.27500E+01
         0.27500E+01
         0.27500E+01
         0.27500E+01
         0.27500E+01
         0.27500E+01
         0.27500E+01
         0.27500E+01
         0.27500E+01
         0.27500E+01
         0.27500E+01
         0.27500E+01
         0.27500E+01
         0.27500E+01
         0.27500E+01
         0.27500E+01
         0.27500E+01
         0.27500E+01
         0.27500E+01
         0.27500E+01
         0.27500E+01
         0.27500E+01
         0.27500E+01
         0.27500E+01
         0.27500E+01
         0.27500E+01
         0.27500E+01
         0.27500E+01
         0.27500E+01
         0.27500E+01
         0.27500E+01
         0.27500E+01
         0.27500E+01
         0.27500E+01
         0.27500E+01
         0.27500E+01
         0.27500E+01
         0.27500E+01
         0.27500E+01
         0.27500E+01
         0.27500E+01
         0.27500E+01
         0.27500E+01
         0.27500E+01
         0.27500E+01
         0.27500E+01
         0.27500E+01
         0.27500E+01
         0.27500E+01
         0.27500E+01
         0.27500E+01
         0.27500E+01
         0.27500E+01
         0.27500E+01
         0.27500E+01
         0.27500E+01
         0.27500E+01
         0.27500E+01
         0.27500E+01
         0.27500E+01
         0.27500E+01
         0.27500E+01
         0.27500E+01
         0.27500E+01
         0.27500E+01
         0.27500E+01
         0.27500E+01
         0.27500E+01
         0.27500E+01
         0.27500E+01
         0.27500E+01
         0.27500E+01
         0.27500E+01
         0.27500E+01
         0.27500E+01
         0.27500E+01
         0.27500E+01
         0.27500E+01
         0.27500E+01
         0.27500E+01
         0.27500E+01
         0.27500E+01
         0.27500E+01
         0.27500E+01
         0.27500E+01
         0.27500E+01
         0.27500E+01
         0.27500E+01
         0.27500E+01
         0.27500E+01
         0.27500E+01
         0.27500E+01
         0.27500E+01
         0.27500E+01
         0.27500E+01
         0.27500E+01
         0.27500E+01
         0.27500E+01
         0.27500E+01
         0.27500E+01
         0.27500E+01
         0.27500E+01
         0.27500E+01
         0.27500E+01
         0.27500E+01
         0.27500E+01
         0.27500E+01
         0.27500E+01
         0.27500E+01
         0.27500E+01
         0.27500E+01
         0.27500E+01
         0.27500E+01
         0.27500E+01
         0.27500E+01
         0.27500E+01
         0.27500E+01
         0.27500E+01
         0.27500E+01
         0.27500E+01
         0.27500E+01
         0.27500E+01
         0.27500E+01
         0.27500E+01
         0.27500E+01
         0.27500E+01
         0.27500E+01
         0.27500E+01
         0.27500E+01
         0.27500E+01
         0.27500E+01
         0.27500E+01
         0.27500E+01
         0.27500E+01
         0.27500E+01
         0.27500E+01
         0.27500E+01
         0.27500E+01
         0.27500E+01
         0.27500E+01
         0.27500E+01
         0.27500E+01
         0.27500E+01
         0.27500E+01
         0.27500E+01
         0.27500E+01
         0.27500E+01
         0.27500E+01
         0.27500E+01
         0.27500E+01
         0.27500E+01
         0.27500E+01
         0.27500E+01
         0.27500E+01
         0.27500E+01
         0.27500E+01
         0.27500E+01
         0.27500E+01
         0.27500E+01
         0.27500E+01
         0.27500E+01
         0.27500E+01
         0.27500E+01
         0.27500E+01
         0.27500E+01
         0.27500E+01
         0.27500E+01
         0.27500E+01
         0.27500E+01
         0.27500E+01
         0.27500E+01
         0.27500E+01
         0.27500E+01
         0.27500E+01
         0.27500E+01
         0.27500E+01
         0.27500E+01
         0.27500E+01
         0.27500E+01
         0.27500E+01
         0.27500E+01
         0.27500E+01
         0.27500E+01
         0.27500E+01
         0.27500E+01
         0.27500E+01
         0.27500E+01
         0.27500E+01
         0.27500E+01
         0.27500E+01
         0.27500E+01
         0.27500E+01
         0.27500E+01
         0.27500E+01
         0.27500E+01
         0.27500E+01
         0.27500E+01
         0.27500E+01
         0.27500E+01
         0.27500E+01
         0.27500E+01
         0.27500E+01
         0.27500E+01
         0.27500E+01
         0.27500E+01
         0.27500E+01
         0.27500E+01
         0.27500E+01
         0.27500E+01
         0.27500E+01
         0.27500E+01
         0.27500E+01
         0.27500E+01
         0.27500E+01
         0.27500E+01
         0.27500E+01
         0.27500E+01
         0.27500E+01
         0.27500E+01
         0.27500E+01
         0.27500E+01
         0.27500E+01
         0.27500E+01
         0.27500E+01
         0.27500E+01
         0.27500E+01
         0.27500E+01
         0.27500E+01
         0.27500E+01
         0.27500E+01
         0.27500E+01
         0.27500E+01
         0.27500E+01
         0.27500E+01
         0.27500E+01
         0.27500E+01
         0.27500E+01
         0.27500E+01
         0.27500E+01
         0.27500E+01
         0.27500E+01
         0.27500E+01
         0.27500E+01
         0.27500E+01
         0.27500E+01
         0.27500E+01
         0.27500E+01
         0.27500E+01
         0.27500E+01
         0.27500E+01
         0.27500E+01
         0.27500E+01
         0.27500E+01
         0.27500E+01
         0.27500E+01
         0.27500E+01
         0.27500E+01
         0.27500E+01
         0.27500E+01
         0.27500E+01
         0.27500E+01
         0.27500E+01
         0.27500E+01
         0.27500E+01
         0.27500E+01
         0.27500E+01
         0.27500E+01
         0.27500E+01
         0.27500E+01
         0.27500E+01
         0.27500E+01
         0.27500E+01
         0.27500E+01
         0.27500E+01
         0.27500E+01
         0.27500E+01
         0.27500E+01
         0.27500E+01
         0.27500E+01
         0.27500E+01
         0.27500E+01
         0.27500E+01
         0.27500E+01
         0.27500E+01
         0.27500E+01
         0.27500E+01
         0.27500E+01
         0.27500E+01
         0.27500E+01
         0.27500E+01
         0.27500E+01
         0.27500E+01
         0.27500E+01
         0.27500E+01
         0.27500E+01
         0.27500E+01
         0.27500E+01
         0.27500E+01
         0.27500E+01
         0.27500E+01
         0.27500E+01
         0.27500E+01
         0.27500E+01
         0.27500E+01
         0.27500E+01
         0.27500E+01
         0.27500E+01
         0.27500E+01
         0.27500E+01
         0.27500E+01
         0.27500E+01
         0.27500E+01
         0.27500E+01
         0.27500E+01
         0.27500E+01
         0.27500E+01
         0.27500E+01
         0.27500E+01
         0.27500E+01
         0.27500E+01
         0.27500E+01
         0.27500E+01
         0.27500E+01
         0.27500E+01
         0.27500E+01
         0.27500E+01
         0.27500E+01
         0.27500E+01
         0.27500E+01
         0.27500E+01
         0.27500E+01
         0.27500E+01
         0.27500E+01
         0.27500E+01
         0.27500E+01
         0.27500E+01
         0.27500E+01
         0.27500E+01
         0.27500E+01
         0.27500E+01
         0.27500E+01
         0.27500E+01
         0.27500E+01
         0.27500E+01
         0.27500E+01
         0.27500E+01
         0.27500E+01
         0.27500E+01
         0.27500E+01
         0.27500E+01
         0.27500E+01
         0.27500E+01
         0.27500E+01
         0.27500E+01
         0.27500E+01
         0.27500E+01
         0.27500E+01
         0.27500E+01
         0.27500E+01
         0.27500E+01
         0.27500E+01
         0.27500E+01
         0.27500E+01
         0.27500E+01
         0.27500E+01
         0.27500E+01
         0.27500E+01
         0.27500E+01
         0.27500E+01
         0.27500E+01
         0.27500E+01
         0.27500E+01
         0.27500E+01
         0.27500E+01
         0.27500E+01
         0.27500E+01
         0.27500E+01
         0.27500E+01
         0.27500E+01
         0.27500E+01
         0.27500E+01
         0.27500E+01
         0.27500E+01
         0.27500E+01
         0.27500E+01
         0.27500E+01
         0.27500E+01
         0.27500E+01
         0.27500E+01
         0.27500E+01
         0.27500E+01
         0.27500E+01
         0.27500E+01
         0.27500E+01
         0.27500E+01
         0.27500E+01
         0.27500E+01
         0.27500E+01
         0.27500E+01
         0.27500E+01
         0.27500E+01
         0.27500E+01
         0.27500E+01
         0.27500E+01
         0.27500E+01
         0.27500E+01
         0.27500E+01
         0.27500E+01
         0.27500E+01
         0.27500E+01
         0.27500E+01
         0.27500E+01
         0.27500E+01
         0.27500E+01
         0.27500E+01
         0.27500E+01
         0.27500E+01
         0.27500E+01
         0.27500E+01
         0.27500E+01
         0.27500E+01
         0.27500E+01
         0.27500E+01
         0.27500E+01
         0.27500E+01
         0.27500E+01
         0.27500E+01
         0.27500E+01
         0.27500E+01
         0.27500E+01
         0.27500E+01
         0.27500E+01
         0.27500E+01
         0.27500E+01
         0.27500E+01
         0.27500E+01
         0.27500E+01
         0.27500E+01
         0.27500E+01
         0.27500E+01
         0.27500E+01
         0.27500E+01
         0.27500E+01
         0.27500E+01
         0.27500E+01
         0.27500E+01
         0.27500E+01
         0.27500E+01
  
SCALARS              physical_window_x  double 1
LOOKUP_TABLE default
         0.42419E-02
         0.35201E-02
         0.37624E-02
         0.42419E-02
         0.42417E-02
         0.35201E-02
         0.37618E-02
         0.42417E-02
         0.37624E-02
         0.37624E-02
         0.37618E-02
         0.37618E-02
         0.30086E-02
         0.32069E-02
         0.30084E-02
         0.32067E-02
         0.42419E-02
         0.32069E-02
         0.42417E-02
         0.32067E-02
         0.24180E-02
         0.29942E-02
         0.32396E-02
         0.24180E-02
         0.29933E-02
         0.32385E-02
         0.26608E-02
         0.27190E-02
         0.26608E-02
         0.27190E-02
         0.42687E-02
         0.36511E-02
         0.42687E-02
         0.42687E-02
         0.36511E-02
         0.42687E-02
         0.32069E-02
         0.29739E-02
         0.32066E-02
         0.29739E-02
         0.34652E-02
         0.32621E-02
         0.34652E-02
         0.32621E-02
         0.37123E-02
         0.32069E-02
         0.37123E-02
         0.32066E-02
         0.30844E-02
         0.30844E-02
         0.35191E-02
         0.35189E-02
         0.26925E-02
         0.26925E-02
         0.26925E-02
         0.26925E-02
         0.24643E-02
         0.27651E-02
         0.24643E-02
         0.27651E-02
         0.42687E-02
         0.35191E-02
         0.42687E-02
         0.35189E-02
         0.42687E-02
         0.42687E-02
         0.34658E-02
         0.34648E-02
         0.27274E-02
         0.31799E-02
         0.27273E-02
         0.31796E-02
         0.32396E-02
         0.32385E-02
         0.26964E-02
         0.26960E-02
         0.27828E-02
         0.27828E-02
         0.27828E-02
         0.27828E-02
         0.27004E-02
         0.31883E-02
         0.27003E-02
         0.31880E-02
         0.31883E-02
         0.31880E-02
         0.37123E-02
         0.37123E-02
         0.36245E-02
         0.36245E-02
         0.28253E-02
         0.31642E-02
         0.28253E-02
         0.31636E-02
         0.33485E-02
         0.33485E-02
         0.33485E-02
         0.33485E-02
         0.31978E-02
         0.31969E-02
         0.29849E-02
         0.32843E-02
         0.29849E-02
         0.32843E-02
         0.27274E-02
         0.31109E-02
         0.27273E-02
         0.31109E-02
         0.31799E-02
         0.31796E-02
         0.32396E-02
         0.32385E-02
         0.32396E-02
         0.32385E-02
         0.29942E-02
         0.29933E-02
         0.27190E-02
         0.27190E-02
         0.26964E-02
         0.26960E-02
         0.27828E-02
         0.27828E-02
         0.27828E-02
         0.27828E-02
         0.27004E-02
         0.27003E-02
         0.31883E-02
         0.31880E-02
         0.31883E-02
         0.31880E-02
         0.32621E-02
         0.32621E-02
         0.34652E-02
         0.34652E-02
         0.37123E-02
         0.37123E-02
         0.37123E-02
         0.37123E-02
         0.36245E-02
         0.36245E-02
         0.28253E-02
         0.28253E-02
         0.29097E-02
         0.29087E-02
         0.32389E-02
         0.32378E-02
         0.32389E-02
         0.32378E-02
         0.31978E-02
         0.31969E-02
         0.29849E-02
         0.29849E-02
         0.32843E-02
         0.32843E-02
         0.32843E-02
         0.32843E-02
         0.42420E-02
         0.35201E-02
         0.37629E-02
         0.42420E-02
         0.37629E-02
         0.37629E-02
         0.30087E-02
         0.32071E-02
         0.42420E-02
         0.32071E-02
         0.24178E-02
         0.29952E-02
         0.32407E-02
         0.26596E-02
         0.27191E-02
         0.42679E-02
         0.36502E-02
         0.42679E-02
         0.32071E-02
         0.29727E-02
         0.34648E-02
         0.32622E-02
         0.37119E-02
         0.32071E-02
         0.30833E-02
         0.35193E-02
         0.26910E-02
         0.26910E-02
         0.24638E-02
         0.27644E-02
         0.42679E-02
         0.35193E-02
         0.42679E-02
         0.34670E-02
         0.27274E-02
         0.31802E-02
         0.32407E-02
         0.26968E-02
         0.27828E-02
         0.27828E-02
         0.27005E-02
         0.31885E-02
         0.31885E-02
         0.37119E-02
         0.36244E-02
         0.28250E-02
         0.31647E-02
         0.33484E-02
         0.33484E-02
         0.31986E-02
         0.29848E-02
         0.32841E-02
         0.27274E-02
         0.31099E-02
         0.31802E-02
         0.32407E-02
         0.32407E-02
         0.29952E-02
         0.27191E-02
         0.26968E-02
         0.27828E-02
         0.27828E-02
         0.27005E-02
         0.31885E-02
         0.31885E-02
         0.32622E-02
         0.34648E-02
         0.37119E-02
         0.37119E-02
         0.36244E-02
         0.28250E-02
         0.29106E-02
         0.32401E-02
         0.32401E-02
         0.31986E-02
         0.29848E-02
         0.32841E-02
         0.32841E-02
         0.42421E-02
         0.35201E-02
         0.37634E-02
         0.42421E-02
         0.37634E-02
         0.37634E-02
         0.30089E-02
         0.32073E-02
         0.42421E-02
         0.32073E-02
         0.24177E-02
         0.29961E-02
         0.32418E-02
         0.26584E-02
         0.27191E-02
         0.42670E-02
         0.36493E-02
         0.42670E-02
         0.32073E-02
         0.29714E-02
         0.34644E-02
         0.32623E-02
         0.37115E-02
         0.32073E-02
         0.30822E-02
         0.35195E-02
         0.26896E-02
         0.26896E-02
         0.24633E-02
         0.27638E-02
         0.42670E-02
         0.35195E-02
         0.42670E-02
         0.34681E-02
         0.27275E-02
         0.31805E-02
         0.32418E-02
         0.26972E-02
         0.27828E-02
         0.27828E-02
         0.27006E-02
         0.31888E-02
         0.31888E-02
         0.37115E-02
         0.36243E-02
         0.28247E-02
         0.31652E-02
         0.33483E-02
         0.33483E-02
         0.31995E-02
         0.29847E-02
         0.32839E-02
         0.27275E-02
         0.31090E-02
         0.31805E-02
         0.32418E-02
         0.32418E-02
         0.29961E-02
         0.27191E-02
         0.26972E-02
         0.27828E-02
         0.27828E-02
         0.27006E-02
         0.31888E-02
         0.31888E-02
         0.32623E-02
         0.34644E-02
         0.37115E-02
         0.37115E-02
         0.36243E-02
         0.28247E-02
         0.29116E-02
         0.32412E-02
         0.32412E-02
         0.31995E-02
         0.29847E-02
         0.32839E-02
         0.32839E-02
         0.42423E-02
         0.35200E-02
         0.37639E-02
         0.42423E-02
         0.37639E-02
         0.37639E-02
         0.30091E-02
         0.32075E-02
         0.42423E-02
         0.32075E-02
         0.24176E-02
         0.29970E-02
         0.32428E-02
         0.26572E-02
         0.27192E-02
         0.42662E-02
         0.36483E-02
         0.42662E-02
         0.32075E-02
         0.29702E-02
         0.34639E-02
         0.32624E-02
         0.37111E-02
         0.32075E-02
         0.30811E-02
         0.35197E-02
         0.26881E-02
         0.26881E-02
         0.24628E-02
         0.27631E-02
         0.42662E-02
         0.35197E-02
         0.42662E-02
         0.34692E-02
         0.27276E-02
         0.31808E-02
         0.32428E-02
         0.26975E-02
         0.27828E-02
         0.27828E-02
         0.27007E-02
         0.31890E-02
         0.31890E-02
         0.37111E-02
         0.36242E-02
         0.28243E-02
         0.31658E-02
         0.33482E-02
         0.33482E-02
         0.32003E-02
         0.29846E-02
         0.32837E-02
         0.27276E-02
         0.31081E-02
         0.31808E-02
         0.32428E-02
         0.32428E-02
         0.29970E-02
         0.27192E-02
         0.26975E-02
         0.27828E-02
         0.27828E-02
         0.27007E-02
         0.31890E-02
         0.31890E-02
         0.32624E-02
         0.34639E-02
         0.37111E-02
         0.37111E-02
         0.36242E-02
         0.28243E-02
         0.29125E-02
         0.32423E-02
         0.32423E-02
         0.32003E-02
         0.29846E-02
         0.32837E-02
         0.32837E-02
         0.42424E-02
         0.35200E-02
         0.37644E-02
         0.42424E-02
         0.37644E-02
         0.37644E-02
         0.30093E-02
         0.32077E-02
         0.42424E-02
         0.32077E-02
         0.24174E-02
         0.29979E-02
         0.32439E-02
         0.26559E-02
         0.27192E-02
         0.42653E-02
         0.36474E-02
         0.42653E-02
         0.32077E-02
         0.29690E-02
         0.34635E-02
         0.32624E-02
         0.37108E-02
         0.32077E-02
         0.30799E-02
         0.35199E-02
         0.26867E-02
         0.26867E-02
         0.24623E-02
         0.27625E-02
         0.42653E-02
         0.35199E-02
         0.42653E-02
         0.34703E-02
         0.27276E-02
         0.31812E-02
         0.32439E-02
         0.26979E-02
         0.27828E-02
         0.27828E-02
         0.27008E-02
         0.31893E-02
         0.31893E-02
         0.37108E-02
         0.36241E-02
         0.28240E-02
         0.31663E-02
         0.33481E-02
         0.33481E-02
         0.32012E-02
         0.29844E-02
         0.32835E-02
         0.27276E-02
         0.31071E-02
         0.31812E-02
         0.32439E-02
         0.32439E-02
         0.29979E-02
         0.27192E-02
         0.26979E-02
         0.27828E-02
         0.27828E-02
         0.27008E-02
         0.31893E-02
         0.31893E-02
         0.32624E-02
         0.34635E-02
         0.37108E-02
         0.37108E-02
         0.36241E-02
         0.28240E-02
         0.29135E-02
         0.32434E-02
         0.32434E-02
         0.32012E-02
         0.29844E-02
         0.32835E-02
         0.32835E-02
         0.42425E-02
         0.35200E-02
         0.37649E-02
         0.42425E-02
         0.37649E-02
         0.37649E-02
         0.30095E-02
         0.32079E-02
         0.42425E-02
         0.32079E-02
         0.24173E-02
         0.29989E-02
         0.32450E-02
         0.26547E-02
         0.27193E-02
         0.42645E-02
         0.36465E-02
         0.42645E-02
         0.32079E-02
         0.29677E-02
         0.34631E-02
         0.32625E-02
         0.37104E-02
         0.32079E-02
         0.30788E-02
         0.35201E-02
         0.26852E-02
         0.26852E-02
         0.24618E-02
         0.27618E-02
         0.42645E-02
         0.35201E-02
         0.42645E-02
         0.34715E-02
         0.27277E-02
         0.31815E-02
         0.32450E-02
         0.26983E-02
         0.27828E-02
         0.27828E-02
         0.27009E-02
         0.31895E-02
         0.31895E-02
         0.37104E-02
         0.36239E-02
         0.28237E-02
         0.31668E-02
         0.33480E-02
         0.33480E-02
         0.32020E-02
         0.29843E-02
         0.32833E-02
         0.27277E-02
         0.31062E-02
         0.31815E-02
         0.32450E-02
         0.32450E-02
         0.29989E-02
         0.27193E-02
         0.26983E-02
         0.27828E-02
         0.27828E-02
         0.27009E-02
         0.31895E-02
         0.31895E-02
         0.32625E-02
         0.34631E-02
         0.37104E-02
         0.37104E-02
         0.36239E-02
         0.28237E-02
         0.29145E-02
         0.32445E-02
         0.32445E-02
         0.32020E-02
         0.29843E-02
         0.32833E-02
         0.32833E-02
         0.42427E-02
         0.35200E-02
         0.37654E-02
         0.42427E-02
         0.37654E-02
         0.37654E-02
         0.30097E-02
         0.32081E-02
         0.42427E-02
         0.32081E-02
         0.24171E-02
         0.29998E-02
         0.32461E-02
         0.26535E-02
         0.27193E-02
         0.42636E-02
         0.36455E-02
         0.42636E-02
         0.32081E-02
         0.29665E-02
         0.34626E-02
         0.32626E-02
         0.37100E-02
         0.32081E-02
         0.30777E-02
         0.35203E-02
         0.26838E-02
         0.26838E-02
         0.24613E-02
         0.27611E-02
         0.42636E-02
         0.35203E-02
         0.42636E-02
         0.34726E-02
         0.27278E-02
         0.31818E-02
         0.32461E-02
         0.26987E-02
         0.27827E-02
         0.27827E-02
         0.27010E-02
         0.31898E-02
         0.31898E-02
         0.37100E-02
         0.36238E-02
         0.28234E-02
         0.31673E-02
         0.33479E-02
         0.33479E-02
         0.32029E-02
         0.29842E-02
         0.32831E-02
         0.27278E-02
         0.31052E-02
         0.31818E-02
         0.32461E-02
         0.32461E-02
         0.29998E-02
         0.27193E-02
         0.26987E-02
         0.27827E-02
         0.27827E-02
         0.27010E-02
         0.31898E-02
         0.31898E-02
         0.32626E-02
         0.34626E-02
         0.37100E-02
         0.37100E-02
         0.36238E-02
         0.28234E-02
         0.29154E-02
         0.32457E-02
         0.32457E-02
         0.32029E-02
         0.29842E-02
         0.32831E-02
         0.32831E-02
         0.42428E-02
         0.35199E-02
         0.37660E-02
         0.42428E-02
         0.37660E-02
         0.37660E-02
         0.30099E-02
         0.32083E-02
         0.42428E-02
         0.32083E-02
         0.24170E-02
         0.30007E-02
         0.32471E-02
         0.26523E-02
         0.27194E-02
         0.42628E-02
         0.36446E-02
         0.42628E-02
         0.32083E-02
         0.29652E-02
         0.34622E-02
         0.32627E-02
         0.37096E-02
         0.32083E-02
         0.30766E-02
         0.35205E-02
         0.26823E-02
         0.26823E-02
         0.24608E-02
         0.27605E-02
         0.42628E-02
         0.35205E-02
         0.42628E-02
         0.34737E-02
         0.27279E-02
         0.31821E-02
         0.32471E-02
         0.26991E-02
         0.27827E-02
         0.27827E-02
         0.27011E-02
         0.31900E-02
         0.31900E-02
         0.37096E-02
         0.36237E-02
         0.28231E-02
         0.31679E-02
         0.33478E-02
         0.33478E-02
         0.32038E-02
         0.29841E-02
         0.32829E-02
         0.27279E-02
         0.31043E-02
         0.31821E-02
         0.32471E-02
         0.32471E-02
         0.30007E-02
         0.27194E-02
         0.26991E-02
         0.27827E-02
         0.27827E-02
         0.27011E-02
         0.31900E-02
         0.31900E-02
         0.32627E-02
         0.34622E-02
         0.37096E-02
         0.37096E-02
         0.36237E-02
         0.28231E-02
         0.29164E-02
         0.32468E-02
         0.32468E-02
         0.32038E-02
         0.29841E-02
         0.32829E-02
         0.32829E-02
         0.42429E-02
         0.35199E-02
         0.37665E-02
         0.42429E-02
         0.37665E-02
         0.37665E-02
         0.30101E-02
         0.32085E-02
         0.42429E-02
         0.32085E-02
         0.24168E-02
         0.30017E-02
         0.32482E-02
         0.26510E-02
         0.27194E-02
         0.42619E-02
         0.36437E-02
         0.42619E-02
         0.32085E-02
         0.29640E-02
         0.34618E-02
         0.32627E-02
         0.37092E-02
         0.32085E-02
         0.30755E-02
         0.35207E-02
         0.26808E-02
         0.26808E-02
         0.24603E-02
         0.27599E-02
         0.42619E-02
         0.35207E-02
         0.42619E-02
         0.34748E-02
         0.27279E-02
         0.31824E-02
         0.32482E-02
         0.26994E-02
         0.27827E-02
         0.27827E-02
         0.27012E-02
         0.31902E-02
         0.31902E-02
         0.37092E-02
         0.36236E-02
         0.28227E-02
         0.31684E-02
         0.33477E-02
         0.33477E-02
         0.32046E-02
         0.29840E-02
         0.32827E-02
         0.27279E-02
         0.31034E-02
         0.31824E-02
         0.32482E-02
         0.32482E-02
         0.30017E-02
         0.27194E-02
         0.26994E-02
         0.27827E-02
         0.27827E-02
         0.27012E-02
         0.31902E-02
         0.31902E-02
         0.32627E-02
         0.34618E-02
         0.37092E-02
         0.37092E-02
         0.36236E-02
         0.28227E-02
         0.29173E-02
         0.32479E-02
         0.32479E-02
         0.32046E-02
         0.29840E-02
         0.32827E-02
         0.32827E-02
         0.42431E-02
         0.35199E-02
         0.37670E-02
         0.42431E-02
         0.37670E-02
         0.37670E-02
         0.30102E-02
         0.32087E-02
         0.42431E-02
         0.32087E-02
         0.24167E-02
         0.30026E-02
         0.32493E-02
         0.26498E-02
         0.27194E-02
         0.42611E-02
         0.36427E-02
         0.42611E-02
         0.32087E-02
         0.29628E-02
         0.34613E-02
         0.32628E-02
         0.37089E-02
         0.32087E-02
         0.30744E-02
         0.35209E-02
         0.26794E-02
         0.26794E-02
         0.24598E-02
         0.27592E-02
         0.42611E-02
         0.35209E-02
         0.42611E-02
         0.34759E-02
         0.27280E-02
         0.31827E-02
         0.32493E-02
         0.26998E-02
         0.27827E-02
         0.27827E-02
         0.27013E-02
         0.31905E-02
         0.31905E-02
         0.37089E-02
         0.36235E-02
         0.28224E-02
         0.31689E-02
         0.33476E-02
         0.33476E-02
         0.32055E-02
         0.29839E-02
         0.32825E-02
         0.27280E-02
         0.31024E-02
         0.31827E-02
         0.32493E-02
         0.32493E-02
         0.30026E-02
         0.27194E-02
         0.26998E-02
         0.27827E-02
         0.27827E-02
         0.27013E-02
         0.31905E-02
         0.31905E-02
         0.32628E-02
         0.34613E-02
         0.37089E-02
         0.37089E-02
         0.36235E-02
         0.28224E-02
         0.29183E-02
         0.32490E-02
         0.32490E-02
         0.32055E-02
         0.29839E-02
         0.32825E-02
         0.32825E-02
         0.42432E-02
         0.35199E-02
         0.37675E-02
         0.42432E-02
         0.37675E-02
         0.37675E-02
         0.30104E-02
         0.32089E-02
         0.42432E-02
         0.32089E-02
         0.24166E-02
         0.30035E-02
         0.32504E-02
         0.26486E-02
         0.27195E-02
         0.42603E-02
         0.36418E-02
         0.42603E-02
         0.32089E-02
         0.29615E-02
         0.34609E-02
         0.32629E-02
         0.37085E-02
         0.32089E-02
         0.30732E-02
         0.35211E-02
         0.26779E-02
         0.26779E-02
         0.24593E-02
         0.27585E-02
         0.42603E-02
         0.35211E-02
         0.42603E-02
         0.34771E-02
         0.27281E-02
         0.31830E-02
         0.32504E-02
         0.27002E-02
         0.27827E-02
         0.27827E-02
         0.27014E-02
         0.31907E-02
         0.31907E-02
         0.37085E-02
         0.36233E-02
         0.28221E-02
         0.31694E-02
         0.33475E-02
         0.33475E-02
         0.32063E-02
         0.29838E-02
         0.32823E-02
         0.27281E-02
         0.31015E-02
         0.31830E-02
         0.32504E-02
         0.32504E-02
         0.30035E-02
         0.27195E-02
         0.27002E-02
         0.27827E-02
         0.27827E-02
         0.27014E-02
         0.31907E-02
         0.31907E-02
         0.32629E-02
         0.34609E-02
         0.37085E-02
         0.37085E-02
         0.36233E-02
         0.28221E-02
         0.29193E-02
         0.32501E-02
         0.32501E-02
         0.32063E-02
         0.29838E-02
         0.32823E-02
         0.32823E-02
         0.42433E-02
         0.35199E-02
         0.37680E-02
         0.42433E-02
         0.37680E-02
         0.37680E-02
         0.30106E-02
         0.32091E-02
         0.42433E-02
         0.32091E-02
         0.24164E-02
         0.30045E-02
         0.32514E-02
         0.26474E-02
         0.27195E-02
         0.42594E-02
         0.36409E-02
         0.42594E-02
         0.32091E-02
         0.29603E-02
         0.34605E-02
         0.32630E-02
         0.37081E-02
         0.32091E-02
         0.30721E-02
         0.35213E-02
         0.26765E-02
         0.26765E-02
         0.24588E-02
         0.27579E-02
         0.42594E-02
         0.35213E-02
         0.42594E-02
         0.34782E-02
         0.27281E-02
         0.31833E-02
         0.32514E-02
         0.27006E-02
         0.27826E-02
         0.27826E-02
         0.27015E-02
         0.31910E-02
         0.31910E-02
         0.37081E-02
         0.36232E-02
         0.28218E-02
         0.31700E-02
         0.33474E-02
         0.33474E-02
         0.32072E-02
         0.29836E-02
         0.32821E-02
         0.27281E-02
         0.31005E-02
         0.31833E-02
         0.32514E-02
         0.32514E-02
         0.30045E-02
         0.27195E-02
         0.27006E-02
         0.27826E-02
         0.27826E-02
         0.27015E-02
         0.31910E-02
         0.31910E-02
         0.32630E-02
         0.34605E-02
         0.37081E-02
         0.37081E-02
         0.36232E-02
         0.28218E-02
         0.29202E-02
         0.32512E-02
         0.32512E-02
         0.32072E-02
         0.29836E-02
         0.32821E-02
         0.32821E-02
         0.42435E-02
         0.35199E-02
         0.37685E-02
         0.42435E-02
         0.37685E-02
         0.37685E-02
         0.30108E-02
         0.32093E-02
         0.42435E-02
         0.32093E-02
         0.24163E-02
         0.30054E-02
         0.32525E-02
         0.26461E-02
         0.27196E-02
         0.42586E-02
         0.36399E-02
         0.42586E-02
         0.32093E-02
         0.29591E-02
         0.34601E-02
         0.32630E-02
         0.37077E-02
         0.32093E-02
         0.30710E-02
         0.35215E-02
         0.26750E-02
         0.26750E-02
         0.24583E-02
         0.27572E-02
         0.42586E-02
         0.35215E-02
         0.42586E-02
         0.34793E-02
         0.27282E-02
         0.31836E-02
         0.32525E-02
         0.27010E-02
         0.27826E-02
         0.27826E-02
         0.27016E-02
         0.31912E-02
         0.31912E-02
         0.37077E-02
         0.36231E-02
         0.28215E-02
         0.31705E-02
         0.33473E-02
         0.33473E-02
         0.32080E-02
         0.29835E-02
         0.32819E-02
         0.27282E-02
         0.30996E-02
         0.31836E-02
         0.32525E-02
         0.32525E-02
         0.30054E-02
         0.27196E-02
         0.27010E-02
         0.27826E-02
         0.27826E-02
         0.27016E-02
         0.31912E-02
         0.31912E-02
         0.32630E-02
         0.34601E-02
         0.37077E-02
         0.37077E-02
         0.36231E-02
         0.28215E-02
         0.29212E-02
         0.32524E-02
         0.32524E-02
         0.32080E-02
         0.29835E-02
         0.32819E-02
         0.32819E-02
         0.42436E-02
         0.35198E-02
         0.37690E-02
         0.42436E-02
         0.37690E-02
         0.37690E-02
         0.30110E-02
         0.32095E-02
         0.42436E-02
         0.32095E-02
         0.24162E-02
         0.30064E-02
         0.32536E-02
         0.26449E-02
         0.27196E-02
         0.42577E-02
         0.36390E-02
         0.42577E-02
         0.32096E-02
         0.29578E-02
         0.34596E-02
         0.32631E-02
         0.37074E-02
         0.32096E-02
         0.30699E-02
         0.35217E-02
         0.26735E-02
         0.26735E-02
         0.24578E-02
         0.27566E-02
         0.42577E-02
         0.35217E-02
         0.42577E-02
         0.34804E-02
         0.27283E-02
         0.31839E-02
         0.32536E-02
         0.27013E-02
         0.27826E-02
         0.27826E-02
         0.27017E-02
         0.31915E-02
         0.31915E-02
         0.37074E-02
         0.36230E-02
         0.28211E-02
         0.31710E-02
         0.33472E-02
         0.33472E-02
         0.32089E-02
         0.29834E-02
         0.32817E-02
         0.27283E-02
         0.30986E-02
         0.31839E-02
         0.32536E-02
         0.32536E-02
         0.30064E-02
         0.27196E-02
         0.27013E-02
         0.27826E-02
         0.27826E-02
         0.27017E-02
         0.31915E-02
         0.31915E-02
         0.32631E-02
         0.34596E-02
         0.37074E-02
         0.37074E-02
         0.36230E-02
         0.28211E-02
         0.29221E-02
         0.32535E-02
         0.32535E-02
         0.32089E-02
         0.29834E-02
         0.32817E-02
         0.32817E-02
         0.42437E-02
         0.35198E-02
         0.37695E-02
         0.42437E-02
         0.37695E-02
         0.37695E-02
         0.30112E-02
         0.32097E-02
         0.42437E-02
         0.32097E-02
         0.24160E-02
         0.30073E-02
         0.32547E-02
         0.26437E-02
         0.27197E-02
         0.42569E-02
         0.36381E-02
         0.42569E-02
         0.32098E-02
         0.29566E-02
         0.34592E-02
         0.32632E-02
         0.37070E-02
         0.32098E-02
         0.30688E-02
         0.35219E-02
         0.26721E-02
         0.26721E-02
         0.24573E-02
         0.27560E-02
         0.42569E-02
         0.35219E-02
         0.42569E-02
         0.34815E-02
         0.27284E-02
         0.31843E-02
         0.32547E-02
         0.27017E-02
         0.27826E-02
         0.27826E-02
         0.27018E-02
         0.31917E-02
         0.31917E-02
         0.37070E-02
         0.36229E-02
         0.28208E-02
         0.31716E-02
         0.33471E-02
         0.33471E-02
         0.32097E-02
         0.29833E-02
         0.32815E-02
         0.27284E-02
         0.30977E-02
         0.31843E-02
         0.32547E-02
         0.32547E-02
         0.30073E-02
         0.27197E-02
         0.27017E-02
         0.27826E-02
         0.27826E-02
         0.27018E-02
         0.31917E-02
         0.31917E-02
         0.32632E-02
         0.34592E-02
         0.37070E-02
         0.37070E-02
         0.36229E-02
         0.28208E-02
         0.29231E-02
         0.32546E-02
         0.32546E-02
         0.32097E-02
         0.29833E-02
         0.32815E-02
         0.32815E-02
         0.42439E-02
         0.35198E-02
         0.37701E-02
         0.42439E-02
         0.37701E-02
         0.37701E-02
         0.30113E-02
         0.32099E-02
         0.42439E-02
         0.32099E-02
         0.24159E-02
         0.30082E-02
         0.32558E-02
         0.26425E-02
         0.27197E-02
         0.42560E-02
         0.36371E-02
         0.42560E-02
         0.32100E-02
         0.29554E-02
         0.34588E-02
         0.32633E-02
         0.37066E-02
         0.32100E-02
         0.30677E-02
         0.35221E-02
         0.26706E-02
         0.26706E-02
         0.24568E-02
         0.27553E-02
         0.42560E-02
         0.35221E-02
         0.42560E-02
         0.34827E-02
         0.27284E-02
         0.31846E-02
         0.32558E-02
         0.27021E-02
         0.27826E-02
         0.27826E-02
         0.27019E-02
         0.31920E-02
         0.31920E-02
         0.37066E-02
         0.36227E-02
         0.28205E-02
         0.31721E-02
         0.33470E-02
         0.33470E-02
         0.32106E-02
         0.29831E-02
         0.32813E-02
         0.27284E-02
         0.30968E-02
         0.31846E-02
         0.32558E-02
         0.32558E-02
         0.30082E-02
         0.27197E-02
         0.27021E-02
         0.27826E-02
         0.27826E-02
         0.27019E-02
         0.31920E-02
         0.31920E-02
         0.32633E-02
         0.34588E-02
         0.37066E-02
         0.37066E-02
         0.36227E-02
         0.28205E-02
         0.29241E-02
         0.32557E-02
         0.32557E-02
         0.32106E-02
         0.29831E-02
         0.32813E-02
         0.32813E-02
         0.42440E-02
         0.35198E-02
         0.37706E-02
         0.42440E-02
         0.37706E-02
         0.37706E-02
         0.30115E-02
         0.32101E-02
         0.42440E-02
         0.32101E-02
         0.24158E-02
         0.30091E-02
         0.32568E-02
         0.26412E-02
         0.27198E-02
         0.42552E-02
         0.36362E-02
         0.42552E-02
         0.32102E-02
         0.29541E-02
         0.34583E-02
         0.32633E-02
         0.37062E-02
         0.32102E-02
         0.30665E-02
         0.35223E-02
         0.26692E-02
         0.26692E-02
         0.24563E-02
         0.27546E-02
         0.42552E-02
         0.35223E-02
         0.42552E-02
         0.34838E-02
         0.27285E-02
         0.31849E-02
         0.32568E-02
         0.27025E-02
         0.27826E-02
         0.27826E-02
         0.27020E-02
         0.31922E-02
         0.31922E-02
         0.37062E-02
         0.36226E-02
         0.28202E-02
         0.31726E-02
         0.33469E-02
         0.33469E-02
         0.32114E-02
         0.29830E-02
         0.32811E-02
         0.27285E-02
         0.30958E-02
         0.31849E-02
         0.32568E-02
         0.32568E-02
         0.30091E-02
         0.27198E-02
         0.27025E-02
         0.27826E-02
         0.27826E-02
         0.27020E-02
         0.31922E-02
         0.31922E-02
         0.32633E-02
         0.34583E-02
         0.37062E-02
         0.37062E-02
         0.36226E-02
         0.28202E-02
         0.29250E-02
         0.32568E-02
         0.32568E-02
         0.32114E-02
         0.29830E-02
         0.32811E-02
         0.32811E-02
         0.42441E-02
         0.35198E-02
         0.37711E-02
         0.42441E-02
         0.37711E-02
         0.37711E-02
         0.30117E-02
         0.32103E-02
         0.42441E-02
         0.32103E-02
         0.24156E-02
         0.30101E-02
         0.32579E-02
         0.26400E-02
         0.27198E-02
         0.42543E-02
         0.36353E-02
         0.42543E-02
         0.32104E-02
         0.29529E-02
         0.34579E-02
         0.32634E-02
         0.37058E-02
         0.32104E-02
         0.30654E-02
         0.35225E-02
         0.26677E-02
         0.26677E-02
         0.24558E-02
         0.27540E-02
         0.42543E-02
         0.35225E-02
         0.42543E-02
         0.34849E-02
         0.27286E-02
         0.31852E-02
         0.32579E-02
         0.27029E-02
         0.27826E-02
         0.27826E-02
         0.27021E-02
         0.31924E-02
         0.31924E-02
         0.37058E-02
         0.36225E-02
         0.28198E-02
         0.31731E-02
         0.33468E-02
         0.33468E-02
         0.32123E-02
         0.29829E-02
         0.32809E-02
         0.27286E-02
         0.30949E-02
         0.31852E-02
         0.32579E-02
         0.32579E-02
         0.30101E-02
         0.27198E-02
         0.27029E-02
         0.27826E-02
         0.27826E-02
         0.27021E-02
         0.31924E-02
         0.31924E-02
         0.32634E-02
         0.34579E-02
         0.37058E-02
         0.37058E-02
         0.36225E-02
         0.28198E-02
         0.29260E-02
         0.32579E-02
         0.32579E-02
         0.32123E-02
         0.29829E-02
         0.32809E-02
         0.32809E-02
         0.42443E-02
         0.35197E-02
         0.37716E-02
         0.42443E-02
         0.37716E-02
         0.37716E-02
         0.30119E-02
         0.32105E-02
         0.42443E-02
         0.32105E-02
         0.24155E-02
         0.30110E-02
         0.32590E-02
         0.26388E-02
         0.27199E-02
         0.42535E-02
         0.36343E-02
         0.42535E-02
         0.32106E-02
         0.29517E-02
         0.34575E-02
         0.32635E-02
         0.37055E-02
         0.32106E-02
         0.30643E-02
         0.35227E-02
         0.26663E-02
         0.26663E-02
         0.24553E-02
         0.27533E-02
         0.42535E-02
         0.35227E-02
         0.42535E-02
         0.34860E-02
         0.27286E-02
         0.31855E-02
         0.32590E-02
         0.27032E-02
         0.27826E-02
         0.27826E-02
         0.27022E-02
         0.31927E-02
         0.31927E-02
         0.37055E-02
         0.36224E-02
         0.28195E-02
         0.31737E-02
         0.33467E-02
         0.33467E-02
         0.32132E-02
         0.29828E-02
         0.32807E-02
         0.27286E-02
         0.30939E-02
         0.31855E-02
         0.32590E-02
         0.32590E-02
         0.30110E-02
         0.27199E-02
         0.27032E-02
         0.27826E-02
         0.27826E-02
         0.27022E-02
         0.31927E-02
         0.31927E-02
         0.32635E-02
         0.34575E-02
         0.37055E-02
         0.37055E-02
         0.36224E-02
         0.28195E-02
         0.29269E-02
         0.32591E-02
         0.32591E-02
         0.32132E-02
         0.29828E-02
         0.32807E-02
         0.32807E-02
         0.42444E-02
         0.35197E-02
         0.37721E-02
         0.42444E-02
         0.37721E-02
         0.37721E-02
         0.30121E-02
         0.32107E-02
         0.42444E-02
         0.32107E-02
         0.24154E-02
         0.30119E-02
         0.32601E-02
         0.26376E-02
         0.27199E-02
         0.42527E-02
         0.36334E-02
         0.42527E-02
         0.32108E-02
         0.29504E-02
         0.34571E-02
         0.32636E-02
         0.37051E-02
         0.32108E-02
         0.30632E-02
         0.35229E-02
         0.26648E-02
         0.26648E-02
         0.24552E-02
         0.27527E-02
         0.42527E-02
         0.35229E-02
         0.42527E-02
         0.34871E-02
         0.27287E-02
         0.31858E-02
         0.32601E-02
         0.27036E-02
         0.27825E-02
         0.27825E-02
         0.27023E-02
         0.31929E-02
         0.31929E-02
         0.37051E-02
         0.36223E-02
         0.28192E-02
         0.31742E-02
         0.33466E-02
         0.33466E-02
         0.32140E-02
         0.29827E-02
         0.32805E-02
         0.27287E-02
         0.30930E-02
         0.31858E-02
         0.32601E-02
         0.32601E-02
         0.30119E-02
         0.27199E-02
         0.27036E-02
         0.27825E-02
         0.27825E-02
         0.27023E-02
         0.31929E-02
         0.31929E-02
         0.32636E-02
         0.34571E-02
         0.37051E-02
         0.37051E-02
         0.36223E-02
         0.28192E-02
         0.29279E-02
         0.32602E-02
         0.32602E-02
         0.32140E-02
         0.29827E-02
         0.32805E-02
         0.32805E-02
         0.42445E-02
         0.35197E-02
         0.37726E-02
         0.42445E-02
         0.37726E-02
         0.37726E-02
         0.30123E-02
         0.32108E-02
         0.42445E-02
         0.32108E-02
         0.24152E-02
         0.30129E-02
         0.32611E-02
         0.26363E-02
         0.27200E-02
         0.42518E-02
         0.36325E-02
         0.42518E-02
         0.32110E-02
         0.29492E-02
         0.34566E-02
         0.32636E-02
         0.37047E-02
         0.32110E-02
         0.30621E-02
         0.35231E-02
         0.26633E-02
         0.26633E-02
         0.24554E-02
         0.27520E-02
         0.42518E-02
         0.35231E-02
         0.42518E-02
         0.34882E-02
         0.27288E-02
         0.31861E-02
         0.32611E-02
         0.27040E-02
         0.27825E-02
         0.27825E-02
         0.27024E-02
         0.31932E-02
         0.31932E-02
         0.37047E-02
         0.36222E-02
         0.28189E-02
         0.31747E-02
         0.33465E-02
         0.33465E-02
         0.32149E-02
         0.29826E-02
         0.32803E-02
         0.27288E-02
         0.30921E-02
         0.31861E-02
         0.32611E-02
         0.32611E-02
         0.30129E-02
         0.27200E-02
         0.27040E-02
         0.27825E-02
         0.27825E-02
         0.27024E-02
         0.31932E-02
         0.31932E-02
         0.32636E-02
         0.34566E-02
         0.37047E-02
         0.37047E-02
         0.36222E-02
         0.28189E-02
         0.29289E-02
         0.32613E-02
         0.32613E-02
         0.32149E-02
         0.29826E-02
         0.32803E-02
         0.32803E-02
         0.42447E-02
         0.35196E-02
         0.37732E-02
         0.42447E-02
         0.37732E-02
         0.37732E-02
         0.30125E-02
         0.32111E-02
         0.42447E-02
         0.32111E-02
         0.24151E-02
         0.30138E-02
         0.32622E-02
         0.26351E-02
         0.27200E-02
         0.42510E-02
         0.36315E-02
         0.42510E-02
         0.32112E-02
         0.29480E-02
         0.34562E-02
         0.32637E-02
         0.37043E-02
         0.32112E-02
         0.30610E-02
         0.35233E-02
         0.26619E-02
         0.26619E-02
         0.24557E-02
         0.27514E-02
         0.42510E-02
         0.35233E-02
         0.42510E-02
         0.34894E-02
         0.27289E-02
         0.31864E-02
         0.32622E-02
         0.27044E-02
         0.27825E-02
         0.27825E-02
         0.27025E-02
         0.31934E-02
         0.31934E-02
         0.37043E-02
         0.36220E-02
         0.28186E-02
         0.31753E-02
         0.33464E-02
         0.33464E-02
         0.32157E-02
         0.29824E-02
         0.32801E-02
         0.27289E-02
         0.30911E-02
         0.31864E-02
         0.32622E-02
         0.32622E-02
         0.30138E-02
         0.27200E-02
         0.27044E-02
         0.27825E-02
         0.27825E-02
         0.27025E-02
         0.31934E-02
         0.31934E-02
         0.32637E-02
         0.34562E-02
         0.37043E-02
         0.37043E-02
         0.36220E-02
         0.28186E-02
         0.29298E-02
         0.32624E-02
         0.32624E-02
         0.32157E-02
         0.29824E-02
         0.32801E-02
         0.32801E-02
         0.42448E-02
         0.35196E-02
         0.37737E-02
         0.42448E-02
         0.37737E-02
         0.37737E-02
         0.30126E-02
         0.32112E-02
         0.42448E-02
         0.32112E-02
         0.24150E-02
         0.30147E-02
         0.32633E-02
         0.26339E-02
         0.27200E-02
         0.42501E-02
         0.36306E-02
         0.42501E-02
         0.32114E-02
         0.29467E-02
         0.34558E-02
         0.32638E-02
         0.37039E-02
         0.32114E-02
         0.30598E-02
         0.35235E-02
         0.26604E-02
         0.26604E-02
         0.24559E-02
         0.27507E-02
         0.42501E-02
         0.35235E-02
         0.42501E-02
         0.34905E-02
         0.27289E-02
         0.31867E-02
         0.32633E-02
         0.27048E-02
         0.27825E-02
         0.27825E-02
         0.27026E-02
         0.31937E-02
         0.31937E-02
         0.37039E-02
         0.36219E-02
         0.28183E-02
         0.31758E-02
         0.33463E-02
         0.33463E-02
         0.32166E-02
         0.29823E-02
         0.32799E-02
         0.27289E-02
         0.30902E-02
         0.31867E-02
         0.32633E-02
         0.32633E-02
         0.30147E-02
         0.27200E-02
         0.27048E-02
         0.27825E-02
         0.27825E-02
         0.27026E-02
         0.31937E-02
         0.31937E-02
         0.32638E-02
         0.34558E-02
         0.37039E-02
         0.37039E-02
         0.36219E-02
         0.28183E-02
         0.29308E-02
         0.32635E-02
         0.32635E-02
         0.32166E-02
         0.29823E-02
         0.32799E-02
         0.32799E-02
         0.42448E-02
         0.35196E-02
         0.37737E-02
         0.42448E-02
         0.37737E-02
         0.37737E-02
         0.30126E-02
         0.32112E-02
         0.42448E-02
         0.32112E-02
         0.24148E-02
         0.30147E-02
         0.32633E-02
         0.26327E-02
         0.27200E-02
         0.42493E-02
         0.36297E-02
         0.42493E-02
         0.32114E-02
         0.29455E-02
         0.34553E-02
         0.32638E-02
         0.37036E-02
         0.32114E-02
         0.30587E-02
         0.35235E-02
         0.26590E-02
         0.26590E-02
         0.24559E-02
         0.27501E-02
         0.42493E-02
         0.35235E-02
         0.42493E-02
         0.34905E-02
         0.27289E-02
         0.31867E-02
         0.32633E-02
         0.27048E-02
         0.27825E-02
         0.27825E-02
         0.27026E-02
         0.31937E-02
         0.31937E-02
         0.37036E-02
         0.36218E-02
         0.28180E-02
         0.31758E-02
         0.33462E-02
         0.33462E-02
         0.32166E-02
         0.29822E-02
         0.32797E-02
         0.27289E-02
         0.30892E-02
         0.31867E-02
         0.32633E-02
         0.32633E-02
         0.30147E-02
         0.27200E-02
         0.27048E-02
         0.27825E-02
         0.27825E-02
         0.27026E-02
         0.31937E-02
         0.31937E-02
         0.32638E-02
         0.34553E-02
         0.37036E-02
         0.37036E-02
         0.36218E-02
         0.28180E-02
         0.29308E-02
         0.32635E-02
         0.32635E-02
         0.32166E-02
         0.29822E-02
         0.32797E-02
         0.32797E-02
  
SCALARS              physical_window_y  double 1
LOOKUP_TABLE default
         0.43155E-02
         0.43155E-02
         0.43155E-02
         0.43155E-02
         0.43155E-02
         0.43155E-02
         0.43155E-02
         0.43155E-02
         0.34883E-02
         0.34883E-02
         0.34882E-02
         0.34882E-02
         0.32826E-02
         0.32142E-02
         0.32826E-02
         0.32142E-02
         0.37863E-02
         0.31884E-02
         0.37863E-02
         0.31884E-02
         0.27172E-02
         0.33887E-02
         0.37164E-02
         0.27172E-02
         0.33887E-02
         0.37164E-02
         0.27582E-02
         0.28966E-02
         0.27582E-02
         0.28954E-02
         0.37007E-02
         0.35859E-02
         0.37863E-02
         0.37007E-02
         0.35824E-02
         0.37863E-02
         0.29875E-02
         0.29875E-02
         0.29867E-02
         0.29867E-02
         0.28561E-02
         0.26860E-02
         0.28556E-02
         0.26852E-02
         0.29518E-02
         0.28068E-02
         0.29517E-02
         0.28066E-02
         0.29975E-02
         0.29949E-02
         0.37007E-02
         0.37007E-02
         0.28693E-02
         0.28693E-02
         0.28693E-02
         0.28693E-02
         0.27602E-02
         0.26193E-02
         0.27602E-02
         0.26193E-02
         0.37007E-02
         0.37007E-02
         0.37007E-02
         0.37007E-02
         0.37685E-02
         0.37665E-02
         0.37685E-02
         0.37665E-02
         0.30230E-02
         0.37003E-02
         0.30229E-02
         0.37003E-02
         0.37164E-02
         0.37164E-02
         0.31934E-02
         0.31921E-02
         0.32777E-02
         0.32771E-02
         0.32777E-02
         0.32771E-02
         0.27006E-02
         0.25920E-02
         0.27006E-02
         0.25920E-02
         0.25916E-02
         0.25916E-02
         0.29715E-02
         0.29715E-02
         0.29715E-02
         0.29715E-02
         0.26477E-02
         0.29102E-02
         0.26477E-02
         0.29102E-02
         0.34085E-02
         0.34085E-02
         0.35350E-02
         0.35350E-02
         0.35350E-02
         0.35350E-02
         0.29766E-02
         0.32272E-02
         0.29763E-02
         0.32254E-02
         0.29087E-02
         0.29835E-02
         0.29087E-02
         0.29825E-02
         0.37003E-02
         0.37003E-02
         0.37164E-02
         0.37164E-02
         0.37164E-02
         0.37164E-02
         0.33887E-02
         0.33887E-02
         0.28966E-02
         0.28954E-02
         0.31934E-02
         0.31921E-02
         0.32777E-02
         0.32771E-02
         0.32777E-02
         0.32771E-02
         0.27006E-02
         0.27006E-02
         0.25920E-02
         0.25920E-02
         0.25916E-02
         0.25916E-02
         0.26860E-02
         0.26852E-02
         0.28561E-02
         0.28556E-02
         0.29518E-02
         0.29517E-02
         0.29715E-02
         0.29715E-02
         0.29715E-02
         0.29715E-02
         0.26477E-02
         0.26477E-02
         0.27685E-02
         0.27685E-02
         0.34085E-02
         0.34085E-02
         0.35350E-02
         0.35350E-02
         0.35350E-02
         0.35350E-02
         0.29766E-02
         0.29763E-02
         0.31381E-02
         0.31368E-02
         0.31381E-02
         0.31368E-02
         0.43153E-02
         0.43153E-02
         0.43153E-02
         0.43153E-02
         0.34883E-02
         0.34883E-02
         0.32812E-02
         0.32132E-02
         0.37858E-02
         0.31880E-02
         0.27155E-02
         0.33883E-02
         0.37163E-02
         0.27535E-02
         0.28978E-02
         0.37004E-02
         0.35894E-02
         0.37858E-02
         0.29882E-02
         0.29882E-02
         0.28566E-02
         0.26867E-02
         0.29519E-02
         0.28071E-02
         0.30001E-02
         0.37004E-02
         0.28667E-02
         0.28667E-02
         0.27589E-02
         0.26183E-02
         0.37004E-02
         0.37004E-02
         0.37706E-02
         0.37706E-02
         0.30232E-02
         0.36991E-02
         0.37163E-02
         0.31947E-02
         0.32784E-02
         0.32784E-02
         0.27006E-02
         0.25920E-02
         0.25909E-02
         0.29715E-02
         0.29715E-02
         0.26476E-02
         0.29101E-02
         0.34078E-02
         0.35344E-02
         0.35344E-02
         0.29769E-02
         0.32290E-02
         0.29059E-02
         0.29845E-02
         0.36991E-02
         0.37163E-02
         0.37163E-02
         0.33883E-02
         0.28978E-02
         0.31947E-02
         0.32784E-02
         0.32784E-02
         0.27006E-02
         0.25920E-02
         0.25909E-02
         0.26867E-02
         0.28566E-02
         0.29519E-02
         0.29715E-02
         0.29715E-02
         0.26476E-02
         0.27685E-02
         0.34078E-02
         0.35344E-02
         0.35344E-02
         0.29769E-02
         0.31395E-02
         0.31395E-02
         0.43150E-02
         0.43150E-02
         0.43150E-02
         0.43150E-02
         0.34884E-02
         0.34884E-02
         0.32798E-02
         0.32122E-02
         0.37853E-02
         0.31876E-02
         0.27137E-02
         0.33879E-02
         0.37162E-02
         0.27488E-02
         0.28990E-02
         0.37001E-02
         0.35930E-02
         0.37853E-02
         0.29889E-02
         0.29889E-02
         0.28571E-02
         0.26875E-02
         0.29521E-02
         0.28074E-02
         0.30027E-02
         0.37001E-02
         0.28641E-02
         0.28641E-02
         0.27576E-02
         0.26173E-02
         0.37001E-02
         0.37001E-02
         0.37727E-02
         0.37727E-02
         0.30234E-02
         0.36979E-02
         0.37162E-02
         0.31960E-02
         0.32790E-02
         0.32790E-02
         0.27006E-02
         0.25920E-02
         0.25902E-02
         0.29715E-02
         0.29715E-02
         0.26476E-02
         0.29100E-02
         0.34071E-02
         0.35339E-02
         0.35339E-02
         0.29772E-02
         0.32307E-02
         0.29032E-02
         0.29855E-02
         0.36979E-02
         0.37162E-02
         0.37162E-02
         0.33879E-02
         0.28990E-02
         0.31960E-02
         0.32790E-02
         0.32790E-02
         0.27006E-02
         0.25920E-02
         0.25902E-02
         0.26875E-02
         0.28571E-02
         0.29521E-02
         0.29715E-02
         0.29715E-02
         0.26476E-02
         0.27684E-02
         0.34071E-02
         0.35339E-02
         0.35339E-02
         0.29772E-02
         0.31408E-02
         0.31408E-02
         0.43148E-02
         0.43148E-02
         0.43148E-02
         0.43148E-02
         0.34885E-02
         0.34885E-02
         0.32783E-02
         0.32112E-02
         0.37849E-02
         0.31872E-02
         0.27120E-02
         0.33875E-02
         0.37161E-02
         0.27441E-02
         0.29003E-02
         0.36998E-02
         0.35965E-02
         0.37849E-02
         0.29896E-02
         0.29896E-02
         0.28575E-02
         0.26882E-02
         0.29522E-02
         0.28077E-02
         0.30053E-02
         0.36998E-02
         0.28615E-02
         0.28615E-02
         0.27563E-02
         0.26163E-02
         0.36998E-02
         0.36998E-02
         0.37747E-02
         0.37747E-02
         0.30236E-02
         0.36967E-02
         0.37161E-02
         0.31973E-02
         0.32796E-02
         0.32796E-02
         0.27006E-02
         0.25920E-02
         0.25895E-02
         0.29714E-02
         0.29714E-02
         0.26475E-02
         0.29099E-02
         0.34063E-02
         0.35333E-02
         0.35333E-02
         0.29775E-02
         0.32325E-02
         0.29004E-02
         0.29865E-02
         0.36967E-02
         0.37161E-02
         0.37161E-02
         0.33875E-02
         0.29003E-02
         0.31973E-02
         0.32796E-02
         0.32796E-02
         0.27006E-02
         0.25920E-02
         0.25895E-02
         0.26882E-02
         0.28575E-02
         0.29522E-02
         0.29714E-02
         0.29714E-02
         0.26475E-02
         0.27684E-02
         0.34063E-02
         0.35333E-02
         0.35333E-02
         0.29775E-02
         0.31422E-02
         0.31422E-02
         0.43145E-02
         0.43145E-02
         0.43145E-02
         0.43145E-02
         0.34886E-02
         0.34886E-02
         0.32769E-02
         0.32102E-02
         0.37844E-02
         0.31868E-02
         0.27103E-02
         0.33871E-02
         0.37160E-02
         0.27394E-02
         0.29015E-02
         0.36995E-02
         0.36000E-02
         0.37844E-02
         0.29903E-02
         0.29903E-02
         0.28580E-02
         0.26890E-02
         0.29523E-02
         0.28079E-02
         0.30079E-02
         0.36995E-02
         0.28589E-02
         0.28589E-02
         0.27550E-02
         0.26152E-02
         0.36995E-02
         0.36995E-02
         0.37768E-02
         0.37768E-02
         0.30238E-02
         0.36956E-02
         0.37160E-02
         0.31986E-02
         0.32802E-02
         0.32802E-02
         0.27006E-02
         0.25920E-02
         0.25887E-02
         0.29714E-02
         0.29714E-02
         0.26475E-02
         0.29098E-02
         0.34056E-02
         0.35327E-02
         0.35327E-02
         0.29778E-02
         0.32342E-02
         0.28977E-02
         0.29875E-02
         0.36956E-02
         0.37160E-02
         0.37160E-02
         0.33871E-02
         0.29015E-02
         0.31986E-02
         0.32802E-02
         0.32802E-02
         0.27006E-02
         0.25920E-02
         0.25887E-02
         0.26890E-02
         0.28580E-02
         0.29523E-02
         0.29714E-02
         0.29714E-02
         0.26475E-02
         0.27683E-02
         0.34056E-02
         0.35327E-02
         0.35327E-02
         0.29778E-02
         0.31435E-02
         0.31435E-02
         0.43143E-02
         0.43143E-02
         0.43143E-02
         0.43143E-02
         0.34887E-02
         0.34887E-02
         0.32755E-02
         0.32091E-02
         0.37839E-02
         0.31864E-02
         0.27086E-02
         0.33867E-02
         0.37159E-02
         0.27347E-02
         0.29027E-02
         0.36991E-02
         0.36036E-02
         0.37839E-02
         0.29920E-02
         0.29920E-02
         0.28585E-02
         0.26897E-02
         0.29525E-02
         0.28082E-02
         0.30105E-02
         0.36991E-02
         0.28563E-02
         0.28563E-02
         0.27537E-02
         0.26142E-02
         0.36991E-02
         0.36991E-02
         0.37789E-02
         0.37789E-02
         0.30240E-02
         0.36944E-02
         0.37159E-02
         0.31999E-02
         0.32808E-02
         0.32808E-02
         0.27006E-02
         0.25920E-02
         0.25880E-02
         0.29714E-02
         0.29714E-02
         0.26474E-02
         0.29097E-02
         0.34049E-02
         0.35322E-02
         0.35322E-02
         0.29781E-02
         0.32360E-02
         0.28949E-02
         0.29885E-02
         0.36944E-02
         0.37159E-02
         0.37159E-02
         0.33867E-02
         0.29027E-02
         0.31999E-02
         0.32808E-02
         0.32808E-02
         0.27006E-02
         0.25920E-02
         0.25880E-02
         0.26897E-02
         0.28585E-02
         0.29525E-02
         0.29714E-02
         0.29714E-02
         0.26474E-02
         0.27683E-02
         0.34049E-02
         0.35322E-02
         0.35322E-02
         0.29781E-02
         0.31449E-02
         0.31449E-02
         0.43140E-02
         0.43140E-02
         0.43140E-02
         0.43140E-02
         0.34888E-02
         0.34888E-02
         0.32740E-02
         0.32081E-02
         0.37834E-02
         0.31860E-02
         0.27069E-02
         0.33863E-02
         0.37158E-02
         0.27299E-02
         0.29039E-02
         0.36988E-02
         0.36071E-02
         0.37834E-02
         0.29946E-02
         0.29946E-02
         0.28589E-02
         0.26905E-02
         0.29526E-02
         0.28085E-02
         0.30131E-02
         0.36988E-02
         0.28538E-02
         0.28538E-02
         0.27524E-02
         0.26132E-02
         0.36988E-02
         0.36988E-02
         0.37809E-02
         0.37809E-02
         0.30241E-02
         0.36932E-02
         0.37158E-02
         0.32012E-02
         0.32814E-02
         0.32814E-02
         0.27006E-02
         0.25920E-02
         0.25873E-02
         0.29714E-02
         0.29714E-02
         0.26473E-02
         0.29097E-02
         0.34041E-02
         0.35316E-02
         0.35316E-02
         0.29784E-02
         0.32378E-02
         0.28921E-02
         0.29895E-02
         0.36932E-02
         0.37158E-02
         0.37158E-02
         0.33863E-02
         0.29039E-02
         0.32012E-02
         0.32814E-02
         0.32814E-02
         0.27006E-02
         0.25920E-02
         0.25873E-02
         0.26905E-02
         0.28589E-02
         0.29526E-02
         0.29714E-02
         0.29714E-02
         0.26473E-02
         0.27683E-02
         0.34041E-02
         0.35316E-02
         0.35316E-02
         0.29784E-02
         0.31463E-02
         0.31463E-02
         0.43138E-02
         0.43138E-02
         0.43138E-02
         0.43138E-02
         0.34888E-02
         0.34888E-02
         0.32726E-02
         0.32071E-02
         0.37830E-02
         0.31856E-02
         0.27051E-02
         0.33859E-02
         0.37157E-02
         0.27252E-02
         0.29051E-02
         0.36985E-02
         0.36106E-02
         0.37830E-02
         0.29972E-02
         0.29972E-02
         0.28594E-02
         0.26912E-02
         0.29528E-02
         0.28087E-02
         0.30156E-02
         0.36985E-02
         0.28512E-02
         0.28512E-02
         0.27512E-02
         0.26122E-02
         0.36985E-02
         0.36985E-02
         0.37830E-02
         0.37830E-02
         0.30243E-02
         0.36920E-02
         0.37157E-02
         0.32025E-02
         0.32821E-02
         0.32821E-02
         0.27006E-02
         0.25920E-02
         0.25866E-02
         0.29714E-02
         0.29714E-02
         0.26473E-02
         0.29096E-02
         0.34034E-02
         0.35310E-02
         0.35310E-02
         0.29787E-02
         0.32396E-02
         0.28894E-02
         0.29905E-02
         0.36920E-02
         0.37157E-02
         0.37157E-02
         0.33859E-02
         0.29051E-02
         0.32025E-02
         0.32821E-02
         0.32821E-02
         0.27006E-02
         0.25920E-02
         0.25866E-02
         0.26912E-02
         0.28594E-02
         0.29528E-02
         0.29714E-02
         0.29714E-02
         0.26473E-02
         0.27682E-02
         0.34034E-02
         0.35310E-02
         0.35310E-02
         0.29787E-02
         0.31476E-02
         0.31476E-02
         0.43135E-02
         0.43135E-02
         0.43135E-02
         0.43135E-02
         0.34889E-02
         0.34889E-02
         0.32712E-02
         0.32061E-02
         0.37825E-02
         0.31852E-02
         0.27034E-02
         0.33856E-02
         0.37156E-02
         0.27205E-02
         0.29063E-02
         0.36982E-02
         0.36142E-02
         0.37851E-02
         0.29998E-02
         0.29998E-02
         0.28599E-02
         0.26920E-02
         0.29529E-02
         0.28090E-02
         0.30182E-02
         0.36982E-02
         0.28486E-02
         0.28486E-02
         0.27499E-02
         0.26112E-02
         0.36982E-02
         0.36982E-02
         0.37851E-02
         0.37851E-02
         0.30245E-02
         0.36908E-02
         0.37156E-02
         0.32038E-02
         0.32827E-02
         0.32827E-02
         0.27006E-02
         0.25920E-02
         0.25859E-02
         0.29714E-02
         0.29714E-02
         0.26472E-02
         0.29095E-02
         0.34027E-02
         0.35304E-02
         0.35304E-02
         0.29790E-02
         0.32413E-02
         0.28866E-02
         0.29915E-02
         0.36908E-02
         0.37156E-02
         0.37156E-02
         0.33856E-02
         0.29063E-02
         0.32038E-02
         0.32827E-02
         0.32827E-02
         0.27006E-02
         0.25920E-02
         0.25859E-02
         0.26920E-02
         0.28599E-02
         0.29529E-02
         0.29714E-02
         0.29714E-02
         0.26472E-02
         0.27682E-02
         0.34027E-02
         0.35304E-02
         0.35304E-02
         0.29790E-02
         0.31490E-02
         0.31490E-02
         0.43133E-02
         0.43133E-02
         0.43133E-02
         0.43133E-02
         0.34890E-02
         0.34890E-02
         0.32698E-02
         0.32051E-02
         0.37820E-02
         0.31848E-02
         0.27017E-02
         0.33851E-02
         0.37155E-02
         0.27158E-02
         0.29075E-02
         0.36979E-02
         0.36177E-02
         0.37871E-02
         0.30024E-02
         0.30024E-02
         0.28603E-02
         0.26927E-02
         0.29530E-02
         0.28093E-02
         0.30208E-02
         0.36979E-02
         0.28460E-02
         0.28460E-02
         0.27486E-02
         0.26101E-02
         0.36979E-02
         0.36979E-02
         0.37871E-02
         0.37871E-02
         0.30247E-02
         0.36896E-02
         0.37155E-02
         0.32051E-02
         0.32833E-02
         0.32833E-02
         0.27006E-02
         0.25920E-02
         0.25851E-02
         0.29714E-02
         0.29714E-02
         0.26472E-02
         0.29094E-02
         0.34019E-02
         0.35299E-02
         0.35299E-02
         0.29793E-02
         0.32431E-02
         0.28838E-02
         0.29925E-02
         0.36896E-02
         0.37155E-02
         0.37155E-02
         0.33851E-02
         0.29075E-02
         0.32051E-02
         0.32833E-02
         0.32833E-02
         0.27006E-02
         0.25920E-02
         0.25851E-02
         0.26927E-02
         0.28603E-02
         0.29530E-02
         0.29714E-02
         0.29714E-02
         0.26472E-02
         0.27681E-02
         0.34019E-02
         0.35299E-02
         0.35299E-02
         0.29793E-02
         0.31503E-02
         0.31503E-02
         0.43130E-02
         0.43130E-02
         0.43130E-02
         0.43130E-02
         0.34891E-02
         0.34891E-02
         0.32683E-02
         0.32041E-02
         0.37816E-02
         0.31844E-02
         0.27000E-02
         0.33848E-02
         0.37154E-02
         0.27111E-02
         0.29087E-02
         0.36976E-02
         0.36213E-02
         0.37892E-02
         0.30050E-02
         0.30050E-02
         0.28608E-02
         0.26935E-02
         0.29532E-02
         0.28096E-02
         0.30234E-02
         0.36976E-02
         0.28434E-02
         0.28434E-02
         0.27472E-02
         0.26091E-02
         0.36976E-02
         0.36976E-02
         0.37892E-02
         0.37892E-02
         0.30249E-02
         0.36885E-02
         0.37154E-02
         0.32064E-02
         0.32839E-02
         0.32839E-02
         0.27006E-02
         0.25920E-02
         0.25844E-02
         0.29714E-02
         0.29714E-02
         0.26471E-02
         0.29094E-02
         0.34012E-02
         0.35293E-02
         0.35293E-02
         0.29797E-02
         0.32449E-02
         0.28811E-02
         0.29935E-02
         0.36885E-02
         0.37154E-02
         0.37154E-02
         0.33848E-02
         0.29087E-02
         0.32064E-02
         0.32839E-02
         0.32839E-02
         0.27006E-02
         0.25920E-02
         0.25844E-02
         0.26935E-02
         0.28608E-02
         0.29532E-02
         0.29714E-02
         0.29714E-02
         0.26471E-02
         0.27681E-02
         0.34012E-02
         0.35293E-02
         0.35293E-02
         0.29797E-02
         0.31517E-02
         0.31517E-02
         0.43128E-02
         0.43128E-02
         0.43128E-02
         0.43128E-02
         0.34892E-02
         0.34892E-02
         0.32669E-02
         0.32031E-02
         0.37811E-02
         0.31840E-02
         0.26982E-02
         0.33844E-02
         0.37152E-02
         0.27063E-02
         0.29099E-02
         0.36973E-02
         0.36248E-02
         0.37913E-02
         0.30076E-02
         0.30076E-02
         0.28613E-02
         0.26942E-02
         0.29533E-02
         0.28099E-02
         0.30260E-02
         0.36973E-02
         0.28408E-02
         0.28408E-02
         0.27460E-02
         0.26081E-02
         0.36973E-02
         0.36973E-02
         0.37913E-02
         0.37913E-02
         0.30250E-02
         0.36873E-02
         0.37152E-02
         0.32077E-02
         0.32845E-02
         0.32845E-02
         0.27006E-02
         0.25920E-02
         0.25837E-02
         0.29714E-02
         0.29714E-02
         0.26471E-02
         0.29093E-02
         0.34005E-02
         0.35287E-02
         0.35287E-02
         0.29800E-02
         0.32467E-02
         0.28783E-02
         0.29945E-02
         0.36873E-02
         0.37152E-02
         0.37152E-02
         0.33844E-02
         0.29099E-02
         0.32077E-02
         0.32845E-02
         0.32845E-02
         0.27006E-02
         0.25920E-02
         0.25837E-02
         0.26942E-02
         0.28613E-02
         0.29533E-02
         0.29714E-02
         0.29714E-02
         0.26471E-02
         0.27681E-02
         0.34005E-02
         0.35287E-02
         0.35287E-02
         0.29800E-02
         0.31530E-02
         0.31530E-02
         0.43125E-02
         0.43125E-02
         0.43125E-02
         0.43125E-02
         0.34893E-02
         0.34893E-02
         0.32655E-02
         0.32021E-02
         0.37806E-02
         0.31836E-02
         0.26965E-02
         0.33840E-02
         0.37151E-02
         0.27016E-02
         0.29111E-02
         0.36969E-02
         0.36283E-02
         0.37933E-02
         0.30102E-02
         0.30102E-02
         0.28617E-02
         0.26950E-02
         0.29535E-02
         0.28101E-02
         0.30286E-02
         0.36969E-02
         0.28382E-02
         0.28382E-02
         0.27447E-02
         0.26071E-02
         0.36969E-02
         0.36969E-02
         0.37933E-02
         0.37933E-02
         0.30252E-02
         0.36861E-02
         0.37151E-02
         0.32090E-02
         0.32852E-02
         0.32852E-02
         0.27006E-02
         0.25920E-02
         0.25830E-02
         0.29714E-02
         0.29714E-02
         0.26470E-02
         0.29092E-02
         0.33997E-02
         0.35282E-02
         0.35282E-02
         0.29803E-02
         0.32484E-02
         0.28755E-02
         0.29955E-02
         0.36861E-02
         0.37151E-02
         0.37151E-02
         0.33840E-02
         0.29111E-02
         0.32090E-02
         0.32852E-02
         0.32852E-02
         0.27006E-02
         0.25920E-02
         0.25830E-02
         0.26950E-02
         0.28617E-02
         0.29535E-02
         0.29714E-02
         0.29714E-02
         0.26470E-02
         0.27680E-02
         0.33997E-02
         0.35282E-02
         0.35282E-02
         0.29803E-02
         0.31544E-02
         0.31544E-02
         0.43123E-02
         0.43123E-02
         0.43123E-02
         0.43123E-02
         0.34893E-02
         0.34893E-02
         0.32640E-02
         0.32011E-02
         0.37801E-02
         0.31832E-02
         0.26948E-02
         0.33836E-02
         0.37150E-02
         0.26969E-02
         0.29123E-02
         0.36966E-02
         0.36319E-02
         0.37954E-02
         0.30128E-02
         0.30128E-02
         0.28622E-02
         0.26957E-02
         0.29536E-02
         0.28104E-02
         0.30312E-02
         0.36966E-02
         0.28357E-02
         0.28357E-02
         0.27434E-02
         0.26061E-02
         0.36966E-02
         0.36966E-02
         0.37954E-02
         0.37954E-02
         0.30254E-02
         0.36849E-02
         0.37150E-02
         0.32103E-02
         0.32858E-02
         0.32858E-02
         0.27006E-02
         0.25920E-02
         0.25823E-02
         0.29714E-02
         0.29714E-02
         0.26470E-02
         0.29091E-02
         0.33990E-02
         0.35276E-02
         0.35276E-02
         0.29806E-02
         0.32502E-02
         0.28728E-02
         0.29965E-02
         0.36849E-02
         0.37150E-02
         0.37150E-02
         0.33836E-02
         0.29123E-02
         0.32103E-02
         0.32858E-02
         0.32858E-02
         0.27006E-02
         0.25920E-02
         0.25823E-02
         0.26957E-02
         0.28622E-02
         0.29536E-02
         0.29714E-02
         0.29714E-02
         0.26470E-02
         0.27680E-02
         0.33990E-02
         0.35276E-02
         0.35276E-02
         0.29806E-02
         0.31557E-02
         0.31557E-02
         0.43120E-02
         0.43120E-02
         0.43120E-02
         0.43120E-02
         0.34894E-02
         0.34894E-02
         0.32626E-02
         0.32001E-02
         0.37797E-02
         0.31828E-02
         0.26931E-02
         0.33832E-02
         0.37149E-02
         0.26922E-02
         0.29135E-02
         0.36963E-02
         0.36354E-02
         0.37975E-02
         0.30154E-02
         0.30154E-02
         0.28627E-02
         0.26965E-02
         0.29537E-02
         0.28107E-02
         0.30338E-02
         0.36963E-02
         0.28331E-02
         0.28331E-02
         0.27421E-02
         0.26051E-02
         0.36963E-02
         0.36963E-02
         0.37975E-02
         0.37975E-02
         0.30256E-02
         0.36838E-02
         0.37149E-02
         0.32116E-02
         0.32864E-02
         0.32864E-02
         0.27006E-02
         0.25920E-02
         0.25815E-02
         0.29714E-02
         0.29714E-02
         0.26469E-02
         0.29090E-02
         0.33983E-02
         0.35270E-02
         0.35270E-02
         0.29809E-02
         0.32519E-02
         0.28700E-02
         0.29975E-02
         0.36838E-02
         0.37149E-02
         0.37149E-02
         0.33832E-02
         0.29135E-02
         0.32116E-02
         0.32864E-02
         0.32864E-02
         0.27006E-02
         0.25920E-02
         0.25815E-02
         0.26965E-02
         0.28627E-02
         0.29537E-02
         0.29714E-02
         0.29714E-02
         0.26469E-02
         0.27680E-02
         0.33983E-02
         0.35270E-02
         0.35270E-02
         0.29809E-02
         0.31571E-02
         0.31571E-02
         0.43118E-02
         0.43118E-02
         0.43118E-02
         0.43118E-02
         0.34895E-02
         0.34895E-02
         0.32612E-02
         0.31990E-02
         0.37792E-02
         0.31824E-02
         0.26913E-02
         0.33828E-02
         0.37148E-02
         0.26875E-02
         0.29148E-02
         0.36960E-02
         0.36390E-02
         0.37995E-02
         0.30180E-02
         0.30180E-02
         0.28631E-02
         0.26972E-02
         0.29539E-02
         0.28110E-02
         0.30364E-02
         0.36960E-02
         0.28305E-02
         0.28305E-02
         0.27408E-02
         0.26040E-02
         0.36960E-02
         0.36960E-02
         0.37995E-02
         0.37995E-02
         0.30258E-02
         0.36826E-02
         0.37148E-02
         0.32129E-02
         0.32870E-02
         0.32870E-02
         0.27006E-02
         0.25920E-02
         0.25808E-02
         0.29713E-02
         0.29713E-02
         0.26468E-02
         0.29089E-02
         0.33975E-02
         0.35264E-02
         0.35264E-02
         0.29812E-02
         0.32537E-02
         0.28672E-02
         0.29985E-02
         0.36826E-02
         0.37148E-02
         0.37148E-02
         0.33828E-02
         0.29148E-02
         0.32129E-02
         0.32870E-02
         0.32870E-02
         0.27006E-02
         0.25920E-02
         0.25808E-02
         0.26972E-02
         0.28631E-02
         0.29539E-02
         0.29713E-02
         0.29713E-02
         0.26468E-02
         0.27679E-02
         0.33975E-02
         0.35264E-02
         0.35264E-02
         0.29812E-02
         0.31585E-02
         0.31585E-02
         0.43115E-02
         0.43115E-02
         0.43115E-02
         0.43115E-02
         0.34896E-02
         0.34896E-02
         0.32597E-02
         0.31980E-02
         0.37787E-02
         0.31820E-02
         0.26896E-02
         0.33824E-02
         0.37147E-02
         0.26827E-02
         0.29160E-02
         0.36957E-02
         0.36425E-02
         0.38016E-02
         0.30206E-02
         0.30206E-02
         0.28636E-02
         0.26980E-02
         0.29540E-02
         0.28112E-02
         0.30390E-02
         0.36957E-02
         0.28279E-02
         0.28279E-02
         0.27395E-02
         0.26030E-02
         0.36957E-02
         0.36957E-02
         0.38016E-02
         0.38016E-02
         0.30260E-02
         0.36814E-02
         0.37147E-02
         0.32141E-02
         0.32876E-02
         0.32876E-02
         0.27006E-02
         0.25920E-02
         0.25801E-02
         0.29713E-02
         0.29713E-02
         0.26468E-02
         0.29089E-02
         0.33968E-02
         0.35259E-02
         0.35259E-02
         0.29815E-02
         0.32555E-02
         0.28645E-02
         0.29995E-02
         0.36814E-02
         0.37147E-02
         0.37147E-02
         0.33824E-02
         0.29160E-02
         0.32141E-02
         0.32876E-02
         0.32876E-02
         0.27006E-02
         0.25920E-02
         0.25801E-02
         0.26980E-02
         0.28636E-02
         0.29540E-02
         0.29713E-02
         0.29713E-02
         0.26468E-02
         0.27679E-02
         0.33968E-02
         0.35259E-02
         0.35259E-02
         0.29815E-02
         0.31598E-02
         0.31598E-02
         0.43113E-02
         0.43113E-02
         0.43113E-02
         0.43113E-02
         0.34897E-02
         0.34897E-02
         0.32583E-02
         0.31970E-02
         0.37783E-02
         0.31816E-02
         0.26879E-02
         0.33820E-02
         0.37146E-02
         0.26780E-02
         0.29172E-02
         0.36954E-02
         0.36460E-02
         0.38037E-02
         0.30232E-02
         0.30232E-02
         0.28641E-02
         0.26987E-02
         0.29542E-02
         0.28115E-02
         0.30416E-02
         0.36954E-02
         0.28253E-02
         0.28253E-02
         0.27382E-02
         0.26020E-02
         0.36954E-02
         0.36954E-02
         0.38037E-02
         0.38037E-02
         0.30261E-02
         0.36802E-02
         0.37146E-02
         0.32154E-02
         0.32882E-02
         0.32882E-02
         0.27006E-02
         0.25921E-02
         0.25794E-02
         0.29713E-02
         0.29713E-02
         0.26467E-02
         0.29088E-02
         0.33961E-02
         0.35253E-02
         0.35253E-02
         0.29818E-02
         0.32573E-02
         0.28617E-02
         0.30005E-02
         0.36802E-02
         0.37146E-02
         0.37146E-02
         0.33820E-02
         0.29172E-02
         0.32154E-02
         0.32882E-02
         0.32882E-02
         0.27006E-02
         0.25921E-02
         0.25794E-02
         0.26987E-02
         0.28641E-02
         0.29542E-02
         0.29713E-02
         0.29713E-02
         0.26467E-02
         0.27678E-02
         0.33961E-02
         0.35253E-02
         0.35253E-02
         0.29818E-02
         0.31612E-02
         0.31612E-02
         0.43110E-02
         0.43110E-02
         0.43110E-02
         0.43110E-02
         0.34898E-02
         0.34898E-02
         0.32569E-02
         0.31960E-02
         0.37778E-02
         0.31812E-02
         0.26862E-02
         0.33816E-02
         0.37145E-02
         0.26733E-02
         0.29184E-02
         0.36950E-02
         0.36495E-02
         0.38057E-02
         0.30258E-02
         0.30258E-02
         0.28645E-02
         0.26995E-02
         0.29543E-02
         0.28118E-02
         0.30442E-02
         0.36950E-02
         0.28227E-02
         0.28227E-02
         0.27369E-02
         0.26010E-02
         0.36950E-02
         0.36950E-02
         0.38057E-02
         0.38057E-02
         0.30263E-02
         0.36790E-02
         0.37145E-02
         0.32167E-02
         0.32889E-02
         0.32889E-02
         0.27006E-02
         0.25921E-02
         0.25787E-02
         0.29713E-02
         0.29713E-02
         0.26467E-02
         0.29087E-02
         0.33953E-02
         0.35247E-02
         0.35247E-02
         0.29821E-02
         0.32590E-02
         0.28589E-02
         0.30015E-02
         0.36790E-02
         0.37145E-02
         0.37145E-02
         0.33816E-02
         0.29184E-02
         0.32167E-02
         0.32889E-02
         0.32889E-02
         0.27006E-02
         0.25921E-02
         0.25787E-02
         0.26995E-02
         0.28645E-02
         0.29543E-02
         0.29713E-02
         0.29713E-02
         0.26467E-02
         0.27678E-02
         0.33953E-02
         0.35247E-02
         0.35247E-02
         0.29821E-02
         0.31625E-02
         0.31625E-02
         0.43108E-02
         0.43108E-02
         0.43108E-02
         0.43108E-02
         0.34898E-02
         0.34898E-02
         0.32555E-02
         0.31950E-02
         0.37773E-02
         0.31808E-02
         0.26845E-02
         0.33812E-02
         0.37144E-02
         0.26686E-02
         0.29196E-02
         0.36948E-02
         0.36531E-02
         0.38078E-02
         0.30285E-02
         0.30285E-02
         0.28650E-02
         0.27002E-02
         0.29544E-02
         0.28120E-02
         0.30467E-02
         0.36948E-02
         0.28201E-02
         0.28201E-02
         0.27356E-02
         0.26000E-02
         0.36948E-02
         0.36948E-02
         0.38078E-02
         0.38078E-02
         0.30265E-02
         0.36779E-02
         0.37144E-02
         0.32181E-02
         0.32895E-02
         0.32895E-02
         0.27006E-02
         0.25921E-02
         0.25779E-02
         0.29713E-02
         0.29713E-02
         0.26466E-02
         0.29086E-02
         0.33946E-02
         0.35242E-02
         0.35242E-02
         0.29824E-02
         0.32608E-02
         0.28562E-02
         0.30025E-02
         0.36779E-02
         0.37144E-02
         0.37144E-02
         0.33812E-02
         0.29196E-02
         0.32181E-02
         0.32895E-02
         0.32895E-02
         0.27006E-02
         0.25921E-02
         0.25779E-02
         0.27002E-02
         0.28650E-02
         0.29544E-02
         0.29713E-02
         0.29713E-02
         0.26466E-02
         0.27678E-02
         0.33946E-02
         0.35242E-02
         0.35242E-02
         0.29824E-02
         0.31639E-02
         0.31639E-02
         0.43105E-02
         0.43105E-02
         0.43105E-02
         0.43105E-02
         0.34899E-02
         0.34899E-02
         0.32540E-02
         0.31940E-02
         0.37768E-02
         0.31804E-02
         0.26827E-02
         0.33808E-02
         0.37143E-02
         0.26639E-02
         0.29208E-02
         0.36944E-02
         0.36566E-02
         0.38099E-02
         0.30311E-02
         0.30311E-02
         0.28655E-02
         0.27010E-02
         0.29546E-02
         0.28123E-02
         0.30493E-02
         0.36944E-02
         0.28175E-02
         0.28175E-02
         0.27343E-02
         0.25990E-02
         0.36944E-02
         0.36944E-02
         0.38099E-02
         0.38099E-02
         0.30267E-02
         0.36767E-02
         0.37143E-02
         0.32193E-02
         0.32901E-02
         0.32901E-02
         0.27006E-02
         0.25921E-02
         0.25772E-02
         0.29713E-02
         0.29713E-02
         0.26466E-02
         0.29085E-02
         0.33939E-02
         0.35236E-02
         0.35236E-02
         0.29827E-02
         0.32626E-02
         0.28534E-02
         0.30035E-02
         0.36767E-02
         0.37143E-02
         0.37143E-02
         0.33808E-02
         0.29208E-02
         0.32193E-02
         0.32901E-02
         0.32901E-02
         0.27006E-02
         0.25921E-02
         0.25772E-02
         0.27010E-02
         0.28655E-02
         0.29546E-02
         0.29713E-02
         0.29713E-02
         0.26466E-02
         0.27677E-02
         0.33939E-02
         0.35236E-02
         0.35236E-02
         0.29827E-02
         0.31652E-02
         0.31652E-02
         0.43103E-02
         0.43103E-02
         0.43103E-02
         0.43103E-02
         0.34900E-02
         0.34900E-02
         0.32526E-02
         0.31930E-02
         0.37764E-02
         0.31800E-02
         0.26810E-02
         0.33804E-02
         0.37142E-02
         0.26591E-02
         0.29220E-02
         0.36941E-02
         0.36602E-02
         0.38119E-02
         0.30337E-02
         0.30337E-02
         0.28660E-02
         0.27017E-02
         0.29547E-02
         0.28126E-02
         0.30519E-02
         0.36941E-02
         0.28150E-02
         0.28150E-02
         0.27330E-02
         0.25979E-02
         0.36941E-02
         0.36941E-02
         0.38119E-02
         0.38119E-02
         0.30269E-02
         0.36755E-02
         0.37142E-02
         0.32206E-02
         0.32907E-02
         0.32907E-02
         0.27006E-02
         0.25921E-02
         0.25765E-02
         0.29713E-02
         0.29713E-02
         0.26465E-02
         0.29085E-02
         0.33931E-02
         0.35230E-02
         0.35230E-02
         0.29830E-02
         0.32643E-02
         0.28507E-02
         0.30045E-02
         0.36755E-02
         0.37142E-02
         0.37142E-02
         0.33804E-02
         0.29220E-02
         0.32206E-02
         0.32907E-02
         0.32907E-02
         0.27006E-02
         0.25921E-02
         0.25765E-02
         0.27017E-02
         0.28660E-02
         0.29547E-02
         0.29713E-02
         0.29713E-02
         0.26465E-02
         0.27677E-02
         0.33931E-02
         0.35230E-02
         0.35230E-02
         0.29830E-02
         0.31666E-02
         0.31666E-02
         0.43100E-02
         0.43100E-02
         0.43100E-02
         0.43100E-02
         0.34901E-02
         0.34901E-02
         0.32512E-02
         0.31920E-02
         0.37759E-02
         0.31796E-02
         0.26793E-02
         0.33800E-02
         0.37141E-02
         0.26544E-02
         0.29232E-02
         0.36938E-02
         0.36637E-02
         0.38140E-02
         0.30363E-02
         0.30363E-02
         0.28664E-02
         0.27025E-02
         0.29548E-02
         0.28129E-02
         0.30545E-02
         0.36938E-02
         0.28124E-02
         0.28124E-02
         0.27317E-02
         0.25969E-02
         0.36938E-02
         0.36938E-02
         0.38140E-02
         0.38140E-02
         0.30271E-02
         0.36743E-02
         0.37141E-02
         0.32219E-02
         0.32913E-02
         0.32913E-02
         0.27006E-02
         0.25921E-02
         0.25758E-02
         0.29713E-02
         0.29713E-02
         0.26465E-02
         0.29084E-02
         0.33924E-02
         0.35224E-02
         0.35224E-02
         0.29833E-02
         0.32661E-02
         0.28479E-02
         0.30055E-02
         0.36743E-02
         0.37141E-02
         0.37141E-02
         0.33800E-02
         0.29232E-02
         0.32219E-02
         0.32913E-02
         0.32913E-02
         0.27006E-02
         0.25921E-02
         0.25758E-02
         0.27025E-02
         0.28664E-02
         0.29548E-02
         0.29713E-02
         0.29713E-02
         0.26465E-02
         0.27677E-02
         0.33924E-02
         0.35224E-02
         0.35224E-02
         0.29833E-02
         0.31680E-02
         0.31680E-02
         0.43098E-02
         0.43098E-02
         0.43098E-02
         0.43098E-02
         0.34901E-02
         0.34901E-02
         0.32498E-02
         0.31910E-02
         0.37754E-02
         0.31792E-02
         0.26776E-02
         0.33796E-02
         0.37140E-02
         0.26497E-02
         0.29232E-02
         0.36935E-02
         0.36637E-02
         0.38140E-02
         0.30363E-02
         0.30363E-02
         0.28664E-02
         0.27025E-02
         0.29548E-02
         0.28129E-02
         0.30545E-02
         0.36935E-02
         0.28098E-02
         0.28098E-02
         0.27304E-02
         0.25959E-02
         0.36935E-02
         0.36935E-02
         0.38140E-02
         0.38140E-02
         0.30271E-02
         0.36731E-02
         0.37140E-02
         0.32219E-02
         0.32913E-02
         0.32913E-02
         0.27006E-02
         0.25921E-02
         0.25751E-02
         0.29713E-02
         0.29713E-02
         0.26464E-02
         0.29083E-02
         0.33916E-02
         0.35219E-02
         0.35219E-02
         0.29833E-02
         0.32661E-02
         0.28451E-02
         0.30055E-02
         0.36731E-02
         0.37140E-02
         0.37140E-02
         0.33796E-02
         0.29232E-02
         0.32219E-02
         0.32913E-02
         0.32913E-02
         0.27006E-02
         0.25921E-02
         0.25751E-02
         0.27025E-02
         0.28664E-02
         0.29548E-02
         0.29713E-02
         0.29713E-02
         0.26464E-02
         0.27676E-02
         0.33916E-02
         0.35219E-02
         0.35219E-02
         0.29833E-02
         0.31680E-02
         0.31680E-02
  
SCALARS              physical_window_z  double 1
LOOKUP_TABLE default
         0.26928E-02
         0.26928E-02
         0.26928E-02
         0.26928E-02
         0.26928E-02
         0.26928E-02
         0.26928E-02
         0.26928E-02
         0.26928E-02
         0.26928E-02
         0.26928E-02
         0.26928E-02
         0.26928E-02
         0.26928E-02
         0.26928E-02
         0.26928E-02
         0.26928E-02
         0.26928E-02
         0.26928E-02
         0.26928E-02
         0.26928E-02
         0.26928E-02
         0.26928E-02
         0.26928E-02
         0.26928E-02
         0.26928E-02
         0.26928E-02
         0.26928E-02
         0.26928E-02
         0.26928E-02
         0.26928E-02
         0.26928E-02
         0.26928E-02
         0.26928E-02
         0.26928E-02
         0.26928E-02
         0.26928E-02
         0.26928E-02
         0.26928E-02
         0.26928E-02
         0.26928E-02
         0.26928E-02
         0.26928E-02
         0.26928E-02
         0.26928E-02
         0.26928E-02
         0.26928E-02
         0.26928E-02
         0.26928E-02
         0.26928E-02
         0.26928E-02
         0.26928E-02
         0.26928E-02
         0.26928E-02
         0.26928E-02
         0.26928E-02
         0.26928E-02
         0.26928E-02
         0.26928E-02
         0.26928E-02
         0.26928E-02
         0.26928E-02
         0.26928E-02
         0.26928E-02
         0.26928E-02
         0.26928E-02
         0.26928E-02
         0.26928E-02
         0.26928E-02
         0.26928E-02
         0.26928E-02
         0.26928E-02
         0.26928E-02
         0.26928E-02
         0.26928E-02
         0.26928E-02
         0.26928E-02
         0.26928E-02
         0.26928E-02
         0.26928E-02
         0.26928E-02
         0.26928E-02
         0.26928E-02
         0.26928E-02
         0.26928E-02
         0.26928E-02
         0.26928E-02
         0.26928E-02
         0.26928E-02
         0.26928E-02
         0.26928E-02
         0.26928E-02
         0.26928E-02
         0.26928E-02
         0.26928E-02
         0.26928E-02
         0.26928E-02
         0.26928E-02
         0.26928E-02
         0.26928E-02
         0.26928E-02
         0.26928E-02
         0.26928E-02
         0.26928E-02
         0.26928E-02
         0.26928E-02
         0.26928E-02
         0.26928E-02
         0.26928E-02
         0.26928E-02
         0.26928E-02
         0.26928E-02
         0.26928E-02
         0.26928E-02
         0.26928E-02
         0.26928E-02
         0.26928E-02
         0.26928E-02
         0.26928E-02
         0.26928E-02
         0.26928E-02
         0.26928E-02
         0.26928E-02
         0.26928E-02
         0.26928E-02
         0.26928E-02
         0.26928E-02
         0.26928E-02
         0.26928E-02
         0.26928E-02
         0.26928E-02
         0.26928E-02
         0.26928E-02
         0.26928E-02
         0.26928E-02
         0.26928E-02
         0.26928E-02
         0.26928E-02
         0.26928E-02
         0.26928E-02
         0.26928E-02
         0.26928E-02
         0.26928E-02
         0.26928E-02
         0.26928E-02
         0.26928E-02
         0.26928E-02
         0.26928E-02
         0.26928E-02
         0.26928E-02
         0.26928E-02
         0.26928E-02
         0.26928E-02
         0.26928E-02
         0.26928E-02
         0.26928E-02
         0.26927E-02
         0.26927E-02
         0.26927E-02
         0.26927E-02
         0.26927E-02
         0.26927E-02
         0.26927E-02
         0.26927E-02
         0.26927E-02
         0.26927E-02
         0.26927E-02
         0.26927E-02
         0.26927E-02
         0.26927E-02
         0.26927E-02
         0.26927E-02
         0.26927E-02
         0.26927E-02
         0.26927E-02
         0.26927E-02
         0.26927E-02
         0.26927E-02
         0.26927E-02
         0.26927E-02
         0.26927E-02
         0.26927E-02
         0.26927E-02
         0.26927E-02
         0.26927E-02
         0.26927E-02
         0.26927E-02
         0.26927E-02
         0.26927E-02
         0.26927E-02
         0.26927E-02
         0.26927E-02
         0.26927E-02
         0.26927E-02
         0.26927E-02
         0.26927E-02
         0.26927E-02
         0.26927E-02
         0.26927E-02
         0.26927E-02
         0.26927E-02
         0.26927E-02
         0.26927E-02
         0.26927E-02
         0.26927E-02
         0.26927E-02
         0.26927E-02
         0.26927E-02
         0.26927E-02
         0.26927E-02
         0.26927E-02
         0.26927E-02
         0.26927E-02
         0.26927E-02
         0.26927E-02
         0.26927E-02
         0.26927E-02
         0.26927E-02
         0.26927E-02
         0.26927E-02
         0.26927E-02
         0.26927E-02
         0.26927E-02
         0.26927E-02
         0.26927E-02
         0.26927E-02
         0.26927E-02
         0.26927E-02
         0.26927E-02
         0.26927E-02
         0.26927E-02
         0.26927E-02
         0.26927E-02
         0.26927E-02
         0.26927E-02
         0.26927E-02
         0.26927E-02
         0.26927E-02
         0.26927E-02
         0.26927E-02
         0.26927E-02
         0.26927E-02
         0.26927E-02
         0.26927E-02
         0.26927E-02
         0.26927E-02
         0.26927E-02
         0.26927E-02
         0.26927E-02
         0.26927E-02
         0.26927E-02
         0.26927E-02
         0.26927E-02
         0.26927E-02
         0.26927E-02
         0.26927E-02
         0.26927E-02
         0.26927E-02
         0.26927E-02
         0.26927E-02
         0.26927E-02
         0.26927E-02
         0.26927E-02
         0.26927E-02
         0.26927E-02
         0.26927E-02
         0.26927E-02
         0.26927E-02
         0.26927E-02
         0.26927E-02
         0.26927E-02
         0.26927E-02
         0.26927E-02
         0.26927E-02
         0.26927E-02
         0.26927E-02
         0.26927E-02
         0.26927E-02
         0.26927E-02
         0.26927E-02
         0.26927E-02
         0.26927E-02
         0.26927E-02
         0.26927E-02
         0.26927E-02
         0.26927E-02
         0.26927E-02
         0.26927E-02
         0.26927E-02
         0.26927E-02
         0.26927E-02
         0.26927E-02
         0.26927E-02
         0.26927E-02
         0.26927E-02
         0.26927E-02
         0.26927E-02
         0.26927E-02
         0.26927E-02
         0.26927E-02
         0.26927E-02
         0.26927E-02
         0.26927E-02
         0.26927E-02
         0.26927E-02
         0.26927E-02
         0.26927E-02
         0.26927E-02
         0.26927E-02
         0.26927E-02
         0.26927E-02
         0.26927E-02
         0.26927E-02
         0.26927E-02
         0.26927E-02
         0.26927E-02
         0.26927E-02
         0.26927E-02
         0.26927E-02
         0.26927E-02
         0.26927E-02
         0.26927E-02
         0.26927E-02
         0.26927E-02
         0.26927E-02
         0.26927E-02
         0.26927E-02
         0.26927E-02
         0.26927E-02
         0.26927E-02
         0.26927E-02
         0.26927E-02
         0.26927E-02
         0.26927E-02
         0.26927E-02
         0.26927E-02
         0.26927E-02
         0.26927E-02
         0.26927E-02
         0.26927E-02
         0.26927E-02
         0.26927E-02
         0.26927E-02
         0.26927E-02
         0.26927E-02
         0.26927E-02
         0.26927E-02
         0.26927E-02
         0.26927E-02
         0.26927E-02
         0.26927E-02
         0.26927E-02
         0.26927E-02
         0.26927E-02
         0.26927E-02
         0.26927E-02
         0.26927E-02
         0.26927E-02
         0.26927E-02
         0.26927E-02
         0.26927E-02
         0.26927E-02
         0.26927E-02
         0.26927E-02
         0.26927E-02
         0.26927E-02
         0.26927E-02
         0.26927E-02
         0.26927E-02
         0.26927E-02
         0.26927E-02
         0.26927E-02
         0.26927E-02
         0.26927E-02
         0.26927E-02
         0.26927E-02
         0.26927E-02
         0.26927E-02
         0.26927E-02
         0.26927E-02
         0.26927E-02
         0.26927E-02
         0.26927E-02
         0.26927E-02
         0.26927E-02
         0.26927E-02
         0.26927E-02
         0.26927E-02
         0.26927E-02
         0.26927E-02
         0.26927E-02
         0.26927E-02
         0.26927E-02
         0.26927E-02
         0.26927E-02
         0.26927E-02
         0.26927E-02
         0.26927E-02
         0.26927E-02
         0.26927E-02
         0.26927E-02
         0.26927E-02
         0.26927E-02
         0.26927E-02
         0.26927E-02
         0.26927E-02
         0.26927E-02
         0.26927E-02
         0.26927E-02
         0.26927E-02
         0.26927E-02
         0.26927E-02
         0.26927E-02
         0.26927E-02
         0.26927E-02
         0.26927E-02
         0.26927E-02
         0.26927E-02
         0.26927E-02
         0.26927E-02
         0.26927E-02
         0.26927E-02
         0.26927E-02
         0.26927E-02
         0.26927E-02
         0.26927E-02
         0.26927E-02
         0.26927E-02
         0.26927E-02
         0.26927E-02
         0.26927E-02
         0.26927E-02
         0.26927E-02
         0.26927E-02
         0.26927E-02
         0.26927E-02
         0.26927E-02
         0.26927E-02
         0.26927E-02
         0.26927E-02
         0.26927E-02
         0.26927E-02
         0.26927E-02
         0.26927E-02
         0.26927E-02
         0.26927E-02
         0.26927E-02
         0.26927E-02
         0.26927E-02
         0.26927E-02
         0.26927E-02
         0.26927E-02
         0.26927E-02
         0.26927E-02
         0.26927E-02
         0.26927E-02
         0.26927E-02
         0.26927E-02
         0.26927E-02
         0.26927E-02
         0.26927E-02
         0.26927E-02
         0.26927E-02
         0.26927E-02
         0.26927E-02
         0.26927E-02
         0.26927E-02
         0.26927E-02
         0.26927E-02
         0.26927E-02
         0.26927E-02
         0.26927E-02
         0.26927E-02
         0.26927E-02
         0.26927E-02
         0.26927E-02
         0.26927E-02
         0.26927E-02
         0.26927E-02
         0.26927E-02
         0.26927E-02
         0.26927E-02
         0.26927E-02
         0.26927E-02
         0.26927E-02
         0.26927E-02
         0.26927E-02
         0.26927E-02
         0.26927E-02
         0.26927E-02
         0.26927E-02
         0.26927E-02
         0.26927E-02
         0.26927E-02
         0.26927E-02
         0.26927E-02
         0.26927E-02
         0.26927E-02
         0.26927E-02
         0.26927E-02
         0.26927E-02
         0.26927E-02
         0.26927E-02
         0.26927E-02
         0.26927E-02
         0.26927E-02
         0.26927E-02
         0.26927E-02
         0.26927E-02
         0.26927E-02
         0.26927E-02
         0.26927E-02
         0.26927E-02
         0.26927E-02
         0.26927E-02
         0.26927E-02
         0.26927E-02
         0.26927E-02
         0.26927E-02
         0.26927E-02
         0.26927E-02
         0.26927E-02
         0.26927E-02
         0.26927E-02
         0.26927E-02
         0.26927E-02
         0.26927E-02
         0.26927E-02
         0.26927E-02
         0.26927E-02
         0.26927E-02
         0.26927E-02
         0.26927E-02
         0.26927E-02
         0.26927E-02
         0.26927E-02
         0.26927E-02
         0.26927E-02
         0.26927E-02
         0.26927E-02
         0.26927E-02
         0.26927E-02
         0.26927E-02
         0.26927E-02
         0.26927E-02
         0.26927E-02
         0.26927E-02
         0.26927E-02
         0.26927E-02
         0.26927E-02
         0.26927E-02
         0.26927E-02
         0.26927E-02
         0.26927E-02
         0.26927E-02
         0.26927E-02
         0.26927E-02
         0.26927E-02
         0.26927E-02
         0.26927E-02
         0.26927E-02
         0.26927E-02
         0.26927E-02
         0.26927E-02
         0.26927E-02
         0.26927E-02
         0.26927E-02
         0.26927E-02
         0.26927E-02
         0.26927E-02
         0.26927E-02
         0.26927E-02
         0.26927E-02
         0.26927E-02
         0.26927E-02
         0.26927E-02
         0.26927E-02
         0.26927E-02
         0.26927E-02
         0.26927E-02
         0.26927E-02
         0.26927E-02
         0.26927E-02
         0.26927E-02
         0.26927E-02
         0.26927E-02
         0.26927E-02
         0.26927E-02
         0.26927E-02
         0.26927E-02
         0.26927E-02
         0.26927E-02
         0.26927E-02
         0.26927E-02
         0.26927E-02
         0.26927E-02
         0.26927E-02
         0.26927E-02
         0.26927E-02
         0.26927E-02
         0.26927E-02
         0.26927E-02
         0.26927E-02
         0.26927E-02
         0.26927E-02
         0.26927E-02
         0.26927E-02
         0.26927E-02
         0.26927E-02
         0.26927E-02
         0.26927E-02
         0.26927E-02
         0.26927E-02
         0.26927E-02
         0.26927E-02
         0.26927E-02
         0.26927E-02
         0.26927E-02
         0.26927E-02
         0.26927E-02
         0.26927E-02
         0.26927E-02
         0.26927E-02
         0.26927E-02
         0.26927E-02
         0.26927E-02
         0.26927E-02
         0.26927E-02
         0.26927E-02
         0.26927E-02
         0.26927E-02
         0.26927E-02
         0.26927E-02
         0.26927E-02
         0.26927E-02
         0.26927E-02
         0.26927E-02
         0.26927E-02
         0.26927E-02
         0.26927E-02
         0.26927E-02
         0.26927E-02
         0.26927E-02
         0.26927E-02
         0.26927E-02
         0.26927E-02
         0.26927E-02
         0.26927E-02
         0.26927E-02
         0.26927E-02
         0.26927E-02
         0.26927E-02
         0.26927E-02
         0.26927E-02
         0.26927E-02
         0.26927E-02
         0.26927E-02
         0.26927E-02
         0.26927E-02
         0.26927E-02
         0.26927E-02
         0.26927E-02
         0.26927E-02
         0.26927E-02
         0.26927E-02
         0.26927E-02
         0.26927E-02
         0.26927E-02
         0.26927E-02
         0.26927E-02
         0.26927E-02
         0.26927E-02
         0.26927E-02
         0.26927E-02
         0.26927E-02
         0.26927E-02
         0.26927E-02
         0.26927E-02
         0.26927E-02
         0.26927E-02
         0.26927E-02
         0.26927E-02
         0.26927E-02
         0.26927E-02
         0.26927E-02
         0.26927E-02
         0.26927E-02
         0.26927E-02
         0.26927E-02
         0.26927E-02
         0.26927E-02
         0.26927E-02
         0.26927E-02
         0.26927E-02
         0.26927E-02
         0.26927E-02
         0.26927E-02
         0.26927E-02
         0.26927E-02
         0.26927E-02
         0.26927E-02
         0.26927E-02
         0.26927E-02
         0.26927E-02
         0.26927E-02
         0.26927E-02
         0.26927E-02
         0.26927E-02
         0.26927E-02
         0.26927E-02
         0.26927E-02
         0.26927E-02
         0.26927E-02
         0.26927E-02
         0.26927E-02
         0.26927E-02
         0.26927E-02
         0.26927E-02
         0.26927E-02
         0.26927E-02
         0.26927E-02
         0.26927E-02
         0.26927E-02
         0.26927E-02
         0.26927E-02
         0.26927E-02
         0.26927E-02
         0.26927E-02
         0.26927E-02
         0.26927E-02
         0.26927E-02
         0.26927E-02
         0.26927E-02
         0.26927E-02
         0.26927E-02
         0.26927E-02
         0.26927E-02
         0.26927E-02
         0.26927E-02
         0.26927E-02
         0.26927E-02
         0.26927E-02
         0.26927E-02
         0.26927E-02
         0.26927E-02
         0.26927E-02
         0.26927E-02
         0.26927E-02
         0.26927E-02
         0.26927E-02
         0.26927E-02
         0.26927E-02
         0.26927E-02
         0.26927E-02
         0.26927E-02
         0.26927E-02
         0.26927E-02
         0.26927E-02
         0.26927E-02
         0.26927E-02
         0.26927E-02
         0.26927E-02
         0.26927E-02
         0.26927E-02
         0.26927E-02
         0.26927E-02
         0.26927E-02
         0.26927E-02
         0.26927E-02
         0.26927E-02
         0.26927E-02
         0.26927E-02
         0.26927E-02
         0.26927E-02
         0.26927E-02
         0.26927E-02
         0.26927E-02
         0.26927E-02
         0.26927E-02
         0.26927E-02
         0.26927E-02
         0.26927E-02
         0.26927E-02
         0.26927E-02
         0.26927E-02
         0.26927E-02
         0.26927E-02
         0.26927E-02
         0.26927E-02
         0.26927E-02
         0.26927E-02
         0.26927E-02
         0.26927E-02
         0.26927E-02
         0.26927E-02
         0.26927E-02
         0.26927E-02
         0.26927E-02
         0.26927E-02
         0.26927E-02
         0.26927E-02
         0.26927E-02
         0.26927E-02
         0.26927E-02
         0.26927E-02
         0.26927E-02
         0.26927E-02
         0.26927E-02
         0.26927E-02
         0.26927E-02
         0.26927E-02
         0.26927E-02
         0.26927E-02
         0.26927E-02
         0.26927E-02
         0.26927E-02
         0.26927E-02
         0.26927E-02
         0.26927E-02
         0.26927E-02
         0.26927E-02
         0.26927E-02
         0.26927E-02
         0.26927E-02
         0.26927E-02
         0.26927E-02
         0.26927E-02
         0.26927E-02
         0.26927E-02
         0.26927E-02
         0.26927E-02
         0.26927E-02
         0.26927E-02
         0.26927E-02
         0.26927E-02
         0.26927E-02
         0.26927E-02
         0.26927E-02
         0.26927E-02
         0.26927E-02
         0.26927E-02
         0.26927E-02
         0.26927E-02
         0.26927E-02
         0.26927E-02
         0.26927E-02
         0.26927E-02
         0.26927E-02
         0.26927E-02
         0.26927E-02
         0.26927E-02
         0.26927E-02
         0.26927E-02
         0.26927E-02
         0.26927E-02
         0.26927E-02
         0.26927E-02
         0.26927E-02
         0.26927E-02
         0.26927E-02
         0.26927E-02
         0.26927E-02
         0.26927E-02
         0.26927E-02
         0.26927E-02
         0.26927E-02
         0.26927E-02
         0.26927E-02
         0.26927E-02
         0.26927E-02
         0.26927E-02
         0.26927E-02
         0.26927E-02
         0.26927E-02
         0.26927E-02
         0.26927E-02
         0.26927E-02
         0.26927E-02
         0.26927E-02
         0.26927E-02
         0.26927E-02
         0.26927E-02
         0.26927E-02
         0.26927E-02
         0.26927E-02
         0.26927E-02
         0.26927E-02
         0.26927E-02
         0.26927E-02
         0.26927E-02
         0.26927E-02
         0.26927E-02
         0.26927E-02
         0.26927E-02
         0.26927E-02
         0.26927E-02
         0.26927E-02
         0.26927E-02
         0.26927E-02
         0.26927E-02
         0.26927E-02
         0.26927E-02
         0.26927E-02
         0.26927E-02
         0.26927E-02
         0.26927E-02
         0.26927E-02
         0.26927E-02
         0.26927E-02
         0.26927E-02
         0.26927E-02
         0.26927E-02
         0.26927E-02
         0.26927E-02
         0.26927E-02
         0.26927E-02
         0.26927E-02
         0.26927E-02
         0.26927E-02
         0.26927E-02
         0.26927E-02
         0.26927E-02
         0.26927E-02
         0.26927E-02
         0.26927E-02
         0.26927E-02
         0.26927E-02
         0.26927E-02
         0.26927E-02
         0.26927E-02
         0.26927E-02
         0.26927E-02
         0.26927E-02
         0.26927E-02
         0.26927E-02
         0.26927E-02
         0.26927E-02
         0.26927E-02
         0.26927E-02
         0.26927E-02
         0.26927E-02
         0.26927E-02
         0.26927E-02
         0.26927E-02
         0.26927E-02
         0.26927E-02
         0.26927E-02
         0.26927E-02
         0.26927E-02
         0.26927E-02
         0.26927E-02
         0.26927E-02
         0.26927E-02
         0.26927E-02
         0.26927E-02
         0.26927E-02
         0.26927E-02
         0.26927E-02
         0.26927E-02
         0.26927E-02
         0.26927E-02
         0.26927E-02
         0.26927E-02
         0.26927E-02
         0.26927E-02
         0.26927E-02
         0.26927E-02
         0.26927E-02
         0.26927E-02
         0.26927E-02
         0.26927E-02
         0.26927E-02
         0.26927E-02
         0.26927E-02
         0.26927E-02
         0.26927E-02
         0.26927E-02
         0.26927E-02
         0.26927E-02
         0.26927E-02
         0.26927E-02
         0.26927E-02
         0.26927E-02
         0.26927E-02
         0.26927E-02
         0.26927E-02
         0.26927E-02
         0.26927E-02
         0.26927E-02
         0.26927E-02
         0.26927E-02
         0.26927E-02
         0.26927E-02
         0.26927E-02
         0.26927E-02
         0.26927E-02
         0.26927E-02
         0.26927E-02
         0.26927E-02
         0.26927E-02
         0.26927E-02
         0.26927E-02
         0.26927E-02
         0.26927E-02
         0.26927E-02
         0.26927E-02
         0.26927E-02
         0.26927E-02
         0.26927E-02
         0.26927E-02
         0.26927E-02
         0.26927E-02
         0.26927E-02
         0.26927E-02
         0.26927E-02
         0.26927E-02
         0.26927E-02
         0.26927E-02
         0.26927E-02
         0.26927E-02
         0.26927E-02
         0.26927E-02
         0.26927E-02
         0.26927E-02
         0.26927E-02
         0.26927E-02
         0.26927E-02
         0.26927E-02
         0.26927E-02
         0.26927E-02
         0.26927E-02
         0.26927E-02
         0.26927E-02
         0.26927E-02
         0.26927E-02
         0.26927E-02
         0.26927E-02
         0.26927E-02
         0.26927E-02
         0.26927E-02
         0.26927E-02
         0.26927E-02
         0.26927E-02
         0.26927E-02
         0.26927E-02
         0.26927E-02
         0.26927E-02
         0.26927E-02
         0.26927E-02
         0.26927E-02
         0.26927E-02
         0.26927E-02
         0.26927E-02
         0.26927E-02
         0.26927E-02
         0.26927E-02
         0.26927E-02
         0.26927E-02
         0.26927E-02
         0.26927E-02
         0.26927E-02
         0.26927E-02
         0.26927E-02
         0.26927E-02
         0.26927E-02
         0.26927E-02
         0.26927E-02
         0.26927E-02
         0.26927E-02
         0.26927E-02
         0.26927E-02
         0.26927E-02
         0.26927E-02
         0.26927E-02
         0.26927E-02
         0.26927E-02
         0.26927E-02
         0.26927E-02
         0.26927E-02
         0.26927E-02
         0.26927E-02
         0.26927E-02
         0.26927E-02
         0.26927E-02
         0.26927E-02
         0.26927E-02
         0.26927E-02
         0.26927E-02
         0.26927E-02
         0.26927E-02
         0.26927E-02
         0.26927E-02
         0.26927E-02
         0.26927E-02
         0.26927E-02
         0.26927E-02
         0.26927E-02
         0.26927E-02
         0.26927E-02
         0.26927E-02
         0.26927E-02
         0.26927E-02
         0.26927E-02
         0.26927E-02
         0.26927E-02
         0.26927E-02
         0.26927E-02
         0.26927E-02
         0.26927E-02
         0.26927E-02
         0.26927E-02
         0.26927E-02
         0.26927E-02
         0.26927E-02
         0.26927E-02
         0.26927E-02
         0.26927E-02
         0.26927E-02
         0.26927E-02
         0.26927E-02
         0.26927E-02
         0.26927E-02
         0.26927E-02
         0.26927E-02
         0.26927E-02
         0.26927E-02
         0.26927E-02
         0.26927E-02
         0.26927E-02
         0.26927E-02
         0.26927E-02
         0.26927E-02
         0.26927E-02
         0.26927E-02
         0.26927E-02
         0.26927E-02
         0.26927E-02
         0.26927E-02
         0.26927E-02
         0.26927E-02
         0.26927E-02
         0.26927E-02
         0.26927E-02
         0.26927E-02
         0.26927E-02
         0.26927E-02
         0.26927E-02
         0.26927E-02
         0.26927E-02
         0.26927E-02
         0.26927E-02
         0.26927E-02
         0.26927E-02
         0.26927E-02
         0.26927E-02
         0.26927E-02
         0.26927E-02
         0.26927E-02
         0.26927E-02
         0.26927E-02
         0.26927E-02
         0.26927E-02
         0.26927E-02
         0.26927E-02
         0.26927E-02
         0.26927E-02
         0.26927E-02
         0.26927E-02
         0.26927E-02
         0.26927E-02
         0.26927E-02
         0.26927E-02
         0.26927E-02
         0.26927E-02
         0.26927E-02
         0.26927E-02
         0.26927E-02
         0.26927E-02
         0.26927E-02
         0.26927E-02
         0.26927E-02
         0.26927E-02
         0.26927E-02
         0.26927E-02
         0.26927E-02
         0.26927E-02
         0.26927E-02
         0.26927E-02
         0.26927E-02
         0.26927E-02
         0.26927E-02
         0.26927E-02
         0.26927E-02
         0.26927E-02
         0.26927E-02
         0.26927E-02
         0.26927E-02
         0.26927E-02
         0.26927E-02
         0.26927E-02
         0.26927E-02
         0.26927E-02
         0.26927E-02
         0.26927E-02
         0.26927E-02
         0.26927E-02
         0.26927E-02
         0.26927E-02
         0.26927E-02
         0.26927E-02
         0.26927E-02
         0.26927E-02
         0.26927E-02
         0.26927E-02
         0.26927E-02
         0.26927E-02
         0.26927E-02
         0.26927E-02
         0.26927E-02
         0.26927E-02
         0.26927E-02
         0.26927E-02
         0.26927E-02
         0.26927E-02
         0.26927E-02
         0.26927E-02
         0.26927E-02
         0.26927E-02
         0.26927E-02
         0.26927E-02
         0.26927E-02
         0.26927E-02
         0.26927E-02
         0.26927E-02
         0.26927E-02
         0.26927E-02
         0.26927E-02
         0.26927E-02
         0.26927E-02
         0.26927E-02
         0.26927E-02
         0.26927E-02
         0.26927E-02
         0.26927E-02
         0.26927E-02
         0.26927E-02
         0.26927E-02
         0.26927E-02
         0.26927E-02
         0.26927E-02
         0.26927E-02
         0.26927E-02
         0.26927E-02
         0.26927E-02
         0.26927E-02
         0.26927E-02
         0.26927E-02
         0.26927E-02
         0.26927E-02
         0.26927E-02
         0.26927E-02
         0.26927E-02
         0.26927E-02
         0.26927E-02
         0.26927E-02
         0.26927E-02
         0.26927E-02
         0.26927E-02
         0.26927E-02
         0.26927E-02
         0.26927E-02
         0.26927E-02
         0.26927E-02
         0.26927E-02
         0.26927E-02
         0.26927E-02
         0.26927E-02
         0.26927E-02
         0.26927E-02
         0.26927E-02
         0.26927E-02
         0.26927E-02
         0.26927E-02
         0.26927E-02
         0.26927E-02
         0.26927E-02
         0.26927E-02
         0.26927E-02
         0.26927E-02
         0.26927E-02
         0.26927E-02
         0.26927E-02
         0.26927E-02
         0.26927E-02
         0.26927E-02
         0.26927E-02
         0.26927E-02
         0.26927E-02
         0.26927E-02
         0.26927E-02
         0.26927E-02
         0.26927E-02
         0.26927E-02
         0.26927E-02
         0.26927E-02
         0.26927E-02
         0.26927E-02
         0.26927E-02
         0.26927E-02
         0.26927E-02
         0.26927E-02
         0.26927E-02
         0.26927E-02
         0.26927E-02
         0.26927E-02
         0.26927E-02
         0.26927E-02
         0.26927E-02
         0.26927E-02
         0.26927E-02
         0.26927E-02
         0.26927E-02
         0.26927E-02
         0.26927E-02
         0.26927E-02
         0.26927E-02
         0.26927E-02
         0.26927E-02
         0.26927E-02
         0.26927E-02
         0.26927E-02
         0.26927E-02
         0.26927E-02
         0.26927E-02
         0.26927E-02
         0.26927E-02
         0.26927E-02
         0.26927E-02
         0.26927E-02
         0.26927E-02
         0.26927E-02
         0.26927E-02
         0.26927E-02
         0.26927E-02
         0.26927E-02
         0.26927E-02
         0.26927E-02
         0.26927E-02
         0.26927E-02
         0.26927E-02
         0.26927E-02
         0.26927E-02
         0.26927E-02
         0.26927E-02
         0.26927E-02
         0.26927E-02
         0.26927E-02
         0.26927E-02
         0.26927E-02
         0.26927E-02
         0.26927E-02
         0.26927E-02
         0.26927E-02
         0.26927E-02
         0.26927E-02
         0.26927E-02
         0.26927E-02
         0.26927E-02
         0.26927E-02
         0.26927E-02
         0.26927E-02
         0.26927E-02
         0.26927E-02
         0.26927E-02
         0.26927E-02
         0.26927E-02
         0.26927E-02
         0.26927E-02
         0.26927E-02
         0.26927E-02
         0.26927E-02
         0.26927E-02
         0.26927E-02
         0.26927E-02
         0.26927E-02
         0.26927E-02
         0.26927E-02
         0.26927E-02
         0.26927E-02
         0.26927E-02
         0.26927E-02
         0.26927E-02
         0.26927E-02
         0.26927E-02
         0.26927E-02
         0.26927E-02
         0.26927E-02
         0.26927E-02
         0.26927E-02
         0.26927E-02
         0.26927E-02
         0.26927E-02
         0.26927E-02
         0.26927E-02
         0.26927E-02
         0.26927E-02
         0.26927E-02
         0.26927E-02
         0.26927E-02
         0.26927E-02
         0.26927E-02
         0.26927E-02
         0.26927E-02
         0.26927E-02
         0.26927E-02
         0.26927E-02
         0.26927E-02
         0.26927E-02
         0.26927E-02
         0.26927E-02
         0.26927E-02
         0.26927E-02
         0.26927E-02
         0.26927E-02
         0.26927E-02
         0.26927E-02
         0.26927E-02
         0.26927E-02
         0.26927E-02
         0.26927E-02
         0.26927E-02
         0.26927E-02
         0.26927E-02
         0.26927E-02
         0.26927E-02
         0.26927E-02
         0.26927E-02
         0.26927E-02
         0.26927E-02
         0.26927E-02
         0.26927E-02
         0.26927E-02
         0.26927E-02
         0.26927E-02
         0.26927E-02
         0.26927E-02
         0.26927E-02
         0.26927E-02
         0.26927E-02
         0.26927E-02
         0.26927E-02
         0.26927E-02
         0.26927E-02
         0.26927E-02
         0.26927E-02
         0.26927E-02
         0.26927E-02
         0.26927E-02
         0.26927E-02
         0.26927E-02
         0.26927E-02
         0.26927E-02
         0.26927E-02
         0.26927E-02
         0.26927E-02
         0.26927E-02
         0.26927E-02
         0.26927E-02
         0.26927E-02
         0.26927E-02
         0.26927E-02
         0.26927E-02
         0.26927E-02
         0.26927E-02
         0.26927E-02
         0.26927E-02
         0.26927E-02
         0.26927E-02
         0.26927E-02
         0.26927E-02
         0.26927E-02
         0.26927E-02
         0.26927E-02
         0.26927E-02
         0.26927E-02
         0.26927E-02
         0.26927E-02
         0.26927E-02
         0.26927E-02
         0.26927E-02
         0.26927E-02
         0.26927E-02
         0.26927E-02
         0.26927E-02
         0.26927E-02
         0.26927E-02
         0.26927E-02
         0.26927E-02
         0.26927E-02
         0.26927E-02
         0.26927E-02
         0.26927E-02
         0.26927E-02
         0.26927E-02
         0.26927E-02
         0.26927E-02
         0.26927E-02
         0.26927E-02
         0.26927E-02
         0.26927E-02
         0.26927E-02
         0.26927E-02
         0.26927E-02
         0.26927E-02
         0.26927E-02
         0.26927E-02
         0.26927E-02
         0.26927E-02
         0.26927E-02
         0.26927E-02
         0.26927E-02
         0.26927E-02
         0.26927E-02
         0.26927E-02
         0.26927E-02
         0.26927E-02
         0.26927E-02
         0.26927E-02
         0.26927E-02
         0.26927E-02
         0.26927E-02
         0.26927E-02
         0.26927E-02
         0.26927E-02
         0.26927E-02
         0.26927E-02
         0.26927E-02
         0.26927E-02
         0.26927E-02
         0.26927E-02
         0.26927E-02
         0.26927E-02
         0.26927E-02
         0.26927E-02
         0.26927E-02
         0.26927E-02
         0.26927E-02
         0.26927E-02
         0.26927E-02
         0.26927E-02
         0.26927E-02
         0.26927E-02
         0.26927E-02
         0.26927E-02
         0.26927E-02
         0.26927E-02
         0.26927E-02
         0.26927E-02
         0.26927E-02
         0.26927E-02
         0.26927E-02
         0.26927E-02
         0.26927E-02
         0.26927E-02
         0.26927E-02
         0.26927E-02
         0.26927E-02
         0.26927E-02
         0.26927E-02
         0.26927E-02
         0.26927E-02
         0.26927E-02
         0.26927E-02
         0.26927E-02
         0.26927E-02
         0.26927E-02
         0.26927E-02
         0.26927E-02
         0.26927E-02
         0.26927E-02
         0.26927E-02
         0.26927E-02
         0.26927E-02
         0.26927E-02
         0.26927E-02
         0.26927E-02
         0.26927E-02
         0.26927E-02
         0.26927E-02
         0.26927E-02
         0.26927E-02
         0.26927E-02
         0.26927E-02
         0.26927E-02
         0.26927E-02
         0.26927E-02
         0.26927E-02
         0.26927E-02
         0.26927E-02
         0.26927E-02
         0.26927E-02
         0.26927E-02
         0.26927E-02
         0.26927E-02
         0.26927E-02
         0.26927E-02
         0.26927E-02
         0.26927E-02
         0.26927E-02
         0.26927E-02
         0.26927E-02
         0.26927E-02
         0.26927E-02
         0.26927E-02
         0.26927E-02
         0.26927E-02
         0.26927E-02
         0.26927E-02
         0.26927E-02
         0.26927E-02
         0.26927E-02
         0.26927E-02
         0.26927E-02
         0.26927E-02
         0.26927E-02
         0.26927E-02
         0.26927E-02
         0.26927E-02
         0.26927E-02
         0.26927E-02
         0.26927E-02
         0.26927E-02
         0.26927E-02
         0.26927E-02
         0.26927E-02
         0.26927E-02
         0.26927E-02
         0.26927E-02
         0.26927E-02
         0.26927E-02
         0.26927E-02
         0.26927E-02
         0.26927E-02
         0.26927E-02
         0.26927E-02
         0.26927E-02
         0.26927E-02
         0.26927E-02
         0.26927E-02
         0.26927E-02
         0.26927E-02
         0.26927E-02
         0.26927E-02
         0.26927E-02
         0.26927E-02
         0.26927E-02
         0.26927E-02
         0.26927E-02
         0.26927E-02
         0.26927E-02
         0.26927E-02
         0.26927E-02
         0.26927E-02
         0.26927E-02
         0.26927E-02
         0.26927E-02
         0.26927E-02
         0.26927E-02
         0.26927E-02
         0.26927E-02
         0.26927E-02
         0.26927E-02
         0.26927E-02
         0.26927E-02
         0.26927E-02
         0.26927E-02
         0.26927E-02
         0.26927E-02
         0.26927E-02
         0.26927E-02
         0.26927E-02
         0.26927E-02
         0.26927E-02
         0.26927E-02
         0.26927E-02
         0.26927E-02
         0.26927E-02
         0.26927E-02
         0.26927E-02
         0.26927E-02
         0.26927E-02
         0.26927E-02
         0.26927E-02
         0.26927E-02
         0.26927E-02
         0.26927E-02
         0.26927E-02
         0.26927E-02
         0.26927E-02
         0.26927E-02
         0.26927E-02
         0.26927E-02
         0.26927E-02
         0.26927E-02
         0.26927E-02
         0.26927E-02
         0.26927E-02
         0.26927E-02
         0.26927E-02
         0.26927E-02
         0.26927E-02
         0.26927E-02
         0.26927E-02
         0.26927E-02
         0.26927E-02
         0.26927E-02
         0.26927E-02
         0.26927E-02
         0.26927E-02
         0.26927E-02
         0.26927E-02
         0.26927E-02
         0.26927E-02
         0.26927E-02
         0.26927E-02
         0.26927E-02
         0.26927E-02
         0.26927E-02
         0.26927E-02
         0.26927E-02
         0.26927E-02
         0.26927E-02
         0.26927E-02
         0.26927E-02
         0.26927E-02
         0.26927E-02
         0.26927E-02
         0.26927E-02
         0.26927E-02
         0.26927E-02
         0.26927E-02
         0.26927E-02
         0.26927E-02
         0.26927E-02
         0.26927E-02
         0.26927E-02
         0.26927E-02
         0.26927E-02
         0.26927E-02
         0.26927E-02
         0.26927E-02
         0.26927E-02
         0.26927E-02
         0.26927E-02
         0.26927E-02
         0.26927E-02
         0.26927E-02
         0.26927E-02
         0.26927E-02
         0.26927E-02
         0.26927E-02
         0.26927E-02
         0.26927E-02
         0.26927E-02
         0.26927E-02
         0.26927E-02
         0.26927E-02
         0.26927E-02
         0.26927E-02
         0.26927E-02
         0.26927E-02
         0.26927E-02
         0.26927E-02
         0.26927E-02
         0.26927E-02
         0.26927E-02
         0.26927E-02
         0.26927E-02
         0.26927E-02
         0.26927E-02
         0.26927E-02
         0.26927E-02
         0.26927E-02
         0.26927E-02
         0.26927E-02
         0.26927E-02
         0.26927E-02
         0.26927E-02
         0.26927E-02
         0.26927E-02
         0.26927E-02
         0.26927E-02
         0.26927E-02
         0.26927E-02
         0.26928E-02
         0.26928E-02
         0.26928E-02
         0.26928E-02
         0.26928E-02
         0.26928E-02
         0.26928E-02
         0.26928E-02
         0.26928E-02
         0.26928E-02
         0.26928E-02
         0.26928E-02
         0.26928E-02
         0.26928E-02
         0.26928E-02
         0.26928E-02
         0.26928E-02
         0.26928E-02
         0.26928E-02
         0.26928E-02
         0.26928E-02
         0.26928E-02
         0.26928E-02
         0.26928E-02
         0.26928E-02
         0.26928E-02
         0.26928E-02
         0.26928E-02
         0.26928E-02
         0.26928E-02
         0.26928E-02
         0.26928E-02
         0.26928E-02
         0.26928E-02
         0.26928E-02
         0.26928E-02
         0.26928E-02
         0.26928E-02
         0.26928E-02
         0.26928E-02
         0.26928E-02
         0.26928E-02
         0.26928E-02
         0.26928E-02
         0.26928E-02
         0.26928E-02
         0.26928E-02
         0.26928E-02
         0.26928E-02
         0.26928E-02
         0.26928E-02
         0.26928E-02
         0.26928E-02
         0.26928E-02
         0.26928E-02
         0.26928E-02
         0.26928E-02
         0.26928E-02
         0.26928E-02
         0.26928E-02
         0.26928E-02
         0.26928E-02
         0.26928E-02
         0.26928E-02
         0.26928E-02
         0.26928E-02
         0.26928E-02
         0.26928E-02
         0.26928E-02
         0.26928E-02
         0.26928E-02
         0.26928E-02
         0.26928E-02
         0.26928E-02
         0.26928E-02
         0.26928E-02
         0.26928E-02
         0.26928E-02
         0.26928E-02
         0.26928E-02
         0.26928E-02
         0.26928E-02
         0.26928E-02
         0.26928E-02
         0.26928E-02
         0.26928E-02
         0.26928E-02
         0.26928E-02
         0.26928E-02
         0.26928E-02
         0.26928E-02
         0.26928E-02
         0.26928E-02
         0.26928E-02
         0.26928E-02
         0.26928E-02
         0.26928E-02
         0.26928E-02
         0.26928E-02
         0.26928E-02
         0.26928E-02
         0.26928E-02
         0.26928E-02
         0.26928E-02
         0.26928E-02
         0.26928E-02
         0.26928E-02
         0.26928E-02
         0.26928E-02
         0.26928E-02
         0.26928E-02
         0.26928E-02
         0.26928E-02
         0.26928E-02
         0.26928E-02
         0.26928E-02
         0.26928E-02
         0.26928E-02
         0.26928E-02
         0.26928E-02
         0.26928E-02
         0.26928E-02
         0.26928E-02
         0.26928E-02
         0.26928E-02
         0.26928E-02
         0.26928E-02
         0.26928E-02
         0.26928E-02
         0.26928E-02
         0.26928E-02
         0.26928E-02
         0.26928E-02
         0.26928E-02
         0.26928E-02
         0.26928E-02
         0.26928E-02
         0.26928E-02
         0.26928E-02
         0.26928E-02
         0.26928E-02
         0.26928E-02
         0.26928E-02
         0.26928E-02
         0.26928E-02
         0.26928E-02
         0.26928E-02
         0.26928E-02
         0.26928E-02
         0.26928E-02
         0.26928E-02
         0.26928E-02
         0.26928E-02
         0.26928E-02
         0.26928E-02
         0.26928E-02
  
SCALARS                   nodal_volume  double 1
LOOKUP_TABLE default
         0.91140E-09
         0.72412E-09
         0.77574E-09
         0.13316E-08
         0.45570E-09
         0.36211E-09
         0.38787E-09
         0.66566E-09
         0.71537E-09
         0.91211E-09
         0.35767E-09
         0.45600E-09
         0.51195E-09
         0.61532E-09
         0.25605E-09
         0.30776E-09
         0.10101E-08
         0.74536E-09
         0.50500E-09
         0.37281E-09
         0.30273E-09
         0.57012E-09
         0.62699E-09
         0.15144E-09
         0.28509E-09
         0.31352E-09
         0.51329E-09
         0.64933E-09
         0.25683E-09
         0.32471E-09
         0.12026E-08
         0.93909E-09
         0.11935E-08
         0.60122E-09
         0.46945E-09
         0.59663E-09
         0.70296E-09
         0.80270E-09
         0.35149E-09
         0.40134E-09
         0.75859E-09
         0.84013E-09
         0.37932E-09
         0.42007E-09
         0.64542E-09
         0.40086E-09
         0.32274E-09
         0.20045E-09
         0.76288E-09
         0.38153E-09
         0.63346E-09
         0.31675E-09
         0.66583E-09
         0.33318E-09
         0.68008E-09
         0.34022E-09
         0.58930E-09
         0.71738E-09
         0.29472E-09
         0.35874E-09
         0.90938E-09
         0.64302E-09
         0.45469E-09
         0.32154E-09
         0.10152E-08
         0.50747E-09
         0.88120E-09
         0.44042E-09
         0.40077E-09
         0.61872E-09
         0.20039E-09
         0.30940E-09
         0.70206E-09
         0.35106E-09
         0.74172E-09
         0.37089E-09
         0.71539E-09
         0.35770E-09
         0.56226E-09
         0.28113E-09
         0.35349E-09
         0.58452E-09
         0.17675E-09
         0.29229E-09
         0.77354E-09
         0.38679E-09
         0.62469E-09
         0.31238E-09
         0.54957E-09
         0.27483E-09
         0.36009E-09
         0.61365E-09
         0.18007E-09
         0.30685E-09
         0.83268E-09
         0.41635E-09
         0.87287E-09
         0.43642E-09
         0.70438E-09
         0.35217E-09
         0.43365E-09
         0.74413E-09
         0.21683E-09
         0.37198E-09
         0.27660E-09
         0.35144E-09
         0.13833E-09
         0.17573E-09
         0.32921E-09
         0.16465E-09
         0.38764E-09
         0.19382E-09
         0.37797E-09
         0.18897E-09
         0.36707E-09
         0.18352E-09
         0.39112E-09
         0.19552E-09
         0.41268E-09
         0.20627E-09
         0.38876E-09
         0.19433E-09
         0.30402E-09
         0.15200E-09
         0.24796E-09
         0.12398E-09
         0.31999E-09
         0.16000E-09
         0.42608E-09
         0.21303E-09
         0.46805E-09
         0.23401E-09
         0.44933E-09
         0.22466E-09
         0.40550E-09
         0.20276E-09
         0.36826E-09
         0.18414E-09
         0.29911E-09
         0.14956E-09
         0.25178E-09
         0.12591E-09
         0.32888E-09
         0.16445E-09
         0.43529E-09
         0.21765E-09
         0.44963E-09
         0.22482E-09
         0.36384E-09
         0.18194E-09
         0.29543E-09
         0.14774E-09
         0.36126E-09
         0.18063E-09
         0.42771E-09
         0.21386E-09
         0.91143E-09
         0.72396E-09
         0.77579E-09
         0.13322E-08
         0.71547E-09
         0.91237E-09
         0.51167E-09
         0.61494E-09
         0.10105E-08
         0.74486E-09
         0.30244E-09
         0.57001E-09
         0.62694E-09
         0.51257E-09
         0.64918E-09
         0.12029E-08
         0.93950E-09
         0.11941E-08
         0.70298E-09
         0.80279E-09
         0.75855E-09
         0.84015E-09
         0.64535E-09
         0.40081E-09
         0.76254E-09
         0.63339E-09
         0.66483E-09
         0.67941E-09
         0.58904E-09
         0.71721E-09
         0.90946E-09
         0.64293E-09
         0.10157E-08
         0.88199E-09
         0.40076E-09
         0.61859E-09
         0.70195E-09
         0.74166E-09
         0.71543E-09
         0.56228E-09
         0.35349E-09
         0.58443E-09
         0.77349E-09
         0.62459E-09
         0.54943E-09
         0.35999E-09
         0.61359E-09
         0.83268E-09
         0.87299E-09
         0.70451E-09
         0.43366E-09
         0.74449E-09
         0.27651E-09
         0.35143E-09
         0.32904E-09
         0.38765E-09
         0.37805E-09
         0.36714E-09
         0.39129E-09
         0.41297E-09
         0.38899E-09
         0.30408E-09
         0.24798E-09
         0.31999E-09
         0.42613E-09
         0.46815E-09
         0.44938E-09
         0.40548E-09
         0.36823E-09
         0.29908E-09
         0.25174E-09
         0.32885E-09
         0.43527E-09
         0.44962E-09
         0.36376E-09
         0.29536E-09
         0.36130E-09
         0.42769E-09
         0.91151E-09
         0.72383E-09
         0.77587E-09
         0.13329E-08
         0.71560E-09
         0.91267E-09
         0.51142E-09
         0.61459E-09
         0.10109E-08
         0.74439E-09
         0.30216E-09
         0.56992E-09
         0.62691E-09
         0.51187E-09
         0.64906E-09
         0.12033E-08
         0.93995E-09
         0.11947E-08
         0.70302E-09
         0.80291E-09
         0.75853E-09
         0.84020E-09
         0.64530E-09
         0.40078E-09
         0.76223E-09
         0.63335E-09
         0.66385E-09
         0.67875E-09
         0.58880E-09
         0.71706E-09
         0.90957E-09
         0.64286E-09
         0.10162E-08
         0.88281E-09
         0.40076E-09
         0.61849E-09
         0.70188E-09
         0.74162E-09
         0.71550E-09
         0.56232E-09
         0.35350E-09
         0.58436E-09
         0.77347E-09
         0.62452E-09
         0.54931E-09
         0.35990E-09
         0.61355E-09
         0.83270E-09
         0.87315E-09
         0.70467E-09
         0.43368E-09
         0.74487E-09
         0.27643E-09
         0.35143E-09
         0.32889E-09
         0.38767E-09
         0.37814E-09
         0.36723E-09
         0.39147E-09
         0.41328E-09
         0.38923E-09
         0.30416E-09
         0.24800E-09
         0.32001E-09
         0.42620E-09
         0.46826E-09
         0.44944E-09
         0.40548E-09
         0.36821E-09
         0.29906E-09
         0.25171E-09
         0.32883E-09
         0.43527E-09
         0.44963E-09
         0.36369E-09
         0.29530E-09
         0.36135E-09
         0.42769E-09
         0.91156E-09
         0.72368E-09
         0.77594E-09
         0.13335E-08
         0.71571E-09
         0.91295E-09
         0.51115E-09
         0.61422E-09
         0.10112E-08
         0.74389E-09
         0.30187E-09
         0.56982E-09
         0.62686E-09
         0.51116E-09
         0.64892E-09
         0.12036E-08
         0.94038E-09
         0.11953E-08
         0.70304E-09
         0.80300E-09
         0.75850E-09
         0.84023E-09
         0.64523E-09
         0.40073E-09
         0.76190E-09
         0.63330E-09
         0.66285E-09
         0.67809E-09
         0.58855E-09
         0.71689E-09
         0.90966E-09
         0.64278E-09
         0.10168E-08
         0.88361E-09
         0.40076E-09
         0.61837E-09
         0.70178E-09
         0.74156E-09
         0.71554E-09
         0.56234E-09
         0.35350E-09
         0.58428E-09
         0.77343E-09
         0.62442E-09
         0.54918E-09
         0.35981E-09
         0.61349E-09
         0.83271E-09
         0.87328E-09
         0.70481E-09
         0.43369E-09
         0.74524E-09
         0.27634E-09
         0.35142E-09
         0.32873E-09
         0.38768E-09
         0.37823E-09
         0.36731E-09
         0.39163E-09
         0.41358E-09
         0.38945E-09
         0.30422E-09
         0.24802E-09
         0.32001E-09
         0.42625E-09
         0.46837E-09
         0.44949E-09
         0.40546E-09
         0.36819E-09
         0.29904E-09
         0.25167E-09
         0.32881E-09
         0.43526E-09
         0.44963E-09
         0.36362E-09
         0.29523E-09
         0.36139E-09
         0.42768E-09
         0.91161E-09
         0.72353E-09
         0.77600E-09
         0.13341E-08
         0.71583E-09
         0.91323E-09
         0.51088E-09
         0.61386E-09
         0.10116E-08
         0.74341E-09
         0.30158E-09
         0.56972E-09
         0.62682E-09
         0.51045E-09
         0.64879E-09
         0.12040E-08
         0.94081E-09
         0.11959E-08
         0.70307E-09
         0.80310E-09
         0.75847E-09
         0.84027E-09
         0.64517E-09
         0.40069E-09
         0.76158E-09
         0.63325E-09
         0.66186E-09
         0.67742E-09
         0.58831E-09
         0.71673E-09
         0.90975E-09
         0.64270E-09
         0.10173E-08
         0.88441E-09
         0.40075E-09
         0.61825E-09
         0.70169E-09
         0.74151E-09
         0.71559E-09
         0.56237E-09
         0.35350E-09
         0.58420E-09
         0.77339E-09
         0.62433E-09
         0.54905E-09
         0.35972E-09
         0.61344E-09
         0.83272E-09
         0.87341E-09
         0.70496E-09
         0.43370E-09
         0.74562E-09
         0.27626E-09
         0.35142E-09
         0.32857E-09
         0.38770E-09
         0.37832E-09
         0.36739E-09
         0.39181E-09
         0.41387E-09
         0.38968E-09
         0.30429E-09
         0.24804E-09
         0.32002E-09
         0.42631E-09
         0.46847E-09
         0.44954E-09
         0.40545E-09
         0.36816E-09
         0.29901E-09
         0.25163E-09
         0.32878E-09
         0.43525E-09
         0.44963E-09
         0.36354E-09
         0.29517E-09
         0.36144E-09
         0.42766E-09
         0.91167E-09
         0.72338E-09
         0.77607E-09
         0.13348E-08
         0.71594E-09
         0.91351E-09
         0.51062E-09
         0.61349E-09
         0.10119E-08
         0.74292E-09
         0.30129E-09
         0.56962E-09
         0.62678E-09
         0.50974E-09
         0.64865E-09
         0.12044E-08
         0.94125E-09
         0.11965E-08
         0.70310E-09
         0.80321E-09
         0.75844E-09
         0.84031E-09
         0.64511E-09
         0.40065E-09
         0.76125E-09
         0.63320E-09
         0.66087E-09
         0.67676E-09
         0.58806E-09
         0.71657E-09
         0.90984E-09
         0.64263E-09
         0.10179E-08
         0.88522E-09
         0.40075E-09
         0.61813E-09
         0.70160E-09
         0.74146E-09
         0.71564E-09
         0.56240E-09
         0.35350E-09
         0.58412E-09
         0.77336E-09
         0.62425E-09
         0.54892E-09
         0.35963E-09
         0.61339E-09
         0.83274E-09
         0.87355E-09
         0.70511E-09
         0.43371E-09
         0.74599E-09
         0.27618E-09
         0.35141E-09
         0.32841E-09
         0.38771E-09
         0.37841E-09
         0.36747E-09
         0.39198E-09
         0.41417E-09
         0.38992E-09
         0.30436E-09
         0.24806E-09
         0.32003E-09
         0.42637E-09
         0.46858E-09
         0.44960E-09
         0.40544E-09
         0.36814E-09
         0.29899E-09
         0.25159E-09
         0.32876E-09
         0.43525E-09
         0.44963E-09
         0.36347E-09
         0.29511E-09
         0.36148E-09
         0.42766E-09
         0.91171E-09
         0.72323E-09
         0.77613E-09
         0.13354E-08
         0.71606E-09
         0.91379E-09
         0.51035E-09
         0.61313E-09
         0.10123E-08
         0.74243E-09
         0.30101E-09
         0.56952E-09
         0.62674E-09
         0.50903E-09
         0.64851E-09
         0.12047E-08
         0.94167E-09
         0.11971E-08
         0.70312E-09
         0.80331E-09
         0.75840E-09
         0.84034E-09
         0.64504E-09
         0.40061E-09
         0.76092E-09
         0.63314E-09
         0.65988E-09
         0.67609E-09
         0.58781E-09
         0.71641E-09
         0.90993E-09
         0.64255E-09
         0.10184E-08
         0.88601E-09
         0.40075E-09
         0.61801E-09
         0.70151E-09
         0.74140E-09
         0.71569E-09
         0.56243E-09
         0.35350E-09
         0.58404E-09
         0.77332E-09
         0.62416E-09
         0.54879E-09
         0.35953E-09
         0.61334E-09
         0.83274E-09
         0.87368E-09
         0.70525E-09
         0.43372E-09
         0.74636E-09
         0.27609E-09
         0.35141E-09
         0.32825E-09
         0.38772E-09
         0.37849E-09
         0.36754E-09
         0.39215E-09
         0.41447E-09
         0.39014E-09
         0.30443E-09
         0.24808E-09
         0.32004E-09
         0.42642E-09
         0.46868E-09
         0.44965E-09
         0.40543E-09
         0.36812E-09
         0.29897E-09
         0.25155E-09
         0.32874E-09
         0.43524E-09
         0.44963E-09
         0.36340E-09
         0.29504E-09
         0.36153E-09
         0.42764E-09
         0.91176E-09
         0.72308E-09
         0.77620E-09
         0.13360E-08
         0.71617E-09
         0.91407E-09
         0.51008E-09
         0.61276E-09
         0.10126E-08
         0.74195E-09
         0.30072E-09
         0.56942E-09
         0.62670E-09
         0.50832E-09
         0.64838E-09
         0.12051E-08
         0.94210E-09
         0.11977E-08
         0.70314E-09
         0.80341E-09
         0.75837E-09
         0.84038E-09
         0.64498E-09
         0.40056E-09
         0.76060E-09
         0.63309E-09
         0.65888E-09
         0.67542E-09
         0.58756E-09
         0.71624E-09
         0.91002E-09
         0.64247E-09
         0.10189E-08
         0.88682E-09
         0.40074E-09
         0.61790E-09
         0.70142E-09
         0.74135E-09
         0.71574E-09
         0.56245E-09
         0.35351E-09
         0.58396E-09
         0.77328E-09
         0.62407E-09
         0.54866E-09
         0.35944E-09
         0.61329E-09
         0.83275E-09
         0.87382E-09
         0.70539E-09
         0.43373E-09
         0.74673E-09
         0.27601E-09
         0.35140E-09
         0.32809E-09
         0.38774E-09
         0.37858E-09
         0.36762E-09
         0.39232E-09
         0.41477E-09
         0.39037E-09
         0.30450E-09
         0.24810E-09
         0.32005E-09
         0.42648E-09
         0.46879E-09
         0.44970E-09
         0.40541E-09
         0.36809E-09
         0.29894E-09
         0.25151E-09
         0.32871E-09
         0.43523E-09
         0.44963E-09
         0.36333E-09
         0.29497E-09
         0.36157E-09
         0.42763E-09
         0.91182E-09
         0.72293E-09
         0.77627E-09
         0.13367E-08
         0.71629E-09
         0.91436E-09
         0.50982E-09
         0.61240E-09
         0.10130E-08
         0.74146E-09
         0.30043E-09
         0.56932E-09
         0.62666E-09
         0.50762E-09
         0.64825E-09
         0.12054E-08
         0.94253E-09
         0.11983E-08
         0.70317E-09
         0.80351E-09
         0.75834E-09
         0.84041E-09
         0.64491E-09
         0.40053E-09
         0.76028E-09
         0.63304E-09
         0.65790E-09
         0.67476E-09
         0.58731E-09
         0.71609E-09
         0.91012E-09
         0.64239E-09
         0.10195E-08
         0.88762E-09
         0.40074E-09
         0.61778E-09
         0.70133E-09
         0.74130E-09
         0.71579E-09
         0.56249E-09
         0.35351E-09
         0.58388E-09
         0.77324E-09
         0.62398E-09
         0.54853E-09
         0.35935E-09
         0.61324E-09
         0.83277E-09
         0.87396E-09
         0.70554E-09
         0.43375E-09
         0.74711E-09
         0.27592E-09
         0.35140E-09
         0.32793E-09
         0.38775E-09
         0.37867E-09
         0.36770E-09
         0.39249E-09
         0.41507E-09
         0.39061E-09
         0.30457E-09
         0.24812E-09
         0.32006E-09
         0.42654E-09
         0.46890E-09
         0.44975E-09
         0.40540E-09
         0.36807E-09
         0.29892E-09
         0.25148E-09
         0.32869E-09
         0.43522E-09
         0.44963E-09
         0.36325E-09
         0.29491E-09
         0.36162E-09
         0.42762E-09
         0.91187E-09
         0.72278E-09
         0.77633E-09
         0.13373E-08
         0.71640E-09
         0.91463E-09
         0.50955E-09
         0.61204E-09
         0.10134E-08
         0.74098E-09
         0.30015E-09
         0.56922E-09
         0.62662E-09
         0.50691E-09
         0.64811E-09
         0.12058E-08
         0.94296E-09
         0.11989E-08
         0.70320E-09
         0.80361E-09
         0.75831E-09
         0.84045E-09
         0.64485E-09
         0.40048E-09
         0.75995E-09
         0.63298E-09
         0.65690E-09
         0.67409E-09
         0.58706E-09
         0.71592E-09
         0.91020E-09
         0.64231E-09
         0.10200E-08
         0.88843E-09
         0.40074E-09
         0.61766E-09
         0.70124E-09
         0.74124E-09
         0.71584E-09
         0.56251E-09
         0.35351E-09
         0.58380E-09
         0.77320E-09
         0.62389E-09
         0.54840E-09
         0.35926E-09
         0.61318E-09
         0.83277E-09
         0.87409E-09
         0.70568E-09
         0.43376E-09
         0.74748E-09
         0.27584E-09
         0.35139E-09
         0.32777E-09
         0.38777E-09
         0.37876E-09
         0.36778E-09
         0.39266E-09
         0.41536E-09
         0.39084E-09
         0.30464E-09
         0.24814E-09
         0.32006E-09
         0.42659E-09
         0.46900E-09
         0.44980E-09
         0.40539E-09
         0.36805E-09
         0.29890E-09
         0.25144E-09
         0.32867E-09
         0.43521E-09
         0.44963E-09
         0.36318E-09
         0.29485E-09
         0.36166E-09
         0.42761E-09
         0.91192E-09
         0.72263E-09
         0.77640E-09
         0.13380E-08
         0.71652E-09
         0.91491E-09
         0.50928E-09
         0.61167E-09
         0.10137E-08
         0.74049E-09
         0.29986E-09
         0.56912E-09
         0.62657E-09
         0.50620E-09
         0.64797E-09
         0.12061E-08
         0.94339E-09
         0.11995E-08
         0.70322E-09
         0.80371E-09
         0.75827E-09
         0.84048E-09
         0.64478E-09
         0.40044E-09
         0.75962E-09
         0.63293E-09
         0.65591E-09
         0.67343E-09
         0.58681E-09
         0.71576E-09
         0.91029E-09
         0.64223E-09
         0.10205E-08
         0.88923E-09
         0.40073E-09
         0.61754E-09
         0.70114E-09
         0.74119E-09
         0.71588E-09
         0.56254E-09
         0.35351E-09
         0.58372E-09
         0.77316E-09
         0.62380E-09
         0.54827E-09
         0.35917E-09
         0.61313E-09
         0.83278E-09
         0.87422E-09
         0.70582E-09
         0.43377E-09
         0.74785E-09
         0.27575E-09
         0.35138E-09
         0.32761E-09
         0.38778E-09
         0.37885E-09
         0.36786E-09
         0.39283E-09
         0.41566E-09
         0.39107E-09
         0.30470E-09
         0.24816E-09
         0.32007E-09
         0.42665E-09
         0.46911E-09
         0.44985E-09
         0.40538E-09
         0.36802E-09
         0.29887E-09
         0.25140E-09
         0.32864E-09
         0.43520E-09
         0.44963E-09
         0.36310E-09
         0.29478E-09
         0.36170E-09
         0.42760E-09
         0.91198E-09
         0.72248E-09
         0.77646E-09
         0.13386E-08
         0.71663E-09
         0.91520E-09
         0.50901E-09
         0.61131E-09
         0.10141E-08
         0.74000E-09
         0.29957E-09
         0.56902E-09
         0.62653E-09
         0.50549E-09
         0.64784E-09
         0.12065E-08
         0.94382E-09
         0.12002E-08
         0.70325E-09
         0.80381E-09
         0.75824E-09
         0.84052E-09
         0.64472E-09
         0.40040E-09
         0.75929E-09
         0.63288E-09
         0.65492E-09
         0.67276E-09
         0.58657E-09
         0.71560E-09
         0.91038E-09
         0.64216E-09
         0.10211E-08
         0.89003E-09
         0.40073E-09
         0.61742E-09
         0.70105E-09
         0.74114E-09
         0.71593E-09
         0.56257E-09
         0.35351E-09
         0.58364E-09
         0.77313E-09
         0.62371E-09
         0.54814E-09
         0.35908E-09
         0.61308E-09
         0.83280E-09
         0.87436E-09
         0.70597E-09
         0.43378E-09
         0.74823E-09
         0.27567E-09
         0.35138E-09
         0.32745E-09
         0.38779E-09
         0.37893E-09
         0.36794E-09
         0.39300E-09
         0.41596E-09
         0.39130E-09
         0.30477E-09
         0.24818E-09
         0.32008E-09
         0.42671E-09
         0.46921E-09
         0.44991E-09
         0.40537E-09
         0.36800E-09
         0.29885E-09
         0.25136E-09
         0.32862E-09
         0.43520E-09
         0.44963E-09
         0.36303E-09
         0.29472E-09
         0.36175E-09
         0.42759E-09
         0.91203E-09
         0.72233E-09
         0.77653E-09
         0.13392E-08
         0.71675E-09
         0.91547E-09
         0.50875E-09
         0.61094E-09
         0.10144E-08
         0.73952E-09
         0.29928E-09
         0.56892E-09
         0.62649E-09
         0.50478E-09
         0.64770E-09
         0.12068E-08
         0.94424E-09
         0.12008E-08
         0.70327E-09
         0.80391E-09
         0.75821E-09
         0.84055E-09
         0.64465E-09
         0.40035E-09
         0.75896E-09
         0.63282E-09
         0.65393E-09
         0.67210E-09
         0.58632E-09
         0.71543E-09
         0.91047E-09
         0.64208E-09
         0.10216E-08
         0.89084E-09
         0.40073E-09
         0.61730E-09
         0.70096E-09
         0.74108E-09
         0.71598E-09
         0.56259E-09
         0.35351E-09
         0.58356E-09
         0.77309E-09
         0.62362E-09
         0.54801E-09
         0.35898E-09
         0.61303E-09
         0.83281E-09
         0.87449E-09
         0.70611E-09
         0.43379E-09
         0.74860E-09
         0.27558E-09
         0.35137E-09
         0.32729E-09
         0.38781E-09
         0.37902E-09
         0.36802E-09
         0.39317E-09
         0.41625E-09
         0.39153E-09
         0.30484E-09
         0.24820E-09
         0.32009E-09
         0.42677E-09
         0.46932E-09
         0.44996E-09
         0.40536E-09
         0.36798E-09
         0.29883E-09
         0.25132E-09
         0.32859E-09
         0.43519E-09
         0.44963E-09
         0.36296E-09
         0.29465E-09
         0.36179E-09
         0.42758E-09
         0.91208E-09
         0.72218E-09
         0.77659E-09
         0.13399E-08
         0.71686E-09
         0.91576E-09
         0.50848E-09
         0.61058E-09
         0.10148E-08
         0.73903E-09
         0.29900E-09
         0.56882E-09
         0.62645E-09
         0.50408E-09
         0.64757E-09
         0.12072E-08
         0.94467E-09
         0.12014E-08
         0.70330E-09
         0.80401E-09
         0.75818E-09
         0.84059E-09
         0.64459E-09
         0.40031E-09
         0.75864E-09
         0.63277E-09
         0.65294E-09
         0.67143E-09
         0.58607E-09
         0.71527E-09
         0.91057E-09
         0.64200E-09
         0.10221E-08
         0.89164E-09
         0.40072E-09
         0.61719E-09
         0.70087E-09
         0.74103E-09
         0.71603E-09
         0.56262E-09
         0.35352E-09
         0.58348E-09
         0.77305E-09
         0.62354E-09
         0.54788E-09
         0.35889E-09
         0.61298E-09
         0.83282E-09
         0.87463E-09
         0.70626E-09
         0.43380E-09
         0.74897E-09
         0.27550E-09
         0.35137E-09
         0.32713E-09
         0.38782E-09
         0.37911E-09
         0.36810E-09
         0.39334E-09
         0.41655E-09
         0.39176E-09
         0.30491E-09
         0.24822E-09
         0.32010E-09
         0.42682E-09
         0.46942E-09
         0.45001E-09
         0.40534E-09
         0.36796E-09
         0.29881E-09
         0.25128E-09
         0.32857E-09
         0.43518E-09
         0.44963E-09
         0.36288E-09
         0.29459E-09
         0.36184E-09
         0.42757E-09
         0.91214E-09
         0.72204E-09
         0.77666E-09
         0.13405E-08
         0.71698E-09
         0.91604E-09
         0.50822E-09
         0.61022E-09
         0.10151E-08
         0.73855E-09
         0.29871E-09
         0.56872E-09
         0.62641E-09
         0.50337E-09
         0.64743E-09
         0.12075E-08
         0.94510E-09
         0.12020E-08
         0.70333E-09
         0.80411E-09
         0.75815E-09
         0.84063E-09
         0.64453E-09
         0.40027E-09
         0.75831E-09
         0.63272E-09
         0.65196E-09
         0.67077E-09
         0.58582E-09
         0.71511E-09
         0.91066E-09
         0.64192E-09
         0.10227E-08
         0.89245E-09
         0.40072E-09
         0.61707E-09
         0.70078E-09
         0.74098E-09
         0.71608E-09
         0.56265E-09
         0.35352E-09
         0.58340E-09
         0.77301E-09
         0.62345E-09
         0.54775E-09
         0.35880E-09
         0.61293E-09
         0.83283E-09
         0.87476E-09
         0.70641E-09
         0.43382E-09
         0.74935E-09
         0.27541E-09
         0.35136E-09
         0.32697E-09
         0.38784E-09
         0.37920E-09
         0.36818E-09
         0.39352E-09
         0.41685E-09
         0.39199E-09
         0.30498E-09
         0.24824E-09
         0.32011E-09
         0.42688E-09
         0.46953E-09
         0.45007E-09
         0.40533E-09
         0.36793E-09
         0.29878E-09
         0.25124E-09
         0.32855E-09
         0.43517E-09
         0.44963E-09
         0.36281E-09
         0.29452E-09
         0.36188E-09
         0.42756E-09
         0.91219E-09
         0.72188E-09
         0.77672E-09
         0.13412E-08
         0.71709E-09
         0.91632E-09
         0.50795E-09
         0.60986E-09
         0.10155E-08
         0.73806E-09
         0.29842E-09
         0.56862E-09
         0.62636E-09
         0.50266E-09
         0.64730E-09
         0.12079E-08
         0.94552E-09
         0.12026E-08
         0.70335E-09
         0.80421E-09
         0.75811E-09
         0.84066E-09
         0.64446E-09
         0.40023E-09
         0.75798E-09
         0.63267E-09
         0.65096E-09
         0.67010E-09
         0.58557E-09
         0.71494E-09
         0.91074E-09
         0.64184E-09
         0.10232E-08
         0.89325E-09
         0.40072E-09
         0.61695E-09
         0.70069E-09
         0.74092E-09
         0.71612E-09
         0.56268E-09
         0.35352E-09
         0.58332E-09
         0.77297E-09
         0.62336E-09
         0.54762E-09
         0.35871E-09
         0.61287E-09
         0.83284E-09
         0.87489E-09
         0.70655E-09
         0.43383E-09
         0.74972E-09
         0.27533E-09
         0.35136E-09
         0.32681E-09
         0.38785E-09
         0.37929E-09
         0.36825E-09
         0.39369E-09
         0.41715E-09
         0.39222E-09
         0.30505E-09
         0.24826E-09
         0.32011E-09
         0.42694E-09
         0.46963E-09
         0.45011E-09
         0.40532E-09
         0.36791E-09
         0.29876E-09
         0.25120E-09
         0.32853E-09
         0.43516E-09
         0.44962E-09
         0.36274E-09
         0.29445E-09
         0.36192E-09
         0.42755E-09
         0.91224E-09
         0.72173E-09
         0.77679E-09
         0.13418E-08
         0.71720E-09
         0.91660E-09
         0.50768E-09
         0.60949E-09
         0.10158E-08
         0.73758E-09
         0.29814E-09
         0.56852E-09
         0.62632E-09
         0.50195E-09
         0.64716E-09
         0.12082E-08
         0.94595E-09
         0.12032E-08
         0.70337E-09
         0.80431E-09
         0.75808E-09
         0.84069E-09
         0.64440E-09
         0.40018E-09
         0.75766E-09
         0.63262E-09
         0.64998E-09
         0.66943E-09
         0.58532E-09
         0.71478E-09
         0.91083E-09
         0.64176E-09
         0.10238E-08
         0.89406E-09
         0.40071E-09
         0.61683E-09
         0.70059E-09
         0.74087E-09
         0.71617E-09
         0.56270E-09
         0.35352E-09
         0.58324E-09
         0.77294E-09
         0.62327E-09
         0.54749E-09
         0.35861E-09
         0.61282E-09
         0.83284E-09
         0.87503E-09
         0.70669E-09
         0.43384E-09
         0.75009E-09
         0.27524E-09
         0.35135E-09
         0.32665E-09
         0.38786E-09
         0.37937E-09
         0.36833E-09
         0.39386E-09
         0.41745E-09
         0.39245E-09
         0.30512E-09
         0.24828E-09
         0.32012E-09
         0.42699E-09
         0.46974E-09
         0.45017E-09
         0.40531E-09
         0.36788E-09
         0.29873E-09
         0.25117E-09
         0.32850E-09
         0.43515E-09
         0.44962E-09
         0.36266E-09
         0.29439E-09
         0.36197E-09
         0.42754E-09
         0.91230E-09
         0.72159E-09
         0.77686E-09
         0.13425E-08
         0.71732E-09
         0.91688E-09
         0.50742E-09
         0.60913E-09
         0.10162E-08
         0.73710E-09
         0.29785E-09
         0.56842E-09
         0.62628E-09
         0.50125E-09
         0.64703E-09
         0.12086E-08
         0.94638E-09
         0.12038E-08
         0.70340E-09
         0.80441E-09
         0.75805E-09
         0.84073E-09
         0.64433E-09
         0.40014E-09
         0.75733E-09
         0.63257E-09
         0.64899E-09
         0.66877E-09
         0.58508E-09
         0.71462E-09
         0.91093E-09
         0.64169E-09
         0.10243E-08
         0.89487E-09
         0.40071E-09
         0.61671E-09
         0.70051E-09
         0.74082E-09
         0.71622E-09
         0.56273E-09
         0.35352E-09
         0.58316E-09
         0.77290E-09
         0.62318E-09
         0.54737E-09
         0.35852E-09
         0.61277E-09
         0.83286E-09
         0.87517E-09
         0.70684E-09
         0.43385E-09
         0.75047E-09
         0.27516E-09
         0.35135E-09
         0.32649E-09
         0.38788E-09
         0.37946E-09
         0.36841E-09
         0.39403E-09
         0.41775E-09
         0.39268E-09
         0.30519E-09
         0.24830E-09
         0.32013E-09
         0.42705E-09
         0.46985E-09
         0.45022E-09
         0.40530E-09
         0.36786E-09
         0.29871E-09
         0.25113E-09
         0.32848E-09
         0.43515E-09
         0.44962E-09
         0.36259E-09
         0.29433E-09
         0.36201E-09
         0.42753E-09
         0.91235E-09
         0.72143E-09
         0.77692E-09
         0.13431E-08
         0.71743E-09
         0.91716E-09
         0.50715E-09
         0.60877E-09
         0.10165E-08
         0.73661E-09
         0.29757E-09
         0.56832E-09
         0.62624E-09
         0.50054E-09
         0.64689E-09
         0.12089E-08
         0.94680E-09
         0.12044E-08
         0.70342E-09
         0.80450E-09
         0.75802E-09
         0.84076E-09
         0.64427E-09
         0.40010E-09
         0.75700E-09
         0.63251E-09
         0.64800E-09
         0.66810E-09
         0.58482E-09
         0.71445E-09
         0.91101E-09
         0.64161E-09
         0.10248E-08
         0.89567E-09
         0.40071E-09
         0.61659E-09
         0.70041E-09
         0.74077E-09
         0.71627E-09
         0.56276E-09
         0.35352E-09
         0.58308E-09
         0.77286E-09
         0.62309E-09
         0.54723E-09
         0.35843E-09
         0.61272E-09
         0.83287E-09
         0.87530E-09
         0.70698E-09
         0.43386E-09
         0.75084E-09
         0.27507E-09
         0.35134E-09
         0.32633E-09
         0.38789E-09
         0.37955E-09
         0.36849E-09
         0.39420E-09
         0.41804E-09
         0.39291E-09
         0.30525E-09
         0.24832E-09
         0.32014E-09
         0.42711E-09
         0.46995E-09
         0.45027E-09
         0.40528E-09
         0.36784E-09
         0.29869E-09
         0.25109E-09
         0.32845E-09
         0.43514E-09
         0.44962E-09
         0.36252E-09
         0.29426E-09
         0.36206E-09
         0.42751E-09
         0.91240E-09
         0.72128E-09
         0.77698E-09
         0.13437E-08
         0.71755E-09
         0.91744E-09
         0.50688E-09
         0.60841E-09
         0.10169E-08
         0.73612E-09
         0.29728E-09
         0.56822E-09
         0.62619E-09
         0.49984E-09
         0.64676E-09
         0.12093E-08
         0.94723E-09
         0.12050E-08
         0.70345E-09
         0.80460E-09
         0.75798E-09
         0.84080E-09
         0.64420E-09
         0.40006E-09
         0.75667E-09
         0.63246E-09
         0.64701E-09
         0.66744E-09
         0.58457E-09
         0.71429E-09
         0.91110E-09
         0.64153E-09
         0.10254E-08
         0.89648E-09
         0.40070E-09
         0.61647E-09
         0.70032E-09
         0.74071E-09
         0.71632E-09
         0.56279E-09
         0.35353E-09
         0.58300E-09
         0.77282E-09
         0.62300E-09
         0.54710E-09
         0.35834E-09
         0.61266E-09
         0.83288E-09
         0.87543E-09
         0.70713E-09
         0.43387E-09
         0.75122E-09
         0.27499E-09
         0.35133E-09
         0.32617E-09
         0.38790E-09
         0.37964E-09
         0.36857E-09
         0.39437E-09
         0.41834E-09
         0.39314E-09
         0.30532E-09
         0.24834E-09
         0.32014E-09
         0.42716E-09
         0.47005E-09
         0.45032E-09
         0.40527E-09
         0.36781E-09
         0.29866E-09
         0.25105E-09
         0.32843E-09
         0.43513E-09
         0.44962E-09
         0.36244E-09
         0.29419E-09
         0.36210E-09
         0.42750E-09
         0.91246E-09
         0.72114E-09
         0.77705E-09
         0.13444E-08
         0.71767E-09
         0.91773E-09
         0.50662E-09
         0.60805E-09
         0.10173E-08
         0.73564E-09
         0.29700E-09
         0.56812E-09
         0.62616E-09
         0.49914E-09
         0.64663E-09
         0.12097E-08
         0.94766E-09
         0.12056E-08
         0.70348E-09
         0.80471E-09
         0.75796E-09
         0.84084E-09
         0.64414E-09
         0.40002E-09
         0.75635E-09
         0.63241E-09
         0.64603E-09
         0.66678E-09
         0.58433E-09
         0.71413E-09
         0.91120E-09
         0.64146E-09
         0.10259E-08
         0.89729E-09
         0.40070E-09
         0.61636E-09
         0.70023E-09
         0.74067E-09
         0.71637E-09
         0.56282E-09
         0.35353E-09
         0.58293E-09
         0.77279E-09
         0.62291E-09
         0.54698E-09
         0.35825E-09
         0.61261E-09
         0.83289E-09
         0.87557E-09
         0.70728E-09
         0.43389E-09
         0.75160E-09
         0.27491E-09
         0.35133E-09
         0.32601E-09
         0.38792E-09
         0.37972E-09
         0.36865E-09
         0.39454E-09
         0.41864E-09
         0.39337E-09
         0.30539E-09
         0.24836E-09
         0.32015E-09
         0.42722E-09
         0.47016E-09
         0.45038E-09
         0.40526E-09
         0.36779E-09
         0.29864E-09
         0.25101E-09
         0.32841E-09
         0.43512E-09
         0.44962E-09
         0.36237E-09
         0.29413E-09
         0.36215E-09
         0.42750E-09
         0.91249E-09
         0.72097E-09
         0.77710E-09
         0.13450E-08
         0.71777E-09
         0.91799E-09
         0.50634E-09
         0.60767E-09
         0.10176E-08
         0.73514E-09
         0.29670E-09
         0.56801E-09
         0.62610E-09
         0.49842E-09
         0.64648E-09
         0.12100E-08
         0.94806E-09
         0.12062E-08
         0.70349E-09
         0.80479E-09
         0.75791E-09
         0.84086E-09
         0.64406E-09
         0.39997E-09
         0.75600E-09
         0.63234E-09
         0.64503E-09
         0.66610E-09
         0.58407E-09
         0.71395E-09
         0.91127E-09
         0.64136E-09
         0.10264E-08
         0.89808E-09
         0.40069E-09
         0.61622E-09
         0.70012E-09
         0.74060E-09
         0.71641E-09
         0.56283E-09
         0.35352E-09
         0.58283E-09
         0.77273E-09
         0.62281E-09
         0.54684E-09
         0.35815E-09
         0.61255E-09
         0.83288E-09
         0.87569E-09
         0.70741E-09
         0.43389E-09
         0.75195E-09
         0.27482E-09
         0.35132E-09
         0.32584E-09
         0.38793E-09
         0.37980E-09
         0.36872E-09
         0.39470E-09
         0.41893E-09
         0.39360E-09
         0.30545E-09
         0.24837E-09
         0.32016E-09
         0.42727E-09
         0.47026E-09
         0.45042E-09
         0.40524E-09
         0.36776E-09
         0.29861E-09
         0.25097E-09
         0.32838E-09
         0.43510E-09
         0.44961E-09
         0.36229E-09
         0.29406E-09
         0.36218E-09
         0.42748E-09
         0.91256E-09
         0.72083E-09
         0.77718E-09
         0.13457E-08
         0.71789E-09
         0.91829E-09
         0.50608E-09
         0.60732E-09
         0.10180E-08
         0.73467E-09
         0.29642E-09
         0.56792E-09
         0.62607E-09
         0.49772E-09
         0.64636E-09
         0.12103E-08
         0.94850E-09
         0.12068E-08
         0.70352E-09
         0.80490E-09
         0.75789E-09
         0.84091E-09
         0.64401E-09
         0.39993E-09
         0.75569E-09
         0.63230E-09
         0.64405E-09
         0.66544E-09
         0.58382E-09
         0.71379E-09
         0.91137E-09
         0.64129E-09
         0.10270E-08
         0.89890E-09
         0.40069E-09
         0.61611E-09
         0.70004E-09
         0.74056E-09
         0.71646E-09
         0.56287E-09
         0.35353E-09
         0.58276E-09
         0.77271E-09
         0.62273E-09
         0.54672E-09
         0.35806E-09
         0.61251E-09
         0.83291E-09
         0.87583E-09
         0.70756E-09
         0.43391E-09
         0.75234E-09
         0.27474E-09
         0.35132E-09
         0.32569E-09
         0.38794E-09
         0.37990E-09
         0.36881E-09
         0.39488E-09
         0.41923E-09
         0.39383E-09
         0.30553E-09
         0.24840E-09
         0.32017E-09
         0.42734E-09
         0.47037E-09
         0.45048E-09
         0.40524E-09
         0.36774E-09
         0.29859E-09
         0.25093E-09
         0.32836E-09
         0.43510E-09
         0.44962E-09
         0.36222E-09
         0.29400E-09
         0.36223E-09
         0.42747E-09
         0.45631E-09
         0.36039E-09
         0.38862E-09
         0.67302E-09
         0.35899E-09
         0.45923E-09
         0.25298E-09
         0.30358E-09
         0.50909E-09
         0.36723E-09
         0.14815E-09
         0.28394E-09
         0.31303E-09
         0.24869E-09
         0.32316E-09
         0.60528E-09
         0.47437E-09
         0.60357E-09
         0.35178E-09
         0.40249E-09
         0.37895E-09
         0.42048E-09
         0.32200E-09
         0.19996E-09
         0.37777E-09
         0.31615E-09
         0.32179E-09
         0.33257E-09
         0.29186E-09
         0.35687E-09
         0.45572E-09
         0.32064E-09
         0.51365E-09
         0.44967E-09
         0.20035E-09
         0.30804E-09
         0.35001E-09
         0.37028E-09
         0.35826E-09
         0.28145E-09
         0.17677E-09
         0.29137E-09
         0.38636E-09
         0.31135E-09
         0.27333E-09
         0.17901E-09
         0.30625E-09
         0.41647E-09
         0.43797E-09
         0.35383E-09
         0.21697E-09
         0.37628E-09
         0.13735E-09
         0.17566E-09
         0.16281E-09
         0.19398E-09
         0.18998E-09
         0.18443E-09
         0.19749E-09
         0.20970E-09
         0.19698E-09
         0.15279E-09
         0.12421E-09
         0.16009E-09
         0.21369E-09
         0.23522E-09
         0.22526E-09
         0.20262E-09
         0.18387E-09
         0.14930E-09
         0.12546E-09
         0.16418E-09
         0.21756E-09
         0.22482E-09
         0.18110E-09
         0.14699E-09
         0.18113E-09
         0.21374E-09
  
SCALARS               pre_disp_force_x  double 1
LOOKUP_TABLE default
         0.00000E+00
         0.00000E+00
         0.00000E+00
         0.00000E+00
         0.00000E+00
         0.00000E+00
         0.00000E+00
         0.00000E+00
         0.00000E+00
         0.00000E+00
         0.00000E+00
         0.00000E+00
         0.00000E+00
         0.00000E+00
         0.00000E+00
         0.00000E+00
         0.00000E+00
         0.00000E+00
         0.00000E+00
         0.00000E+00
         0.00000E+00
         0.00000E+00
         0.00000E+00
         0.00000E+00
         0.00000E+00
         0.00000E+00
         0.00000E+00
         0.00000E+00
         0.00000E+00
         0.00000E+00
         0.00000E+00
         0.00000E+00
         0.00000E+00
         0.00000E+00
         0.00000E+00
         0.00000E+00
         0.00000E+00
         0.00000E+00
         0.00000E+00
         0.00000E+00
         0.00000E+00
         0.00000E+00
         0.00000E+00
         0.00000E+00
         0.00000E+00
         0.00000E+00
         0.00000E+00
         0.00000E+00
         0.00000E+00
         0.00000E+00
         0.00000E+00
         0.00000E+00
         0.00000E+00
         0.00000E+00
         0.00000E+00
         0.00000E+00
         0.00000E+00
         0.00000E+00
         0.00000E+00
         0.00000E+00
         0.00000E+00
         0.00000E+00
         0.00000E+00
         0.00000E+00
         0.00000E+00
         0.00000E+00
         0.00000E+00
         0.00000E+00
         0.00000E+00
         0.00000E+00
         0.00000E+00
         0.00000E+00
         0.00000E+00
         0.00000E+00
         0.00000E+00
         0.00000E+00
         0.00000E+00
         0.00000E+00
         0.00000E+00
         0.00000E+00
         0.00000E+00
         0.00000E+00
         0.00000E+00
         0.00000E+00
         0.00000E+00
         0.00000E+00
         0.00000E+00
         0.00000E+00
         0.00000E+00
         0.00000E+00
         0.00000E+00
         0.00000E+00
         0.00000E+00
         0.00000E+00
         0.00000E+00
         0.00000E+00
         0.00000E+00
         0.00000E+00
         0.00000E+00
         0.00000E+00
         0.00000E+00
         0.00000E+00
         0.00000E+00
         0.00000E+00
         0.00000E+00
         0.00000E+00
         0.00000E+00
         0.00000E+00
         0.00000E+00
         0.00000E+00
         0.00000E+00
         0.00000E+00
         0.00000E+00
         0.00000E+00
         0.00000E+00
         0.00000E+00
         0.00000E+00
         0.00000E+00
         0.00000E+00
         0.00000E+00
         0.00000E+00
         0.00000E+00
         0.00000E+00
         0.00000E+00
         0.00000E+00
         0.00000E+00
         0.00000E+00
         0.00000E+00
         0.00000E+00
         0.00000E+00
         0.00000E+00
         0.00000E+00
         0.00000E+00
         0.00000E+00
         0.00000E+00
         0.00000E+00
         0.00000E+00
         0.00000E+00
         0.00000E+00
         0.00000E+00
         0.00000E+00
         0.00000E+00
         0.00000E+00
         0.00000E+00
         0.00000E+00
         0.00000E+00
         0.00000E+00
         0.00000E+00
         0.00000E+00
         0.00000E+00
         0.00000E+00
         0.00000E+00
         0.00000E+00
         0.00000E+00
         0.00000E+00
         0.00000E+00
         0.00000E+00
         0.00000E+00
         0.00000E+00
         0.00000E+00
         0.00000E+00
         0.00000E+00
         0.00000E+00
         0.00000E+00
         0.00000E+00
         0.00000E+00
         0.00000E+00
         0.00000E+00
         0.00000E+00
         0.00000E+00
         0.00000E+00
         0.00000E+00
         0.00000E+00
         0.00000E+00
         0.00000E+00
         0.00000E+00
         0.00000E+00
         0.00000E+00
         0.00000E+00
         0.00000E+00
         0.00000E+00
         0.00000E+00
         0.00000E+00
         0.00000E+00
         0.00000E+00
         0.00000E+00
         0.00000E+00
         0.00000E+00
         0.00000E+00
         0.00000E+00
         0.00000E+00
         0.00000E+00
         0.00000E+00
         0.00000E+00
         0.00000E+00
         0.00000E+00
         0.00000E+00
         0.00000E+00
         0.00000E+00
         0.00000E+00
         0.00000E+00
         0.00000E+00
         0.00000E+00
         0.00000E+00
         0.00000E+00
         0.00000E+00
         0.00000E+00
         0.00000E+00
         0.00000E+00
         0.00000E+00
         0.00000E+00
         0.00000E+00
         0.00000E+00
         0.00000E+00
         0.00000E+00
         0.00000E+00
         0.00000E+00
         0.00000E+00
         0.00000E+00
         0.00000E+00
         0.00000E+00
         0.00000E+00
         0.00000E+00
         0.00000E+00
         0.00000E+00
         0.00000E+00
         0.00000E+00
         0.00000E+00
         0.00000E+00
         0.00000E+00
         0.00000E+00
         0.00000E+00
         0.00000E+00
         0.00000E+00
         0.00000E+00
         0.00000E+00
         0.00000E+00
         0.00000E+00
         0.00000E+00
         0.00000E+00
         0.00000E+00
         0.00000E+00
         0.00000E+00
         0.00000E+00
         0.00000E+00
         0.00000E+00
         0.00000E+00
         0.00000E+00
         0.00000E+00
         0.00000E+00
         0.00000E+00
         0.00000E+00
         0.00000E+00
         0.00000E+00
         0.00000E+00
         0.00000E+00
         0.00000E+00
         0.00000E+00
         0.00000E+00
         0.00000E+00
         0.00000E+00
         0.00000E+00
         0.00000E+00
         0.00000E+00
         0.00000E+00
         0.00000E+00
         0.00000E+00
         0.00000E+00
         0.00000E+00
         0.00000E+00
         0.00000E+00
         0.00000E+00
         0.00000E+00
         0.00000E+00
         0.00000E+00
         0.00000E+00
         0.00000E+00
         0.00000E+00
         0.00000E+00
         0.00000E+00
         0.00000E+00
         0.00000E+00
         0.00000E+00
         0.00000E+00
         0.00000E+00
         0.00000E+00
         0.00000E+00
         0.00000E+00
         0.00000E+00
         0.00000E+00
         0.00000E+00
         0.00000E+00
         0.00000E+00
         0.00000E+00
         0.00000E+00
         0.00000E+00
         0.00000E+00
         0.00000E+00
         0.00000E+00
         0.00000E+00
         0.00000E+00
         0.00000E+00
         0.00000E+00
         0.00000E+00
         0.00000E+00
         0.00000E+00
         0.00000E+00
         0.00000E+00
         0.00000E+00
         0.00000E+00
         0.00000E+00
         0.00000E+00
         0.00000E+00
         0.00000E+00
         0.00000E+00
         0.00000E+00
         0.00000E+00
         0.00000E+00
         0.00000E+00
         0.00000E+00
         0.00000E+00
         0.00000E+00
         0.00000E+00
         0.00000E+00
         0.00000E+00
         0.00000E+00
         0.00000E+00
         0.00000E+00
         0.00000E+00
         0.00000E+00
         0.00000E+00
         0.00000E+00
         0.00000E+00
         0.00000E+00
         0.00000E+00
         0.00000E+00
         0.00000E+00
         0.00000E+00
         0.00000E+00
         0.00000E+00
         0.00000E+00
         0.00000E+00
         0.00000E+00
         0.00000E+00
         0.00000E+00
         0.00000E+00
         0.00000E+00
         0.00000E+00
         0.00000E+00
         0.00000E+00
         0.00000E+00
         0.00000E+00
         0.00000E+00
         0.00000E+00
         0.00000E+00
         0.00000E+00
         0.00000E+00
         0.00000E+00
         0.00000E+00
         0.00000E+00
         0.00000E+00
         0.00000E+00
         0.00000E+00
         0.00000E+00
         0.00000E+00
         0.00000E+00
         0.00000E+00
         0.00000E+00
         0.00000E+00
         0.00000E+00
         0.00000E+00
         0.00000E+00
         0.00000E+00
         0.00000E+00
         0.00000E+00
         0.00000E+00
         0.00000E+00
         0.00000E+00
         0.00000E+00
         0.00000E+00
         0.00000E+00
         0.00000E+00
         0.00000E+00
         0.00000E+00
         0.00000E+00
         0.00000E+00
         0.00000E+00
         0.00000E+00
         0.00000E+00
         0.00000E+00
         0.00000E+00
         0.00000E+00
         0.00000E+00
         0.00000E+00
         0.00000E+00
         0.00000E+00
         0.00000E+00
         0.00000E+00
         0.00000E+00
         0.00000E+00
         0.00000E+00
         0.00000E+00
         0.00000E+00
         0.00000E+00
         0.00000E+00
         0.00000E+00
         0.00000E+00
         0.00000E+00
         0.00000E+00
         0.00000E+00
         0.00000E+00
         0.00000E+00
         0.00000E+00
         0.00000E+00
         0.00000E+00
         0.00000E+00
         0.00000E+00
         0.00000E+00
         0.00000E+00
         0.00000E+00
         0.00000E+00
         0.00000E+00
         0.00000E+00
         0.00000E+00
         0.00000E+00
         0.00000E+00
         0.00000E+00
         0.00000E+00
         0.00000E+00
         0.00000E+00
         0.00000E+00
         0.00000E+00
         0.00000E+00
         0.00000E+00
         0.00000E+00
         0.00000E+00
         0.00000E+00
         0.00000E+00
         0.00000E+00
         0.00000E+00
         0.00000E+00
         0.00000E+00
         0.00000E+00
         0.00000E+00
         0.00000E+00
         0.00000E+00
         0.00000E+00
         0.00000E+00
         0.00000E+00
         0.00000E+00
         0.00000E+00
         0.00000E+00
         0.00000E+00
         0.00000E+00
         0.00000E+00
         0.00000E+00
         0.00000E+00
         0.00000E+00
         0.00000E+00
         0.00000E+00
         0.00000E+00
         0.00000E+00
         0.00000E+00
         0.00000E+00
         0.00000E+00
         0.00000E+00
         0.00000E+00
         0.00000E+00
         0.00000E+00
         0.00000E+00
         0.00000E+00
         0.00000E+00
         0.00000E+00
         0.00000E+00
         0.00000E+00
         0.00000E+00
         0.00000E+00
         0.00000E+00
         0.00000E+00
         0.00000E+00
         0.00000E+00
         0.00000E+00
         0.00000E+00
         0.00000E+00
         0.00000E+00
         0.00000E+00
         0.00000E+00
         0.00000E+00
         0.00000E+00
         0.00000E+00
         0.00000E+00
         0.00000E+00
         0.00000E+00
         0.00000E+00
         0.00000E+00
         0.00000E+00
         0.00000E+00
         0.00000E+00
         0.00000E+00
         0.00000E+00
         0.00000E+00
         0.00000E+00
         0.00000E+00
         0.00000E+00
         0.00000E+00
         0.00000E+00
         0.00000E+00
         0.00000E+00
         0.00000E+00
         0.00000E+00
         0.00000E+00
         0.00000E+00
         0.00000E+00
         0.00000E+00
         0.00000E+00
         0.00000E+00
         0.00000E+00
         0.00000E+00
         0.00000E+00
         0.00000E+00
         0.00000E+00
         0.00000E+00
         0.00000E+00
         0.00000E+00
         0.00000E+00
         0.00000E+00
         0.00000E+00
         0.00000E+00
         0.00000E+00
         0.00000E+00
         0.00000E+00
         0.00000E+00
         0.00000E+00
         0.00000E+00
         0.00000E+00
         0.00000E+00
         0.00000E+00
         0.00000E+00
         0.00000E+00
         0.00000E+00
         0.00000E+00
         0.00000E+00
         0.00000E+00
         0.00000E+00
         0.00000E+00
         0.00000E+00
         0.00000E+00
         0.00000E+00
         0.00000E+00
         0.00000E+00
         0.00000E+00
         0.00000E+00
         0.00000E+00
         0.00000E+00
         0.00000E+00
         0.00000E+00
         0.00000E+00
         0.00000E+00
         0.00000E+00
         0.00000E+00
         0.00000E+00
         0.00000E+00
         0.00000E+00
         0.00000E+00
         0.00000E+00
         0.00000E+00
         0.00000E+00
         0.00000E+00
         0.00000E+00
         0.00000E+00
         0.00000E+00
         0.00000E+00
         0.00000E+00
         0.00000E+00
         0.00000E+00
         0.00000E+00
         0.00000E+00
         0.00000E+00
         0.00000E+00
         0.00000E+00
         0.00000E+00
         0.00000E+00
         0.00000E+00
         0.00000E+00
         0.00000E+00
         0.00000E+00
         0.00000E+00
         0.00000E+00
         0.00000E+00
         0.00000E+00
         0.00000E+00
         0.00000E+00
         0.00000E+00
         0.00000E+00
         0.00000E+00
         0.00000E+00
         0.00000E+00
         0.00000E+00
         0.00000E+00
         0.00000E+00
         0.00000E+00
         0.00000E+00
         0.00000E+00
         0.00000E+00
         0.00000E+00
         0.00000E+00
         0.00000E+00
         0.00000E+00
         0.00000E+00
         0.00000E+00
         0.00000E+00
         0.00000E+00
         0.00000E+00
         0.00000E+00
         0.00000E+00
         0.00000E+00
         0.00000E+00
         0.00000E+00
         0.00000E+00
         0.00000E+00
         0.00000E+00
         0.00000E+00
         0.00000E+00
         0.00000E+00
         0.00000E+00
         0.00000E+00
         0.00000E+00
         0.00000E+00
         0.00000E+00
         0.00000E+00
         0.00000E+00
         0.00000E+00
         0.00000E+00
         0.00000E+00
         0.00000E+00
         0.00000E+00
         0.00000E+00
         0.00000E+00
         0.00000E+00
         0.00000E+00
         0.00000E+00
         0.00000E+00
         0.00000E+00
         0.00000E+00
         0.00000E+00
         0.00000E+00
         0.00000E+00
         0.00000E+00
         0.00000E+00
         0.00000E+00
         0.00000E+00
         0.00000E+00
         0.00000E+00
         0.00000E+00
         0.00000E+00
         0.00000E+00
         0.00000E+00
         0.00000E+00
         0.00000E+00
         0.00000E+00
         0.00000E+00
         0.00000E+00
         0.00000E+00
         0.00000E+00
         0.00000E+00
         0.00000E+00
         0.00000E+00
         0.00000E+00
         0.00000E+00
         0.00000E+00
         0.00000E+00
         0.00000E+00
         0.00000E+00
         0.00000E+00
         0.00000E+00
         0.00000E+00
         0.00000E+00
         0.00000E+00
         0.00000E+00
         0.00000E+00
         0.00000E+00
         0.00000E+00
         0.00000E+00
         0.00000E+00
         0.00000E+00
         0.00000E+00
         0.00000E+00
         0.00000E+00
         0.00000E+00
         0.00000E+00
         0.00000E+00
         0.00000E+00
         0.00000E+00
         0.00000E+00
         0.00000E+00
         0.00000E+00
         0.00000E+00
         0.00000E+00
         0.00000E+00
         0.00000E+00
         0.00000E+00
         0.00000E+00
         0.00000E+00
         0.00000E+00
         0.00000E+00
         0.00000E+00
         0.00000E+00
         0.00000E+00
         0.00000E+00
         0.00000E+00
         0.00000E+00
         0.00000E+00
         0.00000E+00
         0.00000E+00
         0.00000E+00
         0.00000E+00
         0.00000E+00
         0.00000E+00
         0.00000E+00
         0.00000E+00
         0.00000E+00
         0.00000E+00
         0.00000E+00
         0.00000E+00
         0.00000E+00
         0.00000E+00
         0.00000E+00
         0.00000E+00
         0.00000E+00
         0.00000E+00
         0.00000E+00
         0.00000E+00
         0.00000E+00
         0.00000E+00
         0.00000E+00
         0.00000E+00
         0.00000E+00
         0.00000E+00
         0.00000E+00
         0.00000E+00
         0.00000E+00
         0.00000E+00
         0.00000E+00
         0.00000E+00
         0.00000E+00
         0.00000E+00
         0.00000E+00
         0.00000E+00
         0.00000E+00
         0.00000E+00
         0.00000E+00
         0.00000E+00
         0.00000E+00
         0.00000E+00
         0.00000E+00
         0.00000E+00
         0.00000E+00
         0.00000E+00
         0.00000E+00
         0.00000E+00
         0.00000E+00
         0.00000E+00
         0.00000E+00
         0.00000E+00
         0.00000E+00
         0.00000E+00
         0.00000E+00
         0.00000E+00
         0.00000E+00
         0.00000E+00
         0.00000E+00
         0.00000E+00
         0.00000E+00
         0.00000E+00
         0.00000E+00
         0.00000E+00
         0.00000E+00
         0.00000E+00
         0.00000E+00
         0.00000E+00
         0.00000E+00
         0.00000E+00
         0.00000E+00
         0.00000E+00
         0.00000E+00
         0.00000E+00
         0.00000E+00
         0.00000E+00
         0.00000E+00
         0.00000E+00
         0.00000E+00
         0.00000E+00
         0.00000E+00
         0.00000E+00
         0.00000E+00
         0.00000E+00
         0.00000E+00
         0.00000E+00
         0.00000E+00
         0.00000E+00
         0.00000E+00
         0.00000E+00
         0.00000E+00
         0.00000E+00
         0.00000E+00
         0.00000E+00
         0.00000E+00
         0.00000E+00
         0.00000E+00
         0.00000E+00
         0.00000E+00
         0.00000E+00
         0.00000E+00
         0.00000E+00
         0.00000E+00
         0.00000E+00
         0.00000E+00
         0.00000E+00
         0.00000E+00
         0.00000E+00
         0.00000E+00
         0.00000E+00
         0.00000E+00
         0.00000E+00
         0.00000E+00
         0.00000E+00
         0.00000E+00
         0.00000E+00
         0.00000E+00
         0.00000E+00
         0.00000E+00
         0.00000E+00
         0.00000E+00
         0.00000E+00
         0.00000E+00
         0.00000E+00
         0.00000E+00
         0.00000E+00
         0.00000E+00
         0.00000E+00
         0.00000E+00
         0.00000E+00
         0.00000E+00
         0.00000E+00
         0.00000E+00
         0.00000E+00
         0.00000E+00
         0.00000E+00
         0.00000E+00
         0.00000E+00
         0.00000E+00
         0.00000E+00
         0.00000E+00
         0.00000E+00
         0.00000E+00
         0.00000E+00
         0.00000E+00
         0.00000E+00
         0.00000E+00
         0.00000E+00
         0.00000E+00
         0.00000E+00
         0.00000E+00
         0.00000E+00
         0.00000E+00
         0.00000E+00
         0.00000E+00
         0.00000E+00
         0.00000E+00
         0.00000E+00
         0.00000E+00
         0.00000E+00
         0.00000E+00
         0.00000E+00
         0.00000E+00
         0.00000E+00
         0.00000E+00
         0.00000E+00
         0.00000E+00
         0.00000E+00
         0.00000E+00
         0.00000E+00
         0.00000E+00
         0.00000E+00
         0.00000E+00
         0.00000E+00
         0.00000E+00
         0.00000E+00
         0.00000E+00
         0.00000E+00
         0.00000E+00
         0.00000E+00
         0.00000E+00
         0.00000E+00
         0.00000E+00
         0.00000E+00
         0.00000E+00
         0.00000E+00
         0.00000E+00
         0.00000E+00
         0.00000E+00
         0.00000E+00
         0.00000E+00
         0.00000E+00
         0.00000E+00
         0.00000E+00
         0.00000E+00
         0.00000E+00
         0.00000E+00
         0.00000E+00
         0.00000E+00
         0.00000E+00
         0.00000E+00
         0.00000E+00
         0.00000E+00
         0.00000E+00
         0.00000E+00
         0.00000E+00
         0.00000E+00
         0.00000E+00
         0.00000E+00
         0.00000E+00
         0.00000E+00
         0.00000E+00
         0.00000E+00
         0.00000E+00
         0.00000E+00
         0.00000E+00
         0.00000E+00
         0.00000E+00
         0.00000E+00
         0.00000E+00
         0.00000E+00
         0.00000E+00
         0.00000E+00
         0.00000E+00
         0.00000E+00
         0.00000E+00
         0.00000E+00
         0.00000E+00
         0.00000E+00
         0.00000E+00
         0.00000E+00
         0.00000E+00
         0.00000E+00
         0.00000E+00
         0.00000E+00
         0.00000E+00
         0.00000E+00
         0.00000E+00
         0.00000E+00
         0.00000E+00
         0.00000E+00
         0.00000E+00
         0.00000E+00
         0.00000E+00
         0.00000E+00
         0.00000E+00
         0.00000E+00
         0.00000E+00
         0.00000E+00
         0.00000E+00
         0.00000E+00
         0.00000E+00
         0.00000E+00
         0.00000E+00
         0.00000E+00
         0.00000E+00
         0.00000E+00
         0.00000E+00
         0.00000E+00
         0.00000E+00
         0.00000E+00
         0.00000E+00
         0.00000E+00
         0.00000E+00
         0.00000E+00
         0.00000E+00
         0.00000E+00
         0.00000E+00
         0.00000E+00
         0.00000E+00
         0.00000E+00
         0.00000E+00
         0.00000E+00
         0.00000E+00
         0.00000E+00
         0.00000E+00
         0.00000E+00
         0.00000E+00
         0.00000E+00
         0.00000E+00
         0.00000E+00
         0.00000E+00
         0.00000E+00
         0.00000E+00
         0.00000E+00
         0.00000E+00
         0.00000E+00
         0.00000E+00
         0.00000E+00
         0.00000E+00
         0.00000E+00
         0.00000E+00
         0.00000E+00
         0.00000E+00
         0.00000E+00
         0.00000E+00
         0.00000E+00
         0.00000E+00
         0.00000E+00
         0.00000E+00
         0.00000E+00
         0.00000E+00
         0.00000E+00
         0.00000E+00
         0.00000E+00
         0.00000E+00
         0.00000E+00
         0.00000E+00
         0.00000E+00
         0.00000E+00
         0.00000E+00
         0.00000E+00
         0.00000E+00
         0.00000E+00
         0.00000E+00
         0.00000E+00
         0.00000E+00
         0.00000E+00
         0.00000E+00
         0.00000E+00
         0.00000E+00
         0.00000E+00
         0.00000E+00
         0.00000E+00
         0.00000E+00
         0.00000E+00
         0.00000E+00
         0.00000E+00
         0.00000E+00
         0.00000E+00
         0.00000E+00
         0.00000E+00
         0.00000E+00
         0.00000E+00
         0.00000E+00
         0.00000E+00
         0.00000E+00
         0.00000E+00
         0.00000E+00
         0.00000E+00
         0.00000E+00
         0.00000E+00
         0.00000E+00
         0.00000E+00
         0.00000E+00
         0.00000E+00
         0.00000E+00
         0.00000E+00
         0.00000E+00
         0.00000E+00
         0.00000E+00
         0.00000E+00
         0.00000E+00
         0.00000E+00
         0.00000E+00
         0.00000E+00
         0.00000E+00
         0.00000E+00
         0.00000E+00
         0.00000E+00
         0.00000E+00
         0.00000E+00
         0.00000E+00
         0.00000E+00
         0.00000E+00
         0.00000E+00
         0.00000E+00
         0.00000E+00
         0.00000E+00
         0.00000E+00
         0.00000E+00
         0.00000E+00
         0.00000E+00
         0.00000E+00
         0.00000E+00
         0.00000E+00
         0.00000E+00
         0.00000E+00
         0.00000E+00
         0.00000E+00
         0.00000E+00
         0.00000E+00
         0.00000E+00
         0.00000E+00
         0.00000E+00
         0.00000E+00
         0.00000E+00
         0.00000E+00
         0.00000E+00
         0.00000E+00
         0.00000E+00
         0.00000E+00
         0.00000E+00
         0.00000E+00
         0.00000E+00
         0.00000E+00
         0.00000E+00
         0.00000E+00
         0.00000E+00
         0.00000E+00
         0.00000E+00
         0.00000E+00
         0.00000E+00
         0.00000E+00
         0.00000E+00
         0.00000E+00
         0.00000E+00
         0.00000E+00
         0.00000E+00
         0.00000E+00
         0.00000E+00
         0.00000E+00
         0.00000E+00
         0.00000E+00
         0.00000E+00
         0.00000E+00
         0.00000E+00
         0.00000E+00
         0.00000E+00
         0.00000E+00
         0.00000E+00
         0.00000E+00
         0.00000E+00
         0.00000E+00
         0.00000E+00
         0.00000E+00
         0.00000E+00
         0.00000E+00
         0.00000E+00
         0.00000E+00
         0.00000E+00
         0.00000E+00
         0.00000E+00
         0.00000E+00
         0.00000E+00
         0.00000E+00
         0.00000E+00
         0.00000E+00
         0.00000E+00
         0.00000E+00
         0.00000E+00
         0.00000E+00
         0.00000E+00
         0.00000E+00
         0.00000E+00
         0.00000E+00
         0.00000E+00
         0.00000E+00
         0.00000E+00
         0.00000E+00
         0.00000E+00
         0.00000E+00
         0.00000E+00
         0.00000E+00
         0.00000E+00
         0.00000E+00
         0.00000E+00
         0.00000E+00
         0.00000E+00
         0.00000E+00
         0.00000E+00
         0.00000E+00
         0.00000E+00
         0.00000E+00
         0.00000E+00
         0.00000E+00
         0.00000E+00
         0.00000E+00
         0.00000E+00
         0.00000E+00
         0.00000E+00
         0.00000E+00
         0.00000E+00
         0.00000E+00
         0.00000E+00
         0.00000E+00
         0.00000E+00
         0.00000E+00
         0.00000E+00
         0.00000E+00
         0.00000E+00
         0.00000E+00
         0.00000E+00
         0.00000E+00
         0.00000E+00
         0.00000E+00
         0.00000E+00
         0.00000E+00
         0.00000E+00
         0.00000E+00
         0.00000E+00
         0.00000E+00
         0.00000E+00
         0.00000E+00
         0.00000E+00
         0.00000E+00
         0.00000E+00
         0.00000E+00
         0.00000E+00
         0.00000E+00
         0.00000E+00
         0.00000E+00
         0.00000E+00
         0.00000E+00
         0.00000E+00
         0.00000E+00
         0.00000E+00
         0.00000E+00
         0.00000E+00
         0.00000E+00
         0.00000E+00
         0.00000E+00
         0.00000E+00
         0.00000E+00
         0.00000E+00
         0.00000E+00
         0.00000E+00
         0.00000E+00
         0.00000E+00
         0.00000E+00
         0.00000E+00
         0.00000E+00
         0.00000E+00
         0.00000E+00
         0.00000E+00
         0.00000E+00
         0.00000E+00
         0.00000E+00
         0.00000E+00
         0.00000E+00
         0.00000E+00
         0.00000E+00
         0.00000E+00
         0.00000E+00
         0.00000E+00
         0.00000E+00
         0.00000E+00
         0.00000E+00
         0.00000E+00
         0.00000E+00
         0.00000E+00
         0.00000E+00
         0.00000E+00
         0.00000E+00
         0.00000E+00
         0.00000E+00
         0.00000E+00
         0.00000E+00
         0.00000E+00
         0.00000E+00
         0.00000E+00
         0.00000E+00
         0.00000E+00
         0.00000E+00
         0.00000E+00
         0.00000E+00
         0.00000E+00
         0.00000E+00
         0.00000E+00
         0.00000E+00
         0.00000E+00
         0.00000E+00
         0.00000E+00
         0.00000E+00
         0.00000E+00
         0.00000E+00
         0.00000E+00
         0.00000E+00
         0.00000E+00
         0.00000E+00
         0.00000E+00
         0.00000E+00
         0.00000E+00
         0.00000E+00
         0.00000E+00
         0.00000E+00
         0.00000E+00
         0.00000E+00
         0.00000E+00
         0.00000E+00
         0.00000E+00
         0.00000E+00
         0.00000E+00
         0.00000E+00
         0.00000E+00
         0.00000E+00
         0.00000E+00
         0.00000E+00
         0.00000E+00
         0.00000E+00
         0.00000E+00
         0.00000E+00
         0.00000E+00
         0.00000E+00
         0.00000E+00
         0.00000E+00
         0.00000E+00
         0.00000E+00
         0.00000E+00
         0.00000E+00
         0.00000E+00
         0.00000E+00
         0.00000E+00
         0.00000E+00
         0.00000E+00
         0.00000E+00
         0.00000E+00
         0.00000E+00
         0.00000E+00
         0.00000E+00
         0.00000E+00
         0.00000E+00
         0.00000E+00
         0.00000E+00
         0.00000E+00
         0.00000E+00
         0.00000E+00
         0.00000E+00
         0.00000E+00
         0.00000E+00
         0.00000E+00
         0.00000E+00
         0.00000E+00
         0.00000E+00
         0.00000E+00
         0.00000E+00
         0.00000E+00
         0.00000E+00
         0.00000E+00
         0.00000E+00
         0.00000E+00
         0.00000E+00
         0.00000E+00
         0.00000E+00
         0.00000E+00
         0.00000E+00
         0.00000E+00
         0.00000E+00
         0.00000E+00
         0.00000E+00
         0.00000E+00
         0.00000E+00
         0.00000E+00
         0.00000E+00
         0.00000E+00
         0.00000E+00
         0.00000E+00
         0.00000E+00
         0.00000E+00
         0.00000E+00
         0.00000E+00
         0.00000E+00
         0.00000E+00
         0.00000E+00
         0.00000E+00
         0.00000E+00
         0.00000E+00
         0.00000E+00
         0.00000E+00
         0.00000E+00
         0.00000E+00
         0.00000E+00
         0.00000E+00
         0.00000E+00
         0.00000E+00
         0.00000E+00
         0.00000E+00
         0.00000E+00
         0.00000E+00
         0.00000E+00
         0.00000E+00
         0.00000E+00
         0.00000E+00
         0.00000E+00
         0.00000E+00
         0.00000E+00
         0.00000E+00
         0.00000E+00
         0.00000E+00
         0.00000E+00
         0.00000E+00
         0.00000E+00
         0.00000E+00
         0.00000E+00
         0.00000E+00
         0.00000E+00
         0.00000E+00
         0.00000E+00
         0.00000E+00
         0.00000E+00
         0.00000E+00
         0.00000E+00
         0.00000E+00
         0.00000E+00
         0.00000E+00
         0.00000E+00
         0.00000E+00
         0.00000E+00
         0.00000E+00
         0.00000E+00
         0.00000E+00
         0.00000E+00
         0.00000E+00
         0.00000E+00
         0.00000E+00
         0.00000E+00
         0.00000E+00
         0.00000E+00
         0.00000E+00
         0.00000E+00
         0.00000E+00
         0.00000E+00
         0.00000E+00
         0.00000E+00
         0.00000E+00
         0.00000E+00
         0.00000E+00
         0.00000E+00
         0.00000E+00
         0.00000E+00
         0.00000E+00
         0.00000E+00
         0.00000E+00
         0.00000E+00
         0.00000E+00
         0.00000E+00
         0.00000E+00
         0.00000E+00
         0.00000E+00
         0.00000E+00
         0.00000E+00
         0.00000E+00
         0.00000E+00
         0.00000E+00
         0.00000E+00
         0.00000E+00
         0.00000E+00
         0.00000E+00
         0.00000E+00
         0.00000E+00
         0.00000E+00
         0.00000E+00
         0.00000E+00
         0.00000E+00
         0.00000E+00
         0.00000E+00
         0.00000E+00
         0.00000E+00
         0.00000E+00
         0.00000E+00
         0.00000E+00
         0.00000E+00
         0.00000E+00
         0.00000E+00
         0.00000E+00
         0.00000E+00
         0.00000E+00
         0.00000E+00
         0.00000E+00
         0.00000E+00
         0.00000E+00
         0.00000E+00
         0.00000E+00
         0.00000E+00
         0.00000E+00
         0.00000E+00
         0.00000E+00
         0.00000E+00
         0.00000E+00
         0.00000E+00
         0.00000E+00
         0.00000E+00
         0.00000E+00
         0.00000E+00
         0.00000E+00
         0.00000E+00
         0.00000E+00
         0.00000E+00
         0.00000E+00
         0.00000E+00
         0.00000E+00
         0.00000E+00
         0.00000E+00
         0.00000E+00
         0.00000E+00
         0.00000E+00
         0.00000E+00
         0.00000E+00
         0.00000E+00
         0.00000E+00
         0.00000E+00
         0.00000E+00
         0.00000E+00
         0.00000E+00
         0.00000E+00
         0.00000E+00
         0.00000E+00
         0.00000E+00
         0.00000E+00
         0.00000E+00
         0.00000E+00
         0.00000E+00
         0.00000E+00
         0.00000E+00
         0.00000E+00
         0.00000E+00
         0.00000E+00
         0.00000E+00
         0.00000E+00
         0.00000E+00
         0.00000E+00
         0.00000E+00
         0.00000E+00
         0.00000E+00
         0.00000E+00
         0.00000E+00
         0.00000E+00
         0.00000E+00
         0.00000E+00
         0.00000E+00
         0.00000E+00
         0.00000E+00
         0.00000E+00
         0.00000E+00
         0.00000E+00
         0.00000E+00
         0.00000E+00
         0.00000E+00
         0.00000E+00
         0.00000E+00
         0.00000E+00
         0.00000E+00
         0.00000E+00
         0.00000E+00
         0.00000E+00
         0.00000E+00
         0.00000E+00
         0.00000E+00
         0.00000E+00
         0.00000E+00
         0.00000E+00
         0.00000E+00
         0.00000E+00
         0.00000E+00
         0.00000E+00
         0.00000E+00
         0.00000E+00
         0.00000E+00
         0.00000E+00
         0.00000E+00
         0.00000E+00
         0.00000E+00
         0.00000E+00
         0.00000E+00
         0.00000E+00
         0.00000E+00
         0.00000E+00
         0.00000E+00
         0.00000E+00
         0.00000E+00
         0.00000E+00
         0.00000E+00
         0.00000E+00
         0.00000E+00
         0.00000E+00
         0.00000E+00
         0.00000E+00
         0.00000E+00
         0.00000E+00
         0.00000E+00
         0.00000E+00
         0.00000E+00
         0.00000E+00
         0.00000E+00
         0.00000E+00
         0.00000E+00
         0.00000E+00
         0.00000E+00
         0.00000E+00
         0.00000E+00
         0.00000E+00
         0.00000E+00
         0.00000E+00
         0.00000E+00
         0.00000E+00
         0.00000E+00
         0.00000E+00
         0.00000E+00
         0.00000E+00
         0.00000E+00
         0.00000E+00
         0.00000E+00
         0.00000E+00
         0.00000E+00
         0.00000E+00
         0.00000E+00
         0.00000E+00
         0.00000E+00
         0.00000E+00
         0.00000E+00
         0.00000E+00
         0.00000E+00
         0.00000E+00
         0.00000E+00
         0.00000E+00
         0.00000E+00
         0.00000E+00
         0.00000E+00
         0.00000E+00
         0.00000E+00
         0.00000E+00
         0.00000E+00
         0.00000E+00
         0.00000E+00
         0.00000E+00
         0.00000E+00
         0.00000E+00
         0.00000E+00
         0.00000E+00
         0.00000E+00
         0.00000E+00
         0.00000E+00
         0.00000E+00
         0.00000E+00
         0.00000E+00
         0.00000E+00
         0.00000E+00
         0.00000E+00
         0.00000E+00
         0.00000E+00
         0.00000E+00
         0.00000E+00
         0.00000E+00
         0.00000E+00
         0.00000E+00
         0.00000E+00
         0.00000E+00
         0.00000E+00
         0.00000E+00
         0.00000E+00
         0.00000E+00
         0.00000E+00
         0.00000E+00
         0.00000E+00
         0.00000E+00
         0.00000E+00
         0.00000E+00
         0.00000E+00
         0.00000E+00
         0.00000E+00
         0.00000E+00
         0.00000E+00
         0.00000E+00
         0.00000E+00
         0.00000E+00
         0.00000E+00
         0.00000E+00
         0.00000E+00
         0.00000E+00
         0.00000E+00
         0.00000E+00
         0.00000E+00
         0.00000E+00
         0.00000E+00
         0.00000E+00
         0.00000E+00
         0.00000E+00
         0.00000E+00
         0.00000E+00
         0.00000E+00
         0.00000E+00
         0.00000E+00
         0.00000E+00
         0.00000E+00
         0.00000E+00
         0.00000E+00
         0.00000E+00
         0.00000E+00
         0.00000E+00
         0.00000E+00
         0.00000E+00
         0.00000E+00
         0.00000E+00
         0.00000E+00
         0.00000E+00
         0.00000E+00
         0.00000E+00
         0.00000E+00
         0.00000E+00
         0.00000E+00
         0.00000E+00
         0.00000E+00
         0.00000E+00
         0.00000E+00
         0.00000E+00
         0.00000E+00
         0.00000E+00
         0.00000E+00
         0.00000E+00
         0.00000E+00
         0.00000E+00
         0.00000E+00
         0.00000E+00
         0.00000E+00
         0.00000E+00
         0.00000E+00
         0.00000E+00
         0.00000E+00
         0.00000E+00
         0.00000E+00
         0.00000E+00
         0.00000E+00
         0.00000E+00
         0.00000E+00
         0.00000E+00
         0.00000E+00
         0.00000E+00
         0.00000E+00
         0.00000E+00
         0.00000E+00
         0.00000E+00
         0.00000E+00
         0.00000E+00
         0.00000E+00
         0.00000E+00
         0.00000E+00
         0.00000E+00
         0.00000E+00
         0.00000E+00
         0.00000E+00
         0.00000E+00
         0.00000E+00
         0.00000E+00
         0.00000E+00
         0.00000E+00
         0.00000E+00
         0.00000E+00
         0.00000E+00
         0.00000E+00
         0.00000E+00
         0.00000E+00
         0.00000E+00
         0.00000E+00
         0.00000E+00
         0.00000E+00
         0.00000E+00
         0.00000E+00
         0.00000E+00
         0.00000E+00
         0.00000E+00
         0.00000E+00
         0.00000E+00
         0.00000E+00
         0.00000E+00
         0.00000E+00
         0.00000E+00
         0.00000E+00
         0.00000E+00
         0.00000E+00
         0.00000E+00
         0.00000E+00
         0.00000E+00
         0.00000E+00
         0.00000E+00
         0.00000E+00
         0.00000E+00
         0.00000E+00
         0.00000E+00
         0.00000E+00
         0.00000E+00
         0.00000E+00
         0.00000E+00
         0.00000E+00
         0.00000E+00
         0.00000E+00
         0.00000E+00
         0.00000E+00
         0.00000E+00
         0.00000E+00
         0.00000E+00
         0.00000E+00
         0.00000E+00
         0.00000E+00
         0.00000E+00
         0.00000E+00
         0.00000E+00
         0.00000E+00
         0.00000E+00
         0.00000E+00
         0.00000E+00
         0.00000E+00
         0.00000E+00
         0.00000E+00
         0.00000E+00
         0.00000E+00
         0.00000E+00
         0.00000E+00
         0.00000E+00
         0.00000E+00
         0.00000E+00
         0.00000E+00
         0.00000E+00
         0.00000E+00
         0.00000E+00
         0.00000E+00
         0.00000E+00
         0.00000E+00
         0.00000E+00
         0.00000E+00
         0.00000E+00
         0.00000E+00
         0.00000E+00
         0.00000E+00
         0.00000E+00
         0.00000E+00
         0.00000E+00
         0.00000E+00
         0.00000E+00
         0.00000E+00
         0.00000E+00
         0.00000E+00
         0.00000E+00
         0.00000E+00
         0.00000E+00
         0.00000E+00
         0.00000E+00
         0.00000E+00
         0.00000E+00
         0.00000E+00
         0.00000E+00
         0.00000E+00
         0.00000E+00
         0.00000E+00
         0.00000E+00
         0.00000E+00
         0.00000E+00
         0.00000E+00
         0.00000E+00
         0.00000E+00
         0.00000E+00
         0.00000E+00
         0.00000E+00
         0.00000E+00
         0.00000E+00
         0.00000E+00
         0.00000E+00
         0.00000E+00
         0.00000E+00
         0.00000E+00
         0.00000E+00
         0.00000E+00
         0.00000E+00
         0.00000E+00
         0.00000E+00
         0.00000E+00
         0.00000E+00
         0.00000E+00
         0.00000E+00
         0.00000E+00
         0.00000E+00
         0.00000E+00
         0.00000E+00
         0.00000E+00
         0.00000E+00
         0.00000E+00
         0.00000E+00
         0.00000E+00
         0.00000E+00
         0.00000E+00
         0.00000E+00
         0.00000E+00
         0.00000E+00
         0.00000E+00
         0.00000E+00
         0.00000E+00
         0.00000E+00
         0.00000E+00
         0.00000E+00
         0.00000E+00
         0.00000E+00
         0.00000E+00
         0.00000E+00
         0.00000E+00
         0.00000E+00
         0.00000E+00
         0.00000E+00
         0.00000E+00
         0.00000E+00
         0.00000E+00
         0.00000E+00
         0.00000E+00
         0.00000E+00
         0.00000E+00
         0.00000E+00
         0.00000E+00
         0.00000E+00
         0.00000E+00
         0.00000E+00
         0.00000E+00
         0.00000E+00
         0.00000E+00
         0.00000E+00
         0.00000E+00
         0.00000E+00
         0.00000E+00
         0.00000E+00
         0.00000E+00
         0.00000E+00
         0.00000E+00
         0.00000E+00
         0.00000E+00
         0.00000E+00
         0.00000E+00
         0.00000E+00
         0.00000E+00
         0.00000E+00
         0.00000E+00
         0.00000E+00
         0.00000E+00
         0.00000E+00
         0.00000E+00
         0.00000E+00
         0.00000E+00
         0.00000E+00
         0.00000E+00
         0.00000E+00
         0.00000E+00
         0.00000E+00
         0.00000E+00
         0.00000E+00
         0.00000E+00
         0.00000E+00
         0.00000E+00
         0.00000E+00
         0.00000E+00
         0.00000E+00
         0.00000E+00
         0.00000E+00
  
SCALARS               pre_disp_force_y  double 1
LOOKUP_TABLE default
         0.00000E+00
         0.00000E+00
         0.00000E+00
         0.00000E+00
         0.00000E+00
         0.00000E+00
         0.00000E+00
         0.00000E+00
         0.00000E+00
         0.00000E+00
         0.00000E+00
         0.00000E+00
         0.00000E+00
         0.00000E+00
         0.00000E+00
         0.00000E+00
         0.00000E+00
         0.00000E+00
         0.00000E+00
         0.00000E+00
         0.00000E+00
         0.00000E+00
         0.00000E+00
         0.00000E+00
         0.00000E+00
         0.00000E+00
         0.00000E+00
         0.00000E+00
         0.00000E+00
         0.00000E+00
         0.00000E+00
         0.00000E+00
         0.00000E+00
         0.00000E+00
         0.00000E+00
         0.00000E+00
         0.00000E+00
         0.00000E+00
         0.00000E+00
         0.00000E+00
         0.00000E+00
         0.00000E+00
         0.00000E+00
         0.00000E+00
         0.00000E+00
         0.00000E+00
         0.00000E+00
         0.00000E+00
         0.00000E+00
         0.00000E+00
         0.00000E+00
         0.00000E+00
         0.00000E+00
         0.00000E+00
         0.00000E+00
         0.00000E+00
         0.00000E+00
         0.00000E+00
         0.00000E+00
         0.00000E+00
         0.00000E+00
         0.00000E+00
         0.00000E+00
         0.00000E+00
         0.00000E+00
         0.00000E+00
         0.00000E+00
         0.00000E+00
         0.00000E+00
         0.00000E+00
         0.00000E+00
         0.00000E+00
         0.00000E+00
         0.00000E+00
         0.00000E+00
         0.00000E+00
         0.00000E+00
         0.00000E+00
         0.00000E+00
         0.00000E+00
         0.00000E+00
         0.00000E+00
         0.00000E+00
         0.00000E+00
         0.00000E+00
         0.00000E+00
         0.00000E+00
         0.00000E+00
         0.00000E+00
         0.00000E+00
         0.00000E+00
         0.00000E+00
         0.00000E+00
         0.00000E+00
         0.00000E+00
         0.00000E+00
         0.00000E+00
         0.00000E+00
         0.00000E+00
         0.00000E+00
         0.00000E+00
         0.00000E+00
         0.00000E+00
         0.00000E+00
         0.00000E+00
         0.00000E+00
         0.00000E+00
         0.00000E+00
         0.00000E+00
         0.00000E+00
         0.00000E+00
         0.00000E+00
         0.00000E+00
         0.00000E+00
         0.00000E+00
         0.00000E+00
         0.00000E+00
         0.00000E+00
         0.00000E+00
         0.00000E+00
         0.00000E+00
         0.00000E+00
         0.00000E+00
         0.00000E+00
         0.00000E+00
         0.00000E+00
         0.00000E+00
         0.00000E+00
         0.00000E+00
         0.00000E+00
         0.00000E+00
         0.00000E+00
         0.00000E+00
         0.00000E+00
         0.00000E+00
         0.00000E+00
         0.00000E+00
         0.00000E+00
         0.00000E+00
         0.00000E+00
         0.00000E+00
         0.00000E+00
         0.00000E+00
         0.00000E+00
         0.00000E+00
         0.00000E+00
         0.00000E+00
         0.00000E+00
         0.00000E+00
         0.00000E+00
         0.00000E+00
         0.00000E+00
         0.00000E+00
         0.00000E+00
         0.00000E+00
         0.00000E+00
         0.00000E+00
         0.00000E+00
         0.00000E+00
         0.00000E+00
         0.00000E+00
         0.00000E+00
         0.00000E+00
         0.00000E+00
         0.00000E+00
         0.00000E+00
         0.00000E+00
         0.00000E+00
         0.00000E+00
         0.00000E+00
         0.00000E+00
         0.00000E+00
         0.00000E+00
         0.00000E+00
         0.00000E+00
         0.00000E+00
         0.00000E+00
         0.00000E+00
         0.00000E+00
         0.00000E+00
         0.00000E+00
         0.00000E+00
         0.00000E+00
         0.00000E+00
         0.00000E+00
         0.00000E+00
         0.00000E+00
         0.00000E+00
         0.00000E+00
         0.00000E+00
         0.00000E+00
         0.00000E+00
         0.00000E+00
         0.00000E+00
         0.00000E+00
         0.00000E+00
         0.00000E+00
         0.00000E+00
         0.00000E+00
         0.00000E+00
         0.00000E+00
         0.00000E+00
         0.00000E+00
         0.00000E+00
         0.00000E+00
         0.00000E+00
         0.00000E+00
         0.00000E+00
         0.00000E+00
         0.00000E+00
         0.00000E+00
         0.00000E+00
         0.00000E+00
         0.00000E+00
         0.00000E+00
         0.00000E+00
         0.00000E+00
         0.00000E+00
         0.00000E+00
         0.00000E+00
         0.00000E+00
         0.00000E+00
         0.00000E+00
         0.00000E+00
         0.00000E+00
         0.00000E+00
         0.00000E+00
         0.00000E+00
         0.00000E+00
         0.00000E+00
         0.00000E+00
         0.00000E+00
         0.00000E+00
         0.00000E+00
         0.00000E+00
         0.00000E+00
         0.00000E+00
         0.00000E+00
         0.00000E+00
         0.00000E+00
         0.00000E+00
         0.00000E+00
         0.00000E+00
         0.00000E+00
         0.00000E+00
         0.00000E+00
         0.00000E+00
         0.00000E+00
         0.00000E+00
         0.00000E+00
         0.00000E+00
         0.00000E+00
         0.00000E+00
         0.00000E+00
         0.00000E+00
         0.00000E+00
         0.00000E+00
         0.00000E+00
         0.00000E+00
         0.00000E+00
         0.00000E+00
         0.00000E+00
         0.00000E+00
         0.00000E+00
         0.00000E+00
         0.00000E+00
         0.00000E+00
         0.00000E+00
         0.00000E+00
         0.00000E+00
         0.00000E+00
         0.00000E+00
         0.00000E+00
         0.00000E+00
         0.00000E+00
         0.00000E+00
         0.00000E+00
         0.00000E+00
         0.00000E+00
         0.00000E+00
         0.00000E+00
         0.00000E+00
         0.00000E+00
         0.00000E+00
         0.00000E+00
         0.00000E+00
         0.00000E+00
         0.00000E+00
         0.00000E+00
         0.00000E+00
         0.00000E+00
         0.00000E+00
         0.00000E+00
         0.00000E+00
         0.00000E+00
         0.00000E+00
         0.00000E+00
         0.00000E+00
         0.00000E+00
         0.00000E+00
         0.00000E+00
         0.00000E+00
         0.00000E+00
         0.00000E+00
         0.00000E+00
         0.00000E+00
         0.00000E+00
         0.00000E+00
         0.00000E+00
         0.00000E+00
         0.00000E+00
         0.00000E+00
         0.00000E+00
         0.00000E+00
         0.00000E+00
         0.00000E+00
         0.00000E+00
         0.00000E+00
         0.00000E+00
         0.00000E+00
         0.00000E+00
         0.00000E+00
         0.00000E+00
         0.00000E+00
         0.00000E+00
         0.00000E+00
         0.00000E+00
         0.00000E+00
         0.00000E+00
         0.00000E+00
         0.00000E+00
         0.00000E+00
         0.00000E+00
         0.00000E+00
         0.00000E+00
         0.00000E+00
         0.00000E+00
         0.00000E+00
         0.00000E+00
         0.00000E+00
         0.00000E+00
         0.00000E+00
         0.00000E+00
         0.00000E+00
         0.00000E+00
         0.00000E+00
         0.00000E+00
         0.00000E+00
         0.00000E+00
         0.00000E+00
         0.00000E+00
         0.00000E+00
         0.00000E+00
         0.00000E+00
         0.00000E+00
         0.00000E+00
         0.00000E+00
         0.00000E+00
         0.00000E+00
         0.00000E+00
         0.00000E+00
         0.00000E+00
         0.00000E+00
         0.00000E+00
         0.00000E+00
         0.00000E+00
         0.00000E+00
         0.00000E+00
         0.00000E+00
         0.00000E+00
         0.00000E+00
         0.00000E+00
         0.00000E+00
         0.00000E+00
         0.00000E+00
         0.00000E+00
         0.00000E+00
         0.00000E+00
         0.00000E+00
         0.00000E+00
         0.00000E+00
         0.00000E+00
         0.00000E+00
         0.00000E+00
         0.00000E+00
         0.00000E+00
         0.00000E+00
         0.00000E+00
         0.00000E+00
         0.00000E+00
         0.00000E+00
         0.00000E+00
         0.00000E+00
         0.00000E+00
         0.00000E+00
         0.00000E+00
         0.00000E+00
         0.00000E+00
         0.00000E+00
         0.00000E+00
         0.00000E+00
         0.00000E+00
         0.00000E+00
         0.00000E+00
         0.00000E+00
         0.00000E+00
         0.00000E+00
         0.00000E+00
         0.00000E+00
         0.00000E+00
         0.00000E+00
         0.00000E+00
         0.00000E+00
         0.00000E+00
         0.00000E+00
         0.00000E+00
         0.00000E+00
         0.00000E+00
         0.00000E+00
         0.00000E+00
         0.00000E+00
         0.00000E+00
         0.00000E+00
         0.00000E+00
         0.00000E+00
         0.00000E+00
         0.00000E+00
         0.00000E+00
         0.00000E+00
         0.00000E+00
         0.00000E+00
         0.00000E+00
         0.00000E+00
         0.00000E+00
         0.00000E+00
         0.00000E+00
         0.00000E+00
         0.00000E+00
         0.00000E+00
         0.00000E+00
         0.00000E+00
         0.00000E+00
         0.00000E+00
         0.00000E+00
         0.00000E+00
         0.00000E+00
         0.00000E+00
         0.00000E+00
         0.00000E+00
         0.00000E+00
         0.00000E+00
         0.00000E+00
         0.00000E+00
         0.00000E+00
         0.00000E+00
         0.00000E+00
         0.00000E+00
         0.00000E+00
         0.00000E+00
         0.00000E+00
         0.00000E+00
         0.00000E+00
         0.00000E+00
         0.00000E+00
         0.00000E+00
         0.00000E+00
         0.00000E+00
         0.00000E+00
         0.00000E+00
         0.00000E+00
         0.00000E+00
         0.00000E+00
         0.00000E+00
         0.00000E+00
         0.00000E+00
         0.00000E+00
         0.00000E+00
         0.00000E+00
         0.00000E+00
         0.00000E+00
         0.00000E+00
         0.00000E+00
         0.00000E+00
         0.00000E+00
         0.00000E+00
         0.00000E+00
         0.00000E+00
         0.00000E+00
         0.00000E+00
         0.00000E+00
         0.00000E+00
         0.00000E+00
         0.00000E+00
         0.00000E+00
         0.00000E+00
         0.00000E+00
         0.00000E+00
         0.00000E+00
         0.00000E+00
         0.00000E+00
         0.00000E+00
         0.00000E+00
         0.00000E+00
         0.00000E+00
         0.00000E+00
         0.00000E+00
         0.00000E+00
         0.00000E+00
         0.00000E+00
         0.00000E+00
         0.00000E+00
         0.00000E+00
         0.00000E+00
         0.00000E+00
         0.00000E+00
         0.00000E+00
         0.00000E+00
         0.00000E+00
         0.00000E+00
         0.00000E+00
         0.00000E+00
         0.00000E+00
         0.00000E+00
         0.00000E+00
         0.00000E+00
         0.00000E+00
         0.00000E+00
         0.00000E+00
         0.00000E+00
         0.00000E+00
         0.00000E+00
         0.00000E+00
         0.00000E+00
         0.00000E+00
         0.00000E+00
         0.00000E+00
         0.00000E+00
         0.00000E+00
         0.00000E+00
         0.00000E+00
         0.00000E+00
         0.00000E+00
         0.00000E+00
         0.00000E+00
         0.00000E+00
         0.00000E+00
         0.00000E+00
         0.00000E+00
         0.00000E+00
         0.00000E+00
         0.00000E+00
         0.00000E+00
         0.00000E+00
         0.00000E+00
         0.00000E+00
         0.00000E+00
         0.00000E+00
         0.00000E+00
         0.00000E+00
         0.00000E+00
         0.00000E+00
         0.00000E+00
         0.00000E+00
         0.00000E+00
         0.00000E+00
         0.00000E+00
         0.00000E+00
         0.00000E+00
         0.00000E+00
         0.00000E+00
         0.00000E+00
         0.00000E+00
         0.00000E+00
         0.00000E+00
         0.00000E+00
         0.00000E+00
         0.00000E+00
         0.00000E+00
         0.00000E+00
         0.00000E+00
         0.00000E+00
         0.00000E+00
         0.00000E+00
         0.00000E+00
         0.00000E+00
         0.00000E+00
         0.00000E+00
         0.00000E+00
         0.00000E+00
         0.00000E+00
         0.00000E+00
         0.00000E+00
         0.00000E+00
         0.00000E+00
         0.00000E+00
         0.00000E+00
         0.00000E+00
         0.00000E+00
         0.00000E+00
         0.00000E+00
         0.00000E+00
         0.00000E+00
         0.00000E+00
         0.00000E+00
         0.00000E+00
         0.00000E+00
         0.00000E+00
         0.00000E+00
         0.00000E+00
         0.00000E+00
         0.00000E+00
         0.00000E+00
         0.00000E+00
         0.00000E+00
         0.00000E+00
         0.00000E+00
         0.00000E+00
         0.00000E+00
         0.00000E+00
         0.00000E+00
         0.00000E+00
         0.00000E+00
         0.00000E+00
         0.00000E+00
         0.00000E+00
         0.00000E+00
         0.00000E+00
         0.00000E+00
         0.00000E+00
         0.00000E+00
         0.00000E+00
         0.00000E+00
         0.00000E+00
         0.00000E+00
         0.00000E+00
         0.00000E+00
         0.00000E+00
         0.00000E+00
         0.00000E+00
         0.00000E+00
         0.00000E+00
         0.00000E+00
         0.00000E+00
         0.00000E+00
         0.00000E+00
         0.00000E+00
         0.00000E+00
         0.00000E+00
         0.00000E+00
         0.00000E+00
         0.00000E+00
         0.00000E+00
         0.00000E+00
         0.00000E+00
         0.00000E+00
         0.00000E+00
         0.00000E+00
         0.00000E+00
         0.00000E+00
         0.00000E+00
         0.00000E+00
         0.00000E+00
         0.00000E+00
         0.00000E+00
         0.00000E+00
         0.00000E+00
         0.00000E+00
         0.00000E+00
         0.00000E+00
         0.00000E+00
         0.00000E+00
         0.00000E+00
         0.00000E+00
         0.00000E+00
         0.00000E+00
         0.00000E+00
         0.00000E+00
         0.00000E+00
         0.00000E+00
         0.00000E+00
         0.00000E+00
         0.00000E+00
         0.00000E+00
         0.00000E+00
         0.00000E+00
         0.00000E+00
         0.00000E+00
         0.00000E+00
         0.00000E+00
         0.00000E+00
         0.00000E+00
         0.00000E+00
         0.00000E+00
         0.00000E+00
         0.00000E+00
         0.00000E+00
         0.00000E+00
         0.00000E+00
         0.00000E+00
         0.00000E+00
         0.00000E+00
         0.00000E+00
         0.00000E+00
         0.00000E+00
         0.00000E+00
         0.00000E+00
         0.00000E+00
         0.00000E+00
         0.00000E+00
         0.00000E+00
         0.00000E+00
         0.00000E+00
         0.00000E+00
         0.00000E+00
         0.00000E+00
         0.00000E+00
         0.00000E+00
         0.00000E+00
         0.00000E+00
         0.00000E+00
         0.00000E+00
         0.00000E+00
         0.00000E+00
         0.00000E+00
         0.00000E+00
         0.00000E+00
         0.00000E+00
         0.00000E+00
         0.00000E+00
         0.00000E+00
         0.00000E+00
         0.00000E+00
         0.00000E+00
         0.00000E+00
         0.00000E+00
         0.00000E+00
         0.00000E+00
         0.00000E+00
         0.00000E+00
         0.00000E+00
         0.00000E+00
         0.00000E+00
         0.00000E+00
         0.00000E+00
         0.00000E+00
         0.00000E+00
         0.00000E+00
         0.00000E+00
         0.00000E+00
         0.00000E+00
         0.00000E+00
         0.00000E+00
         0.00000E+00
         0.00000E+00
         0.00000E+00
         0.00000E+00
         0.00000E+00
         0.00000E+00
         0.00000E+00
         0.00000E+00
         0.00000E+00
         0.00000E+00
         0.00000E+00
         0.00000E+00
         0.00000E+00
         0.00000E+00
         0.00000E+00
         0.00000E+00
         0.00000E+00
         0.00000E+00
         0.00000E+00
         0.00000E+00
         0.00000E+00
         0.00000E+00
         0.00000E+00
         0.00000E+00
         0.00000E+00
         0.00000E+00
         0.00000E+00
         0.00000E+00
         0.00000E+00
         0.00000E+00
         0.00000E+00
         0.00000E+00
         0.00000E+00
         0.00000E+00
         0.00000E+00
         0.00000E+00
         0.00000E+00
         0.00000E+00
         0.00000E+00
         0.00000E+00
         0.00000E+00
         0.00000E+00
         0.00000E+00
         0.00000E+00
         0.00000E+00
         0.00000E+00
         0.00000E+00
         0.00000E+00
         0.00000E+00
         0.00000E+00
         0.00000E+00
         0.00000E+00
         0.00000E+00
         0.00000E+00
         0.00000E+00
         0.00000E+00
         0.00000E+00
         0.00000E+00
         0.00000E+00
         0.00000E+00
         0.00000E+00
         0.00000E+00
         0.00000E+00
         0.00000E+00
         0.00000E+00
         0.00000E+00
         0.00000E+00
         0.00000E+00
         0.00000E+00
         0.00000E+00
         0.00000E+00
         0.00000E+00
         0.00000E+00
         0.00000E+00
         0.00000E+00
         0.00000E+00
         0.00000E+00
         0.00000E+00
         0.00000E+00
         0.00000E+00
         0.00000E+00
         0.00000E+00
         0.00000E+00
         0.00000E+00
         0.00000E+00
         0.00000E+00
         0.00000E+00
         0.00000E+00
         0.00000E+00
         0.00000E+00
         0.00000E+00
         0.00000E+00
         0.00000E+00
         0.00000E+00
         0.00000E+00
         0.00000E+00
         0.00000E+00
         0.00000E+00
         0.00000E+00
         0.00000E+00
         0.00000E+00
         0.00000E+00
         0.00000E+00
         0.00000E+00
         0.00000E+00
         0.00000E+00
         0.00000E+00
         0.00000E+00
         0.00000E+00
         0.00000E+00
         0.00000E+00
         0.00000E+00
         0.00000E+00
         0.00000E+00
         0.00000E+00
         0.00000E+00
         0.00000E+00
         0.00000E+00
         0.00000E+00
         0.00000E+00
         0.00000E+00
         0.00000E+00
         0.00000E+00
         0.00000E+00
         0.00000E+00
         0.00000E+00
         0.00000E+00
         0.00000E+00
         0.00000E+00
         0.00000E+00
         0.00000E+00
         0.00000E+00
         0.00000E+00
         0.00000E+00
         0.00000E+00
         0.00000E+00
         0.00000E+00
         0.00000E+00
         0.00000E+00
         0.00000E+00
         0.00000E+00
         0.00000E+00
         0.00000E+00
         0.00000E+00
         0.00000E+00
         0.00000E+00
         0.00000E+00
         0.00000E+00
         0.00000E+00
         0.00000E+00
         0.00000E+00
         0.00000E+00
         0.00000E+00
         0.00000E+00
         0.00000E+00
         0.00000E+00
         0.00000E+00
         0.00000E+00
         0.00000E+00
         0.00000E+00
         0.00000E+00
         0.00000E+00
         0.00000E+00
         0.00000E+00
         0.00000E+00
         0.00000E+00
         0.00000E+00
         0.00000E+00
         0.00000E+00
         0.00000E+00
         0.00000E+00
         0.00000E+00
         0.00000E+00
         0.00000E+00
         0.00000E+00
         0.00000E+00
         0.00000E+00
         0.00000E+00
         0.00000E+00
         0.00000E+00
         0.00000E+00
         0.00000E+00
         0.00000E+00
         0.00000E+00
         0.00000E+00
         0.00000E+00
         0.00000E+00
         0.00000E+00
         0.00000E+00
         0.00000E+00
         0.00000E+00
         0.00000E+00
         0.00000E+00
         0.00000E+00
         0.00000E+00
         0.00000E+00
         0.00000E+00
         0.00000E+00
         0.00000E+00
         0.00000E+00
         0.00000E+00
         0.00000E+00
         0.00000E+00
         0.00000E+00
         0.00000E+00
         0.00000E+00
         0.00000E+00
         0.00000E+00
         0.00000E+00
         0.00000E+00
         0.00000E+00
         0.00000E+00
         0.00000E+00
         0.00000E+00
         0.00000E+00
         0.00000E+00
         0.00000E+00
         0.00000E+00
         0.00000E+00
         0.00000E+00
         0.00000E+00
         0.00000E+00
         0.00000E+00
         0.00000E+00
         0.00000E+00
         0.00000E+00
         0.00000E+00
         0.00000E+00
         0.00000E+00
         0.00000E+00
         0.00000E+00
         0.00000E+00
         0.00000E+00
         0.00000E+00
         0.00000E+00
         0.00000E+00
         0.00000E+00
         0.00000E+00
         0.00000E+00
         0.00000E+00
         0.00000E+00
         0.00000E+00
         0.00000E+00
         0.00000E+00
         0.00000E+00
         0.00000E+00
         0.00000E+00
         0.00000E+00
         0.00000E+00
         0.00000E+00
         0.00000E+00
         0.00000E+00
         0.00000E+00
         0.00000E+00
         0.00000E+00
         0.00000E+00
         0.00000E+00
         0.00000E+00
         0.00000E+00
         0.00000E+00
         0.00000E+00
         0.00000E+00
         0.00000E+00
         0.00000E+00
         0.00000E+00
         0.00000E+00
         0.00000E+00
         0.00000E+00
         0.00000E+00
         0.00000E+00
         0.00000E+00
         0.00000E+00
         0.00000E+00
         0.00000E+00
         0.00000E+00
         0.00000E+00
         0.00000E+00
         0.00000E+00
         0.00000E+00
         0.00000E+00
         0.00000E+00
         0.00000E+00
         0.00000E+00
         0.00000E+00
         0.00000E+00
         0.00000E+00
         0.00000E+00
         0.00000E+00
         0.00000E+00
         0.00000E+00
         0.00000E+00
         0.00000E+00
         0.00000E+00
         0.00000E+00
         0.00000E+00
         0.00000E+00
         0.00000E+00
         0.00000E+00
         0.00000E+00
         0.00000E+00
         0.00000E+00
         0.00000E+00
         0.00000E+00
         0.00000E+00
         0.00000E+00
         0.00000E+00
         0.00000E+00
         0.00000E+00
         0.00000E+00
         0.00000E+00
         0.00000E+00
         0.00000E+00
         0.00000E+00
         0.00000E+00
         0.00000E+00
         0.00000E+00
         0.00000E+00
         0.00000E+00
         0.00000E+00
         0.00000E+00
         0.00000E+00
         0.00000E+00
         0.00000E+00
         0.00000E+00
         0.00000E+00
         0.00000E+00
         0.00000E+00
         0.00000E+00
         0.00000E+00
         0.00000E+00
         0.00000E+00
         0.00000E+00
         0.00000E+00
         0.00000E+00
         0.00000E+00
         0.00000E+00
         0.00000E+00
         0.00000E+00
         0.00000E+00
         0.00000E+00
         0.00000E+00
         0.00000E+00
         0.00000E+00
         0.00000E+00
         0.00000E+00
         0.00000E+00
         0.00000E+00
         0.00000E+00
         0.00000E+00
         0.00000E+00
         0.00000E+00
         0.00000E+00
         0.00000E+00
         0.00000E+00
         0.00000E+00
         0.00000E+00
         0.00000E+00
         0.00000E+00
         0.00000E+00
         0.00000E+00
         0.00000E+00
         0.00000E+00
         0.00000E+00
         0.00000E+00
         0.00000E+00
         0.00000E+00
         0.00000E+00
         0.00000E+00
         0.00000E+00
         0.00000E+00
         0.00000E+00
         0.00000E+00
         0.00000E+00
         0.00000E+00
         0.00000E+00
         0.00000E+00
         0.00000E+00
         0.00000E+00
         0.00000E+00
         0.00000E+00
         0.00000E+00
         0.00000E+00
         0.00000E+00
         0.00000E+00
         0.00000E+00
         0.00000E+00
         0.00000E+00
         0.00000E+00
         0.00000E+00
         0.00000E+00
         0.00000E+00
         0.00000E+00
         0.00000E+00
         0.00000E+00
         0.00000E+00
         0.00000E+00
         0.00000E+00
         0.00000E+00
         0.00000E+00
         0.00000E+00
         0.00000E+00
         0.00000E+00
         0.00000E+00
         0.00000E+00
         0.00000E+00
         0.00000E+00
         0.00000E+00
         0.00000E+00
         0.00000E+00
         0.00000E+00
         0.00000E+00
         0.00000E+00
         0.00000E+00
         0.00000E+00
         0.00000E+00
         0.00000E+00
         0.00000E+00
         0.00000E+00
         0.00000E+00
         0.00000E+00
         0.00000E+00
         0.00000E+00
         0.00000E+00
         0.00000E+00
         0.00000E+00
         0.00000E+00
         0.00000E+00
         0.00000E+00
         0.00000E+00
         0.00000E+00
         0.00000E+00
         0.00000E+00
         0.00000E+00
         0.00000E+00
         0.00000E+00
         0.00000E+00
         0.00000E+00
         0.00000E+00
         0.00000E+00
         0.00000E+00
         0.00000E+00
         0.00000E+00
         0.00000E+00
         0.00000E+00
         0.00000E+00
         0.00000E+00
         0.00000E+00
         0.00000E+00
         0.00000E+00
         0.00000E+00
         0.00000E+00
         0.00000E+00
         0.00000E+00
         0.00000E+00
         0.00000E+00
         0.00000E+00
         0.00000E+00
         0.00000E+00
         0.00000E+00
         0.00000E+00
         0.00000E+00
         0.00000E+00
         0.00000E+00
         0.00000E+00
         0.00000E+00
         0.00000E+00
         0.00000E+00
         0.00000E+00
         0.00000E+00
         0.00000E+00
         0.00000E+00
         0.00000E+00
         0.00000E+00
         0.00000E+00
         0.00000E+00
         0.00000E+00
         0.00000E+00
         0.00000E+00
         0.00000E+00
         0.00000E+00
         0.00000E+00
         0.00000E+00
         0.00000E+00
         0.00000E+00
         0.00000E+00
         0.00000E+00
         0.00000E+00
         0.00000E+00
         0.00000E+00
         0.00000E+00
         0.00000E+00
         0.00000E+00
         0.00000E+00
         0.00000E+00
         0.00000E+00
         0.00000E+00
         0.00000E+00
         0.00000E+00
         0.00000E+00
         0.00000E+00
         0.00000E+00
         0.00000E+00
         0.00000E+00
         0.00000E+00
         0.00000E+00
         0.00000E+00
         0.00000E+00
         0.00000E+00
         0.00000E+00
         0.00000E+00
         0.00000E+00
         0.00000E+00
         0.00000E+00
         0.00000E+00
         0.00000E+00
         0.00000E+00
         0.00000E+00
         0.00000E+00
         0.00000E+00
         0.00000E+00
         0.00000E+00
         0.00000E+00
         0.00000E+00
         0.00000E+00
         0.00000E+00
         0.00000E+00
         0.00000E+00
         0.00000E+00
         0.00000E+00
         0.00000E+00
         0.00000E+00
         0.00000E+00
         0.00000E+00
         0.00000E+00
         0.00000E+00
         0.00000E+00
         0.00000E+00
         0.00000E+00
         0.00000E+00
         0.00000E+00
         0.00000E+00
         0.00000E+00
         0.00000E+00
         0.00000E+00
         0.00000E+00
         0.00000E+00
         0.00000E+00
         0.00000E+00
         0.00000E+00
         0.00000E+00
         0.00000E+00
         0.00000E+00
         0.00000E+00
         0.00000E+00
         0.00000E+00
         0.00000E+00
         0.00000E+00
         0.00000E+00
         0.00000E+00
         0.00000E+00
         0.00000E+00
         0.00000E+00
         0.00000E+00
         0.00000E+00
         0.00000E+00
         0.00000E+00
         0.00000E+00
         0.00000E+00
         0.00000E+00
         0.00000E+00
         0.00000E+00
         0.00000E+00
         0.00000E+00
         0.00000E+00
         0.00000E+00
         0.00000E+00
         0.00000E+00
         0.00000E+00
         0.00000E+00
         0.00000E+00
         0.00000E+00
         0.00000E+00
         0.00000E+00
         0.00000E+00
         0.00000E+00
         0.00000E+00
         0.00000E+00
         0.00000E+00
         0.00000E+00
         0.00000E+00
         0.00000E+00
         0.00000E+00
         0.00000E+00
         0.00000E+00
         0.00000E+00
         0.00000E+00
         0.00000E+00
         0.00000E+00
         0.00000E+00
         0.00000E+00
         0.00000E+00
         0.00000E+00
         0.00000E+00
         0.00000E+00
         0.00000E+00
         0.00000E+00
         0.00000E+00
         0.00000E+00
         0.00000E+00
         0.00000E+00
         0.00000E+00
         0.00000E+00
         0.00000E+00
         0.00000E+00
         0.00000E+00
         0.00000E+00
         0.00000E+00
         0.00000E+00
         0.00000E+00
         0.00000E+00
         0.00000E+00
         0.00000E+00
         0.00000E+00
         0.00000E+00
         0.00000E+00
         0.00000E+00
         0.00000E+00
         0.00000E+00
         0.00000E+00
         0.00000E+00
         0.00000E+00
         0.00000E+00
         0.00000E+00
         0.00000E+00
         0.00000E+00
         0.00000E+00
         0.00000E+00
         0.00000E+00
         0.00000E+00
         0.00000E+00
         0.00000E+00
         0.00000E+00
         0.00000E+00
         0.00000E+00
         0.00000E+00
         0.00000E+00
         0.00000E+00
         0.00000E+00
         0.00000E+00
         0.00000E+00
         0.00000E+00
         0.00000E+00
         0.00000E+00
         0.00000E+00
         0.00000E+00
         0.00000E+00
         0.00000E+00
         0.00000E+00
         0.00000E+00
         0.00000E+00
         0.00000E+00
         0.00000E+00
         0.00000E+00
         0.00000E+00
         0.00000E+00
         0.00000E+00
         0.00000E+00
         0.00000E+00
         0.00000E+00
         0.00000E+00
         0.00000E+00
         0.00000E+00
         0.00000E+00
         0.00000E+00
         0.00000E+00
         0.00000E+00
         0.00000E+00
         0.00000E+00
         0.00000E+00
         0.00000E+00
         0.00000E+00
         0.00000E+00
         0.00000E+00
         0.00000E+00
         0.00000E+00
         0.00000E+00
         0.00000E+00
         0.00000E+00
         0.00000E+00
         0.00000E+00
         0.00000E+00
         0.00000E+00
         0.00000E+00
         0.00000E+00
         0.00000E+00
         0.00000E+00
         0.00000E+00
         0.00000E+00
         0.00000E+00
         0.00000E+00
         0.00000E+00
         0.00000E+00
         0.00000E+00
         0.00000E+00
         0.00000E+00
         0.00000E+00
         0.00000E+00
         0.00000E+00
         0.00000E+00
         0.00000E+00
         0.00000E+00
         0.00000E+00
         0.00000E+00
         0.00000E+00
         0.00000E+00
         0.00000E+00
         0.00000E+00
         0.00000E+00
         0.00000E+00
         0.00000E+00
         0.00000E+00
         0.00000E+00
         0.00000E+00
         0.00000E+00
         0.00000E+00
         0.00000E+00
         0.00000E+00
         0.00000E+00
         0.00000E+00
         0.00000E+00
         0.00000E+00
         0.00000E+00
         0.00000E+00
         0.00000E+00
         0.00000E+00
         0.00000E+00
         0.00000E+00
         0.00000E+00
         0.00000E+00
         0.00000E+00
         0.00000E+00
         0.00000E+00
         0.00000E+00
         0.00000E+00
         0.00000E+00
         0.00000E+00
         0.00000E+00
         0.00000E+00
         0.00000E+00
         0.00000E+00
         0.00000E+00
         0.00000E+00
         0.00000E+00
         0.00000E+00
         0.00000E+00
         0.00000E+00
         0.00000E+00
         0.00000E+00
         0.00000E+00
         0.00000E+00
         0.00000E+00
         0.00000E+00
         0.00000E+00
         0.00000E+00
         0.00000E+00
         0.00000E+00
         0.00000E+00
         0.00000E+00
         0.00000E+00
         0.00000E+00
         0.00000E+00
         0.00000E+00
         0.00000E+00
         0.00000E+00
         0.00000E+00
         0.00000E+00
         0.00000E+00
         0.00000E+00
         0.00000E+00
         0.00000E+00
         0.00000E+00
         0.00000E+00
         0.00000E+00
         0.00000E+00
         0.00000E+00
         0.00000E+00
         0.00000E+00
         0.00000E+00
         0.00000E+00
         0.00000E+00
         0.00000E+00
         0.00000E+00
         0.00000E+00
         0.00000E+00
         0.00000E+00
         0.00000E+00
         0.00000E+00
         0.00000E+00
         0.00000E+00
         0.00000E+00
         0.00000E+00
         0.00000E+00
         0.00000E+00
         0.00000E+00
         0.00000E+00
         0.00000E+00
         0.00000E+00
         0.00000E+00
         0.00000E+00
         0.00000E+00
         0.00000E+00
         0.00000E+00
         0.00000E+00
         0.00000E+00
         0.00000E+00
         0.00000E+00
         0.00000E+00
         0.00000E+00
         0.00000E+00
         0.00000E+00
         0.00000E+00
         0.00000E+00
         0.00000E+00
         0.00000E+00
         0.00000E+00
         0.00000E+00
         0.00000E+00
         0.00000E+00
         0.00000E+00
         0.00000E+00
         0.00000E+00
         0.00000E+00
         0.00000E+00
         0.00000E+00
         0.00000E+00
         0.00000E+00
         0.00000E+00
         0.00000E+00
         0.00000E+00
         0.00000E+00
         0.00000E+00
         0.00000E+00
         0.00000E+00
         0.00000E+00
         0.00000E+00
         0.00000E+00
         0.00000E+00
         0.00000E+00
         0.00000E+00
         0.00000E+00
         0.00000E+00
         0.00000E+00
         0.00000E+00
         0.00000E+00
         0.00000E+00
         0.00000E+00
         0.00000E+00
         0.00000E+00
         0.00000E+00
         0.00000E+00
         0.00000E+00
         0.00000E+00
         0.00000E+00
         0.00000E+00
         0.00000E+00
         0.00000E+00
         0.00000E+00
         0.00000E+00
         0.00000E+00
         0.00000E+00
         0.00000E+00
         0.00000E+00
         0.00000E+00
         0.00000E+00
         0.00000E+00
         0.00000E+00
         0.00000E+00
         0.00000E+00
         0.00000E+00
         0.00000E+00
         0.00000E+00
         0.00000E+00
         0.00000E+00
         0.00000E+00
         0.00000E+00
         0.00000E+00
         0.00000E+00
         0.00000E+00
         0.00000E+00
         0.00000E+00
         0.00000E+00
         0.00000E+00
         0.00000E+00
         0.00000E+00
         0.00000E+00
         0.00000E+00
         0.00000E+00
         0.00000E+00
         0.00000E+00
         0.00000E+00
         0.00000E+00
         0.00000E+00
         0.00000E+00
         0.00000E+00
         0.00000E+00
         0.00000E+00
         0.00000E+00
         0.00000E+00
         0.00000E+00
         0.00000E+00
         0.00000E+00
         0.00000E+00
         0.00000E+00
         0.00000E+00
         0.00000E+00
         0.00000E+00
         0.00000E+00
         0.00000E+00
         0.00000E+00
         0.00000E+00
         0.00000E+00
         0.00000E+00
         0.00000E+00
         0.00000E+00
         0.00000E+00
         0.00000E+00
         0.00000E+00
         0.00000E+00
         0.00000E+00
         0.00000E+00
         0.00000E+00
         0.00000E+00
         0.00000E+00
         0.00000E+00
         0.00000E+00
         0.00000E+00
         0.00000E+00
         0.00000E+00
         0.00000E+00
         0.00000E+00
         0.00000E+00
         0.00000E+00
         0.00000E+00
         0.00000E+00
         0.00000E+00
         0.00000E+00
         0.00000E+00
         0.00000E+00
         0.00000E+00
         0.00000E+00
         0.00000E+00
         0.00000E+00
         0.00000E+00
         0.00000E+00
         0.00000E+00
         0.00000E+00
         0.00000E+00
         0.00000E+00
         0.00000E+00
         0.00000E+00
         0.00000E+00
         0.00000E+00
         0.00000E+00
         0.00000E+00
         0.00000E+00
         0.00000E+00
         0.00000E+00
         0.00000E+00
         0.00000E+00
         0.00000E+00
         0.00000E+00
         0.00000E+00
         0.00000E+00
         0.00000E+00
         0.00000E+00
         0.00000E+00
         0.00000E+00
         0.00000E+00
         0.00000E+00
         0.00000E+00
         0.00000E+00
         0.00000E+00
         0.00000E+00
         0.00000E+00
         0.00000E+00
         0.00000E+00
         0.00000E+00
         0.00000E+00
         0.00000E+00
         0.00000E+00
         0.00000E+00
         0.00000E+00
         0.00000E+00
         0.00000E+00
         0.00000E+00
         0.00000E+00
         0.00000E+00
         0.00000E+00
         0.00000E+00
         0.00000E+00
         0.00000E+00
         0.00000E+00
         0.00000E+00
         0.00000E+00
         0.00000E+00
         0.00000E+00
         0.00000E+00
         0.00000E+00
         0.00000E+00
         0.00000E+00
         0.00000E+00
         0.00000E+00
         0.00000E+00
         0.00000E+00
         0.00000E+00
         0.00000E+00
         0.00000E+00
         0.00000E+00
         0.00000E+00
         0.00000E+00
         0.00000E+00
         0.00000E+00
         0.00000E+00
         0.00000E+00
         0.00000E+00
         0.00000E+00
         0.00000E+00
         0.00000E+00
         0.00000E+00
         0.00000E+00
         0.00000E+00
         0.00000E+00
         0.00000E+00
         0.00000E+00
         0.00000E+00
         0.00000E+00
         0.00000E+00
         0.00000E+00
         0.00000E+00
         0.00000E+00
         0.00000E+00
         0.00000E+00
         0.00000E+00
         0.00000E+00
         0.00000E+00
         0.00000E+00
         0.00000E+00
         0.00000E+00
         0.00000E+00
         0.00000E+00
         0.00000E+00
         0.00000E+00
         0.00000E+00
         0.00000E+00
         0.00000E+00
         0.00000E+00
         0.00000E+00
         0.00000E+00
         0.00000E+00
         0.00000E+00
         0.00000E+00
         0.00000E+00
         0.00000E+00
         0.00000E+00
         0.00000E+00
         0.00000E+00
         0.00000E+00
         0.00000E+00
         0.00000E+00
         0.00000E+00
         0.00000E+00
         0.00000E+00
         0.00000E+00
         0.00000E+00
         0.00000E+00
         0.00000E+00
         0.00000E+00
         0.00000E+00
         0.00000E+00
         0.00000E+00
         0.00000E+00
         0.00000E+00
         0.00000E+00
         0.00000E+00
         0.00000E+00
         0.00000E+00
         0.00000E+00
         0.00000E+00
         0.00000E+00
         0.00000E+00
         0.00000E+00
         0.00000E+00
         0.00000E+00
         0.00000E+00
         0.00000E+00
         0.00000E+00
         0.00000E+00
         0.00000E+00
         0.00000E+00
         0.00000E+00
         0.00000E+00
         0.00000E+00
         0.00000E+00
         0.00000E+00
         0.00000E+00
         0.00000E+00
         0.00000E+00
         0.00000E+00
         0.00000E+00
         0.00000E+00
         0.00000E+00
         0.00000E+00
         0.00000E+00
         0.00000E+00
         0.00000E+00
         0.00000E+00
         0.00000E+00
         0.00000E+00
         0.00000E+00
         0.00000E+00
         0.00000E+00
         0.00000E+00
         0.00000E+00
         0.00000E+00
         0.00000E+00
         0.00000E+00
         0.00000E+00
         0.00000E+00
         0.00000E+00
         0.00000E+00
         0.00000E+00
         0.00000E+00
         0.00000E+00
         0.00000E+00
         0.00000E+00
         0.00000E+00
         0.00000E+00
         0.00000E+00
         0.00000E+00
         0.00000E+00
         0.00000E+00
         0.00000E+00
         0.00000E+00
         0.00000E+00
         0.00000E+00
         0.00000E+00
         0.00000E+00
         0.00000E+00
         0.00000E+00
         0.00000E+00
         0.00000E+00
         0.00000E+00
         0.00000E+00
         0.00000E+00
         0.00000E+00
         0.00000E+00
         0.00000E+00
         0.00000E+00
         0.00000E+00
         0.00000E+00
         0.00000E+00
         0.00000E+00
         0.00000E+00
         0.00000E+00
         0.00000E+00
         0.00000E+00
         0.00000E+00
         0.00000E+00
         0.00000E+00
         0.00000E+00
         0.00000E+00
         0.00000E+00
         0.00000E+00
         0.00000E+00
         0.00000E+00
         0.00000E+00
         0.00000E+00
         0.00000E+00
         0.00000E+00
         0.00000E+00
         0.00000E+00
         0.00000E+00
         0.00000E+00
         0.00000E+00
         0.00000E+00
         0.00000E+00
         0.00000E+00
         0.00000E+00
         0.00000E+00
         0.00000E+00
         0.00000E+00
         0.00000E+00
         0.00000E+00
         0.00000E+00
         0.00000E+00
         0.00000E+00
         0.00000E+00
         0.00000E+00
  
SCALARS               pre_disp_force_z  double 1
LOOKUP_TABLE default
         0.00000E+00
         0.00000E+00
         0.00000E+00
         0.00000E+00
        -0.00000E+00
        -0.00000E+00
        -0.00000E+00
        -0.00000E+00
         0.00000E+00
         0.00000E+00
        -0.00000E+00
        -0.00000E+00
         0.00000E+00
         0.00000E+00
        -0.00000E+00
        -0.00000E+00
         0.00000E+00
         0.00000E+00
        -0.00000E+00
        -0.00000E+00
         0.00000E+00
         0.00000E+00
         0.00000E+00
        -0.00000E+00
        -0.00000E+00
        -0.00000E+00
         0.00000E+00
         0.00000E+00
        -0.00000E+00
        -0.00000E+00
         0.00000E+00
         0.00000E+00
         0.00000E+00
        -0.00000E+00
        -0.00000E+00
        -0.00000E+00
         0.00000E+00
         0.00000E+00
        -0.00000E+00
        -0.00000E+00
         0.00000E+00
         0.00000E+00
        -0.00000E+00
        -0.00000E+00
         0.00000E+00
         0.00000E+00
        -0.00000E+00
        -0.00000E+00
         0.00000E+00
        -0.00000E+00
         0.00000E+00
        -0.00000E+00
         0.00000E+00
        -0.00000E+00
         0.00000E+00
        -0.00000E+00
         0.00000E+00
         0.00000E+00
        -0.00000E+00
        -0.00000E+00
         0.00000E+00
         0.00000E+00
        -0.00000E+00
        -0.00000E+00
         0.00000E+00
        -0.00000E+00
         0.00000E+00
        -0.00000E+00
         0.00000E+00
         0.00000E+00
        -0.00000E+00
        -0.00000E+00
         0.00000E+00
        -0.00000E+00
         0.00000E+00
        -0.00000E+00
         0.00000E+00
        -0.00000E+00
         0.00000E+00
        -0.00000E+00
         0.00000E+00
         0.00000E+00
        -0.00000E+00
        -0.00000E+00
         0.00000E+00
        -0.00000E+00
         0.00000E+00
        -0.00000E+00
         0.00000E+00
        -0.00000E+00
         0.00000E+00
         0.00000E+00
        -0.00000E+00
        -0.00000E+00
         0.00000E+00
        -0.00000E+00
         0.00000E+00
        -0.00000E+00
         0.00000E+00
        -0.00000E+00
         0.00000E+00
         0.00000E+00
        -0.00000E+00
        -0.00000E+00
         0.00000E+00
         0.00000E+00
        -0.00000E+00
        -0.00000E+00
         0.00000E+00
        -0.00000E+00
         0.00000E+00
        -0.00000E+00
         0.00000E+00
        -0.00000E+00
         0.00000E+00
        -0.00000E+00
         0.00000E+00
        -0.00000E+00
         0.00000E+00
        -0.00000E+00
         0.00000E+00
        -0.00000E+00
         0.00000E+00
        -0.00000E+00
         0.00000E+00
        -0.00000E+00
         0.00000E+00
        -0.00000E+00
         0.00000E+00
        -0.00000E+00
         0.00000E+00
        -0.00000E+00
         0.00000E+00
        -0.00000E+00
         0.00000E+00
        -0.00000E+00
         0.00000E+00
        -0.00000E+00
         0.00000E+00
        -0.00000E+00
         0.00000E+00
        -0.00000E+00
         0.00000E+00
        -0.00000E+00
         0.00000E+00
        -0.00000E+00
         0.00000E+00
        -0.00000E+00
         0.00000E+00
        -0.00000E+00
         0.00000E+00
        -0.00000E+00
         0.00000E+00
        -0.00000E+00
         0.00000E+00
        -0.00000E+00
         0.00000E+00
         0.00000E+00
         0.00000E+00
         0.00000E+00
         0.00000E+00
         0.00000E+00
         0.00000E+00
         0.00000E+00
         0.00000E+00
         0.00000E+00
         0.00000E+00
         0.00000E+00
         0.00000E+00
         0.00000E+00
         0.00000E+00
         0.00000E+00
         0.00000E+00
         0.00000E+00
         0.00000E+00
         0.00000E+00
         0.00000E+00
         0.00000E+00
         0.00000E+00
         0.00000E+00
         0.00000E+00
         0.00000E+00
         0.00000E+00
         0.00000E+00
         0.00000E+00
         0.00000E+00
         0.00000E+00
         0.00000E+00
         0.00000E+00
         0.00000E+00
         0.00000E+00
         0.00000E+00
         0.00000E+00
         0.00000E+00
         0.00000E+00
         0.00000E+00
         0.00000E+00
         0.00000E+00
         0.00000E+00
         0.00000E+00
         0.00000E+00
         0.00000E+00
         0.00000E+00
         0.00000E+00
         0.00000E+00
         0.00000E+00
         0.00000E+00
         0.00000E+00
         0.00000E+00
         0.00000E+00
         0.00000E+00
         0.00000E+00
         0.00000E+00
         0.00000E+00
         0.00000E+00
         0.00000E+00
         0.00000E+00
         0.00000E+00
         0.00000E+00
         0.00000E+00
         0.00000E+00
         0.00000E+00
         0.00000E+00
         0.00000E+00
         0.00000E+00
         0.00000E+00
         0.00000E+00
         0.00000E+00
         0.00000E+00
         0.00000E+00
         0.00000E+00
         0.00000E+00
         0.00000E+00
         0.00000E+00
         0.00000E+00
         0.00000E+00
         0.00000E+00
         0.00000E+00
         0.00000E+00
         0.00000E+00
         0.00000E+00
         0.00000E+00
         0.00000E+00
         0.00000E+00
         0.00000E+00
         0.00000E+00
         0.00000E+00
         0.00000E+00
         0.00000E+00
         0.00000E+00
         0.00000E+00
         0.00000E+00
         0.00000E+00
         0.00000E+00
         0.00000E+00
         0.00000E+00
         0.00000E+00
         0.00000E+00
         0.00000E+00
         0.00000E+00
         0.00000E+00
         0.00000E+00
         0.00000E+00
         0.00000E+00
         0.00000E+00
         0.00000E+00
         0.00000E+00
         0.00000E+00
         0.00000E+00
         0.00000E+00
         0.00000E+00
         0.00000E+00
         0.00000E+00
         0.00000E+00
         0.00000E+00
         0.00000E+00
         0.00000E+00
         0.00000E+00
         0.00000E+00
         0.00000E+00
         0.00000E+00
         0.00000E+00
         0.00000E+00
         0.00000E+00
         0.00000E+00
         0.00000E+00
         0.00000E+00
         0.00000E+00
         0.00000E+00
         0.00000E+00
         0.00000E+00
         0.00000E+00
         0.00000E+00
         0.00000E+00
         0.00000E+00
         0.00000E+00
         0.00000E+00
         0.00000E+00
         0.00000E+00
         0.00000E+00
         0.00000E+00
         0.00000E+00
         0.00000E+00
         0.00000E+00
         0.00000E+00
         0.00000E+00
         0.00000E+00
         0.00000E+00
         0.00000E+00
         0.00000E+00
         0.00000E+00
         0.00000E+00
         0.00000E+00
         0.00000E+00
         0.00000E+00
         0.00000E+00
         0.00000E+00
         0.00000E+00
         0.00000E+00
         0.00000E+00
         0.00000E+00
         0.00000E+00
         0.00000E+00
         0.00000E+00
         0.00000E+00
         0.00000E+00
         0.00000E+00
         0.00000E+00
         0.00000E+00
         0.00000E+00
         0.00000E+00
         0.00000E+00
         0.00000E+00
         0.00000E+00
         0.00000E+00
         0.00000E+00
         0.00000E+00
         0.00000E+00
         0.00000E+00
         0.00000E+00
         0.00000E+00
         0.00000E+00
         0.00000E+00
         0.00000E+00
         0.00000E+00
         0.00000E+00
         0.00000E+00
         0.00000E+00
         0.00000E+00
         0.00000E+00
         0.00000E+00
         0.00000E+00
         0.00000E+00
         0.00000E+00
         0.00000E+00
         0.00000E+00
         0.00000E+00
         0.00000E+00
         0.00000E+00
         0.00000E+00
         0.00000E+00
         0.00000E+00
         0.00000E+00
         0.00000E+00
         0.00000E+00
         0.00000E+00
         0.00000E+00
         0.00000E+00
         0.00000E+00
         0.00000E+00
         0.00000E+00
         0.00000E+00
         0.00000E+00
         0.00000E+00
         0.00000E+00
         0.00000E+00
         0.00000E+00
         0.00000E+00
         0.00000E+00
         0.00000E+00
         0.00000E+00
         0.00000E+00
         0.00000E+00
         0.00000E+00
         0.00000E+00
         0.00000E+00
         0.00000E+00
         0.00000E+00
         0.00000E+00
         0.00000E+00
         0.00000E+00
         0.00000E+00
         0.00000E+00
         0.00000E+00
         0.00000E+00
         0.00000E+00
         0.00000E+00
         0.00000E+00
         0.00000E+00
         0.00000E+00
         0.00000E+00
         0.00000E+00
         0.00000E+00
         0.00000E+00
         0.00000E+00
         0.00000E+00
         0.00000E+00
         0.00000E+00
         0.00000E+00
         0.00000E+00
         0.00000E+00
         0.00000E+00
         0.00000E+00
         0.00000E+00
         0.00000E+00
         0.00000E+00
         0.00000E+00
         0.00000E+00
         0.00000E+00
         0.00000E+00
         0.00000E+00
         0.00000E+00
         0.00000E+00
         0.00000E+00
         0.00000E+00
         0.00000E+00
         0.00000E+00
         0.00000E+00
         0.00000E+00
         0.00000E+00
         0.00000E+00
         0.00000E+00
         0.00000E+00
         0.00000E+00
         0.00000E+00
         0.00000E+00
         0.00000E+00
         0.00000E+00
         0.00000E+00
         0.00000E+00
         0.00000E+00
         0.00000E+00
         0.00000E+00
         0.00000E+00
         0.00000E+00
         0.00000E+00
         0.00000E+00
         0.00000E+00
         0.00000E+00
         0.00000E+00
         0.00000E+00
         0.00000E+00
         0.00000E+00
         0.00000E+00
         0.00000E+00
         0.00000E+00
         0.00000E+00
         0.00000E+00
         0.00000E+00
         0.00000E+00
         0.00000E+00
         0.00000E+00
         0.00000E+00
         0.00000E+00
         0.00000E+00
         0.00000E+00
         0.00000E+00
         0.00000E+00
         0.00000E+00
         0.00000E+00
         0.00000E+00
         0.00000E+00
         0.00000E+00
         0.00000E+00
         0.00000E+00
         0.00000E+00
         0.00000E+00
         0.00000E+00
         0.00000E+00
         0.00000E+00
         0.00000E+00
         0.00000E+00
         0.00000E+00
         0.00000E+00
         0.00000E+00
         0.00000E+00
         0.00000E+00
         0.00000E+00
         0.00000E+00
         0.00000E+00
         0.00000E+00
         0.00000E+00
         0.00000E+00
         0.00000E+00
         0.00000E+00
         0.00000E+00
         0.00000E+00
         0.00000E+00
         0.00000E+00
         0.00000E+00
         0.00000E+00
         0.00000E+00
         0.00000E+00
         0.00000E+00
         0.00000E+00
         0.00000E+00
         0.00000E+00
         0.00000E+00
         0.00000E+00
         0.00000E+00
         0.00000E+00
         0.00000E+00
         0.00000E+00
         0.00000E+00
         0.00000E+00
         0.00000E+00
         0.00000E+00
         0.00000E+00
         0.00000E+00
         0.00000E+00
         0.00000E+00
         0.00000E+00
         0.00000E+00
         0.00000E+00
         0.00000E+00
         0.00000E+00
         0.00000E+00
         0.00000E+00
         0.00000E+00
         0.00000E+00
         0.00000E+00
         0.00000E+00
         0.00000E+00
         0.00000E+00
         0.00000E+00
         0.00000E+00
         0.00000E+00
         0.00000E+00
         0.00000E+00
         0.00000E+00
         0.00000E+00
         0.00000E+00
         0.00000E+00
         0.00000E+00
         0.00000E+00
         0.00000E+00
         0.00000E+00
         0.00000E+00
         0.00000E+00
         0.00000E+00
         0.00000E+00
         0.00000E+00
         0.00000E+00
         0.00000E+00
         0.00000E+00
         0.00000E+00
         0.00000E+00
         0.00000E+00
         0.00000E+00
         0.00000E+00
         0.00000E+00
         0.00000E+00
         0.00000E+00
         0.00000E+00
         0.00000E+00
         0.00000E+00
         0.00000E+00
         0.00000E+00
         0.00000E+00
         0.00000E+00
         0.00000E+00
         0.00000E+00
         0.00000E+00
         0.00000E+00
         0.00000E+00
         0.00000E+00
         0.00000E+00
         0.00000E+00
         0.00000E+00
         0.00000E+00
         0.00000E+00
         0.00000E+00
         0.00000E+00
         0.00000E+00
         0.00000E+00
         0.00000E+00
         0.00000E+00
         0.00000E+00
         0.00000E+00
         0.00000E+00
         0.00000E+00
         0.00000E+00
         0.00000E+00
         0.00000E+00
         0.00000E+00
         0.00000E+00
         0.00000E+00
         0.00000E+00
         0.00000E+00
         0.00000E+00
         0.00000E+00
         0.00000E+00
         0.00000E+00
         0.00000E+00
         0.00000E+00
         0.00000E+00
         0.00000E+00
         0.00000E+00
         0.00000E+00
         0.00000E+00
         0.00000E+00
         0.00000E+00
         0.00000E+00
         0.00000E+00
         0.00000E+00
         0.00000E+00
         0.00000E+00
         0.00000E+00
         0.00000E+00
         0.00000E+00
         0.00000E+00
         0.00000E+00
         0.00000E+00
         0.00000E+00
         0.00000E+00
         0.00000E+00
         0.00000E+00
         0.00000E+00
         0.00000E+00
         0.00000E+00
         0.00000E+00
         0.00000E+00
         0.00000E+00
         0.00000E+00
         0.00000E+00
         0.00000E+00
         0.00000E+00
         0.00000E+00
         0.00000E+00
         0.00000E+00
         0.00000E+00
         0.00000E+00
         0.00000E+00
         0.00000E+00
         0.00000E+00
         0.00000E+00
         0.00000E+00
         0.00000E+00
         0.00000E+00
         0.00000E+00
         0.00000E+00
         0.00000E+00
         0.00000E+00
         0.00000E+00
         0.00000E+00
         0.00000E+00
         0.00000E+00
         0.00000E+00
         0.00000E+00
         0.00000E+00
         0.00000E+00
         0.00000E+00
         0.00000E+00
         0.00000E+00
         0.00000E+00
         0.00000E+00
         0.00000E+00
         0.00000E+00
         0.00000E+00
         0.00000E+00
         0.00000E+00
         0.00000E+00
         0.00000E+00
         0.00000E+00
         0.00000E+00
         0.00000E+00
         0.00000E+00
         0.00000E+00
         0.00000E+00
         0.00000E+00
         0.00000E+00
         0.00000E+00
         0.00000E+00
         0.00000E+00
         0.00000E+00
         0.00000E+00
         0.00000E+00
         0.00000E+00
         0.00000E+00
         0.00000E+00
         0.00000E+00
         0.00000E+00
         0.00000E+00
         0.00000E+00
         0.00000E+00
         0.00000E+00
         0.00000E+00
         0.00000E+00
         0.00000E+00
         0.00000E+00
         0.00000E+00
         0.00000E+00
         0.00000E+00
         0.00000E+00
         0.00000E+00
         0.00000E+00
         0.00000E+00
         0.00000E+00
         0.00000E+00
         0.00000E+00
         0.00000E+00
         0.00000E+00
         0.00000E+00
         0.00000E+00
         0.00000E+00
         0.00000E+00
         0.00000E+00
         0.00000E+00
         0.00000E+00
         0.00000E+00
         0.00000E+00
         0.00000E+00
         0.00000E+00
         0.00000E+00
         0.00000E+00
         0.00000E+00
         0.00000E+00
         0.00000E+00
         0.00000E+00
         0.00000E+00
         0.00000E+00
         0.00000E+00
         0.00000E+00
         0.00000E+00
         0.00000E+00
         0.00000E+00
         0.00000E+00
         0.00000E+00
         0.00000E+00
         0.00000E+00
         0.00000E+00
         0.00000E+00
         0.00000E+00
         0.00000E+00
         0.00000E+00
         0.00000E+00
         0.00000E+00
         0.00000E+00
         0.00000E+00
         0.00000E+00
         0.00000E+00
         0.00000E+00
         0.00000E+00
         0.00000E+00
         0.00000E+00
         0.00000E+00
         0.00000E+00
         0.00000E+00
         0.00000E+00
         0.00000E+00
         0.00000E+00
         0.00000E+00
         0.00000E+00
         0.00000E+00
         0.00000E+00
         0.00000E+00
         0.00000E+00
         0.00000E+00
         0.00000E+00
         0.00000E+00
         0.00000E+00
         0.00000E+00
         0.00000E+00
         0.00000E+00
         0.00000E+00
         0.00000E+00
         0.00000E+00
         0.00000E+00
         0.00000E+00
         0.00000E+00
         0.00000E+00
         0.00000E+00
         0.00000E+00
         0.00000E+00
         0.00000E+00
         0.00000E+00
         0.00000E+00
         0.00000E+00
         0.00000E+00
         0.00000E+00
         0.00000E+00
         0.00000E+00
         0.00000E+00
         0.00000E+00
         0.00000E+00
         0.00000E+00
         0.00000E+00
         0.00000E+00
         0.00000E+00
         0.00000E+00
         0.00000E+00
         0.00000E+00
         0.00000E+00
         0.00000E+00
         0.00000E+00
         0.00000E+00
         0.00000E+00
         0.00000E+00
         0.00000E+00
         0.00000E+00
         0.00000E+00
         0.00000E+00
         0.00000E+00
         0.00000E+00
         0.00000E+00
         0.00000E+00
         0.00000E+00
         0.00000E+00
         0.00000E+00
         0.00000E+00
         0.00000E+00
         0.00000E+00
         0.00000E+00
         0.00000E+00
         0.00000E+00
         0.00000E+00
         0.00000E+00
         0.00000E+00
         0.00000E+00
         0.00000E+00
         0.00000E+00
         0.00000E+00
         0.00000E+00
         0.00000E+00
         0.00000E+00
         0.00000E+00
         0.00000E+00
         0.00000E+00
         0.00000E+00
         0.00000E+00
         0.00000E+00
         0.00000E+00
         0.00000E+00
         0.00000E+00
         0.00000E+00
         0.00000E+00
         0.00000E+00
         0.00000E+00
         0.00000E+00
         0.00000E+00
         0.00000E+00
         0.00000E+00
         0.00000E+00
         0.00000E+00
         0.00000E+00
         0.00000E+00
         0.00000E+00
         0.00000E+00
         0.00000E+00
         0.00000E+00
         0.00000E+00
         0.00000E+00
         0.00000E+00
         0.00000E+00
         0.00000E+00
         0.00000E+00
         0.00000E+00
         0.00000E+00
         0.00000E+00
         0.00000E+00
         0.00000E+00
         0.00000E+00
         0.00000E+00
         0.00000E+00
         0.00000E+00
         0.00000E+00
         0.00000E+00
         0.00000E+00
         0.00000E+00
         0.00000E+00
         0.00000E+00
         0.00000E+00
         0.00000E+00
         0.00000E+00
         0.00000E+00
         0.00000E+00
         0.00000E+00
         0.00000E+00
         0.00000E+00
         0.00000E+00
         0.00000E+00
         0.00000E+00
         0.00000E+00
         0.00000E+00
         0.00000E+00
         0.00000E+00
         0.00000E+00
         0.00000E+00
         0.00000E+00
         0.00000E+00
         0.00000E+00
         0.00000E+00
         0.00000E+00
         0.00000E+00
         0.00000E+00
         0.00000E+00
         0.00000E+00
         0.00000E+00
         0.00000E+00
         0.00000E+00
         0.00000E+00
         0.00000E+00
         0.00000E+00
         0.00000E+00
         0.00000E+00
         0.00000E+00
         0.00000E+00
         0.00000E+00
         0.00000E+00
         0.00000E+00
         0.00000E+00
         0.00000E+00
         0.00000E+00
         0.00000E+00
         0.00000E+00
         0.00000E+00
         0.00000E+00
         0.00000E+00
         0.00000E+00
         0.00000E+00
         0.00000E+00
         0.00000E+00
         0.00000E+00
         0.00000E+00
         0.00000E+00
         0.00000E+00
         0.00000E+00
         0.00000E+00
         0.00000E+00
         0.00000E+00
         0.00000E+00
         0.00000E+00
         0.00000E+00
         0.00000E+00
         0.00000E+00
         0.00000E+00
         0.00000E+00
         0.00000E+00
         0.00000E+00
         0.00000E+00
         0.00000E+00
         0.00000E+00
         0.00000E+00
         0.00000E+00
         0.00000E+00
         0.00000E+00
         0.00000E+00
         0.00000E+00
         0.00000E+00
         0.00000E+00
         0.00000E+00
         0.00000E+00
         0.00000E+00
         0.00000E+00
         0.00000E+00
         0.00000E+00
         0.00000E+00
         0.00000E+00
         0.00000E+00
         0.00000E+00
         0.00000E+00
         0.00000E+00
         0.00000E+00
         0.00000E+00
         0.00000E+00
         0.00000E+00
         0.00000E+00
         0.00000E+00
         0.00000E+00
         0.00000E+00
         0.00000E+00
         0.00000E+00
         0.00000E+00
         0.00000E+00
         0.00000E+00
         0.00000E+00
         0.00000E+00
         0.00000E+00
         0.00000E+00
         0.00000E+00
         0.00000E+00
         0.00000E+00
         0.00000E+00
         0.00000E+00
         0.00000E+00
         0.00000E+00
         0.00000E+00
         0.00000E+00
         0.00000E+00
         0.00000E+00
         0.00000E+00
         0.00000E+00
         0.00000E+00
         0.00000E+00
         0.00000E+00
         0.00000E+00
         0.00000E+00
         0.00000E+00
         0.00000E+00
         0.00000E+00
         0.00000E+00
         0.00000E+00
         0.00000E+00
         0.00000E+00
         0.00000E+00
         0.00000E+00
         0.00000E+00
         0.00000E+00
         0.00000E+00
         0.00000E+00
         0.00000E+00
         0.00000E+00
         0.00000E+00
         0.00000E+00
         0.00000E+00
         0.00000E+00
         0.00000E+00
         0.00000E+00
         0.00000E+00
         0.00000E+00
         0.00000E+00
         0.00000E+00
         0.00000E+00
         0.00000E+00
         0.00000E+00
         0.00000E+00
         0.00000E+00
         0.00000E+00
         0.00000E+00
         0.00000E+00
         0.00000E+00
         0.00000E+00
         0.00000E+00
         0.00000E+00
         0.00000E+00
         0.00000E+00
         0.00000E+00
         0.00000E+00
         0.00000E+00
         0.00000E+00
         0.00000E+00
         0.00000E+00
         0.00000E+00
         0.00000E+00
         0.00000E+00
         0.00000E+00
         0.00000E+00
         0.00000E+00
         0.00000E+00
         0.00000E+00
         0.00000E+00
         0.00000E+00
         0.00000E+00
         0.00000E+00
         0.00000E+00
         0.00000E+00
         0.00000E+00
         0.00000E+00
         0.00000E+00
         0.00000E+00
         0.00000E+00
         0.00000E+00
         0.00000E+00
         0.00000E+00
         0.00000E+00
         0.00000E+00
         0.00000E+00
         0.00000E+00
         0.00000E+00
         0.00000E+00
         0.00000E+00
         0.00000E+00
         0.00000E+00
         0.00000E+00
         0.00000E+00
         0.00000E+00
         0.00000E+00
         0.00000E+00
         0.00000E+00
         0.00000E+00
         0.00000E+00
         0.00000E+00
         0.00000E+00
         0.00000E+00
         0.00000E+00
         0.00000E+00
         0.00000E+00
         0.00000E+00
         0.00000E+00
         0.00000E+00
         0.00000E+00
         0.00000E+00
         0.00000E+00
         0.00000E+00
         0.00000E+00
         0.00000E+00
         0.00000E+00
         0.00000E+00
         0.00000E+00
         0.00000E+00
         0.00000E+00
         0.00000E+00
         0.00000E+00
         0.00000E+00
         0.00000E+00
         0.00000E+00
         0.00000E+00
         0.00000E+00
         0.00000E+00
         0.00000E+00
         0.00000E+00
         0.00000E+00
         0.00000E+00
         0.00000E+00
         0.00000E+00
         0.00000E+00
         0.00000E+00
         0.00000E+00
         0.00000E+00
         0.00000E+00
         0.00000E+00
         0.00000E+00
         0.00000E+00
         0.00000E+00
         0.00000E+00
         0.00000E+00
         0.00000E+00
         0.00000E+00
         0.00000E+00
         0.00000E+00
         0.00000E+00
         0.00000E+00
         0.00000E+00
         0.00000E+00
         0.00000E+00
         0.00000E+00
         0.00000E+00
         0.00000E+00
         0.00000E+00
         0.00000E+00
         0.00000E+00
         0.00000E+00
         0.00000E+00
         0.00000E+00
         0.00000E+00
         0.00000E+00
         0.00000E+00
         0.00000E+00
         0.00000E+00
         0.00000E+00
         0.00000E+00
         0.00000E+00
         0.00000E+00
         0.00000E+00
         0.00000E+00
         0.00000E+00
         0.00000E+00
         0.00000E+00
         0.00000E+00
         0.00000E+00
         0.00000E+00
         0.00000E+00
         0.00000E+00
         0.00000E+00
         0.00000E+00
         0.00000E+00
         0.00000E+00
         0.00000E+00
         0.00000E+00
         0.00000E+00
         0.00000E+00
         0.00000E+00
         0.00000E+00
         0.00000E+00
         0.00000E+00
         0.00000E+00
         0.00000E+00
         0.00000E+00
         0.00000E+00
         0.00000E+00
         0.00000E+00
         0.00000E+00
         0.00000E+00
         0.00000E+00
         0.00000E+00
         0.00000E+00
         0.00000E+00
         0.00000E+00
         0.00000E+00
         0.00000E+00
         0.00000E+00
         0.00000E+00
         0.00000E+00
         0.00000E+00
         0.00000E+00
         0.00000E+00
         0.00000E+00
         0.00000E+00
         0.00000E+00
         0.00000E+00
         0.00000E+00
         0.00000E+00
         0.00000E+00
         0.00000E+00
         0.00000E+00
         0.00000E+00
         0.00000E+00
         0.00000E+00
         0.00000E+00
         0.00000E+00
         0.00000E+00
         0.00000E+00
         0.00000E+00
         0.00000E+00
         0.00000E+00
         0.00000E+00
         0.00000E+00
         0.00000E+00
         0.00000E+00
         0.00000E+00
         0.00000E+00
         0.00000E+00
         0.00000E+00
         0.00000E+00
         0.00000E+00
         0.00000E+00
         0.00000E+00
         0.00000E+00
         0.00000E+00
         0.00000E+00
         0.00000E+00
         0.00000E+00
         0.00000E+00
         0.00000E+00
         0.00000E+00
         0.00000E+00
         0.00000E+00
         0.00000E+00
         0.00000E+00
         0.00000E+00
         0.00000E+00
         0.00000E+00
         0.00000E+00
         0.00000E+00
         0.00000E+00
         0.00000E+00
         0.00000E+00
         0.00000E+00
         0.00000E+00
         0.00000E+00
         0.00000E+00
         0.00000E+00
         0.00000E+00
         0.00000E+00
         0.00000E+00
         0.00000E+00
         0.00000E+00
         0.00000E+00
         0.00000E+00
         0.00000E+00
         0.00000E+00
         0.00000E+00
         0.00000E+00
         0.00000E+00
         0.00000E+00
         0.00000E+00
         0.00000E+00
         0.00000E+00
         0.00000E+00
         0.00000E+00
         0.00000E+00
         0.00000E+00
         0.00000E+00
         0.00000E+00
         0.00000E+00
         0.00000E+00
         0.00000E+00
         0.00000E+00
         0.00000E+00
         0.00000E+00
         0.00000E+00
         0.00000E+00
         0.00000E+00
         0.00000E+00
         0.00000E+00
         0.00000E+00
         0.00000E+00
         0.00000E+00
         0.00000E+00
         0.00000E+00
         0.00000E+00
         0.00000E+00
         0.00000E+00
         0.00000E+00
         0.00000E+00
         0.00000E+00
         0.00000E+00
         0.00000E+00
         0.00000E+00
         0.00000E+00
         0.00000E+00
         0.00000E+00
         0.00000E+00
         0.00000E+00
         0.00000E+00
         0.00000E+00
         0.00000E+00
         0.00000E+00
         0.00000E+00
         0.00000E+00
         0.00000E+00
         0.00000E+00
         0.00000E+00
         0.00000E+00
         0.00000E+00
         0.00000E+00
         0.00000E+00
         0.00000E+00
         0.00000E+00
         0.00000E+00
         0.00000E+00
         0.00000E+00
         0.00000E+00
         0.00000E+00
         0.00000E+00
         0.00000E+00
         0.00000E+00
         0.00000E+00
         0.00000E+00
         0.00000E+00
         0.00000E+00
         0.00000E+00
         0.00000E+00
         0.00000E+00
         0.00000E+00
         0.00000E+00
         0.00000E+00
         0.00000E+00
         0.00000E+00
         0.00000E+00
         0.00000E+00
         0.00000E+00
         0.00000E+00
         0.00000E+00
         0.00000E+00
         0.00000E+00
         0.00000E+00
         0.00000E+00
         0.00000E+00
         0.00000E+00
         0.00000E+00
         0.00000E+00
         0.00000E+00
         0.00000E+00
         0.00000E+00
         0.00000E+00
         0.00000E+00
         0.00000E+00
         0.00000E+00
         0.00000E+00
         0.00000E+00
         0.00000E+00
         0.00000E+00
         0.00000E+00
         0.00000E+00
         0.00000E+00
         0.00000E+00
         0.00000E+00
         0.00000E+00
         0.00000E+00
         0.00000E+00
         0.00000E+00
         0.00000E+00
         0.00000E+00
         0.00000E+00
         0.00000E+00
         0.00000E+00
         0.00000E+00
         0.00000E+00
         0.00000E+00
         0.00000E+00
         0.00000E+00
         0.00000E+00
         0.00000E+00
         0.00000E+00
         0.00000E+00
         0.00000E+00
         0.00000E+00
         0.00000E+00
         0.00000E+00
         0.00000E+00
         0.00000E+00
         0.00000E+00
         0.00000E+00
         0.00000E+00
         0.00000E+00
         0.00000E+00
         0.00000E+00
         0.00000E+00
         0.00000E+00
         0.00000E+00
         0.00000E+00
         0.00000E+00
         0.00000E+00
         0.00000E+00
         0.00000E+00
         0.00000E+00
         0.00000E+00
         0.00000E+00
         0.00000E+00
         0.00000E+00
         0.00000E+00
         0.00000E+00
         0.00000E+00
         0.00000E+00
         0.00000E+00
         0.00000E+00
         0.00000E+00
         0.00000E+00
         0.00000E+00
         0.00000E+00
         0.00000E+00
         0.00000E+00
         0.00000E+00
         0.00000E+00
         0.00000E+00
         0.00000E+00
         0.00000E+00
         0.00000E+00
         0.00000E+00
         0.00000E+00
         0.00000E+00
         0.00000E+00
         0.00000E+00
         0.00000E+00
         0.00000E+00
         0.00000E+00
         0.00000E+00
         0.00000E+00
         0.00000E+00
         0.00000E+00
         0.00000E+00
         0.00000E+00
         0.00000E+00
         0.00000E+00
         0.00000E+00
         0.00000E+00
         0.00000E+00
         0.00000E+00
         0.00000E+00
         0.00000E+00
         0.00000E+00
         0.00000E+00
         0.00000E+00
         0.00000E+00
         0.00000E+00
         0.00000E+00
         0.00000E+00
         0.00000E+00
         0.00000E+00
         0.00000E+00
         0.00000E+00
         0.00000E+00
         0.00000E+00
         0.00000E+00
         0.00000E+00
         0.00000E+00
         0.00000E+00
         0.00000E+00
         0.00000E+00
         0.00000E+00
         0.00000E+00
         0.00000E+00
         0.00000E+00
         0.00000E+00
         0.00000E+00
         0.00000E+00
         0.00000E+00
         0.00000E+00
         0.00000E+00
         0.00000E+00
         0.00000E+00
         0.00000E+00
         0.00000E+00
         0.00000E+00
         0.00000E+00
         0.00000E+00
         0.00000E+00
         0.00000E+00
         0.00000E+00
         0.00000E+00
         0.00000E+00
         0.00000E+00
         0.00000E+00
         0.00000E+00
         0.00000E+00
         0.00000E+00
         0.00000E+00
         0.00000E+00
         0.00000E+00
         0.00000E+00
         0.00000E+00
         0.00000E+00
         0.00000E+00
         0.00000E+00
         0.00000E+00
         0.00000E+00
         0.00000E+00
         0.00000E+00
         0.00000E+00
         0.00000E+00
         0.00000E+00
         0.00000E+00
         0.00000E+00
         0.00000E+00
         0.00000E+00
         0.00000E+00
         0.00000E+00
         0.00000E+00
         0.00000E+00
         0.00000E+00
         0.00000E+00
         0.00000E+00
         0.00000E+00
         0.00000E+00
         0.00000E+00
         0.00000E+00
         0.00000E+00
         0.00000E+00
         0.00000E+00
         0.00000E+00
         0.00000E+00
         0.00000E+00
         0.00000E+00
         0.00000E+00
         0.00000E+00
         0.00000E+00
         0.00000E+00
         0.00000E+00
         0.00000E+00
         0.00000E+00
         0.00000E+00
         0.00000E+00
         0.00000E+00
         0.00000E+00
         0.00000E+00
         0.00000E+00
         0.00000E+00
         0.00000E+00
         0.00000E+00
         0.00000E+00
         0.00000E+00
         0.00000E+00
         0.00000E+00
         0.00000E+00
         0.00000E+00
         0.00000E+00
         0.00000E+00
         0.00000E+00
         0.00000E+00
         0.00000E+00
         0.00000E+00
         0.00000E+00
         0.00000E+00
         0.00000E+00
         0.00000E+00
         0.00000E+00
         0.00000E+00
         0.00000E+00
         0.00000E+00
         0.00000E+00
         0.00000E+00
         0.00000E+00
         0.00000E+00
         0.00000E+00
         0.00000E+00
         0.00000E+00
         0.00000E+00
         0.00000E+00
         0.00000E+00
         0.00000E+00
         0.00000E+00
         0.00000E+00
         0.00000E+00
         0.00000E+00
         0.00000E+00
         0.00000E+00
         0.00000E+00
         0.00000E+00
         0.00000E+00
         0.00000E+00
         0.00000E+00
         0.00000E+00
         0.00000E+00
         0.00000E+00
         0.00000E+00
         0.00000E+00
         0.00000E+00
         0.00000E+00
         0.00000E+00
         0.00000E+00
         0.00000E+00
         0.00000E+00
         0.00000E+00
         0.00000E+00
         0.00000E+00
         0.00000E+00
         0.00000E+00
         0.00000E+00
         0.00000E+00
         0.00000E+00
         0.00000E+00
         0.00000E+00
         0.00000E+00
         0.00000E+00
         0.00000E+00
         0.00000E+00
         0.00000E+00
         0.00000E+00
         0.00000E+00
         0.00000E+00
         0.00000E+00
         0.00000E+00
         0.00000E+00
         0.00000E+00
         0.00000E+00
         0.00000E+00
         0.00000E+00
         0.00000E+00
         0.00000E+00
         0.00000E+00
         0.00000E+00
         0.00000E+00
         0.00000E+00
         0.00000E+00
         0.00000E+00
         0.00000E+00
         0.00000E+00
         0.00000E+00
         0.00000E+00
         0.00000E+00
         0.00000E+00
         0.00000E+00
         0.00000E+00
         0.00000E+00
         0.00000E+00
         0.00000E+00
         0.00000E+00
         0.00000E+00
         0.00000E+00
         0.00000E+00
         0.00000E+00
         0.00000E+00
         0.00000E+00
         0.00000E+00
         0.00000E+00
         0.00000E+00
         0.00000E+00
         0.00000E+00
         0.00000E+00
         0.00000E+00
         0.00000E+00
         0.00000E+00
         0.00000E+00
         0.00000E+00
         0.00000E+00
         0.00000E+00
         0.00000E+00
         0.00000E+00
         0.00000E+00
         0.00000E+00
         0.00000E+00
         0.00000E+00
         0.00000E+00
         0.00000E+00
         0.00000E+00
         0.00000E+00
         0.00000E+00
         0.00000E+00
         0.00000E+00
         0.00000E+00
         0.00000E+00
         0.00000E+00
         0.00000E+00
         0.00000E+00
         0.00000E+00
         0.00000E+00
         0.00000E+00
         0.00000E+00
         0.00000E+00
         0.00000E+00
         0.00000E+00
         0.00000E+00
         0.00000E+00
         0.00000E+00
         0.00000E+00
         0.00000E+00
         0.00000E+00
         0.00000E+00
         0.00000E+00
         0.00000E+00
         0.00000E+00
         0.00000E+00
         0.00000E+00
         0.00000E+00
         0.00000E+00
         0.00000E+00
         0.00000E+00
         0.00000E+00
         0.00000E+00
         0.00000E+00
         0.00000E+00
         0.00000E+00
         0.00000E+00
         0.00000E+00
         0.00000E+00
         0.00000E+00
         0.00000E+00
         0.00000E+00
         0.00000E+00
         0.00000E+00
         0.00000E+00
         0.00000E+00
         0.00000E+00
         0.00000E+00
         0.00000E+00
         0.00000E+00
         0.00000E+00
         0.00000E+00
         0.00000E+00
         0.00000E+00
         0.00000E+00
         0.00000E+00
         0.00000E+00
         0.00000E+00
         0.00000E+00
         0.00000E+00
         0.00000E+00
         0.00000E+00
         0.00000E+00
         0.00000E+00
         0.00000E+00
         0.00000E+00
         0.00000E+00
         0.00000E+00
         0.00000E+00
         0.00000E+00
         0.00000E+00
         0.00000E+00
         0.00000E+00
         0.00000E+00
         0.00000E+00
         0.00000E+00
         0.00000E+00
         0.00000E+00
         0.00000E+00
         0.00000E+00
         0.00000E+00
         0.00000E+00
         0.00000E+00
         0.00000E+00
         0.00000E+00
         0.00000E+00
         0.00000E+00
         0.00000E+00
         0.00000E+00
         0.00000E+00
         0.00000E+00
         0.00000E+00
         0.00000E+00
         0.00000E+00
         0.00000E+00
         0.00000E+00
         0.00000E+00
         0.00000E+00
         0.00000E+00
         0.00000E+00
         0.00000E+00
         0.00000E+00
         0.00000E+00
         0.00000E+00
         0.00000E+00
         0.00000E+00
         0.00000E+00
         0.00000E+00
         0.00000E+00
         0.00000E+00
         0.00000E+00
         0.00000E+00
         0.00000E+00
         0.00000E+00
         0.00000E+00
         0.00000E+00
         0.00000E+00
         0.00000E+00
         0.00000E+00
         0.00000E+00
         0.00000E+00
         0.00000E+00
         0.00000E+00
         0.00000E+00
         0.00000E+00
         0.00000E+00
         0.00000E+00
         0.00000E+00
         0.00000E+00
         0.00000E+00
         0.00000E+00
         0.00000E+00
         0.00000E+00
         0.00000E+00
         0.00000E+00
         0.00000E+00
         0.00000E+00
         0.00000E+00
         0.00000E+00
         0.00000E+00
         0.00000E+00
         0.00000E+00
         0.00000E+00
         0.00000E+00
         0.00000E+00
         0.00000E+00
         0.00000E+00
         0.00000E+00
         0.00000E+00
         0.00000E+00
         0.00000E+00
         0.00000E+00
         0.00000E+00
         0.00000E+00
         0.00000E+00
         0.00000E+00
         0.00000E+00
         0.00000E+00
         0.00000E+00
         0.00000E+00
         0.00000E+00
         0.00000E+00
         0.00000E+00
         0.00000E+00
         0.00000E+00
         0.00000E+00
         0.00000E+00
         0.00000E+00
         0.00000E+00
         0.00000E+00
         0.00000E+00
         0.00000E+00
         0.00000E+00
         0.00000E+00
         0.00000E+00
         0.00000E+00
         0.00000E+00
         0.00000E+00
         0.00000E+00
         0.00000E+00
         0.00000E+00
         0.00000E+00
         0.00000E+00
         0.00000E+00
         0.00000E+00
         0.00000E+00
         0.00000E+00
         0.00000E+00
         0.00000E+00
         0.00000E+00
         0.00000E+00
         0.00000E+00
         0.00000E+00
         0.00000E+00
         0.00000E+00
         0.00000E+00
         0.00000E+00
         0.00000E+00
         0.00000E+00
         0.00000E+00
         0.00000E+00
         0.00000E+00
         0.00000E+00
         0.00000E+00
         0.00000E+00
         0.00000E+00
         0.00000E+00
         0.00000E+00
         0.00000E+00
         0.00000E+00
         0.00000E+00
         0.00000E+00
         0.00000E+00
         0.00000E+00
         0.00000E+00
         0.00000E+00
         0.00000E+00
         0.00000E+00
         0.00000E+00
         0.00000E+00
         0.00000E+00
         0.00000E+00
         0.00000E+00
         0.00000E+00
         0.00000E+00
         0.00000E+00
         0.00000E+00
         0.00000E+00
         0.00000E+00
         0.00000E+00
         0.00000E+00
         0.00000E+00
         0.00000E+00
         0.00000E+00
         0.00000E+00
         0.00000E+00
         0.00000E+00
         0.00000E+00
         0.00000E+00
         0.00000E+00
         0.00000E+00
         0.00000E+00
         0.00000E+00
         0.00000E+00
         0.00000E+00
         0.00000E+00
         0.00000E+00
         0.00000E+00
         0.00000E+00
         0.00000E+00
         0.00000E+00
         0.00000E+00
         0.00000E+00
         0.00000E+00
         0.00000E+00
         0.00000E+00
         0.00000E+00
         0.00000E+00
         0.00000E+00
         0.00000E+00
         0.00000E+00
         0.00000E+00
         0.00000E+00
  
SCALARS                      stress_xx  double 1
LOOKUP_TABLE default
         0.18315E+12
         0.17999E+12
         0.18200E+12
         0.18559E+12
        -0.91893E+02
        -0.10304E+03
        -0.98667E+02
        -0.89635E+02
         0.17988E+12
         0.18095E+12
        -0.92662E+02
        -0.89673E+02
         0.17541E+12
         0.17525E+12
        -0.11010E+03
        -0.10352E+03
         0.18506E+12
         0.17549E+12
        -0.81354E+02
        -0.90234E+02
         0.17198E+12
         0.16925E+12
         0.17359E+12
        -0.10912E+03
        -0.95299E+02
        -0.98407E+02
         0.16935E+12
         0.16537E+12
        -0.10469E+03
        -0.88286E+02
         0.18489E+12
         0.18073E+12
         0.18893E+12
        -0.89336E+02
        -0.83052E+02
        -0.80748E+02
         0.18248E+12
         0.17718E+12
        -0.94514E+02
        -0.86244E+02
         0.18038E+12
         0.17629E+12
        -0.81687E+02
        -0.72316E+02
         0.18384E+12
         0.18538E+12
        -0.89518E+02
        -0.10002E+03
         0.17301E+12
        -0.87451E+02
         0.18508E+12
        -0.10276E+03
         0.16821E+12
        -0.92351E+02
         0.16695E+12
        -0.88584E+02
         0.16697E+12
         0.17142E+12
        -0.90256E+02
        -0.87900E+02
         0.18480E+12
         0.18320E+12
        -0.90504E+02
        -0.10231E+03
         0.18580E+12
        -0.87330E+02
         0.18390E+12
        -0.95310E+02
         0.17890E+12
         0.17839E+12
        -0.91746E+02
        -0.96133E+02
         0.17726E+12
        -0.96939E+02
         0.16395E+12
        -0.76589E+02
         0.16326E+12
        -0.74341E+02
         0.16360E+12
        -0.78386E+02
         0.16553E+12
         0.16753E+12
        -0.74683E+02
        -0.77862E+02
         0.17157E+12
        -0.72518E+02
         0.18376E+12
        -0.95097E+02
         0.18186E+12
        -0.97330E+02
         0.18030E+12
         0.17944E+12
        -0.93469E+02
        -0.94559E+02
         0.18050E+12
        -0.85887E+02
         0.18125E+12
        -0.84662E+02
         0.18057E+12
        -0.90632E+02
         0.18033E+12
         0.18102E+12
        -0.88878E+02
        -0.91485E+02
         0.17656E+12
         0.17837E+12
        -0.69005E+02
        -0.64903E+02
         0.17622E+12
        -0.65891E+02
         0.17831E+12
        -0.63178E+02
         0.17625E+12
        -0.62298E+02
         0.17169E+12
        -0.58872E+02
         0.16728E+12
        -0.52301E+02
         0.16463E+12
        -0.47094E+02
         0.16437E+12
        -0.46767E+02
         0.16445E+12
        -0.50717E+02
         0.16732E+12
        -0.53302E+02
         0.17268E+12
        -0.48670E+02
         0.17856E+12
        -0.43871E+02
         0.18201E+12
        -0.43821E+02
         0.18542E+12
        -0.48981E+02
         0.18767E+12
        -0.55849E+02
         0.18759E+12
        -0.59999E+02
         0.18212E+12
        -0.64799E+02
         0.17831E+12
        -0.69422E+02
         0.17700E+12
        -0.63596E+02
         0.17904E+12
        -0.55791E+02
         0.18011E+12
        -0.55618E+02
         0.17832E+12
        -0.60853E+02
         0.17835E+12
        -0.64874E+02
         0.17969E+12
        -0.61565E+02
         0.18145E+12
        -0.59518E+02
        -0.28775E+11
        -0.29051E+11
        -0.29015E+11
        -0.28652E+11
        -0.29305E+11
        -0.28984E+11
        -0.29379E+11
        -0.29176E+11
        -0.28711E+11
        -0.29005E+11
        -0.29586E+11
        -0.29648E+11
        -0.29482E+11
        -0.29470E+11
        -0.29579E+11
        -0.28670E+11
        -0.28739E+11
        -0.28543E+11
        -0.29080E+11
        -0.28986E+11
        -0.29120E+11
        -0.29032E+11
        -0.29194E+11
        -0.29152E+11
        -0.28994E+11
        -0.29005E+11
        -0.29272E+11
        -0.29248E+11
        -0.29438E+11
        -0.29148E+11
        -0.28704E+11
        -0.29055E+11
        -0.28707E+11
        -0.28939E+11
        -0.29690E+11
        -0.29462E+11
        -0.29349E+11
        -0.29481E+11
        -0.29498E+11
        -0.29706E+11
        -0.29850E+11
        -0.29489E+11
        -0.29115E+11
        -0.29167E+11
        -0.29360E+11
        -0.29682E+11
        -0.29409E+11
        -0.29098E+11
        -0.29120E+11
        -0.29362E+11
        -0.29596E+11
        -0.29277E+11
        -0.30181E+11
        -0.29935E+11
        -0.29977E+11
        -0.29918E+11
        -0.29933E+11
        -0.30068E+11
        -0.30201E+11
        -0.30243E+11
        -0.30225E+11
        -0.30238E+11
        -0.30293E+11
        -0.29946E+11
        -0.29808E+11
        -0.29753E+11
        -0.29658E+11
        -0.29585E+11
        -0.29588E+11
        -0.29712E+11
        -0.30101E+11
        -0.30012E+11
        -0.29879E+11
        -0.29881E+11
        -0.29904E+11
        -0.30030E+11
        -0.29843E+11
        -0.29771E+11
         0.60883E+06
         0.26340E+06
         0.32578E+06
         0.41293E+06
         0.90642E+05
         0.28163E+06
        -0.21671E+06
        -0.53471E+06
         0.73988E+06
        -0.57996E+06
        -0.59213E+06
        -0.32236E+05
        -0.16282E+06
        -0.19687E+07
        -0.65800E+06
        -0.24494E+06
         0.20452E+06
         0.45601E+06
        -0.12453E+05
        -0.18108E+05
        -0.96276E+06
        -0.60278E+06
        -0.12474E+07
        -0.29803E+06
        -0.58320E+06
        -0.80554E+05
        -0.24498E+07
        -0.13759E+07
        -0.78206E+06
        -0.59891E+06
        -0.14320E+06
        -0.17096E+06
         0.37234E+06
         0.70155E+06
        -0.83973E+06
        -0.51328E+06
        -0.32666E+06
        -0.84584E+06
        -0.49682E+06
        -0.33723E+06
        -0.68562E+06
        -0.10653E+07
        -0.93258E+06
        -0.98537E+06
        -0.72052E+06
        -0.29243E+06
        -0.17541E+06
        -0.22740E+06
         0.32247E+06
         0.54608E+06
         0.53760E+05
         0.91124E+05
        -0.20899E+07
        -0.73506E+06
        -0.12735E+07
         0.30237E+05
         0.11658E+07
         0.19863E+07
         0.16561E+07
         0.17836E+07
         0.13996E+07
         0.67225E+06
        -0.10230E+06
        -0.67551E+06
        -0.10837E+07
        -0.54511E+06
        -0.14780E+07
        -0.20498E+07
        -0.16904E+07
        -0.14492E+07
        -0.71513E+06
         0.34911E+06
         0.32493E+06
         0.33944E+04
        -0.61512E+06
        -0.11056E+07
        -0.94184E+06
        -0.42379E+06
         0.56993E+06
         0.22828E+06
         0.29184E+06
         0.38282E+06
         0.44638E+05
         0.24224E+06
        -0.25412E+06
        -0.57848E+06
         0.70397E+06
        -0.62758E+06
        -0.63295E+06
        -0.95584E+05
        -0.21684E+06
        -0.20122E+07
        -0.72072E+06
        -0.28447E+06
         0.16509E+06
         0.42671E+06
        -0.51736E+05
        -0.58920E+05
        -0.10161E+07
        -0.65462E+06
        -0.13020E+07
        -0.33813E+06
        -0.63069E+06
        -0.11885E+06
        -0.24936E+07
        -0.14167E+07
        -0.82749E+06
        -0.64853E+06
        -0.17970E+06
        -0.20711E+06
         0.34293E+06
         0.67104E+06
        -0.89415E+06
        -0.55627E+06
        -0.37235E+06
        -0.90889E+06
        -0.55438E+06
        -0.39359E+06
        -0.74771E+06
        -0.11257E+07
        -0.98971E+06
        -0.10370E+07
        -0.76865E+06
        -0.34737E+06
        -0.22313E+06
        -0.27134E+06
         0.28456E+06
         0.50619E+06
         0.41000E+04
         0.48479E+05
        -0.21948E+07
        -0.83731E+06
        -0.13742E+07
        -0.66282E+05
         0.10637E+07
         0.18724E+07
         0.15424E+07
         0.16687E+07
         0.12837E+07
         0.55360E+06
        -0.22040E+06
        -0.78465E+06
        -0.11746E+07
        -0.62991E+06
        -0.15670E+07
        -0.21449E+07
        -0.17876E+07
        -0.15509E+07
        -0.81719E+06
         0.24107E+06
         0.22319E+06
        -0.88462E+05
        -0.70708E+06
        -0.11999E+07
        -0.10372E+07
        -0.52091E+06
         0.57892E+06
         0.23516E+06
         0.29906E+06
         0.39057E+06
         0.57351E+05
         0.25344E+06
        -0.24731E+06
        -0.56773E+06
         0.71047E+06
        -0.62531E+06
        -0.62420E+06
        -0.83595E+05
        -0.20681E+06
        -0.19988E+07
        -0.70498E+06
        -0.29284E+06
         0.16216E+06
         0.43511E+06
        -0.61391E+05
        -0.66398E+05
        -0.10247E+07
        -0.65789E+06
        -0.13379E+07
        -0.36707E+06
        -0.65168E+06
        -0.14571E+06
        -0.24853E+07
        -0.14217E+07
        -0.84650E+06
        -0.68330E+06
        -0.18025E+06
        -0.21529E+06
         0.35253E+06
         0.68095E+06
        -0.88034E+06
        -0.54504E+06
        -0.36202E+06
        -0.89842E+06
        -0.54561E+06
        -0.39100E+06
        -0.74939E+06
        -0.11479E+07
        -0.10205E+07
        -0.10715E+07
        -0.77669E+06
        -0.33971E+06
        -0.21438E+06
        -0.26177E+06
         0.29494E+06
         0.51837E+06
         0.18449E+05
         0.61073E+05
        -0.21634E+07
        -0.80919E+06
        -0.13430E+07
        -0.42365E+05
         0.10816E+07
         0.18901E+07
         0.15649E+07
         0.16912E+07
         0.13067E+07
         0.57741E+06
        -0.20643E+06
        -0.78514E+06
        -0.11731E+07
        -0.61425E+06
        -0.15567E+07
        -0.21642E+07
        -0.18085E+07
        -0.15455E+07
        -0.78906E+06
         0.27356E+06
         0.25228E+06
        -0.59114E+05
        -0.67398E+06
        -0.11722E+07
        -0.10147E+07
        -0.49924E+06
         0.57329E+06
         0.23217E+06
         0.29623E+06
         0.38560E+06
         0.53495E+05
         0.25052E+06
        -0.25117E+06
        -0.57285E+06
         0.70041E+06
        -0.64558E+06
        -0.62807E+06
        -0.90243E+05
        -0.21133E+06
        -0.20019E+07
        -0.71254E+06
        -0.32447E+06
         0.13851E+06
         0.43018E+06
        -0.95720E+05
        -0.10069E+06
        -0.10651E+07
        -0.69369E+06
        -0.14214E+07
        -0.43177E+06
        -0.70819E+06
        -0.20681E+06
        -0.24973E+07
        -0.14547E+07
        -0.90210E+06
        -0.76640E+06
        -0.19839E+06
        -0.24792E+06
         0.34912E+06
         0.67593E+06
        -0.88761E+06
        -0.54908E+06
        -0.36551E+06
        -0.91036E+06
        -0.56010E+06
        -0.41689E+06
        -0.78460E+06
        -0.12163E+07
        -0.11040E+07
        -0.11531E+07
        -0.81640E+06
        -0.36177E+06
        -0.22967E+06
        -0.27016E+06
         0.28850E+06
         0.51077E+06
         0.11139E+05
         0.56786E+05
        -0.21780E+07
        -0.81918E+06
        -0.13588E+07
        -0.56290E+05
         0.10723E+07
         0.18793E+07
         0.15468E+07
         0.16715E+07
         0.12878E+07
         0.55448E+06
        -0.24281E+06
        -0.84384E+06
        -0.12282E+07
        -0.64033E+06
        -0.15862E+07
        -0.22452E+07
        -0.18942E+07
        -0.15857E+07
        -0.80810E+06
         0.25534E+06
         0.23851E+06
        -0.75428E+05
        -0.69089E+06
        -0.11837E+07
        -0.10235E+07
        -0.50807E+06
         0.56314E+06
         0.22611E+06
         0.29129E+06
         0.38048E+06
         0.48959E+05
         0.24626E+06
        -0.25681E+06
        -0.58178E+06
         0.68826E+06
        -0.66668E+06
        -0.63224E+06
        -0.94423E+05
        -0.21636E+06
        -0.20056E+07
        -0.71600E+06
        -0.34611E+06
         0.11955E+06
         0.42564E+06
        -0.11830E+06
        -0.12529E+06
        -0.10910E+07
        -0.71940E+06
        -0.14726E+07
        -0.47186E+06
        -0.74932E+06
        -0.24597E+06
        -0.25078E+07
        -0.14783E+07
        -0.94083E+06
        -0.82172E+06
        -0.21736E+06
        -0.27167E+06
         0.34118E+06
         0.66895E+06
        -0.89511E+06
        -0.55433E+06
        -0.37085E+06
        -0.91934E+06
        -0.57218E+06
        -0.43665E+06
        -0.80944E+06
        -0.12625E+07
        -0.11589E+07
        -0.12048E+07
        -0.84242E+06
        -0.37627E+06
        -0.24323E+06
        -0.28345E+06
         0.27730E+06
         0.49957E+06
        -0.39109E+03
         0.49569E+05
        -0.21912E+07
        -0.82790E+06
        -0.13722E+07
        -0.67123E+05
         0.10680E+07
         0.18761E+07
         0.15390E+07
         0.16585E+07
         0.12718E+07
         0.54031E+06
        -0.26494E+06
        -0.88443E+06
        -0.12657E+07
        -0.66048E+06
        -0.16070E+07
        -0.22976E+07
        -0.19543E+07
        -0.16145E+07
        -0.81671E+06
         0.23880E+06
         0.22023E+06
        -0.94152E+05
        -0.71272E+06
        -0.12025E+07
        -0.10352E+07
        -0.51688E+06
         0.53872E+06
         0.21450E+06
         0.28641E+06
         0.38438E+06
         0.55781E+05
         0.25422E+06
        -0.26096E+06
        -0.59794E+06
         0.67103E+06
        -0.69533E+06
        -0.62836E+06
        -0.80396E+05
        -0.21120E+06
        -0.20015E+07
        -0.69798E+06
        -0.34292E+06
         0.11436E+06
         0.43424E+06
        -0.11365E+06
        -0.12131E+06
        -0.10832E+07
        -0.71029E+06
        -0.14715E+07
        -0.47267E+06
        -0.76756E+06
        -0.25154E+06
        -0.25104E+07
        -0.14805E+07
        -0.93993E+06
        -0.82398E+06
        -0.23990E+06
        -0.28419E+06
         0.32699E+06
         0.66719E+06
        -0.88920E+06
        -0.55344E+06
        -0.37169E+06
        -0.90869E+06
        -0.56326E+06
        -0.42683E+06
        -0.79745E+06
        -0.12557E+07
        -0.11531E+07
        -0.12079E+07
        -0.84544E+06
        -0.37860E+06
        -0.25494E+06
        -0.30991E+06
         0.24985E+06
         0.48437E+06
        -0.40497E+04
         0.53597E+05
        -0.21654E+07
        -0.80126E+06
        -0.13505E+07
        -0.52628E+05
         0.10833E+07
         0.18968E+07
         0.15624E+07
         0.16809E+07
         0.12977E+07
         0.57450E+06
        -0.23509E+06
        -0.86640E+06
        -0.12459E+07
        -0.63981E+06
        -0.15871E+07
        -0.22817E+07
        -0.19426E+07
        -0.16029E+07
        -0.80277E+06
         0.24837E+06
         0.21821E+06
        -0.10717E+06
        -0.72117E+06
        -0.11981E+07
        -0.10223E+07
        -0.49847E+06
         0.50158E+06
         0.19396E+06
         0.27472E+06
         0.38120E+06
         0.51300E+05
         0.25426E+06
        -0.27654E+06
        -0.63013E+06
         0.64162E+06
        -0.73779E+06
        -0.63788E+06
        -0.85908E+05
        -0.22011E+06
        -0.20137E+07
        -0.70154E+06
        -0.34986E+06
         0.98640E+05
         0.43313E+06
        -0.11759E+06
        -0.12675E+06
        -0.10866E+07
        -0.71277E+06
        -0.14756E+07
        -0.47755E+06
        -0.79289E+06
        -0.26147E+06
        -0.25282E+07
        -0.14923E+07
        -0.94520E+06
        -0.83089E+06
        -0.27111E+06
        -0.30465E+06
         0.30466E+06
         0.65791E+06
        -0.89795E+06
        -0.56220E+06
        -0.38233E+06
        -0.91808E+06
        -0.57215E+06
        -0.43188E+06
        -0.79966E+06
        -0.12571E+07
        -0.11537E+07
        -0.12156E+07
        -0.85970E+06
        -0.39919E+06
        -0.28200E+06
        -0.34950E+06
         0.21072E+06
         0.45788E+06
        -0.19556E+05
         0.48831E+05
        -0.21761E+07
        -0.80954E+06
        -0.13568E+07
        -0.59938E+05
         0.10728E+07
         0.18841E+07
         0.15519E+07
         0.16718E+07
         0.12888E+07
         0.56778E+06
        -0.24046E+06
        -0.87292E+06
        -0.12470E+07
        -0.64140E+06
        -0.15915E+07
        -0.22842E+07
        -0.19476E+07
        -0.16211E+07
        -0.82974E+06
         0.21854E+06
         0.18481E+06
        -0.14844E+06
        -0.75731E+06
        -0.12172E+07
        -0.10327E+07
        -0.50666E+06
         0.49067E+06
         0.18630E+06
         0.26993E+06
         0.37698E+06
         0.46427E+05
         0.25016E+06
        -0.28485E+06
        -0.64077E+06
         0.63326E+06
        -0.75040E+06
        -0.64458E+06
        -0.93619E+05
        -0.22888E+06
        -0.20194E+07
        -0.70778E+06
        -0.35617E+06
         0.91718E+05
         0.42969E+06
        -0.12121E+06
        -0.13096E+06
        -0.10921E+07
        -0.71866E+06
        -0.14809E+07
        -0.48128E+06
        -0.80261E+06
        -0.26714E+06
        -0.25359E+07
        -0.14984E+07
        -0.95340E+06
        -0.83750E+06
        -0.28178E+06
        -0.31270E+06
         0.29842E+06
         0.65271E+06
        -0.90540E+06
        -0.56682E+06
        -0.38876E+06
        -0.92983E+06
        -0.58235E+06
        -0.44209E+06
        -0.81014E+06
        -0.12658E+07
        -0.11590E+07
        -0.12224E+07
        -0.86809E+06
        -0.40879E+06
        -0.29083E+06
        -0.35946E+06
         0.20109E+06
         0.44865E+06
        -0.29083E+05
         0.42765E+05
        -0.21908E+07
        -0.82394E+06
        -0.13665E+07
        -0.70041E+05
         0.10606E+07
         0.18733E+07
         0.15408E+07
         0.16565E+07
         0.12687E+07
         0.54662E+06
        -0.25965E+06
        -0.88157E+06
        -0.12539E+07
        -0.65605E+06
        -0.16070E+07
        -0.22990E+07
        -0.19667E+07
        -0.16394E+07
        -0.84506E+06
         0.20606E+06
         0.17470E+06
        -0.16217E+06
        -0.77539E+06
        -0.12342E+07
        -0.10470E+07
        -0.52089E+06
         0.49742E+06
         0.19138E+06
         0.27364E+06
         0.37806E+06
         0.52759E+05
         0.25205E+06
        -0.28055E+06
        -0.63173E+06
         0.63940E+06
        -0.74208E+06
        -0.63929E+06
        -0.86063E+05
        -0.22358E+06
        -0.20088E+07
        -0.69536E+06
        -0.34942E+06
         0.96433E+05
         0.43386E+06
        -0.11438E+06
        -0.12472E+06
        -0.10841E+07
        -0.71135E+06
        -0.14732E+07
        -0.47469E+06
        -0.79751E+06
        -0.26101E+06
        -0.25253E+07
        -0.14901E+07
        -0.94907E+06
        -0.83184E+06
        -0.27668E+06
        -0.30798E+06
         0.30362E+06
         0.65447E+06
        -0.89764E+06
        -0.56091E+06
        -0.38349E+06
        -0.92198E+06
        -0.57642E+06
        -0.43695E+06
        -0.80311E+06
        -0.12585E+07
        -0.11512E+07
        -0.12153E+07
        -0.86211E+06
        -0.40253E+06
        -0.28482E+06
        -0.35283E+06
         0.20757E+06
         0.45373E+06
        -0.24818E+05
         0.44761E+05
        -0.21688E+07
        -0.80228E+06
        -0.13535E+07
        -0.64750E+05
         0.10714E+07
         0.18901E+07
         0.15595E+07
         0.16697E+07
         0.12739E+07
         0.55454E+06
        -0.24546E+06
        -0.86143E+06
        -0.12364E+07
        -0.64467E+06
        -0.15964E+07
        -0.22866E+07
        -0.19540E+07
        -0.16238E+07
        -0.83019E+06
         0.22343E+06
         0.19267E+06
        -0.14618E+06
        -0.76188E+06
        -0.12223E+07
        -0.10351E+07
        -0.50808E+06
         0.49554E+06
         0.19087E+06
         0.27269E+06
         0.37519E+06
         0.52149E+05
         0.25007E+06
        -0.28230E+06
        -0.63404E+06
         0.63546E+06
        -0.74685E+06
        -0.64198E+06
        -0.90776E+05
        -0.22509E+06
        -0.20105E+07
        -0.70194E+06
        -0.35355E+06
         0.91612E+05
         0.43014E+06
        -0.11736E+06
        -0.12792E+06
        -0.10869E+07
        -0.71508E+06
        -0.14759E+07
        -0.47716E+06
        -0.80113E+06
        -0.26338E+06
        -0.25279E+07
        -0.14903E+07
        -0.95220E+06
        -0.83511E+06
        -0.28049E+06
        -0.31039E+06
         0.30084E+06
         0.65063E+06
        -0.90056E+06
        -0.56285E+06
        -0.38487E+06
        -0.93218E+06
        -0.58234E+06
        -0.44237E+06
        -0.80825E+06
        -0.12621E+07
        -0.11558E+07
        -0.12171E+07
        -0.86383E+06
        -0.40553E+06
        -0.28884E+06
        -0.35748E+06
         0.20382E+06
         0.45008E+06
        -0.28464E+05
         0.41450E+05
        -0.21751E+07
        -0.80722E+06
        -0.13637E+07
        -0.73504E+05
         0.10703E+07
         0.18839E+07
         0.15451E+07
         0.16536E+07
         0.12646E+07
         0.54047E+06
        -0.26084E+06
        -0.86907E+06
        -0.12454E+07
        -0.64960E+06
        -0.16011E+07
        -0.22911E+07
        -0.19546E+07
        -0.16269E+07
        -0.83453E+06
         0.21167E+06
         0.17822E+06
        -0.15733E+06
        -0.76740E+06
        -0.12250E+07
        -0.10415E+07
        -0.51720E+06
         0.49047E+06
         0.18693E+06
         0.26995E+06
         0.37347E+06
         0.48874E+05
         0.24898E+06
        -0.28619E+06
        -0.63782E+06
         0.63193E+06
        -0.75160E+06
        -0.64503E+06
        -0.97001E+05
        -0.22919E+06
        -0.20113E+07
        -0.70867E+06
        -0.35907E+06
         0.87596E+05
         0.42817E+06
        -0.12103E+06
        -0.13024E+06
        -0.10905E+07
        -0.71888E+06
        -0.14801E+07
        -0.48100E+06
        -0.80469E+06
        -0.26782E+06
        -0.25298E+07
        -0.14915E+07
        -0.95561E+06
        -0.83759E+06
        -0.28567E+06
        -0.31440E+06
         0.29986E+06
         0.64994E+06
        -0.90717E+06
        -0.56641E+06
        -0.38826E+06
        -0.94207E+06
        -0.58891E+06
        -0.44716E+06
        -0.81123E+06
        -0.12652E+07
        -0.11599E+07
        -0.12206E+07
        -0.86713E+06
        -0.40961E+06
        -0.29258E+06
        -0.36152E+06
         0.20026E+06
         0.44687E+06
        -0.31923E+05
         0.40211E+05
        -0.21878E+07
        -0.81774E+06
        -0.13714E+07
        -0.76159E+05
         0.10669E+07
         0.18714E+07
         0.15270E+07
         0.16391E+07
         0.12550E+07
         0.53037E+06
        -0.26712E+06
        -0.87661E+06
        -0.12563E+07
        -0.65696E+06
        -0.16089E+07
        -0.23001E+07
        -0.19605E+07
        -0.16339E+07
        -0.84315E+06
         0.20197E+06
         0.16726E+06
        -0.16874E+06
        -0.77546E+06
        -0.12327E+07
        -0.10513E+07
        -0.52757E+06
         0.49361E+06
         0.18848E+06
         0.27132E+06
         0.37558E+06
         0.53317E+05
         0.25293E+06
        -0.28373E+06
        -0.63132E+06
         0.63499E+06
        -0.74798E+06
        -0.64005E+06
        -0.91865E+05
        -0.22771E+06
        -0.20013E+07
        -0.69715E+06
        -0.35556E+06
         0.88890E+05
         0.43231E+06
        -0.11691E+06
        -0.12519E+06
        -0.10840E+07
        -0.71234E+06
        -0.14749E+07
        -0.47697E+06
        -0.80284E+06
        -0.26395E+06
        -0.25231E+07
        -0.14860E+07
        -0.95059E+06
        -0.83136E+06
        -0.28179E+06
        -0.31116E+06
         0.30585E+06
         0.65428E+06
        -0.90249E+06
        -0.56253E+06
        -0.38596E+06
        -0.93582E+06
        -0.58302E+06
        -0.43940E+06
        -0.80338E+06
        -0.12598E+07
        -0.11537E+07
        -0.12162E+07
        -0.86337E+06
        -0.40610E+06
        -0.28887E+06
        -0.35757E+06
         0.20455E+06
         0.45118E+06
        -0.27451E+05
         0.45016E+05
        -0.21717E+07
        -0.80027E+06
        -0.13549E+07
        -0.68137E+05
         0.10643E+07
         0.18722E+07
         0.15400E+07
         0.16533E+07
         0.12647E+07
         0.54507E+06
        -0.25319E+06
        -0.86998E+06
        -0.12445E+07
        -0.64503E+06
        -0.15981E+07
        -0.22918E+07
        -0.19547E+07
        -0.16268E+07
        -0.83636E+06
         0.21242E+06
         0.17968E+06
        -0.15684E+06
        -0.76500E+06
        -0.12239E+07
        -0.10384E+07
        -0.51254E+06
         0.49119E+06
         0.18530E+06
         0.26867E+06
         0.37237E+06
         0.49977E+05
         0.24991E+06
        -0.28844E+06
        -0.63467E+06
         0.63223E+06
        -0.75387E+06
        -0.64461E+06
        -0.99582E+05
        -0.23579E+06
        -0.20041E+07
        -0.70185E+06
        -0.36013E+06
         0.83995E+05
         0.42831E+06
        -0.12141E+06
        -0.12901E+06
        -0.10907E+07
        -0.71924E+06
        -0.14821E+07
        -0.48141E+06
        -0.80902E+06
        -0.26785E+06
        -0.25297E+07
        -0.14918E+07
        -0.95711E+06
        -0.83551E+06
        -0.28666E+06
        -0.31494E+06
         0.30219E+06
         0.65081E+06
        -0.90881E+06
        -0.56675E+06
        -0.39165E+06
        -0.94656E+06
        -0.59330E+06
        -0.44829E+06
        -0.81319E+06
        -0.12692E+07
        -0.11607E+07
        -0.12237E+07
        -0.86971E+06
        -0.41207E+06
        -0.29428E+06
        -0.36382E+06
         0.19992E+06
         0.44758E+06
        -0.32107E+05
         0.41194E+05
        -0.21842E+07
        -0.81105E+06
        -0.13672E+07
        -0.82438E+05
         0.10477E+07
         0.18563E+07
         0.15302E+07
         0.16407E+07
         0.12483E+07
         0.52880E+06
        -0.27303E+06
        -0.88956E+06
        -0.12575E+07
        -0.65846E+06
        -0.16098E+07
        -0.23051E+07
        -0.19752E+07
        -0.16452E+07
        -0.84550E+06
         0.19961E+06
         0.16660E+06
        -0.16355E+06
        -0.76945E+06
        -0.12335E+07
        -0.10516E+07
        -0.52574E+06
         0.49068E+06
         0.18422E+06
         0.26788E+06
         0.37126E+06
         0.50021E+05
         0.24940E+06
        -0.28995E+06
        -0.63424E+06
         0.63286E+06
        -0.75386E+06
        -0.64507E+06
        -0.10072E+06
        -0.23726E+06
        -0.20012E+07
        -0.70120E+06
        -0.36151E+06
         0.83189E+05
         0.42779E+06
        -0.12183E+06
        -0.12903E+06
        -0.10920E+07
        -0.72026E+06
        -0.14837E+07
        -0.48226E+06
        -0.81058E+06
        -0.26901E+06
        -0.25285E+07
        -0.14921E+07
        -0.95982E+06
        -0.83667E+06
        -0.28958E+06
        -0.31639E+06
         0.30153E+06
         0.65010E+06
        -0.91054E+06
        -0.56790E+06
        -0.39325E+06
        -0.95189E+06
        -0.59937E+06
        -0.45218E+06
        -0.81435E+06
        -0.12704E+07
        -0.11618E+07
        -0.12248E+07
        -0.87060E+06
        -0.41343E+06
        -0.29591E+06
        -0.36637E+06
         0.19816E+06
         0.44679E+06
        -0.32853E+05
         0.40595E+05
        -0.21845E+07
        -0.81073E+06
        -0.13704E+07
        -0.87951E+05
         0.10475E+07
         0.18560E+07
         0.15262E+07
         0.16301E+07
         0.12366E+07
         0.52230E+06
        -0.27367E+06
        -0.89146E+06
        -0.12607E+07
        -0.66366E+06
        -0.16159E+07
        -0.23095E+07
        -0.19779E+07
        -0.16476E+07
        -0.84804E+06
         0.19499E+06
         0.16088E+06
        -0.16722E+06
        -0.76967E+06
        -0.12347E+07
        -0.10575E+07
        -0.53113E+06
         0.50079E+06
         0.19394E+06
         0.27593E+06
         0.37705E+06
         0.62065E+05
         0.25785E+06
        -0.27984E+06
        -0.62137E+06
         0.64012E+06
        -0.74432E+06
        -0.63359E+06
        -0.84260E+05
        -0.22332E+06
        -0.19860E+07
        -0.68415E+06
        -0.35318E+06
         0.89977E+05
         0.43517E+06
        -0.11284E+06
        -0.11896E+06
        -0.10780E+07
        -0.70737E+06
        -0.14708E+07
        -0.47348E+06
        -0.80133E+06
        -0.26033E+06
        -0.25151E+07
        -0.14785E+07
        -0.94873E+06
        -0.82486E+06
        -0.28102E+06
        -0.30741E+06
         0.31000E+06
         0.65588E+06
        -0.89746E+06
        -0.55718E+06
        -0.38186E+06
        -0.94183E+06
        -0.58723E+06
        -0.43919E+06
        -0.80116E+06
        -0.12576E+07
        -0.11501E+07
        -0.12115E+07
        -0.85739E+06
        -0.39975E+06
        -0.28435E+06
        -0.35609E+06
         0.20674E+06
         0.45460E+06
        -0.23699E+05
         0.48642E+05
        -0.21553E+07
        -0.78159E+06
        -0.13458E+07
        -0.70216E+05
         0.10692E+07
         0.18834E+07
         0.15492E+07
         0.16475E+07
         0.12563E+07
         0.54381E+06
        -0.25429E+06
        -0.86875E+06
        -0.12428E+07
        -0.64373E+06
        -0.15933E+07
        -0.22858E+07
        -0.19511E+07
        -0.16188E+07
        -0.82323E+06
         0.22082E+06
         0.18296E+06
        -0.15083E+06
        -0.75143E+06
        -0.12131E+07
        -0.10342E+07
        -0.50763E+06
         0.49642E+06
         0.19108E+06
         0.27346E+06
         0.37313E+06
         0.57740E+05
         0.25472E+06
        -0.28414E+06
        -0.62595E+06
         0.63599E+06
        -0.75172E+06
        -0.63808E+06
        -0.90210E+05
        -0.22701E+06
        -0.19891E+07
        -0.69105E+06
        -0.35889E+06
         0.84056E+05
         0.43197E+06
        -0.11879E+06
        -0.12374E+06
        -0.10824E+07
        -0.71367E+06
        -0.14752E+07
        -0.47883E+06
        -0.80842E+06
        -0.26584E+06
        -0.25211E+07
        -0.14823E+07
        -0.95115E+06
        -0.82787E+06
        -0.28477E+06
        -0.31171E+06
         0.30789E+06
         0.65166E+06
        -0.90551E+06
        -0.56097E+06
        -0.38454E+06
        -0.95393E+06
        -0.59570E+06
        -0.44339E+06
        -0.80736E+06
        -0.12649E+07
        -0.11582E+07
        -0.12170E+07
        -0.86287E+06
        -0.40536E+06
        -0.28882E+06
        -0.35966E+06
         0.20287E+06
         0.44922E+06
        -0.29313E+05
         0.44710E+05
        -0.21738E+07
        -0.79717E+06
        -0.13600E+07
        -0.77770E+05
         0.10667E+07
         0.18763E+07
         0.15335E+07
         0.16285E+07
         0.12381E+07
         0.52761E+06
        -0.27342E+06
        -0.89063E+06
        -0.12583E+07
        -0.65138E+06
        -0.15969E+07
        -0.22882E+07
        -0.19585E+07
        -0.16318E+07
        -0.83282E+06
         0.20930E+06
         0.17249E+06
        -0.16264E+06
        -0.76396E+06
        -0.12211E+07
        -0.10417E+07
        -0.52012E+06
         0.48917E+06
         0.18387E+06
         0.26666E+06
         0.36795E+06
         0.50500E+05
         0.24837E+06
        -0.29074E+06
        -0.63153E+06
         0.62985E+06
        -0.76501E+06
        -0.64361E+06
        -0.99789E+05
        -0.23491E+06
        -0.19923E+07
        -0.69988E+06
        -0.36577E+06
         0.75549E+05
         0.42821E+06
        -0.12366E+06
        -0.12585E+06
        -0.10879E+07
        -0.72104E+06
        -0.14806E+07
        -0.48344E+06
        -0.82026E+06
        -0.27123E+06
        -0.25345E+07
        -0.14889E+07
        -0.93789E+06
        -0.81954E+06
        -0.29099E+06
        -0.31779E+06
         0.30580E+06
         0.64874E+06
        -0.91453E+06
        -0.56743E+06
        -0.39123E+06
        -0.97167E+06
        -0.60405E+06
        -0.43144E+06
        -0.80796E+06
        -0.12728E+07
        -0.11690E+07
        -0.12231E+07
        -0.86991E+06
        -0.41440E+06
        -0.29674E+06
        -0.36592E+06
         0.19838E+06
         0.44489E+06
        -0.34259E+05
         0.39782E+05
        -0.21861E+07
        -0.80848E+06
        -0.13696E+07
        -0.86273E+05
         0.10549E+07
         0.18569E+07
         0.15114E+07
         0.16074E+07
         0.12199E+07
         0.52339E+06
        -0.30682E+06
        -0.94313E+06
        -0.12800E+07
        -0.66341E+06
        -0.16078E+07
        -0.22979E+07
        -0.19703E+07
        -0.16454E+07
        -0.84863E+06
         0.19130E+06
         0.16048E+06
        -0.17392E+06
        -0.77674E+06
        -0.12306E+07
        -0.10564E+07
        -0.53672E+06
         0.49880E+06
         0.19280E+06
         0.27541E+06
         0.37504E+06
         0.63260E+05
         0.25746E+06
        -0.28199E+06
        -0.61885E+06
         0.63501E+06
        -0.76702E+06
        -0.63328E+06
        -0.87514E+05
        -0.22463E+06
        -0.19778E+07
        -0.68460E+06
        -0.35734E+06
         0.79895E+05
         0.43516E+06
        -0.11329E+06
        -0.10954E+06
        -0.10763E+07
        -0.70977E+06
        -0.14702E+07
        -0.47396E+06
        -0.81870E+06
        -0.26178E+06
        -0.25368E+07
        -0.14802E+07
        -0.89386E+06
        -0.78239E+06
        -0.28378E+06
        -0.30866E+06
         0.31410E+06
         0.65642E+06
        -0.90049E+06
        -0.55552E+06
        -0.38046E+06
        -0.97105E+06
        -0.59006E+06
        -0.38502E+06
        -0.78250E+06
        -0.12598E+07
        -0.11622E+07
        -0.12116E+07
        -0.85699E+06
        -0.39920E+06
        -0.28468E+06
        -0.35653E+06
         0.20777E+06
         0.45554E+06
        -0.22128E+05
         0.49240E+05
        -0.21560E+07
        -0.77888E+06
        -0.13393E+07
        -0.65146E+05
         0.10685E+07
         0.18725E+07
         0.15329E+07
         0.16292E+07
         0.12439E+07
         0.57020E+06
        -0.31763E+06
        -0.98538E+06
        -0.12784E+07
        -0.64687E+06
        -0.15940E+07
        -0.22863E+07
        -0.19558E+07
        -0.16213E+07
        -0.81900E+06
         0.21894E+06
         0.18442E+06
        -0.14931E+06
        -0.74884E+06
        -0.12049E+07
        -0.10356E+07
        -0.51497E+06
         0.46240E+06
         0.15970E+06
         0.24396E+06
         0.34548E+06
         0.20188E+05
         0.22009E+06
        -0.31752E+06
        -0.66051E+06
         0.59998E+06
        -0.81912E+06
        -0.67196E+06
        -0.14641E+06
        -0.27858E+06
        -0.20200E+07
        -0.74440E+06
        -0.39200E+06
         0.43365E+05
         0.40596E+06
        -0.14805E+06
        -0.14209E+06
        -0.11264E+07
        -0.75883E+06
        -0.15186E+07
        -0.50749E+06
        -0.86432E+06
        -0.29361E+06
        -0.25896E+07
        -0.15196E+07
        -0.91320E+06
        -0.80807E+06
        -0.31680E+06
        -0.34157E+06
         0.28446E+06
         0.62375E+06
        -0.95355E+06
        -0.59791E+06
        -0.42725E+06
        -0.10397E+07
        -0.64312E+06
        -0.41618E+06
        -0.83253E+06
        -0.13137E+07
        -0.12159E+07
        -0.12577E+07
        -0.90432E+06
        -0.45586E+06
        -0.33081E+06
        -0.39721E+06
         0.17038E+06
         0.41302E+06
        -0.75537E+05
         0.56927E+04
        -0.22606E+07
        -0.88038E+06
        -0.14449E+07
        -0.17277E+06
         0.96119E+06
         0.17690E+07
         0.14277E+07
         0.15163E+07
         0.11383E+07
         0.47388E+06
        -0.45181E+06
        -0.11314E+07
        -0.13815E+07
        -0.73233E+06
        -0.16838E+07
        -0.23797E+07
        -0.20522E+07
        -0.17293E+07
        -0.92992E+06
         0.11248E+06
         0.85919E+05
        -0.24358E+06
        -0.84531E+06
        -0.13041E+07
        -0.11310E+07
        -0.60973E+06
         0.48307E+06
         0.16193E+06
         0.24985E+06
         0.35645E+06
         0.35296E+05
         0.23291E+06
        -0.31339E+06
        -0.63399E+06
         0.62353E+06
        -0.78123E+06
        -0.66106E+06
        -0.14539E+06
        -0.29250E+06
        -0.19888E+07
        -0.71697E+06
        -0.36610E+06
         0.65523E+05
         0.42239E+06
        -0.12926E+06
        -0.12224E+06
        -0.11033E+07
        -0.74190E+06
        -0.14839E+07
        -0.48242E+06
        -0.82625E+06
        -0.27029E+06
        -0.25445E+07
        -0.14733E+07
        -0.87667E+06
        -0.77049E+06
        -0.29759E+06
        -0.32697E+06
         0.29453E+06
         0.61897E+06
        -0.94587E+06
        -0.60088E+06
        -0.44041E+06
        -0.10084E+07
        -0.60608E+06
        -0.38414E+06
        -0.80998E+06
        -0.12837E+07
        -0.11838E+07
        -0.12259E+07
        -0.88667E+06
        -0.44709E+06
        -0.32370E+06
        -0.38008E+06
         0.18302E+06
         0.41370E+06
        -0.71941E+05
         0.69735E+04
        -0.22203E+07
        -0.82794E+06
        -0.14315E+07
        -0.19600E+06
         0.91304E+06
         0.17396E+07
         0.14758E+07
         0.15657E+07
         0.11777E+07
         0.49727E+06
        -0.44524E+06
        -0.11114E+07
        -0.13425E+07
        -0.71303E+06
        -0.16431E+07
        -0.23215E+07
        -0.20024E+07
        -0.16912E+07
        -0.91336E+06
         0.11056E+06
         0.10791E+06
        -0.21223E+06
        -0.79539E+06
        -0.12436E+07
        -0.10834E+07
        -0.56052E+06
         0.14332E+09
         0.13397E+09
         0.13133E+09
         0.11172E+09
         0.17202E+09
         0.14984E+09
         0.13281E+09
         0.16260E+09
         0.12818E+09
         0.16230E+09
         0.15267E+09
         0.22525E+09
         0.19655E+09
         0.17275E+09
         0.23254E+09
         0.12868E+09
         0.12195E+09
         0.10693E+09
         0.13164E+09
         0.13280E+09
         0.18041E+09
         0.18084E+09
         0.17085E+09
         0.12110E+09
         0.14999E+09
         0.11620E+09
         0.17013E+09
         0.14549E+09
         0.14621E+09
         0.15674E+09
         0.12536E+09
         0.12014E+09
         0.11240E+09
         0.11764E+09
         0.19805E+09
         0.16352E+09
         0.17145E+09
         0.21661E+09
         0.20327E+09
         0.19807E+09
         0.21150E+09
         0.19725E+09
         0.18694E+09
         0.16270E+09
         0.16732E+09
         0.20151E+09
         0.17194E+09
         0.15512E+09
         0.14500E+09
         0.15653E+09
         0.18818E+09
         0.16094E+09
         0.38083E+09
         0.37327E+09
         0.38057E+09
         0.36870E+09
         0.38099E+09
         0.40027E+09
         0.40178E+09
         0.39674E+09
         0.39965E+09
         0.41091E+09
         0.39780E+09
         0.37459E+09
         0.33119E+09
         0.31236E+09
         0.31744E+09
         0.32525E+09
         0.32991E+09
         0.36013E+09
         0.38597E+09
         0.38804E+09
         0.35534E+09
         0.34243E+09
         0.35481E+09
         0.35047E+09
         0.34791E+09
         0.34859E+09
         0.17340E+10
         0.18147E+10
         0.17881E+10
         0.16288E+10
         0.20131E+10
         0.18883E+10
         0.19640E+10
         0.19823E+10
         0.16929E+10
         0.19811E+10
         0.21589E+10
         0.24269E+10
         0.21978E+10
         0.22228E+10
         0.25123E+10
         0.16589E+10
         0.17829E+10
         0.15522E+10
         0.18425E+10
         0.19390E+10
         0.20124E+10
         0.20561E+10
         0.19306E+10
         0.17707E+10
         0.20028E+10
         0.17073E+10
         0.22147E+10
         0.21757E+10
         0.21858E+10
         0.20744E+10
         0.16764E+10
         0.17628E+10
         0.16420E+10
         0.17182E+10
         0.22066E+10
         0.20213E+10
         0.20292E+10
         0.24312E+10
         0.23672E+10
         0.23382E+10
         0.23817E+10
         0.22608E+10
         0.21378E+10
         0.18834E+10
         0.19609E+10
         0.22063E+10
         0.20373E+10
         0.19141E+10
         0.18751E+10
         0.19453E+10
         0.21156E+10
         0.19515E+10
         0.35093E+10
         0.34202E+10
         0.34917E+10
         0.33834E+10
         0.34841E+10
         0.36622E+10
         0.37203E+10
         0.37111E+10
         0.37368E+10
         0.38220E+10
         0.37120E+10
         0.34914E+10
         0.31306E+10
         0.29594E+10
         0.29684E+10
         0.30068E+10
         0.30364E+10
         0.32917E+10
         0.35250E+10
         0.35396E+10
         0.32770E+10
         0.31759E+10
         0.32806E+10
         0.32569E+10
         0.32202E+10
         0.32111E+10
  
SCALARS                      stress_yy  double 1
LOOKUP_TABLE default
         0.18315E+12
         0.17999E+12
         0.18200E+12
         0.18559E+12
        -0.91893E+02
        -0.10304E+03
        -0.98667E+02
        -0.89635E+02
         0.17988E+12
         0.18095E+12
        -0.92662E+02
        -0.89673E+02
         0.17541E+12
         0.17525E+12
        -0.11010E+03
        -0.10352E+03
         0.18506E+12
         0.17549E+12
        -0.81354E+02
        -0.90234E+02
         0.17198E+12
         0.16925E+12
         0.17359E+12
        -0.10912E+03
        -0.95299E+02
        -0.98407E+02
         0.16935E+12
         0.16537E+12
        -0.10469E+03
        -0.88286E+02
         0.18489E+12
         0.18073E+12
         0.18893E+12
        -0.89336E+02
        -0.83052E+02
        -0.80748E+02
         0.18248E+12
         0.17718E+12
        -0.94514E+02
        -0.86244E+02
         0.18038E+12
         0.17629E+12
        -0.81687E+02
        -0.72316E+02
         0.18384E+12
         0.18538E+12
        -0.89518E+02
        -0.10002E+03
         0.17301E+12
        -0.87451E+02
         0.18508E+12
        -0.10276E+03
         0.16821E+12
        -0.92351E+02
         0.16695E+12
        -0.88584E+02
         0.16697E+12
         0.17142E+12
        -0.90256E+02
        -0.87900E+02
         0.18480E+12
         0.18320E+12
        -0.90504E+02
        -0.10231E+03
         0.18580E+12
        -0.87330E+02
         0.18390E+12
        -0.95310E+02
         0.17890E+12
         0.17839E+12
        -0.91746E+02
        -0.96133E+02
         0.17726E+12
        -0.96939E+02
         0.16395E+12
        -0.76589E+02
         0.16326E+12
        -0.74341E+02
         0.16360E+12
        -0.78386E+02
         0.16553E+12
         0.16753E+12
        -0.74683E+02
        -0.77862E+02
         0.17157E+12
        -0.72518E+02
         0.18376E+12
        -0.95097E+02
         0.18186E+12
        -0.97330E+02
         0.18030E+12
         0.17944E+12
        -0.93469E+02
        -0.94559E+02
         0.18050E+12
        -0.85887E+02
         0.18125E+12
        -0.84662E+02
         0.18057E+12
        -0.90632E+02
         0.18033E+12
         0.18102E+12
        -0.88878E+02
        -0.91485E+02
         0.17656E+12
         0.17837E+12
        -0.69005E+02
        -0.64903E+02
         0.17622E+12
        -0.65891E+02
         0.17831E+12
        -0.63178E+02
         0.17625E+12
        -0.62298E+02
         0.17169E+12
        -0.58872E+02
         0.16728E+12
        -0.52301E+02
         0.16463E+12
        -0.47094E+02
         0.16437E+12
        -0.46767E+02
         0.16445E+12
        -0.50717E+02
         0.16732E+12
        -0.53302E+02
         0.17268E+12
        -0.48670E+02
         0.17856E+12
        -0.43871E+02
         0.18201E+12
        -0.43821E+02
         0.18542E+12
        -0.48981E+02
         0.18767E+12
        -0.55849E+02
         0.18759E+12
        -0.59999E+02
         0.18212E+12
        -0.64799E+02
         0.17831E+12
        -0.69422E+02
         0.17700E+12
        -0.63596E+02
         0.17904E+12
        -0.55791E+02
         0.18011E+12
        -0.55618E+02
         0.17832E+12
        -0.60853E+02
         0.17835E+12
        -0.64874E+02
         0.17969E+12
        -0.61565E+02
         0.18145E+12
        -0.59518E+02
        -0.28775E+11
        -0.29051E+11
        -0.29015E+11
        -0.28652E+11
        -0.29305E+11
        -0.28984E+11
        -0.29379E+11
        -0.29176E+11
        -0.28711E+11
        -0.29005E+11
        -0.29586E+11
        -0.29648E+11
        -0.29482E+11
        -0.29470E+11
        -0.29579E+11
        -0.28670E+11
        -0.28739E+11
        -0.28543E+11
        -0.29080E+11
        -0.28986E+11
        -0.29120E+11
        -0.29032E+11
        -0.29194E+11
        -0.29152E+11
        -0.28994E+11
        -0.29005E+11
        -0.29272E+11
        -0.29248E+11
        -0.29438E+11
        -0.29148E+11
        -0.28704E+11
        -0.29055E+11
        -0.28707E+11
        -0.28939E+11
        -0.29690E+11
        -0.29462E+11
        -0.29349E+11
        -0.29481E+11
        -0.29498E+11
        -0.29706E+11
        -0.29850E+11
        -0.29489E+11
        -0.29115E+11
        -0.29167E+11
        -0.29360E+11
        -0.29682E+11
        -0.29409E+11
        -0.29098E+11
        -0.29120E+11
        -0.29362E+11
        -0.29596E+11
        -0.29277E+11
        -0.30181E+11
        -0.29935E+11
        -0.29977E+11
        -0.29918E+11
        -0.29933E+11
        -0.30068E+11
        -0.30201E+11
        -0.30243E+11
        -0.30225E+11
        -0.30238E+11
        -0.30293E+11
        -0.29946E+11
        -0.29808E+11
        -0.29753E+11
        -0.29658E+11
        -0.29585E+11
        -0.29588E+11
        -0.29712E+11
        -0.30101E+11
        -0.30012E+11
        -0.29879E+11
        -0.29881E+11
        -0.29904E+11
        -0.30030E+11
        -0.29843E+11
        -0.29771E+11
         0.51871E+04
        -0.24242E+06
        -0.11593E+06
         0.60043E+06
         0.12526E+06
         0.64218E+06
        -0.26591E+06
        -0.10290E+07
         0.30754E+06
        -0.10521E+07
        -0.90052E+06
        -0.99630E+06
        -0.33841E+06
        -0.14101E+07
        -0.14048E+07
         0.67637E+05
         0.38422E+06
         0.50995E+06
        -0.33256E+06
         0.68296E+05
        -0.16098E+06
         0.23343E+06
        -0.37394E+06
        -0.14824E+06
        -0.99419E+06
        -0.85610E+05
        -0.18616E+07
        -0.13690E+07
        -0.71221E+06
        -0.88757E+06
        -0.24298E+05
        -0.29183E+05
         0.43101E+06
         0.74434E+06
         0.33066E+05
        -0.57520E+05
        -0.71352E+05
        -0.13291E+07
        -0.13412E+07
        -0.98248E+06
        -0.17842E+06
        -0.16655E+06
        -0.13641E+06
        -0.46960E+06
        -0.56129E+06
        -0.10057E+07
        -0.47368E+06
        -0.12642E+06
        -0.23278E+06
        -0.86599E+05
         0.23565E+06
         0.79187E+06
        -0.90987E+06
         0.37336E+06
        -0.78438E+06
        -0.27409E+05
         0.47924E+06
         0.79138E+06
         0.36619E+06
         0.61159E+06
         0.31320E+06
        -0.82206E+05
         0.34027E+06
         0.50293E+06
         0.12234E+06
         0.65357E+06
        -0.24422E+06
        -0.98921E+06
        -0.11500E+07
        -0.13572E+07
        -0.16053E+07
        -0.90559E+06
        -0.78388E+06
        -0.10748E+07
        -0.14103E+07
        -0.91380E+06
         0.45364E+05
         0.58577E+06
        -0.33620E+05
        -0.27756E+06
        -0.14998E+06
         0.57019E+06
         0.78411E+05
         0.60196E+06
        -0.30287E+06
        -0.10749E+07
         0.27082E+06
        -0.11024E+07
        -0.94211E+06
        -0.10594E+07
        -0.39215E+06
        -0.14549E+07
        -0.14686E+07
         0.28743E+05
         0.34531E+06
         0.48032E+06
        -0.37235E+06
         0.27281E+05
        -0.21489E+06
         0.18141E+06
        -0.42863E+06
        -0.18829E+06
        -0.10438E+07
        -0.12371E+06
        -0.19052E+07
        -0.14104E+07
        -0.75617E+06
        -0.93823E+06
        -0.60047E+05
        -0.65296E+05
         0.39982E+06
         0.71369E+06
        -0.20984E+05
        -0.10098E+06
        -0.11726E+06
        -0.13924E+07
        -0.13993E+07
        -0.10386E+07
        -0.24049E+06
        -0.22656E+06
        -0.19375E+06
        -0.52160E+06
        -0.60973E+06
        -0.10608E+07
        -0.52159E+06
        -0.16975E+06
        -0.27021E+06
        -0.12594E+06
         0.18576E+06
         0.74870E+06
        -0.10147E+07
         0.27097E+06
        -0.88536E+06
        -0.12393E+06
         0.37699E+06
         0.67757E+06
         0.25261E+06
         0.49692E+06
         0.19712E+06
        -0.20091E+06
         0.22223E+06
         0.39372E+06
         0.31447E+05
         0.56869E+06
        -0.33321E+06
        -0.10845E+07
        -0.12475E+07
        -0.14590E+07
        -0.17075E+07
        -0.10136E+07
        -0.88577E+06
        -0.11667E+07
        -0.15026E+07
        -0.10080E+07
        -0.49806E+05
         0.48893E+06
        -0.24545E+05
        -0.27070E+06
        -0.14289E+06
         0.57782E+06
         0.90258E+05
         0.61233E+06
        -0.29560E+06
        -0.10662E+07
         0.27649E+06
        -0.11029E+07
        -0.93413E+06
        -0.10472E+07
        -0.38183E+06
        -0.14427E+07
        -0.14539E+07
         0.21026E+05
         0.34292E+06
         0.48837E+06
        -0.38253E+06
         0.19613E+05
        -0.22407E+06
         0.17798E+06
        -0.46451E+06
        -0.21717E+06
        -0.10668E+07
        -0.15034E+06
        -0.18968E+07
        -0.14159E+07
        -0.77368E+06
        -0.97400E+06
        -0.59814E+05
        -0.73415E+05
         0.40765E+06
         0.72346E+06
        -0.67945E+04
        -0.90222E+05
        -0.10715E+06
        -0.13821E+07
        -0.13911E+07
        -0.10358E+07
        -0.24219E+06
        -0.24833E+06
        -0.22469E+06
        -0.55651E+06
        -0.61815E+06
        -0.10533E+07
        -0.51301E+06
        -0.15957E+06
        -0.25937E+06
        -0.11320E+06
         0.19989E+06
         0.76076E+06
        -0.98339E+06
         0.29895E+06
        -0.85444E+06
        -0.10002E+06
         0.39468E+06
         0.69533E+06
         0.27528E+06
         0.51967E+06
         0.21993E+06
        -0.17716E+06
         0.23625E+06
         0.39315E+06
         0.32921E+05
         0.58427E+06
        -0.32282E+06
        -0.11038E+07
        -0.12686E+07
        -0.14537E+07
        -0.16796E+07
        -0.98106E+06
        -0.85683E+06
        -0.11375E+07
        -0.14698E+07
        -0.98013E+06
        -0.27102E+05
         0.51089E+06
        -0.30083E+05
        -0.27371E+06
        -0.14585E+06
         0.57271E+06
         0.85536E+05
         0.60856E+06
        -0.29903E+06
        -0.10734E+07
         0.26558E+06
        -0.11260E+07
        -0.93876E+06
        -0.10536E+07
        -0.38608E+06
        -0.14472E+07
        -0.14625E+07
        -0.98984E+04
         0.31984E+06
         0.48310E+06
        -0.41741E+06
        -0.14874E+05
        -0.26507E+06
         0.14204E+06
        -0.54802E+06
        -0.28179E+06
        -0.11252E+07
        -0.21115E+06
        -0.19088E+07
        -0.14495E+07
        -0.82773E+06
        -0.10580E+07
        -0.77053E+05
        -0.10590E+06
         0.40247E+06
         0.71830E+06
        -0.13701E+05
        -0.94732E+05
        -0.11085E+06
        -0.13943E+07
        -0.14061E+07
        -0.10615E+07
        -0.27747E+06
        -0.31627E+06
        -0.30835E+06
        -0.63862E+06
        -0.65838E+06
        -0.10756E+07
        -0.52851E+06
        -0.16735E+06
        -0.26533E+06
        -0.12024E+06
         0.19237E+06
         0.75593E+06
        -0.99797E+06
         0.28881E+06
        -0.87055E+06
        -0.11394E+06
         0.38522E+06
         0.68461E+06
         0.25727E+06
         0.50021E+06
         0.20092E+06
        -0.20015E+06
         0.19989E+06
         0.33437E+06
        -0.22174E+05
         0.55811E+06
        -0.35218E+06
        -0.11848E+07
        -0.13546E+07
        -0.14940E+07
        -0.16988E+07
        -0.99924E+06
        -0.87077E+06
        -0.11539E+07
        -0.14870E+07
        -0.99160E+06
        -0.35737E+05
         0.50235E+06
        -0.40140E+05
        -0.27979E+06
        -0.15091E+06
         0.56746E+06
         0.80153E+05
         0.60346E+06
        -0.30419E+06
        -0.10844E+07
         0.25257E+06
        -0.11499E+07
        -0.94368E+06
        -0.10576E+07
        -0.39082E+06
        -0.14522E+07
        -0.14671E+07
        -0.30776E+05
         0.30148E+06
         0.47821E+06
        -0.44057E+06
        -0.39663E+05
        -0.29159E+06
         0.11620E+06
        -0.59936E+06
        -0.32177E+06
        -0.11680E+07
        -0.24996E+06
        -0.19193E+07
        -0.14737E+07
        -0.86483E+06
        -0.11141E+07
        -0.95037E+05
        -0.12941E+06
         0.39276E+06
         0.71117E+06
        -0.20839E+05
        -0.10046E+06
        -0.11641E+06
        -0.14035E+07
        -0.14188E+07
        -0.10811E+07
        -0.30244E+06
        -0.36191E+06
        -0.36324E+06
        -0.69101E+06
        -0.68508E+06
        -0.10903E+07
        -0.54230E+06
        -0.18004E+06
        -0.27607E+06
        -0.13088E+06
         0.18062E+06
         0.74818E+06
        -0.10111E+07
         0.27995E+06
        -0.88428E+06
        -0.12478E+06
         0.38077E+06
         0.68150E+06
         0.24963E+06
         0.48740E+06
         0.18477E+06
        -0.21438E+06
         0.17775E+06
         0.29367E+06
        -0.59736E+05
         0.53789E+06
        -0.37291E+06
        -0.12373E+07
        -0.14151E+07
        -0.15228E+07
        -0.17075E+07
        -0.10158E+07
        -0.88921E+06
        -0.11727E+07
        -0.15092E+07
        -0.10103E+07
        -0.47222E+05
         0.49382E+06
        -0.64473E+05
        -0.29138E+06
        -0.15592E+06
         0.57121E+06
         0.86118E+05
         0.61058E+06
        -0.30784E+06
        -0.11026E+07
         0.23447E+06
        -0.11812E+07
        -0.94059E+06
        -0.10433E+07
        -0.38539E+06
        -0.14494E+07
        -0.14501E+07
        -0.26832E+05
         0.29688E+06
         0.48646E+06
        -0.43649E+06
        -0.35857E+05
        -0.28434E+06
         0.12521E+06
        -0.59827E+06
        -0.32245E+06
        -0.11880E+07
        -0.25515E+06
        -0.19218E+07
        -0.14765E+07
        -0.86227E+06
        -0.11171E+07
        -0.11657E+06
        -0.14169E+06
         0.37678E+06
         0.70925E+06
        -0.14553E+05
        -0.10003E+06
        -0.11748E+06
        -0.13931E+07
        -0.14105E+07
        -0.10712E+07
        -0.29061E+06
        -0.35458E+06
        -0.35746E+06
        -0.69477E+06
        -0.68884E+06
        -0.10929E+07
        -0.55429E+06
        -0.20598E+06
        -0.30310E+06
        -0.14552E+06
         0.17676E+06
         0.75168E+06
        -0.98532E+06
         0.30645E+06
        -0.86280E+06
        -0.11029E+06
         0.39592E+06
         0.70229E+06
         0.27318E+06
         0.51003E+06
         0.21049E+06
        -0.18025E+06
         0.20759E+06
         0.31159E+06
        -0.39906E+05
         0.55849E+06
        -0.35292E+06
        -0.12215E+07
        -0.14038E+07
        -0.15114E+07
        -0.16938E+07
        -0.10061E+07
        -0.89139E+06
        -0.11858E+07
        -0.15179E+07
        -0.10058E+07
        -0.34161E+05
         0.51252E+06
        -0.10152E+06
        -0.31181E+06
        -0.16777E+06
         0.56785E+06
         0.80791E+05
         0.60979E+06
        -0.32284E+06
        -0.11367E+07
         0.20417E+06
        -0.12263E+07
        -0.95100E+06
        -0.10486E+07
        -0.39407E+06
        -0.14631E+07
        -0.14547E+07
        -0.33033E+05
         0.28171E+06
         0.48501E+06
        -0.44102E+06
        -0.41468E+05
        -0.28836E+06
         0.12263E+06
        -0.60238E+06
        -0.32720E+06
        -0.12150E+07
        -0.26474E+06
        -0.19396E+07
        -0.14890E+07
        -0.86586E+06
        -0.11247E+07
        -0.14682E+06
        -0.16196E+06
         0.35262E+06
         0.69976E+06
        -0.22929E+05
        -0.10925E+06
        -0.12835E+06
        -0.14027E+07
        -0.14200E+07
        -0.10761E+07
        -0.29299E+06
        -0.35546E+06
        -0.35806E+06
        -0.70317E+06
        -0.70384E+06
        -0.11138E+07
        -0.58178E+06
        -0.24523E+06
        -0.34192E+06
        -0.17146E+06
         0.16112E+06
         0.74638E+06
        -0.99600E+06
         0.29804E+06
        -0.86940E+06
        -0.11761E+06
         0.38525E+06
         0.68968E+06
         0.26279E+06
         0.50119E+06
         0.20139E+06
        -0.18701E+06
         0.20220E+06
         0.30496E+06
        -0.41061E+05
         0.55682E+06
        -0.35729E+06
        -0.12240E+07
        -0.14092E+07
        -0.15298E+07
        -0.17209E+07
        -0.10359E+07
        -0.92496E+06
        -0.12272E+07
        -0.15544E+07
        -0.10248E+07
        -0.44326E+05
         0.50463E+06
        -0.11235E+06
        -0.31934E+06
        -0.17273E+06
         0.56344E+06
         0.75094E+05
         0.60483E+06
        -0.33053E+06
        -0.11493E+07
         0.19493E+06
        -0.12414E+07
        -0.95862E+06
        -0.10561E+07
        -0.40261E+06
        -0.14702E+07
        -0.14621E+07
        -0.38613E+05
         0.27531E+06
         0.48123E+06
        -0.44521E+06
        -0.45821E+05
        -0.29447E+06
         0.11663E+06
        -0.60776E+06
        -0.33080E+06
        -0.12263E+07
        -0.27007E+06
        -0.19473E+07
        -0.14956E+07
        -0.87234E+06
        -0.11319E+07
        -0.15654E+06
        -0.16984E+06
         0.34453E+06
         0.69433E+06
        -0.29997E+05
        -0.11432E+06
        -0.13501E+06
        -0.14148E+07
        -0.14308E+07
        -0.10861E+07
        -0.30365E+06
        -0.36351E+06
        -0.36337E+06
        -0.71073E+06
        -0.71298E+06
        -0.11237E+07
        -0.59110E+06
        -0.25493E+06
        -0.35129E+06
        -0.18013E+06
         0.15145E+06
         0.73980E+06
        -0.10107E+07
         0.28349E+06
        -0.87942E+06
        -0.12772E+06
         0.37292E+06
         0.67900E+06
         0.25184E+06
         0.48607E+06
         0.18115E+06
        -0.20822E+06
         0.18300E+06
         0.29619E+06
        -0.47946E+05
         0.54210E+06
        -0.37270E+06
        -0.12389E+07
        -0.14286E+07
        -0.15482E+07
        -0.17364E+07
        -0.10484E+07
        -0.93526E+06
        -0.12410E+07
        -0.15727E+07
        -0.10416E+07
        -0.58450E+05
         0.49068E+06
        -0.10552E+06
        -0.31413E+06
        -0.16919E+06
         0.56433E+06
         0.80587E+05
         0.60589E+06
        -0.32560E+06
        -0.11421E+07
         0.20018E+06
        -0.12356E+07
        -0.95422E+06
        -0.10484E+07
        -0.39707E+06
        -0.14610E+07
        -0.14507E+07
        -0.31143E+05
         0.28054E+06
         0.48505E+06
        -0.43897E+06
        -0.39732E+05
        -0.28706E+06
         0.12383E+06
        -0.60000E+06
        -0.32407E+06
        -0.12229E+07
        -0.26359E+06
        -0.19367E+07
        -0.14879E+07
        -0.86630E+06
        -0.11268E+07
        -0.15048E+06
        -0.16495E+06
         0.34789E+06
         0.69587E+06
        -0.21848E+05
        -0.10886E+06
        -0.12998E+06
        -0.14072E+07
        -0.14254E+07
        -0.10809E+07
        -0.29678E+06
        -0.35570E+06
        -0.35557E+06
        -0.70427E+06
        -0.70772E+06
        -0.11177E+07
        -0.58556E+06
        -0.24805E+06
        -0.34455E+06
        -0.17450E+06
         0.15559E+06
         0.74127E+06
        -0.98867E+06
         0.30502E+06
        -0.86671E+06
        -0.12243E+06
         0.38360E+06
         0.69586E+06
         0.27064E+06
         0.49954E+06
         0.18620E+06
        -0.20035E+06
         0.19717E+06
         0.31623E+06
        -0.30418E+05
         0.55341E+06
        -0.36197E+06
        -0.12266E+07
        -0.14163E+07
        -0.15328E+07
        -0.17217E+07
        -0.10310E+07
        -0.91748E+06
        -0.12251E+07
        -0.15595E+07
        -0.10296E+07
        -0.46385E+05
         0.50378E+06
        -0.10731E+06
        -0.31449E+06
        -0.17030E+06
         0.56127E+06
         0.79145E+05
         0.60307E+06
        -0.32672E+06
        -0.11464E+07
         0.19535E+06
        -0.12428E+07
        -0.95781E+06
        -0.10529E+07
        -0.39836E+06
        -0.14641E+07
        -0.14584E+07
        -0.34557E+05
         0.27623E+06
         0.48099E+06
        -0.44252E+06
        -0.43082E+05
        -0.29040E+06
         0.11999E+06
        -0.60280E+06
        -0.32640E+06
        -0.12282E+07
        -0.26562E+06
        -0.19393E+07
        -0.14887E+07
        -0.86773E+06
        -0.11307E+07
        -0.15335E+06
        -0.16720E+06
         0.34329E+06
         0.69181E+06
        -0.24396E+05
        -0.11124E+06
        -0.13159E+06
        -0.14177E+07
        -0.14319E+07
        -0.10862E+07
        -0.30209E+06
        -0.35874E+06
        -0.36011E+06
        -0.70675E+06
        -0.71017E+06
        -0.11209E+07
        -0.59008E+06
        -0.25245E+06
        -0.34802E+06
        -0.17759E+06
         0.15181E+06
         0.73742E+06
        -0.99496E+06
         0.29993E+06
        -0.87717E+06
        -0.13119E+06
         0.38230E+06
         0.68975E+06
         0.25637E+06
         0.48367E+06
         0.17675E+06
        -0.21447E+06
         0.18178E+06
         0.30848E+06
        -0.39468E+05
         0.54840E+06
        -0.36661E+06
        -0.12310E+07
        -0.14173E+07
        -0.15360E+07
        -0.17262E+07
        -0.10427E+07
        -0.93211E+06
        -0.12364E+07
        -0.15653E+07
        -0.10322E+07
        -0.52626E+05
         0.49495E+06
        -0.11229E+06
        -0.31828E+06
        -0.17321E+06
         0.55935E+06
         0.75051E+05
         0.60114E+06
        -0.33000E+06
        -0.11520E+07
         0.19093E+06
        -0.12501E+07
        -0.96177E+06
        -0.10589E+07
        -0.40223E+06
        -0.14663E+07
        -0.14662E+07
        -0.39358E+05
         0.27272E+06
         0.47868E+06
        -0.44677E+06
        -0.45567E+05
        -0.29459E+06
         0.11609E+06
        -0.60705E+06
        -0.33010E+06
        -0.12334E+07
        -0.26973E+06
        -0.19412E+07
        -0.14904E+07
        -0.86943E+06
        -0.11339E+07
        -0.15758E+06
        -0.17105E+06
         0.34048E+06
         0.69089E+06
        -0.30626E+05
        -0.11526E+06
        -0.13522E+06
        -0.14279E+07
        -0.14391E+07
        -0.10908E+07
        -0.30524E+06
        -0.36131E+06
        -0.36426E+06
        -0.71102E+06
        -0.71421E+06
        -0.11253E+07
        -0.59432E+06
        -0.25623E+06
        -0.35133E+06
        -0.18025E+06
         0.14822E+06
         0.73566E+06
        -0.10076E+07
         0.28927E+06
        -0.88518E+06
        -0.13386E+06
         0.37876E+06
         0.67731E+06
         0.23843E+06
         0.46935E+06
         0.16696E+06
        -0.22462E+06
         0.17549E+06
         0.30083E+06
        -0.50335E+05
         0.54097E+06
        -0.37436E+06
        -0.12401E+07
        -0.14236E+07
        -0.15432E+07
        -0.17350E+07
        -0.10524E+07
        -0.94325E+06
        -0.12479E+07
        -0.15736E+07
        -0.10398E+07
        -0.62227E+05
         0.48487E+06
        -0.10907E+06
        -0.31660E+06
        -0.17200E+06
         0.56125E+06
         0.78658E+05
         0.60424E+06
        -0.32689E+06
        -0.11474E+07
         0.19310E+06
        -0.12489E+07
        -0.95768E+06
        -0.10535E+07
        -0.40052E+06
        -0.14578E+07
        -0.14557E+07
        -0.35130E+05
         0.27451E+06
         0.48249E+06
        -0.44323E+06
        -0.40661E+05
        -0.28875E+06
         0.12252E+06
        -0.60182E+06
        -0.32592E+06
        -0.12332E+07
        -0.26552E+06
        -0.19345E+07
        -0.14856E+07
        -0.86270E+06
        -0.11282E+07
        -0.15274E+06
        -0.16765E+06
         0.34464E+06
         0.69500E+06
        -0.25574E+05
        -0.11182E+06
        -0.13315E+06
        -0.14219E+07
        -0.14338E+07
        -0.10829E+07
        -0.29755E+06
        -0.35534E+06
        -0.35801E+06
        -0.70725E+06
        -0.71119E+06
        -0.11220E+07
        -0.59108E+06
        -0.25204E+06
        -0.34678E+06
        -0.17538E+06
         0.15255E+06
         0.73992E+06
        -0.99151E+06
         0.30661E+06
        -0.86897E+06
        -0.12585E+06
         0.37607E+06
         0.67825E+06
         0.25148E+06
         0.48380E+06
         0.17655E+06
        -0.20997E+06
         0.18941E+06
         0.30736E+06
        -0.38618E+05
         0.55282E+06
        -0.36351E+06
        -0.12319E+07
        -0.14182E+07
        -0.15363E+07
        -0.17283E+07
        -0.10419E+07
        -0.93101E+06
        -0.12361E+07
        -0.15635E+07
        -0.10309E+07
        -0.49148E+05
         0.50019E+06
        -0.11139E+06
        -0.31963E+06
        -0.17483E+06
         0.55782E+06
         0.74484E+05
         0.60038E+06
        -0.33096E+06
        -0.11526E+07
         0.18945E+06
        -0.12572E+07
        -0.96312E+06
        -0.10610E+07
        -0.40839E+06
        -0.14620E+07
        -0.14615E+07
        -0.38989E+05
         0.27012E+06
         0.47816E+06
        -0.44830E+06
        -0.44644E+05
        -0.29605E+06
         0.11551E+06
        -0.60904E+06
        -0.33022E+06
        -0.12410E+07
        -0.26908E+06
        -0.19411E+07
        -0.14919E+07
        -0.86750E+06
        -0.11330E+07
        -0.15667E+06
        -0.17127E+06
         0.33917E+06
         0.69130E+06
        -0.31523E+05
        -0.11649E+06
        -0.13906E+06
        -0.14330E+07
        -0.14446E+07
        -0.10916E+07
        -0.30752E+06
        -0.36417E+06
        -0.36503E+06
        -0.71549E+06
        -0.71826E+06
        -0.11282E+07
        -0.59699E+06
        -0.25804E+06
        -0.35115E+06
        -0.17843E+06
         0.14776E+06
         0.73556E+06
        -0.10040E+07
         0.29569E+06
        -0.88155E+06
        -0.14016E+06
         0.35931E+06
         0.66236E+06
         0.24182E+06
         0.47142E+06
         0.16004E+06
        -0.22628E+06
         0.16955E+06
         0.28766E+06
        -0.51609E+05
         0.53932E+06
        -0.37508E+06
        -0.12453E+07
        -0.14391E+07
        -0.15548E+07
        -0.17376E+07
        -0.10547E+07
        -0.94427E+06
        -0.12429E+07
        -0.15682E+07
        -0.10404E+07
        -0.62165E+05
         0.48728E+06
        -0.11181E+06
        -0.32058E+06
        -0.17579E+06
         0.55650E+06
         0.73711E+05
         0.59902E+06
        -0.33184E+06
        -0.11540E+07
         0.18920E+06
        -0.12596E+07
        -0.96446E+06
        -0.10619E+07
        -0.40962E+06
        -0.14606E+07
        -0.14619E+07
        -0.39648E+05
         0.26981E+06
         0.47730E+06
        -0.44929E+06
        -0.44814E+05
        -0.29788E+06
         0.11439E+06
        -0.61068E+06
        -0.33093E+06
        -0.12442E+07
        -0.26990E+06
        -0.19399E+07
        -0.14928E+07
        -0.86850E+06
        -0.11348E+07
        -0.15864E+06
        -0.17256E+06
         0.33669E+06
         0.69036E+06
        -0.32879E+05
        -0.11808E+06
        -0.14088E+06
        -0.14386E+07
        -0.14513E+07
        -0.10953E+07
        -0.30885E+06
        -0.36485E+06
        -0.36605E+06
        -0.71725E+06
        -0.71990E+06
        -0.11299E+07
        -0.59913E+06
        -0.26034E+06
        -0.35263E+06
        -0.17866E+06
         0.14688E+06
         0.73442E+06
        -0.10043E+07
         0.29587E+06
        -0.88507E+06
        -0.14568E+06
         0.35890E+06
         0.66215E+06
         0.23797E+06
         0.46109E+06
         0.14810E+06
        -0.23282E+06
         0.16891E+06
         0.28565E+06
        -0.54874E+05
         0.53404E+06
        -0.38112E+06
        -0.12497E+07
        -0.14422E+07
        -0.15574E+07
        -0.17403E+07
        -0.10593E+07
        -0.95018E+06
        -0.12467E+07
        -0.15687E+07
        -0.10414E+07
        -0.67869E+05
         0.48218E+06
        -0.10160E+06
        -0.31071E+06
        -0.16790E+06
         0.56207E+06
         0.84924E+05
         0.60663E+06
        -0.32109E+06
        -0.11430E+07
         0.19557E+06
        -0.12525E+07
        -0.95385E+06
        -0.10453E+07
        -0.39545E+06
        -0.14468E+07
        -0.14459E+07
        -0.30613E+05
         0.27709E+06
         0.48434E+06
        -0.44088E+06
        -0.34900E+05
        -0.28451E+06
         0.12718E+06
        -0.59780E+06
        -0.32202E+06
        -0.12366E+07
        -0.26089E+06
        -0.19265E+07
        -0.14797E+07
        -0.85569E+06
        -0.11236E+07
        -0.14913E+06
        -0.16343E+06
         0.34335E+06
         0.69591E+06
        -0.19431E+05
        -0.10781E+06
        -0.12972E+06
        -0.14289E+07
        -0.14397E+07
        -0.10822E+07
        -0.29583E+06
        -0.35149E+06
        -0.35435E+06
        -0.70462E+06
        -0.70743E+06
        -0.11164E+07
        -0.58804E+06
        -0.24982E+06
        -0.34378E+06
        -0.17028E+06
         0.15588E+06
         0.74191E+06
        -0.97504E+06
         0.32487E+06
        -0.86075E+06
        -0.12795E+06
         0.38048E+06
         0.68971E+06
         0.26108E+06
         0.47867E+06
         0.16763E+06
        -0.21135E+06
         0.18827E+06
         0.30826E+06
        -0.36967E+05
         0.55391E+06
        -0.35838E+06
        -0.12261E+07
        -0.14157E+07
        -0.15287E+07
        -0.17157E+07
        -0.10334E+07
        -0.92828E+06
        -0.12304E+07
        -0.15508E+07
        -0.10198E+07
        -0.44374E+05
         0.50597E+06
        -0.10588E+06
        -0.31342E+06
        -0.17053E+06
         0.55793E+06
         0.79766E+05
         0.60267E+06
        -0.32474E+06
        -0.11495E+07
         0.19054E+06
        -0.12623E+07
        -0.95920E+06
        -0.10510E+07
        -0.39892E+06
        -0.14513E+07
        -0.14539E+07
        -0.35610E+05
         0.27165E+06
         0.48082E+06
        -0.44740E+06
        -0.39836E+05
        -0.28951E+06
         0.12078E+06
        -0.60227E+06
        -0.32723E+06
        -0.12453E+07
        -0.26605E+06
        -0.19325E+07
        -0.14840E+07
        -0.85639E+06
        -0.11272E+07
        -0.15193E+06
        -0.16757E+06
         0.33945E+06
         0.69146E+06
        -0.27108E+05
        -0.11204E+06
        -0.13263E+06
        -0.14413E+07
        -0.14487E+07
        -0.10862E+07
        -0.30220E+06
        -0.35831E+06
        -0.36244E+06
        -0.71087E+06
        -0.71364E+06
        -0.11223E+07
        -0.59301E+06
        -0.25314E+06
        -0.34738E+06
        -0.17511E+06
         0.15015E+06
         0.73743E+06
        -0.99353E+06
         0.30916E+06
        -0.87525E+06
        -0.13551E+06
         0.37782E+06
         0.68268E+06
         0.24551E+06
         0.45998E+06
         0.14934E+06
        -0.22759E+06
         0.16913E+06
         0.28626E+06
        -0.52432E+05
         0.54618E+06
        -0.36197E+06
        -0.12285E+07
        -0.14235E+07
        -0.15419E+07
        -0.17254E+07
        -0.10449E+07
        -0.93893E+06
        -0.12423E+07
        -0.15636E+07
        -0.10276E+07
        -0.51704E+05
         0.49377E+06
        -0.11303E+06
        -0.32048E+06
        -0.17750E+06
         0.55252E+06
         0.71709E+05
         0.59546E+06
        -0.33070E+06
        -0.11569E+07
         0.18350E+06
        -0.12780E+07
        -0.96559E+06
        -0.10603E+07
        -0.40659E+06
        -0.14560E+07
        -0.14638E+07
        -0.41768E+05
         0.26363E+06
         0.47674E+06
        -0.45285E+06
        -0.42109E+05
        -0.29561E+06
         0.11331E+06
        -0.60766E+06
        -0.33169E+06
        -0.12588E+07
        -0.27112E+06
        -0.19459E+07
        -0.14911E+07
        -0.84142E+06
        -0.11195E+07
        -0.15719E+06
        -0.17349E+06
         0.33557E+06
         0.68831E+06
        -0.35757E+05
        -0.11895E+06
        -0.13955E+06
        -0.14594E+07
        -0.14576E+07
        -0.10741E+07
        -0.30298E+06
        -0.36572E+06
        -0.37323E+06
        -0.71760E+06
        -0.72143E+06
        -0.11316E+07
        -0.60143E+06
        -0.25915E+06
        -0.35160E+06
        -0.17888E+06
         0.14506E+06
         0.73195E+06
        -0.10058E+07
         0.29771E+06
        -0.88516E+06
        -0.14403E+06
         0.36586E+06
         0.66339E+06
         0.22353E+06
         0.43910E+06
         0.13091E+06
        -0.23184E+06
         0.13571E+06
         0.23366E+06
        -0.74167E+05
         0.53408E+06
        -0.37275E+06
        -0.12382E+07
        -0.14357E+07
        -0.15557E+07
        -0.17414E+07
        -0.10628E+07
        -0.95112E+06
        -0.12537E+07
        -0.15766E+07
        -0.10370E+07
        -0.66292E+05
         0.47745E+06
        -0.10330E+06
        -0.31141E+06
        -0.16892E+06
         0.55937E+06
         0.83640E+05
         0.60371E+06
        -0.32130E+06
        -0.11460E+07
         0.18774E+06
        -0.12825E+07
        -0.95610E+06
        -0.10478E+07
        -0.39608E+06
        -0.14429E+07
        -0.14496E+07
        -0.32630E+05
         0.26844E+06
         0.48335E+06
        -0.44305E+06
        -0.25953E+05
        -0.28454E+06
         0.12448E+06
        -0.59731E+06
        -0.32208E+06
        -0.12588E+07
        -0.26133E+06
        -0.19482E+07
        -0.14829E+07
        -0.79566E+06
        -0.10829E+07
        -0.14903E+06
        -0.16421E+06
         0.34207E+06
         0.69576E+06
        -0.21351E+05
        -0.10748E+06
        -0.12901E+06
        -0.14592E+07
        -0.14441E+07
        -0.10275E+07
        -0.27773E+06
        -0.35219E+06
        -0.36644E+06
        -0.70683E+06
        -0.70925E+06
        -0.11167E+07
        -0.58985E+06
        -0.24950E+06
        -0.34193E+06
        -0.16767E+06
         0.15705E+06
         0.74084E+06
        -0.97576E+06
         0.32717E+06
        -0.85512E+06
        -0.12291E+06
         0.37930E+06
         0.67907E+06
         0.24520E+06
         0.46106E+06
         0.15482E+06
        -0.18507E+06
         0.12486E+06
         0.19131E+06
        -0.72591E+05
         0.55054E+06
        -0.35887E+06
        -0.12267E+07
        -0.14216E+07
        -0.15317E+07
        -0.17119E+07
        -0.10352E+07
        -0.92737E+06
        -0.12292E+07
        -0.15490E+07
        -0.10112E+07
        -0.45310E+05
         0.49950E+06
        -0.13960E+06
        -0.34436E+06
        -0.20054E+06
         0.52957E+06
         0.39737E+05
         0.56550E+06
        -0.35616E+06
        -0.11895E+07
         0.15178E+06
        -0.13370E+07
        -0.99562E+06
        -0.11065E+07
        -0.44981E+06
        -0.14865E+07
        -0.15104E+07
        -0.66583E+05
         0.23236E+06
         0.45383E+06
        -0.47838E+06
        -0.58676E+05
        -0.33525E+06
         0.75321E+05
        -0.64575E+06
        -0.35547E+06
        -0.13061E+07
        -0.29282E+06
        -0.20011E+07
        -0.15228E+07
        -0.81327E+06
        -0.11091E+07
        -0.18110E+06
        -0.19697E+06
         0.31065E+06
         0.66285E+06
        -0.74044E+05
        -0.15032E+06
        -0.17601E+06
        -0.15282E+07
        -0.14977E+07
        -0.10584E+07
        -0.32800E+06
        -0.40559E+06
        -0.42026E+06
        -0.75358E+06
        -0.75733E+06
        -0.11736E+07
        -0.63648E+06
        -0.28993E+06
        -0.37905E+06
        -0.20962E+06
         0.10350E+06
         0.69672E+06
        -0.10803E+07
         0.22554E+06
        -0.96102E+06
        -0.23055E+06
         0.27186E+06
         0.57564E+06
         0.14011E+06
         0.34847E+06
         0.49040E+05
        -0.28141E+06
        -0.93844E+04
         0.45234E+05
        -0.17570E+06
         0.46501E+06
        -0.44860E+06
        -0.13202E+07
        -0.15184E+07
        -0.16399E+07
        -0.18230E+07
        -0.11416E+07
        -0.10260E+07
        -0.13235E+07
        -0.16457E+07
        -0.11103E+07
        -0.14052E+06
         0.40502E+06
        -0.11883E+06
        -0.34199E+06
        -0.19483E+06
         0.54031E+06
         0.54014E+05
         0.57749E+06
        -0.35139E+06
        -0.11648E+07
         0.17439E+06
        -0.13016E+07
        -0.98555E+06
        -0.11053E+07
        -0.46352E+06
        -0.14568E+07
        -0.14841E+07
        -0.39979E+05
         0.25497E+06
         0.46994E+06
        -0.46018E+06
        -0.38999E+05
        -0.31280E+06
         0.92143E+05
        -0.61104E+06
        -0.33027E+06
        -0.12698E+07
        -0.26918E+06
        -0.19562E+07
        -0.14771E+07
        -0.77503E+06
        -0.10720E+07
        -0.16094E+06
        -0.18222E+06
         0.31894E+06
         0.65784E+06
        -0.65995E+05
        -0.15372E+06
        -0.18938E+06
        -0.14973E+07
        -0.14612E+07
        -0.10261E+07
        -0.30570E+06
        -0.37509E+06
        -0.38820E+06
        -0.72254E+06
        -0.74041E+06
        -0.11651E+07
        -0.62984E+06
        -0.27253E+06
        -0.36614E+06
        -0.20838E+06
         0.10696E+06
         0.69745E+06
        -0.10400E+07
         0.27784E+06
        -0.94793E+06
        -0.25378E+06
         0.22355E+06
         0.54629E+06
         0.18833E+06
         0.39801E+06
         0.88280E+05
        -0.25805E+06
        -0.28973E+04
         0.65163E+05
        -0.13670E+06
         0.48424E+06
        -0.40785E+06
        -0.12620E+07
        -0.14690E+07
        -0.16019E+07
        -0.18066E+07
        -0.11435E+07
        -0.10042E+07
        -0.12923E+07
        -0.15961E+07
        -0.10497E+07
        -0.92754E+05
         0.45453E+06
         0.14276E+09
         0.13352E+09
         0.13094E+09
         0.11190E+09
         0.17204E+09
         0.15014E+09
         0.13277E+09
         0.16211E+09
         0.12778E+09
         0.16181E+09
         0.15237E+09
         0.22432E+09
         0.19639E+09
         0.17321E+09
         0.23180E+09
         0.12898E+09
         0.12215E+09
         0.10698E+09
         0.13134E+09
         0.13288E+09
         0.18117E+09
         0.18163E+09
         0.17169E+09
         0.12125E+09
         0.14960E+09
         0.11620E+09
         0.17064E+09
         0.14549E+09
         0.14631E+09
         0.15647E+09
         0.12548E+09
         0.12029E+09
         0.11242E+09
         0.11768E+09
         0.19887E+09
         0.16392E+09
         0.17168E+09
         0.21615E+09
         0.20247E+09
         0.19747E+09
         0.21198E+09
         0.19812E+09
         0.18771E+09
         0.16317E+09
         0.16745E+09
         0.20083E+09
         0.17166E+09
         0.15522E+09
         0.14451E+09
         0.15597E+09
         0.18834E+09
         0.16157E+09
         0.38200E+09
         0.37436E+09
         0.38105E+09
         0.36865E+09
         0.38031E+09
         0.39908E+09
         0.40050E+09
         0.39559E+09
         0.39857E+09
         0.41016E+09
         0.39824E+09
         0.37576E+09
         0.33238E+09
         0.31354E+09
         0.31866E+09
         0.32630E+09
         0.33044E+09
         0.36022E+09
         0.38508E+09
         0.38680E+09
         0.35424E+09
         0.34136E+09
         0.35402E+09
         0.35066E+09
         0.34889E+09
         0.34959E+09
         0.17338E+10
         0.18147E+10
         0.17881E+10
         0.16289E+10
         0.20131E+10
         0.18883E+10
         0.19640E+10
         0.19822E+10
         0.16928E+10
         0.19810E+10
         0.21589E+10
         0.24266E+10
         0.21977E+10
         0.22228E+10
         0.25120E+10
         0.16590E+10
         0.17830E+10
         0.15522E+10
         0.18425E+10
         0.19390E+10
         0.20127E+10
         0.20563E+10
         0.19309E+10
         0.17707E+10
         0.20028E+10
         0.17073E+10
         0.22147E+10
         0.21757E+10
         0.21858E+10
         0.20743E+10
         0.16764E+10
         0.17628E+10
         0.16420E+10
         0.17182E+10
         0.22068E+10
         0.20214E+10
         0.20292E+10
         0.24311E+10
         0.23670E+10
         0.23381E+10
         0.23819E+10
         0.22611E+10
         0.21381E+10
         0.18836E+10
         0.19609E+10
         0.22061E+10
         0.20372E+10
         0.19141E+10
         0.18750E+10
         0.19452E+10
         0.21157E+10
         0.19516E+10
         0.35100E+10
         0.34209E+10
         0.34921E+10
         0.33834E+10
         0.34836E+10
         0.36613E+10
         0.37194E+10
         0.37104E+10
         0.37361E+10
         0.38215E+10
         0.37123E+10
         0.34922E+10
         0.31313E+10
         0.29601E+10
         0.29692E+10
         0.30076E+10
         0.30367E+10
         0.32918E+10
         0.35244E+10
         0.35387E+10
         0.32763E+10
         0.31752E+10
         0.32801E+10
         0.32570E+10
         0.32209E+10
         0.32118E+10
  
SCALARS                      stress_zz  double 1
LOOKUP_TABLE default
         0.18367E+12
         0.18051E+12
         0.18251E+12
         0.18610E+12
        -0.21442E+03
        -0.24043E+03
        -0.23022E+03
        -0.20915E+03
         0.18040E+12
         0.18147E+12
        -0.21621E+03
        -0.20924E+03
         0.17593E+12
         0.17576E+12
        -0.25690E+03
        -0.24155E+03
         0.18558E+12
         0.17601E+12
        -0.18982E+03
        -0.21055E+03
         0.17249E+12
         0.16976E+12
         0.17410E+12
        -0.25462E+03
        -0.22236E+03
        -0.22962E+03
         0.16987E+12
         0.16588E+12
        -0.24427E+03
        -0.20600E+03
         0.18541E+12
         0.18124E+12
         0.18944E+12
        -0.20845E+03
        -0.19379E+03
        -0.18841E+03
         0.18300E+12
         0.17769E+12
        -0.22053E+03
        -0.20124E+03
         0.18090E+12
         0.17680E+12
        -0.19060E+03
        -0.16874E+03
         0.18436E+12
         0.18590E+12
        -0.20888E+03
        -0.23339E+03
         0.17352E+12
        -0.20405E+03
         0.18560E+12
        -0.23977E+03
         0.16872E+12
        -0.21549E+03
         0.16746E+12
        -0.20670E+03
         0.16748E+12
         0.17194E+12
        -0.21060E+03
        -0.20510E+03
         0.18532E+12
         0.18372E+12
        -0.21118E+03
        -0.23873E+03
         0.18632E+12
        -0.20377E+03
         0.18442E+12
        -0.22239E+03
         0.17941E+12
         0.17891E+12
        -0.21407E+03
        -0.22431E+03
         0.17778E+12
        -0.22619E+03
         0.16447E+12
        -0.17871E+03
         0.16377E+12
        -0.17346E+03
         0.16411E+12
        -0.18290E+03
         0.16604E+12
         0.16805E+12
        -0.17426E+03
        -0.18168E+03
         0.17208E+12
        -0.16921E+03
         0.18428E+12
        -0.22189E+03
         0.18238E+12
        -0.22710E+03
         0.18081E+12
         0.17996E+12
        -0.21809E+03
        -0.22064E+03
         0.18101E+12
        -0.20040E+03
         0.18176E+12
        -0.19754E+03
         0.18109E+12
        -0.21147E+03
         0.18085E+12
         0.18153E+12
        -0.20738E+03
        -0.21347E+03
         0.17708E+12
         0.17888E+12
        -0.16101E+03
        -0.15144E+03
         0.17674E+12
        -0.15374E+03
         0.17882E+12
        -0.14742E+03
         0.17676E+12
        -0.14536E+03
         0.17221E+12
        -0.13737E+03
         0.16779E+12
        -0.12204E+03
         0.16515E+12
        -0.10989E+03
         0.16488E+12
        -0.10912E+03
         0.16496E+12
        -0.11834E+03
         0.16783E+12
        -0.12437E+03
         0.17319E+12
        -0.11356E+03
         0.17908E+12
        -0.10237E+03
         0.18252E+12
        -0.10225E+03
         0.18593E+12
        -0.11429E+03
         0.18818E+12
        -0.13032E+03
         0.18810E+12
        -0.14000E+03
         0.18263E+12
        -0.15120E+03
         0.17882E+12
        -0.16199E+03
         0.17751E+12
        -0.14839E+03
         0.17955E+12
        -0.13018E+03
         0.18062E+12
        -0.12978E+03
         0.17883E+12
        -0.14199E+03
         0.17886E+12
        -0.15137E+03
         0.18021E+12
        -0.14365E+03
         0.18197E+12
        -0.13888E+03
        -0.29191E+11
        -0.29468E+11
        -0.29431E+11
        -0.29068E+11
        -0.29722E+11
        -0.29400E+11
        -0.29796E+11
        -0.29593E+11
        -0.29127E+11
        -0.29422E+11
        -0.30004E+11
        -0.30065E+11
        -0.29899E+11
        -0.29888E+11
        -0.29996E+11
        -0.29086E+11
        -0.29155E+11
        -0.28959E+11
        -0.29497E+11
        -0.29403E+11
        -0.29537E+11
        -0.29449E+11
        -0.29611E+11
        -0.29569E+11
        -0.29411E+11
        -0.29422E+11
        -0.29689E+11
        -0.29666E+11
        -0.29856E+11
        -0.29565E+11
        -0.29120E+11
        -0.29472E+11
        -0.29123E+11
        -0.29356E+11
        -0.30108E+11
        -0.29879E+11
        -0.29767E+11
        -0.29899E+11
        -0.29916E+11
        -0.30123E+11
        -0.30268E+11
        -0.29906E+11
        -0.29531E+11
        -0.29584E+11
        -0.29778E+11
        -0.30099E+11
        -0.29827E+11
        -0.29515E+11
        -0.29537E+11
        -0.29779E+11
        -0.30014E+11
        -0.29694E+11
        -0.30598E+11
        -0.30352E+11
        -0.30394E+11
        -0.30335E+11
        -0.30350E+11
        -0.30485E+11
        -0.30618E+11
        -0.30661E+11
        -0.30642E+11
        -0.30655E+11
        -0.30710E+11
        -0.30363E+11
        -0.30225E+11
        -0.30170E+11
        -0.30075E+11
        -0.30001E+11
        -0.30005E+11
        -0.30129E+11
        -0.30518E+11
        -0.30429E+11
        -0.30296E+11
        -0.30298E+11
        -0.30321E+11
        -0.30447E+11
        -0.30260E+11
        -0.30188E+11
         0.18715E+07
         0.10970E+07
         0.12734E+07
         0.17081E+07
         0.15674E+07
         0.20671E+07
        -0.21332E+06
         0.94426E+05
         0.21944E+07
        -0.30272E+05
        -0.10305E+07
         0.99379E+06
         0.12114E+07
        -0.19731E+07
         0.35004E+06
         0.10228E+07
         0.11587E+07
         0.13190E+07
         0.43096E+06
         0.30284E+06
         0.79776E+06
         0.12895E+07
         0.38403E+06
        -0.59162E+05
        -0.62655E+06
        -0.67941E+05
        -0.30271E+07
        -0.31576E+07
        -0.15160E+07
        -0.39214E+06
         0.91892E+06
         0.14605E+06
         0.15001E+07
         0.21081E+07
         0.93865E+06
         0.73897E+06
         0.10804E+07
         0.13585E+06
         0.15029E+06
         0.47150E+06
         0.10321E+07
         0.72358E+06
         0.84050E+06
         0.37261E+06
         0.40259E+06
         0.64435E+06
         0.81682E+06
         0.94328E+06
         0.12319E+07
         0.16585E+07
         0.17165E+07
         0.20629E+07
         0.29891E+06
         0.17648E+07
         0.84708E+06
         0.19772E+07
         0.28954E+07
         0.35294E+07
         0.31086E+07
         0.32880E+07
         0.29064E+07
         0.23053E+07
         0.21060E+07
         0.18759E+07
         0.13757E+07
         0.19615E+07
         0.96585E+06
         0.26222E+06
         0.38876E+06
         0.44643E+06
         0.69664E+06
         0.16762E+07
         0.16953E+07
         0.13378E+07
         0.83248E+06
         0.82669E+06
         0.14593E+07
         0.20423E+07
         0.18090E+07
         0.10218E+07
         0.11975E+07
         0.16393E+07
         0.14934E+07
         0.19909E+07
        -0.29796E+06
         0.22607E+05
         0.21177E+07
        -0.10855E+06
        -0.11267E+07
         0.91152E+06
         0.11361E+07
        -0.20619E+07
         0.26929E+06
         0.94898E+06
         0.10699E+07
         0.12493E+07
         0.33968E+06
         0.20630E+06
         0.72350E+06
         0.12160E+07
         0.30606E+06
        -0.15270E+06
        -0.72292E+06
        -0.15712E+06
        -0.31110E+07
        -0.32546E+07
        -0.16181E+07
        -0.49133E+06
         0.84388E+06
         0.61507E+05
         0.14275E+07
         0.20375E+07
         0.86062E+06
         0.66112E+06
         0.10074E+07
         0.51572E+05
         0.67534E+05
         0.38802E+06
         0.94877E+06
         0.64051E+06
         0.76142E+06
         0.29463E+06
         0.32650E+06
         0.56694E+06
         0.73807E+06
         0.86543E+06
         0.11559E+07
         0.15863E+07
         0.16436E+07
         0.19894E+07
         0.18284E+06
         0.16518E+07
         0.73627E+06
         0.18711E+07
         0.27836E+07
         0.34054E+07
         0.29845E+07
         0.31615E+07
         0.27782E+07
         0.21749E+07
         0.19761E+07
         0.17557E+07
         0.12737E+07
         0.18658E+07
         0.86652E+06
         0.15675E+06
         0.28129E+06
         0.33487E+06
         0.58422E+06
         0.15575E+07
         0.15825E+07
         0.12354E+07
         0.73038E+06
         0.72194E+06
         0.13537E+07
         0.19348E+07
         0.18238E+07
         0.10367E+07
         0.12138E+07
         0.16587E+07
         0.15127E+07
         0.20114E+07
        -0.27940E+06
         0.39480E+05
         0.21303E+07
        -0.10351E+06
        -0.11072E+07
         0.92724E+06
         0.11506E+07
        -0.20437E+07
         0.28950E+06
         0.93434E+06
         0.10664E+07
         0.12675E+07
         0.31753E+06
         0.18758E+06
         0.71125E+06
         0.12113E+07
         0.25492E+06
        -0.22021E+06
        -0.76204E+06
        -0.21961E+06
        -0.30937E+07
        -0.32677E+07
        -0.16585E+07
        -0.56018E+06
         0.84431E+06
         0.42244E+05
         0.14459E+07
         0.20612E+07
         0.88114E+06
         0.68063E+06
         0.10235E+07
         0.66832E+05
         0.82108E+05
         0.39332E+06
         0.94686E+06
         0.61044E+06
         0.71886E+06
         0.24244E+06
         0.31341E+06
         0.57757E+06
         0.75236E+06
         0.88298E+06
         0.11762E+07
         0.16083E+07
         0.16642E+07
         0.20101E+07
         0.21729E+06
         0.16827E+07
         0.77041E+06
         0.18974E+07
         0.28030E+07
         0.34246E+07
         0.30091E+07
         0.31864E+07
         0.28034E+07
         0.22009E+07
         0.19914E+07
         0.17551E+07
         0.12754E+07
         0.18834E+07
         0.87812E+06
         0.13545E+06
         0.25821E+06
         0.34087E+06
         0.61506E+06
         0.15932E+07
         0.16146E+07
         0.12680E+07
         0.76670E+06
         0.75248E+06
         0.13785E+07
         0.19588E+07
         0.18151E+07
         0.10304E+07
         0.12076E+07
         0.16485E+07
         0.15056E+07
         0.20050E+07
        -0.28573E+06
         0.30553E+05
         0.21081E+07
        -0.13607E+06
        -0.11171E+07
         0.91873E+06
         0.11447E+07
        -0.20567E+07
         0.27975E+06
         0.87572E+06
         0.10147E+07
         0.12546E+07
         0.23786E+06
         0.10623E+06
         0.65492E+06
         0.11606E+07
         0.13596E+06
        -0.37118E+06
        -0.87673E+06
        -0.36195E+06
        -0.31163E+07
        -0.33461E+07
        -0.17844E+07
        -0.72718E+06
         0.80808E+06
        -0.33912E+05
         0.14340E+07
         0.20501E+07
         0.87119E+06
         0.67271E+06
         0.10176E+07
         0.51760E+05
         0.62641E+05
         0.35582E+06
         0.89978E+06
         0.51639E+06
         0.60338E+06
         0.11944E+06
         0.25045E+06
         0.54640E+06
         0.72706E+06
         0.86852E+06
         0.11630E+07
         0.15945E+07
         0.16531E+07
         0.20019E+07
         0.20099E+06
         0.16715E+07
         0.75288E+06
         0.18821E+07
         0.27927E+07
         0.34129E+07
         0.29893E+07
         0.31648E+07
         0.27825E+07
         0.21756E+07
         0.19514E+07
         0.16904E+07
         0.12136E+07
         0.18540E+07
         0.84536E+06
         0.45792E+05
         0.16346E+06
         0.29683E+06
         0.59400E+06
         0.15732E+07
         0.15992E+07
         0.12498E+07
         0.74767E+06
         0.73944E+06
         0.13687E+07
         0.19490E+07
         0.17991E+07
         0.10175E+07
         0.11967E+07
         0.16379E+07
         0.14975E+07
         0.19960E+07
        -0.29618E+06
         0.15421E+05
         0.20816E+07
        -0.17005E+06
        -0.11277E+07
         0.91342E+06
         0.11380E+07
        -0.20708E+07
         0.27526E+06
         0.83620E+06
         0.97409E+06
         0.12426E+07
         0.18559E+06
         0.47495E+05
         0.61868E+06
         0.11241E+07
         0.62895E+05
        -0.46473E+06
        -0.95811E+06
        -0.45308E+06
        -0.31358E+07
        -0.34027E+07
        -0.18709E+07
        -0.83769E+06
         0.77028E+06
        -0.89214E+05
         0.14115E+07
         0.20344E+07
         0.86091E+06
         0.66260E+06
         0.10088E+07
         0.40701E+05
         0.46728E+05
         0.32760E+06
         0.86666E+06
         0.45324E+06
         0.52768E+06
         0.41354E+05
         0.20897E+06
         0.52585E+06
         0.70464E+06
         0.84535E+06
         0.11402E+07
         0.15741E+07
         0.16358E+07
         0.19888E+07
         0.18632E+06
         0.16617E+07
         0.73795E+06
         0.18702E+07
         0.27879E+07
         0.34094E+07
         0.29808E+07
         0.31505E+07
         0.27646E+07
         0.21599E+07
         0.19270E+07
         0.16457E+07
         0.11715E+07
         0.18312E+07
         0.82223E+06
        -0.12268E+05
         0.96975E+05
         0.26536E+06
         0.58442E+06
         0.15550E+07
         0.15788E+07
         0.12289E+07
         0.72320E+06
         0.71836E+06
         0.13557E+07
         0.19392E+07
         0.17600E+07
         0.99275E+06
         0.11859E+07
         0.16483E+07
         0.15075E+07
         0.20103E+07
        -0.30316E+06
        -0.11466E+05
         0.20445E+07
        -0.21652E+06
        -0.11194E+07
         0.93180E+06
         0.11457E+07
        -0.20702E+07
         0.29838E+06
         0.84375E+06
         0.96562E+06
         0.12613E+07
         0.19687E+06
         0.55485E+05
         0.62925E+06
         0.11369E+07
         0.64558E+05
        -0.46661E+06
        -0.99059E+06
        -0.46583E+06
        -0.31401E+07
        -0.34091E+07
        -0.18650E+07
        -0.84045E+06
         0.72506E+06
        -0.11838E+06
         0.13744E+07
         0.20309E+07
         0.87002E+06
         0.66358E+06
         0.10072E+07
         0.56162E+05
         0.61574E+05
         0.34387E+06
         0.88313E+06
         0.46344E+06
         0.53584E+06
         0.36489E+05
         0.20367E+06
         0.52246E+06
         0.68525E+06
         0.79865E+06
         0.10849E+07
         0.15464E+07
         0.16301E+07
         0.19948E+07
         0.21463E+06
         0.16910E+07
         0.76171E+06
         0.18861E+07
         0.28045E+07
         0.34319E+07
         0.30063E+07
         0.31752E+07
         0.27931E+07
         0.21974E+07
         0.19597E+07
         0.16655E+07
         0.11937E+07
         0.18545E+07
         0.84456E+06
         0.55254E+04
         0.10982E+06
         0.27806E+06
         0.59964E+06
         0.15656E+07
         0.15765E+07
         0.12143E+07
         0.71353E+06
         0.72307E+06
         0.13698E+07
         0.19596E+07
         0.17004E+07
         0.94884E+06
         0.11599E+07
         0.16423E+07
         0.14995E+07
         0.20095E+07
        -0.33681E+06
        -0.64428E+05
         0.19819E+07
        -0.28583E+06
        -0.11423E+07
         0.92478E+06
         0.11336E+07
        -0.21007E+07
         0.29377E+06
         0.83212E+06
         0.93249E+06
         0.12574E+07
         0.18812E+06
         0.41511E+05
         0.62420E+06
         0.11334E+07
         0.58836E+05
        -0.47795E+06
        -0.10382E+07
        -0.48883E+06
        -0.31737E+07
        -0.34380E+07
        -0.18734E+07
        -0.85259E+06
         0.66168E+06
        -0.16625E+06
         0.13182E+07
         0.20097E+07
         0.85797E+06
         0.64726E+06
         0.98996E+06
         0.44541E+05
         0.50396E+05
         0.33779E+06
         0.88049E+06
         0.46227E+06
         0.53518E+06
         0.24658E+05
         0.18074E+06
         0.49341E+06
         0.64052E+06
         0.72846E+06
         0.10060E+07
         0.14983E+07
         0.16071E+07
         0.19859E+07
         0.20265E+06
         0.16817E+07
         0.75462E+06
         0.18781E+07
         0.27929E+07
         0.34180E+07
         0.29948E+07
         0.31653E+07
         0.27831E+07
         0.21899E+07
         0.19538E+07
         0.16583E+07
         0.11924E+07
         0.18526E+07
         0.83970E+06
         0.28516E+04
         0.10425E+06
         0.25815E+06
         0.56985E+06
         0.15328E+07
         0.15393E+07
         0.11683E+07
         0.67322E+06
         0.70161E+06
         0.13583E+07
         0.19505E+07
         0.16832E+07
         0.93256E+06
         0.11493E+07
         0.16337E+07
         0.14908E+07
         0.20008E+07
        -0.35349E+06
        -0.82448E+05
         0.19635E+07
        -0.30554E+06
        -0.11585E+07
         0.91489E+06
         0.11217E+07
        -0.21187E+07
         0.28571E+06
         0.82169E+06
         0.91983E+06
         0.12480E+07
         0.18012E+06
         0.30498E+05
         0.61626E+06
         0.11250E+07
         0.51285E+05
        -0.48663E+06
        -0.10527E+07
        -0.50190E+06
        -0.31878E+07
        -0.34534E+07
        -0.18885E+07
        -0.86409E+06
         0.64123E+06
        -0.18529E+06
         0.12996E+07
         0.19981E+07
         0.84782E+06
         0.63841E+06
         0.97946E+06
         0.29744E+05
         0.37309E+05
         0.32399E+06
         0.86671E+06
         0.45118E+06
         0.52802E+06
         0.14097E+05
         0.16706E+06
         0.47985E+06
         0.62578E+06
         0.71106E+06
         0.98622E+06
         0.14814E+07
         0.15929E+07
         0.19747E+07
         0.18625E+06
         0.16656E+07
         0.74377E+06
         0.18669E+07
         0.27794E+07
         0.34063E+07
         0.29827E+07
         0.31485E+07
         0.27607E+07
         0.21665E+07
         0.19326E+07
         0.16487E+07
         0.11847E+07
         0.18361E+07
         0.82250E+06
        -0.13376E+05
         0.83165E+05
         0.23806E+06
         0.55287E+06
         0.15191E+07
         0.15280E+07
         0.11529E+07
         0.65290E+06
         0.68262E+06
         0.13423E+07
         0.19348E+07
         0.16944E+07
         0.94360E+06
         0.11577E+07
         0.16376E+07
         0.15000E+07
         0.20036E+07
        -0.34075E+06
        -0.68518E+05
         0.19755E+07
        -0.29058E+06
        -0.11467E+07
         0.92486E+06
         0.11296E+07
        -0.21059E+07
         0.30162E+06
         0.83595E+06
         0.93433E+06
         0.12563E+07
         0.19648E+06
         0.43837E+05
         0.62704E+06
         0.11352E+07
         0.62466E+05
        -0.47118E+06
        -0.10360E+07
        -0.48741E+06
        -0.31663E+07
        -0.34353E+07
        -0.18743E+07
        -0.85074E+06
         0.65372E+06
        -0.17453E+06
         0.13077E+07
         0.20026E+07
         0.85963E+06
         0.64846E+06
         0.98755E+06
         0.41401E+05
         0.47777E+05
         0.33320E+06
         0.87651E+06
         0.46204E+06
         0.53897E+06
         0.24618E+05
         0.17600E+06
         0.48859E+06
         0.63549E+06
         0.72324E+06
         0.99873E+06
         0.14906E+07
         0.15988E+07
         0.19773E+07
         0.21041E+06
         0.16894E+07
         0.75789E+06
         0.18728E+07
         0.27912E+07
         0.34245E+07
         0.30030E+07
         0.31631E+07
         0.27663E+07
         0.21751E+07
         0.19481E+07
         0.16709E+07
         0.12043E+07
         0.18489E+07
         0.83450E+06
         0.45349E+03
         0.97139E+05
         0.25519E+06
         0.56911E+06
         0.15382E+07
         0.15478E+07
         0.11707E+07
         0.66756E+06
         0.69563E+06
         0.13554E+07
         0.19490E+07
         0.16917E+07
         0.94266E+06
         0.11556E+07
         0.16322E+07
         0.14982E+07
         0.19989E+07
        -0.34209E+06
        -0.72993E+05
         0.19664E+07
        -0.29727E+06
        -0.11535E+07
         0.91887E+06
         0.11279E+07
        -0.21163E+07
         0.29313E+06
         0.82962E+06
         0.92660E+06
         0.12463E+07
         0.18996E+06
         0.35164E+05
         0.62295E+06
         0.11299E+07
         0.58579E+05
        -0.47686E+06
        -0.10377E+07
        -0.49279E+06
        -0.31704E+07
        -0.34370E+07
        -0.18775E+07
        -0.85546E+06
         0.64760E+06
        -0.18043E+06
         0.12972E+07
         0.19942E+07
         0.85600E+06
         0.64446E+06
         0.98508E+06
         0.28693E+05
         0.40954E+05
         0.32661E+06
         0.86992E+06
         0.45790E+06
         0.53286E+06
         0.21701E+05
         0.17283E+06
         0.48429E+06
         0.62868E+06
         0.71533E+06
         0.99073E+06
         0.14839E+07
         0.15932E+07
         0.19708E+07
         0.20327E+06
         0.16838E+07
         0.74655E+06
         0.18631E+07
         0.27898E+07
         0.34177E+07
         0.29873E+07
         0.31455E+07
         0.27559E+07
         0.21595E+07
         0.19312E+07
         0.16624E+07
         0.11942E+07
         0.18432E+07
         0.82933E+06
        -0.43258E+04
         0.96422E+05
         0.25185E+06
         0.56422E+06
         0.15252E+07
         0.15316E+07
         0.11582E+07
         0.66114E+06
         0.69242E+06
         0.13482E+07
         0.19389E+07
         0.16838E+07
         0.93434E+06
         0.11496E+07
         0.16295E+07
         0.14921E+07
         0.19959E+07
        -0.34843E+06
        -0.79855E+05
         0.19581E+07
        -0.30393E+06
        -0.11612E+07
         0.91091E+06
         0.11225E+07
        -0.21251E+07
         0.28444E+06
         0.82069E+06
         0.92075E+06
         0.12403E+07
         0.18185E+06
         0.28496E+05
         0.61766E+06
         0.11244E+07
         0.52653E+05
        -0.48575E+06
        -0.10394E+07
        -0.50300E+06
        -0.31732E+07
        -0.34409E+07
        -0.18814E+07
        -0.85861E+06
         0.63863E+06
        -0.19004E+06
         0.12909E+07
         0.19930E+07
         0.84707E+06
         0.63749E+06
         0.97941E+06
         0.16420E+05
         0.33195E+05
         0.32093E+06
         0.86625E+06
         0.45441E+06
         0.52730E+06
         0.16081E+05
         0.16716E+06
         0.47850E+06
         0.62233E+06
         0.70849E+06
         0.98307E+06
         0.14779E+07
         0.15878E+07
         0.19678E+07
         0.18910E+06
         0.16720E+07
         0.73790E+06
         0.18602E+07
         0.27860E+07
         0.34041E+07
         0.29675E+07
         0.31295E+07
         0.27451E+07
         0.21483E+07
         0.19242E+07
         0.16541E+07
         0.11820E+07
         0.18349E+07
         0.82070E+06
        -0.14239E+05
         0.89858E+05
         0.24414E+06
         0.55462E+06
         0.15146E+07
         0.15194E+07
         0.11454E+07
         0.65192E+06
         0.68362E+06
         0.13373E+07
         0.19274E+07
         0.16892E+07
         0.93781E+06
         0.11527E+07
         0.16358E+07
         0.14983E+07
         0.20026E+07
        -0.33992E+06
        -0.70030E+05
         0.19636E+07
        -0.29677E+06
        -0.11500E+07
         0.91774E+06
         0.11250E+07
        -0.21135E+07
         0.29920E+06
         0.82880E+06
         0.92730E+06
         0.12486E+07
         0.19189E+06
         0.39097E+05
         0.62628E+06
         0.11336E+07
         0.60228E+05
        -0.47623E+06
        -0.10297E+07
        -0.49379E+06
        -0.31593E+07
        -0.34293E+07
        -0.18656E+07
        -0.84415E+06
         0.64857E+06
        -0.18273E+06
         0.13009E+07
         0.20036E+07
         0.85442E+06
         0.64392E+06
         0.98278E+06
         0.25894E+05
         0.43588E+05
         0.33407E+06
         0.87714E+06
         0.46271E+06
         0.53612E+06
         0.22558E+05
         0.17259E+06
         0.48338E+06
         0.62826E+06
         0.71590E+06
         0.99121E+06
         0.14857E+07
         0.15941E+07
         0.19753E+07
         0.20674E+06
         0.16911E+07
         0.75587E+06
         0.18690E+07
         0.27830E+07
         0.34050E+07
         0.29816E+07
         0.31452E+07
         0.27558E+07
         0.21643E+07
         0.19395E+07
         0.16613E+07
         0.11951E+07
         0.18483E+07
         0.83283E+06
        -0.48830E+04
         0.96153E+05
         0.25198E+06
         0.56197E+06
         0.15261E+07
         0.15330E+07
         0.11586E+07
         0.66319E+06
         0.69316E+06
         0.13514E+07
         0.19440E+07
         0.16856E+07
         0.93115E+06
         0.11469E+07
         0.16296E+07
         0.14921E+07
         0.19959E+07
        -0.34814E+06
        -0.76189E+05
         0.19570E+07
        -0.30528E+06
        -0.11611E+07
         0.90785E+06
         0.11141E+07
        -0.21262E+07
         0.29312E+06
         0.82165E+06
         0.91942E+06
         0.12379E+07
         0.18183E+06
         0.28954E+05
         0.61670E+06
         0.11238E+07
         0.50049E+05
        -0.48650E+06
        -0.10368E+07
        -0.50273E+06
        -0.31712E+07
        -0.34439E+07
        -0.18766E+07
        -0.85069E+06
         0.64025E+06
        -0.19182E+06
         0.12883E+07
         0.19960E+07
         0.84589E+06
         0.63581E+06
         0.97347E+06
         0.12475E+05
         0.30442E+05
         0.32228E+06
         0.86429E+06
         0.45056E+06
         0.52658E+06
         0.10991E+05
         0.16218E+06
         0.47491E+06
         0.61917E+06
         0.70513E+06
         0.98142E+06
         0.14791E+07
         0.15869E+07
         0.19678E+07
         0.19274E+06
         0.16791E+07
         0.74220E+06
         0.18533E+07
         0.27647E+07
         0.33876E+07
         0.29708E+07
         0.31314E+07
         0.27375E+07
         0.21464E+07
         0.19176E+07
         0.16397E+07
         0.11805E+07
         0.18331E+07
         0.81992E+06
        -0.19542E+05
         0.73499E+05
         0.23180E+06
         0.55179E+06
         0.15120E+07
         0.15184E+07
         0.11510E+07
         0.65797E+06
         0.68232E+06
         0.13367E+07
         0.19294E+07
         0.16851E+07
         0.92896E+06
         0.11452E+07
         0.16283E+07
         0.14914E+07
         0.19941E+07
        -0.34887E+06
        -0.76206E+05
         0.19575E+07
        -0.30409E+06
        -0.11626E+07
         0.90651E+06
         0.11124E+07
        -0.21281E+07
         0.29391E+06
         0.82054E+06
         0.92109E+06
         0.12353E+07
         0.18131E+06
         0.27721E+05
         0.61469E+06
         0.11222E+07
         0.47841E+05
        -0.48839E+06
        -0.10343E+07
        -0.50527E+06
        -0.31680E+07
        -0.34458E+07
        -0.18787E+07
        -0.85118E+06
         0.63601E+06
        -0.19546E+06
         0.12828E+07
         0.19948E+07
         0.84400E+06
         0.63320E+06
         0.97065E+06
         0.63381E+04
         0.23433E+05
         0.31797E+06
         0.86306E+06
         0.44969E+06
         0.52535E+06
         0.91448E+04
         0.16029E+06
         0.47294E+06
         0.61629E+06
         0.70095E+06
         0.97739E+06
         0.14775E+07
         0.15855E+07
         0.19660E+07
         0.19228E+06
         0.16793E+07
         0.73848E+06
         0.18472E+07
         0.27643E+07
         0.33872E+07
         0.29665E+07
         0.31198E+07
         0.27244E+07
         0.21391E+07
         0.19168E+07
         0.16376E+07
         0.11769E+07
         0.18272E+07
         0.81320E+06
        -0.24211E+05
         0.70463E+05
         0.22917E+06
         0.54889E+06
         0.15069E+07
         0.15119E+07
         0.11468E+07
         0.65742E+06
         0.68081E+06
         0.13301E+07
         0.19234E+07
         0.17017E+07
         0.94996E+06
         0.11633E+07
         0.16432E+07
         0.15097E+07
         0.20094E+07
        -0.32249E+06
        -0.56072E+05
         0.19717E+07
        -0.28720E+06
        -0.11362E+07
         0.92807E+06
         0.11323E+07
        -0.21063E+07
         0.31574E+06
         0.83770E+06
         0.94049E+06
         0.12512E+07
         0.20272E+06
         0.50005E+05
         0.63374E+06
         0.11404E+07
         0.66307E+05
        -0.46783E+06
        -0.10095E+07
        -0.48485E+06
        -0.31410E+07
        -0.34151E+07
        -0.18486E+07
        -0.82559E+06
         0.65563E+06
        -0.17478E+06
         0.12987E+07
         0.20088E+07
         0.86343E+06
         0.65195E+06
         0.98849E+06
         0.20917E+05
         0.42869E+05
         0.33889E+06
         0.88112E+06
         0.46822E+06
         0.54169E+06
         0.28925E+05
         0.18057E+06
         0.49211E+06
         0.63513E+06
         0.71964E+06
         0.99417E+06
         0.14917E+07
         0.15986E+07
         0.19790E+07
         0.22443E+06
         0.17113E+07
         0.76537E+06
         0.18667E+07
         0.27880E+07
         0.34171E+07
         0.29915E+07
         0.31390E+07
         0.27460E+07
         0.21626E+07
         0.19381E+07
         0.16626E+07
         0.11970E+07
         0.18496E+07
         0.83859E+06
         0.21389E+04
         0.10005E+06
         0.26082E+06
         0.57607E+06
         0.15353E+07
         0.15362E+07
         0.11650E+07
         0.67731E+06
         0.70454E+06
         0.13558E+07
         0.19495E+07
         0.16950E+07
         0.94397E+06
         0.11578E+07
         0.16354E+07
         0.15019E+07
         0.20026E+07
        -0.32971E+06
        -0.64193E+05
         0.19623E+07
        -0.29819E+06
        -0.11470E+07
         0.92047E+06
         0.11276E+07
        -0.21197E+07
         0.30685E+06
         0.82841E+06
         0.93024E+06
         0.12424E+07
         0.18929E+06
         0.37658E+05
         0.62734E+06
         0.11314E+07
         0.60060E+05
        -0.48022E+06
        -0.10186E+07
        -0.49751E+06
        -0.31516E+07
        -0.34250E+07
        -0.18500E+07
        -0.82985E+06
         0.64966E+06
        -0.18507E+06
         0.12898E+07
         0.19994E+07
         0.85244E+06
         0.64459E+06
         0.98395E+06
         0.56624E+04
         0.32373E+05
         0.33411E+06
         0.87311E+06
         0.45885E+06
         0.53069E+06
         0.20329E+05
         0.17151E+06
         0.48415E+06
         0.62758E+06
         0.71363E+06
         0.98591E+06
         0.14818E+07
         0.15901E+07
         0.19714E+07
         0.20380E+06
         0.16939E+07
         0.74958E+06
         0.18584E+07
         0.27851E+07
         0.34093E+07
         0.29744E+07
         0.31183E+07
         0.27258E+07
         0.21447E+07
         0.19170E+07
         0.16384E+07
         0.11796E+07
         0.18410E+07
         0.83461E+06
        -0.34585E+03
         0.91833E+05
         0.24658E+06
         0.56540E+06
         0.15226E+07
         0.15245E+07
         0.11518E+07
         0.66313E+06
         0.69548E+06
         0.13474E+07
         0.19356E+07
         0.16837E+07
         0.92866E+06
         0.11428E+07
         0.16246E+07
         0.14895E+07
         0.19895E+07
        -0.34228E+06
        -0.73935E+05
         0.19487E+07
        -0.31884E+06
        -0.11602E+07
         0.90816E+06
         0.11169E+07
        -0.21333E+07
         0.29549E+06
         0.81696E+06
         0.91398E+06
         0.12323E+07
         0.17837E+06
         0.31524E+05
         0.61943E+06
         0.11209E+07
         0.52499E+05
        -0.49084E+06
        -0.10375E+07
        -0.50994E+06
        -0.31769E+07
        -0.34413E+07
        -0.18148E+07
        -0.81136E+06
         0.63858E+06
        -0.19950E+06
         0.12811E+07
         0.19931E+07
         0.84004E+06
         0.63244E+06
         0.97303E+06
        -0.17169E+05
         0.22066E+05
         0.35344E+06
         0.87261E+06
         0.44867E+06
         0.51595E+06
         0.11029E+05
         0.15996E+06
         0.47139E+06
         0.61437E+06
         0.70286E+06
         0.97639E+06
         0.14738E+07
         0.15826E+07
         0.19620E+07
         0.19002E+06
         0.16813E+07
         0.73884E+06
         0.18491E+07
         0.27721E+07
         0.33882E+07
         0.29502E+07
         0.30950E+07
         0.27055E+07
         0.21399E+07
         0.18802E+07
         0.15806E+07
         0.11552E+07
         0.18274E+07
         0.82259E+06
        -0.10994E+05
         0.78682E+05
         0.23164E+06
         0.54788E+06
         0.15029E+07
         0.15111E+07
         0.11392E+07
         0.64868E+06
         0.68472E+06
         0.13310E+07
         0.19172E+07
         0.16995E+07
         0.94796E+06
         0.11623E+07
         0.16425E+07
         0.15090E+07
         0.20061E+07
        -0.31903E+06
        -0.54118E+05
         0.19585E+07
        -0.32102E+06
        -0.11364E+07
         0.92428E+06
         0.11317E+07
        -0.21129E+07
         0.31502E+06
         0.83428E+06
         0.92769E+06
         0.12472E+07
         0.20304E+06
         0.68433E+05
         0.63528E+06
         0.11368E+07
         0.67368E+05
        -0.46866E+06
        -0.10288E+07
        -0.48770E+06
        -0.31808E+07
        -0.34220E+07
        -0.17078E+07
        -0.73509E+06
         0.65537E+06
        -0.17847E+06
         0.12966E+07
         0.20115E+07
         0.86085E+06
         0.65333E+06
         0.98988E+06
        -0.15332E+05
         0.44147E+05
         0.42413E+06
         0.90708E+06
         0.46741E+06
         0.52550E+06
         0.28020E+05
         0.17980E+06
         0.49269E+06
         0.63401E+06
         0.71997E+06
         0.99486E+06
         0.14933E+07
         0.16001E+07
         0.19775E+07
         0.22311E+06
         0.17138E+07
         0.77200E+06
         0.18723E+07
         0.27868E+07
         0.34051E+07
         0.29737E+07
         0.31191E+07
         0.27319E+07
         0.21912E+07
         0.18682E+07
         0.15341E+07
         0.11570E+07
         0.18459E+07
         0.83810E+06
         0.19683E+04
         0.94696E+05
         0.25813E+06
         0.58038E+06
         0.15332E+07
         0.15375E+07
         0.11665E+07
         0.67927E+06
         0.71309E+06
         0.13539E+07
         0.19413E+07
         0.16413E+07
         0.87714E+06
         0.10925E+07
         0.15749E+07
         0.14395E+07
         0.19333E+07
        -0.39906E+06
        -0.12219E+06
         0.18853E+07
        -0.40523E+06
        -0.12270E+07
         0.84781E+06
         0.10567E+07
        -0.22018E+07
         0.23833E+06
         0.77059E+06
         0.84602E+06
         0.11778E+07
         0.12239E+06
        -0.86940E+04
         0.56560E+06
         0.10674E+07
        -0.15099E+04
        -0.54679E+06
        -0.11171E+07
        -0.56180E+06
        -0.32829E+07
        -0.35149E+07
        -0.17486E+07
        -0.78500E+06
         0.58871E+06
        -0.25551E+06
         0.12235E+07
         0.19358E+07
         0.78504E+06
         0.57656E+06
         0.91520E+06
        -0.10659E+06
        -0.30866E+05
         0.37907E+06
         0.84011E+06
         0.39366E+06
         0.45133E+06
        -0.41406E+05
         0.10496E+06
         0.41301E+06
         0.55797E+06
         0.64787E+06
         0.91885E+06
         0.14153E+07
         0.15214E+07
         0.19014E+07
         0.10724E+06
         0.16017E+07
         0.65576E+06
         0.17539E+07
         0.26693E+07
         0.32924E+07
         0.28587E+07
         0.29948E+07
         0.26151E+07
         0.20853E+07
         0.17205E+07
         0.13733E+07
         0.10414E+07
         0.17496E+07
         0.73798E+06
        -0.10145E+06
        -0.11869E+05
         0.13967E+06
         0.45819E+06
         0.14163E+07
         0.14282E+07
         0.10614E+07
         0.57214E+06
         0.60272E+06
         0.12482E+07
         0.18363E+07
         0.16748E+07
         0.88206E+06
         0.11057E+07
         0.16018E+07
         0.14627E+07
         0.19571E+07
        -0.38657E+06
        -0.79986E+05
         0.19331E+07
        -0.34212E+06
        -0.12018E+07
         0.84928E+06
         0.10377E+07
        -0.21493E+07
         0.27344E+06
         0.82074E+06
         0.90131E+06
         0.12148E+07
         0.16667E+06
         0.36469E+05
         0.59722E+06
         0.10912E+07
         0.48036E+05
        -0.48818E+06
        -0.10335E+07
        -0.50721E+06
        -0.31953E+07
        -0.34080E+07
        -0.16590E+07
        -0.70813E+06
         0.63038E+06
        -0.22171E+06
         0.12432E+07
         0.19252E+07
         0.79671E+06
         0.57072E+06
         0.89400E+06
        -0.63505E+05
         0.24550E+05
         0.42820E+06
         0.87058E+06
         0.43580E+06
         0.49578E+06
         0.60078E+04
         0.13222E+06
         0.42528E+06
         0.56950E+06
         0.67879E+06
         0.94389E+06
         0.14164E+07
         0.15264E+07
         0.19027E+07
         0.15165E+06
         0.16594E+07
         0.67030E+06
         0.17284E+07
         0.26165E+07
         0.32604E+07
         0.29112E+07
         0.30492E+07
         0.26584E+07
         0.21109E+07
         0.17276E+07
         0.13954E+07
         0.10851E+07
         0.17713E+07
         0.78347E+06
        -0.36743E+05
         0.43106E+05
         0.18151E+06
         0.47630E+06
         0.14142E+07
         0.14524E+07
         0.10963E+07
         0.62712E+06
         0.66965E+06
         0.13008E+07
         0.18909E+07
         0.22686E+09
         0.26614E+09
         0.26772E+09
         0.26145E+09
         0.26920E+09
         0.27374E+09
         0.31024E+09
         0.25753E+09
         0.24893E+09
         0.25930E+09
         0.33454E+09
         0.29216E+09
         0.27308E+09
         0.31178E+09
         0.29737E+09
         0.23366E+09
         0.28532E+09
         0.24973E+09
         0.28722E+09
         0.31019E+09
         0.24977E+09
         0.25501E+09
         0.24300E+09
         0.28321E+09
         0.28506E+09
         0.27126E+09
         0.30840E+09
         0.33951E+09
         0.34155E+09
         0.29224E+09
         0.24547E+09
         0.28087E+09
         0.26282E+09
         0.27499E+09
         0.28319E+09
         0.28228E+09
         0.26789E+09
         0.28963E+09
         0.29023E+09
         0.29063E+09
         0.28352E+09
         0.27192E+09
         0.25798E+09
         0.24266E+09
         0.25895E+09
         0.28093E+09
         0.27557E+09
         0.26664E+09
         0.27447E+09
         0.27438E+09
         0.27343E+09
         0.27026E+09
         0.42345E+09
         0.41412E+09
         0.42011E+09
         0.40703E+09
         0.41814E+09
         0.43667E+09
         0.43968E+09
         0.43825E+09
         0.44246E+09
         0.45252E+09
         0.43941E+09
         0.41465E+09
         0.37346E+09
         0.35420E+09
         0.35648E+09
         0.36266E+09
         0.36633E+09
         0.39655E+09
         0.42584E+09
         0.42698E+09
         0.39475E+09
         0.38227E+09
         0.39407E+09
         0.39082E+09
         0.38736E+09
         0.38841E+09
         0.20269E+10
         0.21278E+10
         0.21016E+10
         0.19441E+10
         0.23170E+10
         0.22002E+10
         0.22868E+10
         0.22851E+10
         0.20016E+10
         0.22849E+10
         0.24827E+10
         0.27101E+10
         0.24894E+10
         0.25421E+10
         0.27932E+10
         0.19623E+10
         0.21016E+10
         0.18702E+10
         0.21597E+10
         0.22627E+10
         0.22947E+10
         0.23439E+10
         0.22154E+10
         0.20898E+10
         0.23188E+10
         0.20284E+10
         0.25338E+10
         0.25039E+10
         0.25126E+10
         0.23913E+10
         0.19849E+10
         0.20825E+10
         0.19578E+10
         0.20364E+10
         0.25050E+10
         0.23336E+10
         0.23330E+10
         0.27216E+10
         0.26690E+10
         0.26432E+10
         0.26702E+10
         0.25511E+10
         0.24232E+10
         0.21751E+10
         0.22615E+10
         0.25008E+10
         0.23446E+10
         0.22229E+10
         0.21883E+10
         0.22565E+10
         0.24134E+10
         0.22598E+10
         0.37423E+10
         0.36466E+10
         0.37147E+10
         0.36023E+10
         0.36994E+10
         0.38756E+10
         0.39399E+10
         0.39436E+10
         0.39736E+10
         0.40547E+10
         0.39429E+10
         0.37153E+10
         0.33615E+10
         0.31882E+10
         0.31874E+10
         0.32201E+10
         0.32466E+10
         0.35031E+10
         0.37513E+10
         0.37628E+10
         0.35013E+10
         0.34015E+10
         0.35041E+10
         0.34828E+10
         0.34415E+10
         0.34335E+10
  
SCALARS                      stress_yz  double 1
LOOKUP_TABLE default
         0.32423E+06
        -0.10785E+06
        -0.28021E+06
        -0.14412E+06
        -0.47390E+01
        -0.13062E+01
        -0.58731E+01
        -0.44796E+01
        -0.10502E+07
         0.69077E+06
        -0.87403E+01
        -0.76948E+01
        -0.92126E+06
        -0.46845E+05
         0.62550E+01
        -0.40103E+00
         0.31677E+06
         0.11805E+07
         0.92027E-01
         0.94161E+00
        -0.61257E+06
        -0.23057E+07
        -0.23971E+07
         0.14339E+02
         0.24763E+02
         0.20698E+02
        -0.22727E+06
        -0.23375E+07
         0.10314E+02
         0.20009E+02
         0.36201E+06
         0.31554E+06
        -0.26803E+06
         0.53470E+01
         0.54584E+01
        -0.11332E+00
         0.10758E+07
         0.10367E+07
         0.98395E+01
         0.76555E+01
         0.10576E+07
         0.67315E+06
         0.74361E+01
         0.67956E+01
         0.95914E+06
         0.33068E+06
        -0.24667E+00
         0.38155E+01
         0.89049E+06
         0.17964E+01
         0.87772E+05
        -0.14550E+00
         0.52460E+05
         0.69488E+01
        -0.34767E+06
         0.40423E+01
        -0.11339E+07
         0.20135E+06
         0.10966E+00
        -0.22258E+00
         0.43901E+06
         0.16018E+07
        -0.14941E+01
        -0.55888E+01
         0.26510E+06
        -0.30160E+01
         0.11381E+07
        -0.36742E+01
        -0.92428E+06
        -0.48958E+06
        -0.45406E+00
         0.59951E+01
        -0.17118E+07
         0.13165E+02
        -0.29671E+07
         0.12746E+02
        -0.29943E+07
         0.96759E+01
        -0.24666E+07
         0.81101E+01
        -0.36177E+07
        -0.27767E+07
         0.52027E+01
        -0.11535E+01
        -0.38835E+06
        -0.12907E+00
         0.14989E+07
        -0.80855E+01
         0.35426E+07
        -0.14155E+02
         0.49503E+07
         0.30685E+07
        -0.20994E+02
        -0.16993E+02
         0.21581E+07
        -0.13191E+02
         0.19364E+07
        -0.13495E+02
         0.18844E+07
        -0.14510E+02
         0.31357E+07
         0.26059E+07
        -0.13494E+02
        -0.64655E+01
        -0.21034E+07
         0.79621E+06
         0.47446E+01
        -0.58960E+01
        -0.51711E+07
         0.15784E+02
        -0.74028E+07
         0.23088E+02
        -0.90633E+07
         0.28514E+02
        -0.10629E+08
         0.28284E+02
        -0.12512E+08
         0.22383E+02
        -0.12789E+08
         0.17322E+02
        -0.12043E+08
         0.16111E+02
        -0.10716E+08
         0.15328E+02
        -0.78155E+07
         0.97958E+01
        -0.52785E+07
         0.32342E+01
        -0.26482E+07
         0.20898E+01
         0.19050E+06
         0.31411E+01
         0.25270E+07
         0.16223E+01
         0.45335E+07
        -0.49063E+01
         0.70160E+07
        -0.13849E+02
         0.78939E+07
        -0.21625E+02
         0.86343E+07
        -0.28350E+02
         0.11030E+08
        -0.28325E+02
         0.11426E+08
        -0.24727E+02
         0.10558E+08
        -0.24099E+02
         0.85872E+07
        -0.24249E+02
         0.58382E+07
        -0.19175E+02
         0.41352E+07
        -0.11339E+02
         0.29738E+07
        -0.87675E+01
        -0.28489E+07
        -0.14733E+07
        -0.12862E+07
        -0.39953E+06
        -0.13170E+07
        -0.14013E+07
        -0.14762E+06
        -0.22699E+07
        -0.19492E+07
        -0.28583E+07
         0.14907E+07
         0.63580E+07
         0.43462E+07
         0.50412E+06
         0.64243E+07
         0.75473E+06
        -0.66861E+06
         0.43059E+06
         0.56157E+06
        -0.42457E+06
         0.38973E+06
         0.32141E+06
        -0.10795E+07
         0.91001E+05
        -0.19515E+07
         0.28851E+06
         0.14929E+05
         0.26103E+06
         0.31657E+06
        -0.15293E+07
         0.73666E+06
        -0.79855E+06
         0.53572E+06
        -0.13042E+06
         0.21477E+06
         0.11652E+07
         0.26140E+07
         0.56477E+07
         0.51602E+07
         0.43566E+07
         0.40995E+07
         0.10199E+07
        -0.83555E+06
        -0.22914E+07
        -0.37833E+07
        -0.61708E+07
        -0.40541E+07
        -0.29110E+07
        -0.31056E+07
        -0.32961E+07
        -0.38622E+07
        -0.17675E+07
         0.33147E+07
        -0.39891E+07
         0.10801E+08
         0.14927E+08
         0.19026E+08
         0.22577E+08
         0.22686E+08
         0.20535E+08
         0.19542E+08
         0.18468E+08
         0.11928E+08
         0.52455E+07
         0.23098E+07
         0.10186E+07
        -0.15605E+07
        -0.61704E+07
        -0.11340E+08
        -0.14790E+08
        -0.17872E+08
        -0.20499E+08
        -0.19322E+08
        -0.18266E+08
        -0.16992E+08
        -0.11811E+08
        -0.69045E+07
        -0.60640E+07
        -0.16317E+09
        -0.16716E+09
        -0.16360E+09
        -0.40840E+08
        -0.11936E+09
        -0.76205E+08
        -0.79757E+08
        -0.15667E+09
        -0.16037E+09
        -0.15588E+09
         0.13865E+09
         0.17772E+09
         0.13611E+09
         0.37633E+08
         0.16773E+09
         0.83809E+08
        -0.33905E+08
         0.32369E+08
         0.14590E+09
         0.28207E+08
         0.46596E+08
         0.35119E+08
        -0.20872E+08
         0.43689E+08
        -0.15936E+09
         0.43680E+08
         0.85354E+07
         0.20376E+08
        -0.32548E+08
        -0.14706E+09
         0.10500E+09
         0.31761E+08
         0.77934E+08
         0.67668E+08
        -0.13523E+08
         0.66960E+08
         0.10010E+09
         0.15412E+09
         0.17375E+09
         0.16381E+09
         0.86630E+08
        -0.23461E+08
        -0.48026E+08
        -0.76271E+08
        -0.10926E+09
        -0.16625E+09
        -0.14396E+09
        -0.11104E+09
        -0.16772E+09
        -0.16896E+09
        -0.10999E+09
        -0.11769E+08
         0.34960E+08
        -0.48942E+08
         0.10939E+09
         0.14230E+09
         0.17328E+09
         0.19490E+09
         0.19821E+09
         0.19264E+09
         0.18901E+09
         0.17579E+09
         0.11243E+09
         0.37523E+08
         0.17788E+08
         0.15964E+08
        -0.67851E+07
        -0.54060E+08
        -0.10470E+09
        -0.13448E+09
        -0.18133E+09
        -0.19623E+09
        -0.18960E+09
        -0.18794E+09
        -0.17669E+09
        -0.12701E+09
        -0.64278E+08
        -0.61334E+08
        -0.16316E+09
        -0.16716E+09
        -0.16360E+09
        -0.41140E+08
        -0.11942E+09
        -0.76307E+08
        -0.79858E+08
        -0.15679E+09
        -0.16040E+09
        -0.15603E+09
         0.13873E+09
         0.17771E+09
         0.13609E+09
         0.37718E+08
         0.16778E+09
         0.83750E+08
        -0.34213E+08
         0.32321E+08
         0.14600E+09
         0.28050E+08
         0.46708E+08
         0.35155E+08
        -0.20878E+08
         0.43668E+08
        -0.15942E+09
         0.43601E+08
         0.86332E+07
         0.20490E+08
        -0.32333E+08
        -0.14713E+09
         0.10492E+09
         0.31692E+08
         0.78106E+08
         0.67779E+08
        -0.13391E+08
         0.67021E+08
         0.10012E+09
         0.15413E+09
         0.17376E+09
         0.16379E+09
         0.86643E+08
        -0.23386E+08
        -0.48070E+08
        -0.76311E+08
        -0.10929E+09
        -0.16626E+09
        -0.14398E+09
        -0.11098E+09
        -0.16772E+09
        -0.16896E+09
        -0.11000E+09
        -0.11608E+08
         0.34939E+08
        -0.48955E+08
         0.10941E+09
         0.14230E+09
         0.17328E+09
         0.19490E+09
         0.19821E+09
         0.19263E+09
         0.18901E+09
         0.17579E+09
         0.11243E+09
         0.37539E+08
         0.17788E+08
         0.15997E+08
        -0.67291E+07
        -0.54077E+08
        -0.10472E+09
        -0.13449E+09
        -0.18133E+09
        -0.19623E+09
        -0.18961E+09
        -0.18794E+09
        -0.17670E+09
        -0.12699E+09
        -0.64240E+08
        -0.61283E+08
        -0.16315E+09
        -0.16715E+09
        -0.16359E+09
        -0.41443E+08
        -0.11949E+09
        -0.76410E+08
        -0.79958E+08
        -0.15691E+09
        -0.16042E+09
        -0.15617E+09
         0.13881E+09
         0.17770E+09
         0.13607E+09
         0.37799E+08
         0.16784E+09
         0.83690E+08
        -0.34525E+08
         0.32272E+08
         0.14610E+09
         0.27890E+08
         0.46820E+08
         0.35190E+08
        -0.20887E+08
         0.43642E+08
        -0.15949E+09
         0.43510E+08
         0.87380E+07
         0.20611E+08
        -0.32099E+08
        -0.14719E+09
         0.10484E+09
         0.31608E+08
         0.78280E+08
         0.67888E+08
        -0.13258E+08
         0.67084E+08
         0.10013E+09
         0.15415E+09
         0.17377E+09
         0.16377E+09
         0.86658E+08
        -0.23305E+08
        -0.48110E+08
        -0.76358E+08
        -0.10932E+09
        -0.16627E+09
        -0.14399E+09
        -0.11091E+09
        -0.16773E+09
        -0.16895E+09
        -0.11001E+09
        -0.11447E+08
         0.34918E+08
        -0.48969E+08
         0.10943E+09
         0.14230E+09
         0.17329E+09
         0.19489E+09
         0.19820E+09
         0.19262E+09
         0.18902E+09
         0.17579E+09
         0.11242E+09
         0.37557E+08
         0.17788E+08
         0.16031E+08
        -0.66728E+07
        -0.54094E+08
        -0.10475E+09
        -0.13449E+09
        -0.18134E+09
        -0.19623E+09
        -0.18961E+09
        -0.18794E+09
        -0.17671E+09
        -0.12698E+09
        -0.64202E+08
        -0.61232E+08
        -0.16313E+09
        -0.16714E+09
        -0.16358E+09
        -0.41747E+08
        -0.11955E+09
        -0.76513E+08
        -0.80063E+08
        -0.15703E+09
        -0.16044E+09
        -0.15632E+09
         0.13890E+09
         0.17769E+09
         0.13606E+09
         0.37885E+08
         0.16789E+09
         0.83625E+08
        -0.34842E+08
         0.32221E+08
         0.14621E+09
         0.27720E+08
         0.46933E+08
         0.35221E+08
        -0.20905E+08
         0.43599E+08
        -0.15954E+09
         0.43391E+08
         0.88467E+07
         0.20772E+08
        -0.31808E+08
        -0.14724E+09
         0.10474E+09
         0.31494E+08
         0.78452E+08
         0.67998E+08
        -0.13125E+08
         0.67145E+08
         0.10015E+09
         0.15416E+09
         0.17378E+09
         0.16374E+09
         0.86681E+08
        -0.23205E+08
        -0.48139E+08
        -0.76425E+08
        -0.10936E+09
        -0.16628E+09
        -0.14400E+09
        -0.11085E+09
        -0.16773E+09
        -0.16894E+09
        -0.11002E+09
        -0.11286E+08
         0.34897E+08
        -0.48982E+08
         0.10945E+09
         0.14230E+09
         0.17329E+09
         0.19488E+09
         0.19819E+09
         0.19260E+09
         0.18902E+09
         0.17579E+09
         0.11242E+09
         0.37577E+08
         0.17790E+08
         0.16064E+08
        -0.66160E+07
        -0.54112E+08
        -0.10478E+09
        -0.13450E+09
        -0.18134E+09
        -0.19623E+09
        -0.18962E+09
        -0.18795E+09
        -0.17672E+09
        -0.12697E+09
        -0.64165E+08
        -0.61181E+08
        -0.16312E+09
        -0.16714E+09
        -0.16358E+09
        -0.42049E+08
        -0.11962E+09
        -0.76616E+08
        -0.80162E+08
        -0.15715E+09
        -0.16047E+09
        -0.15647E+09
         0.13898E+09
         0.17768E+09
         0.13604E+09
         0.37972E+08
         0.16794E+09
         0.83557E+08
        -0.35164E+08
         0.32171E+08
         0.14632E+09
         0.27541E+08
         0.47047E+08
         0.35248E+08
        -0.20931E+08
         0.43538E+08
        -0.15958E+09
         0.43241E+08
         0.89681E+07
         0.20968E+08
        -0.31459E+08
        -0.14729E+09
         0.10464E+09
         0.31346E+08
         0.78623E+08
         0.68108E+08
        -0.12992E+08
         0.67207E+08
         0.10017E+09
         0.15418E+09
         0.17379E+09
         0.16372E+09
         0.86711E+08
        -0.23084E+08
        -0.48158E+08
        -0.76512E+08
        -0.10942E+09
        -0.16630E+09
        -0.14402E+09
        -0.11080E+09
        -0.16774E+09
        -0.16894E+09
        -0.11003E+09
        -0.11123E+08
         0.34876E+08
        -0.48996E+08
         0.10947E+09
         0.14230E+09
         0.17330E+09
         0.19488E+09
         0.19818E+09
         0.19259E+09
         0.18903E+09
         0.17579E+09
         0.11242E+09
         0.37601E+08
         0.17792E+08
         0.16096E+08
        -0.65590E+07
        -0.54130E+08
        -0.10481E+09
        -0.13451E+09
        -0.18135E+09
        -0.19622E+09
        -0.18963E+09
        -0.18795E+09
        -0.17673E+09
        -0.12695E+09
        -0.64128E+08
        -0.61130E+08
        -0.16310E+09
        -0.16713E+09
        -0.16357E+09
        -0.42356E+08
        -0.11968E+09
        -0.76719E+08
        -0.80250E+08
        -0.15727E+09
        -0.16050E+09
        -0.15662E+09
         0.13908E+09
         0.17767E+09
         0.13603E+09
         0.38064E+08
         0.16799E+09
         0.83488E+08
        -0.35493E+08
         0.32122E+08
         0.14643E+09
         0.27359E+08
         0.47160E+08
         0.35273E+08
        -0.20961E+08
         0.43470E+08
        -0.15961E+09
         0.43082E+08
         0.90989E+07
         0.21185E+08
        -0.31085E+08
        -0.14733E+09
         0.10453E+09
         0.31180E+08
         0.78798E+08
         0.68224E+08
        -0.12858E+08
         0.67270E+08
         0.10018E+09
         0.15419E+09
         0.17380E+09
         0.16371E+09
         0.86743E+08
        -0.22956E+08
        -0.48172E+08
        -0.76606E+08
        -0.10948E+09
        -0.16631E+09
        -0.14404E+09
        -0.11074E+09
        -0.16774E+09
        -0.16893E+09
        -0.11004E+09
        -0.10960E+08
         0.34854E+08
        -0.49009E+08
         0.10949E+09
         0.14231E+09
         0.17330E+09
         0.19487E+09
         0.19817E+09
         0.19258E+09
         0.18903E+09
         0.17579E+09
         0.11241E+09
         0.37626E+08
         0.17795E+08
         0.16128E+08
        -0.65021E+07
        -0.54149E+08
        -0.10484E+09
        -0.13452E+09
        -0.18136E+09
        -0.19622E+09
        -0.18963E+09
        -0.18795E+09
        -0.17674E+09
        -0.12694E+09
        -0.64090E+08
        -0.61079E+08
        -0.16309E+09
        -0.16712E+09
        -0.16357E+09
        -0.42670E+08
        -0.11975E+09
        -0.76822E+08
        -0.80319E+08
        -0.15738E+09
        -0.16053E+09
        -0.15675E+09
         0.13919E+09
         0.17766E+09
         0.13601E+09
         0.38179E+08
         0.16805E+09
         0.83423E+08
        -0.35830E+08
         0.32072E+08
         0.14654E+09
         0.27176E+08
         0.47274E+08
         0.35299E+08
        -0.20990E+08
         0.43405E+08
        -0.15966E+09
         0.42921E+08
         0.92530E+07
         0.21416E+08
        -0.30705E+08
        -0.14736E+09
         0.10443E+09
         0.31003E+08
         0.78979E+08
         0.68344E+08
        -0.12723E+08
         0.67334E+08
         0.10020E+09
         0.15421E+09
         0.17381E+09
         0.16369E+09
         0.86776E+08
        -0.22826E+08
        -0.48184E+08
        -0.76698E+08
        -0.10955E+09
        -0.16632E+09
        -0.14407E+09
        -0.11071E+09
        -0.16775E+09
        -0.16893E+09
        -0.11004E+09
        -0.10794E+08
         0.34833E+08
        -0.49022E+08
         0.10951E+09
         0.14231E+09
         0.17331E+09
         0.19487E+09
         0.19816E+09
         0.19257E+09
         0.18904E+09
         0.17579E+09
         0.11241E+09
         0.37652E+08
         0.17798E+08
         0.16160E+08
        -0.64451E+07
        -0.54168E+08
        -0.10488E+09
        -0.13454E+09
        -0.18136E+09
        -0.19622E+09
        -0.18964E+09
        -0.18796E+09
        -0.17675E+09
        -0.12692E+09
        -0.64052E+08
        -0.61027E+08
        -0.16308E+09
        -0.16711E+09
        -0.16357E+09
        -0.42988E+08
        -0.11981E+09
        -0.76926E+08
        -0.80373E+08
        -0.15749E+09
        -0.16055E+09
        -0.15689E+09
         0.13931E+09
         0.17765E+09
         0.13600E+09
         0.38298E+08
         0.16810E+09
         0.83360E+08
        -0.36171E+08
         0.32021E+08
         0.14666E+09
         0.26994E+08
         0.47388E+08
         0.35325E+08
        -0.21020E+08
         0.43341E+08
        -0.15970E+09
         0.42761E+08
         0.94131E+07
         0.21652E+08
        -0.30323E+08
        -0.14740E+09
         0.10432E+09
         0.30818E+08
         0.79163E+08
         0.68470E+08
        -0.12587E+08
         0.67399E+08
         0.10022E+09
         0.15423E+09
         0.17382E+09
         0.16367E+09
         0.86809E+08
        -0.22695E+08
        -0.48196E+08
        -0.76790E+08
        -0.10962E+09
        -0.16633E+09
        -0.14410E+09
        -0.11069E+09
        -0.16776E+09
        -0.16892E+09
        -0.11005E+09
        -0.10627E+08
         0.34812E+08
        -0.49035E+08
         0.10953E+09
         0.14231E+09
         0.17331E+09
         0.19486E+09
         0.19816E+09
         0.19256E+09
         0.18904E+09
         0.17579E+09
         0.11241E+09
         0.37677E+08
         0.17801E+08
         0.16192E+08
        -0.63880E+07
        -0.54187E+08
        -0.10491E+09
        -0.13455E+09
        -0.18137E+09
        -0.19622E+09
        -0.18964E+09
        -0.18796E+09
        -0.17676E+09
        -0.12690E+09
        -0.64015E+08
        -0.60976E+08
        -0.16306E+09
        -0.16710E+09
        -0.16356E+09
        -0.43306E+08
        -0.11987E+09
        -0.77029E+08
        -0.80428E+08
        -0.15760E+09
        -0.16058E+09
        -0.15702E+09
         0.13943E+09
         0.17764E+09
         0.13599E+09
         0.38423E+08
         0.16815E+09
         0.83298E+08
        -0.36514E+08
         0.31970E+08
         0.14677E+09
         0.26809E+08
         0.47501E+08
         0.35352E+08
        -0.21049E+08
         0.43278E+08
        -0.15974E+09
         0.42602E+08
         0.95771E+07
         0.21886E+08
        -0.29942E+08
        -0.14743E+09
         0.10422E+09
         0.30636E+08
         0.79347E+08
         0.68594E+08
        -0.12451E+08
         0.67462E+08
         0.10024E+09
         0.15425E+09
         0.17383E+09
         0.16365E+09
         0.86843E+08
        -0.22566E+08
        -0.48207E+08
        -0.76882E+08
        -0.10968E+09
        -0.16635E+09
        -0.14413E+09
        -0.11066E+09
        -0.16777E+09
        -0.16891E+09
        -0.11005E+09
        -0.10459E+08
         0.34790E+08
        -0.49048E+08
         0.10955E+09
         0.14231E+09
         0.17332E+09
         0.19485E+09
         0.19815E+09
         0.19255E+09
         0.18904E+09
         0.17579E+09
         0.11241E+09
         0.37703E+08
         0.17805E+08
         0.16225E+08
        -0.63311E+07
        -0.54205E+08
        -0.10494E+09
        -0.13456E+09
        -0.18138E+09
        -0.19622E+09
        -0.18965E+09
        -0.18797E+09
        -0.17677E+09
        -0.12689E+09
        -0.63977E+08
        -0.60925E+08
        -0.16305E+09
        -0.16709E+09
        -0.16356E+09
        -0.43623E+08
        -0.11994E+09
        -0.77132E+08
        -0.80482E+08
        -0.15771E+09
        -0.16061E+09
        -0.15715E+09
         0.13956E+09
         0.17763E+09
         0.13598E+09
         0.38542E+08
         0.16821E+09
         0.83235E+08
        -0.36858E+08
         0.31919E+08
         0.14688E+09
         0.26624E+08
         0.47614E+08
         0.35378E+08
        -0.21077E+08
         0.43215E+08
        -0.15978E+09
         0.42443E+08
         0.97364E+07
         0.22118E+08
        -0.29563E+08
        -0.14746E+09
         0.10412E+09
         0.30452E+08
         0.79528E+08
         0.68718E+08
        -0.12315E+08
         0.67527E+08
         0.10026E+09
         0.15426E+09
         0.17384E+09
         0.16363E+09
         0.86876E+08
        -0.22437E+08
        -0.48220E+08
        -0.76972E+08
        -0.10974E+09
        -0.16636E+09
        -0.14416E+09
        -0.11064E+09
        -0.16778E+09
        -0.16890E+09
        -0.11006E+09
        -0.10291E+08
         0.34769E+08
        -0.49061E+08
         0.10957E+09
         0.14231E+09
         0.17332E+09
         0.19485E+09
         0.19814E+09
         0.19254E+09
         0.18905E+09
         0.17578E+09
         0.11241E+09
         0.37728E+08
         0.17809E+08
         0.16258E+08
        -0.62743E+07
        -0.54224E+08
        -0.10498E+09
        -0.13457E+09
        -0.18138E+09
        -0.19621E+09
        -0.18966E+09
        -0.18797E+09
        -0.17678E+09
        -0.12687E+09
        -0.63940E+08
        -0.60873E+08
        -0.16304E+09
        -0.16708E+09
        -0.16356E+09
        -0.43939E+08
        -0.12000E+09
        -0.77234E+08
        -0.80542E+08
        -0.15782E+09
        -0.16063E+09
        -0.15728E+09
         0.13968E+09
         0.17762E+09
         0.13597E+09
         0.38665E+08
         0.16826E+09
         0.83173E+08
        -0.37203E+08
         0.31868E+08
         0.14699E+09
         0.26438E+08
         0.47728E+08
         0.35403E+08
        -0.21106E+08
         0.43153E+08
        -0.15983E+09
         0.42284E+08
         0.98984E+07
         0.22347E+08
        -0.29184E+08
        -0.14750E+09
         0.10401E+09
         0.30270E+08
         0.79711E+08
         0.68843E+08
        -0.12178E+08
         0.67591E+08
         0.10028E+09
         0.15428E+09
         0.17385E+09
         0.16361E+09
         0.86908E+08
        -0.22308E+08
        -0.48232E+08
        -0.77063E+08
        -0.10981E+09
        -0.16637E+09
        -0.14420E+09
        -0.11062E+09
        -0.16779E+09
        -0.16889E+09
        -0.11006E+09
        -0.10122E+08
         0.34747E+08
        -0.49074E+08
         0.10959E+09
         0.14231E+09
         0.17333E+09
         0.19484E+09
         0.19813E+09
         0.19253E+09
         0.18905E+09
         0.17578E+09
         0.11241E+09
         0.37753E+08
         0.17812E+08
         0.16291E+08
        -0.62174E+07
        -0.54243E+08
        -0.10501E+09
        -0.13458E+09
        -0.18139E+09
        -0.19621E+09
        -0.18966E+09
        -0.18797E+09
        -0.17679E+09
        -0.12686E+09
        -0.63903E+08
        -0.60822E+08
        -0.16303E+09
        -0.16707E+09
        -0.16356E+09
        -0.44259E+08
        -0.12006E+09
        -0.77337E+08
        -0.80596E+08
        -0.15793E+09
        -0.16066E+09
        -0.15740E+09
         0.13981E+09
         0.17761E+09
         0.13595E+09
         0.38789E+08
         0.16831E+09
         0.83111E+08
        -0.37548E+08
         0.31816E+08
         0.14710E+09
         0.26253E+08
         0.47841E+08
         0.35428E+08
        -0.21135E+08
         0.43091E+08
        -0.15987E+09
         0.42127E+08
         0.10057E+08
         0.22574E+08
        -0.28804E+08
        -0.14753E+09
         0.10391E+09
         0.30086E+08
         0.79893E+08
         0.68969E+08
        -0.12041E+08
         0.67655E+08
         0.10030E+09
         0.15430E+09
         0.17386E+09
         0.16359E+09
         0.86941E+08
        -0.22180E+08
        -0.48243E+08
        -0.77154E+08
        -0.10987E+09
        -0.16639E+09
        -0.14423E+09
        -0.11060E+09
        -0.16780E+09
        -0.16889E+09
        -0.11007E+09
        -0.99534E+07
         0.34726E+08
        -0.49087E+08
         0.10961E+09
         0.14231E+09
         0.17333E+09
         0.19483E+09
         0.19812E+09
         0.19251E+09
         0.18906E+09
         0.17578E+09
         0.11240E+09
         0.37778E+08
         0.17815E+08
         0.16323E+08
        -0.61602E+07
        -0.54262E+08
        -0.10505E+09
        -0.13459E+09
        -0.18139E+09
        -0.19621E+09
        -0.18967E+09
        -0.18798E+09
        -0.17680E+09
        -0.12684E+09
        -0.63866E+08
        -0.60770E+08
        -0.16301E+09
        -0.16706E+09
        -0.16356E+09
        -0.44579E+08
        -0.12013E+09
        -0.77441E+08
        -0.80650E+08
        -0.15804E+09
        -0.16069E+09
        -0.15753E+09
         0.13993E+09
         0.17760E+09
         0.13594E+09
         0.38908E+08
         0.16837E+09
         0.83049E+08
        -0.37894E+08
         0.31763E+08
         0.14722E+09
         0.26069E+08
         0.47955E+08
         0.35453E+08
        -0.21164E+08
         0.43030E+08
        -0.15991E+09
         0.41968E+08
         0.10220E+08
         0.22798E+08
        -0.28426E+08
        -0.14756E+09
         0.10381E+09
         0.29901E+08
         0.80073E+08
         0.69094E+08
        -0.11904E+08
         0.67720E+08
         0.10032E+09
         0.15432E+09
         0.17387E+09
         0.16357E+09
         0.86974E+08
        -0.22052E+08
        -0.48255E+08
        -0.77244E+08
        -0.10994E+09
        -0.16640E+09
        -0.14426E+09
        -0.11058E+09
        -0.16781E+09
        -0.16888E+09
        -0.11007E+09
        -0.97844E+07
         0.34704E+08
        -0.49100E+08
         0.10963E+09
         0.14231E+09
         0.17334E+09
         0.19483E+09
         0.19811E+09
         0.19250E+09
         0.18906E+09
         0.17578E+09
         0.11240E+09
         0.37803E+08
         0.17819E+08
         0.16356E+08
        -0.61032E+07
        -0.54280E+08
        -0.10508E+09
        -0.13461E+09
        -0.18140E+09
        -0.19621E+09
        -0.18968E+09
        -0.18798E+09
        -0.17681E+09
        -0.12683E+09
        -0.63829E+08
        -0.60719E+08
        -0.16300E+09
        -0.16704E+09
        -0.16356E+09
        -0.44898E+08
        -0.12019E+09
        -0.77544E+08
        -0.80711E+08
        -0.15815E+09
        -0.16072E+09
        -0.15766E+09
         0.14006E+09
         0.17759E+09
         0.13593E+09
         0.39033E+08
         0.16842E+09
         0.82987E+08
        -0.38241E+08
         0.31711E+08
         0.14733E+09
         0.25885E+08
         0.48068E+08
         0.35478E+08
        -0.21193E+08
         0.42968E+08
        -0.15995E+09
         0.41809E+08
         0.10378E+08
         0.23020E+08
        -0.28049E+08
        -0.14759E+09
         0.10371E+09
         0.29718E+08
         0.80255E+08
         0.69220E+08
        -0.11767E+08
         0.67784E+08
         0.10034E+09
         0.15434E+09
         0.17388E+09
         0.16355E+09
         0.87007E+08
        -0.21923E+08
        -0.48266E+08
        -0.77335E+08
        -0.11000E+09
        -0.16641E+09
        -0.14429E+09
        -0.11055E+09
        -0.16782E+09
        -0.16887E+09
        -0.11008E+09
        -0.96159E+07
         0.34682E+08
        -0.49113E+08
         0.10965E+09
         0.14231E+09
         0.17334E+09
         0.19482E+09
         0.19810E+09
         0.19249E+09
         0.18906E+09
         0.17578E+09
         0.11240E+09
         0.37828E+08
         0.17822E+08
         0.16389E+08
        -0.60465E+07
        -0.54299E+08
        -0.10511E+09
        -0.13462E+09
        -0.18141E+09
        -0.19621E+09
        -0.18968E+09
        -0.18798E+09
        -0.17682E+09
        -0.12681E+09
        -0.63792E+08
        -0.60667E+08
        -0.16299E+09
        -0.16703E+09
        -0.16356E+09
        -0.45217E+08
        -0.12025E+09
        -0.77647E+08
        -0.80766E+08
        -0.15826E+09
        -0.16074E+09
        -0.15778E+09
         0.14018E+09
         0.17758E+09
         0.13592E+09
         0.39152E+08
         0.16847E+09
         0.82926E+08
        -0.38590E+08
         0.31660E+08
         0.14744E+09
         0.25700E+08
         0.48181E+08
         0.35503E+08
        -0.21221E+08
         0.42909E+08
        -0.16000E+09
         0.41650E+08
         0.10540E+08
         0.23238E+08
        -0.27674E+08
        -0.14763E+09
         0.10360E+09
         0.29534E+08
         0.80437E+08
         0.69345E+08
        -0.11630E+08
         0.67848E+08
         0.10036E+09
         0.15436E+09
         0.17388E+09
         0.16353E+09
         0.87040E+08
        -0.21795E+08
        -0.48278E+08
        -0.77425E+08
        -0.11007E+09
        -0.16642E+09
        -0.14433E+09
        -0.11053E+09
        -0.16783E+09
        -0.16886E+09
        -0.11008E+09
        -0.94460E+07
         0.34661E+08
        -0.49125E+08
         0.10967E+09
         0.14231E+09
         0.17335E+09
         0.19482E+09
         0.19810E+09
         0.19248E+09
         0.18907E+09
         0.17578E+09
         0.11240E+09
         0.37853E+08
         0.17825E+08
         0.16421E+08
        -0.59896E+07
        -0.54317E+08
        -0.10515E+09
        -0.13463E+09
        -0.18141E+09
        -0.19621E+09
        -0.18969E+09
        -0.18799E+09
        -0.17682E+09
        -0.12680E+09
        -0.63755E+08
        -0.60615E+08
        -0.16297E+09
        -0.16702E+09
        -0.16355E+09
        -0.45536E+08
        -0.12031E+09
        -0.77749E+08
        -0.80823E+08
        -0.15837E+09
        -0.16077E+09
        -0.15791E+09
         0.14031E+09
         0.17757E+09
         0.13591E+09
         0.39276E+08
         0.16852E+09
         0.82864E+08
        -0.38940E+08
         0.31608E+08
         0.14755E+09
         0.25515E+08
         0.48295E+08
         0.35527E+08
        -0.21250E+08
         0.42849E+08
        -0.16004E+09
         0.41491E+08
         0.10696E+08
         0.23453E+08
        -0.27300E+08
        -0.14766E+09
         0.10350E+09
         0.29351E+08
         0.80617E+08
         0.69472E+08
        -0.11491E+08
         0.67911E+08
         0.10038E+09
         0.15438E+09
         0.17389E+09
         0.16351E+09
         0.87073E+08
        -0.21668E+08
        -0.48291E+08
        -0.77515E+08
        -0.11013E+09
        -0.16644E+09
        -0.14436E+09
        -0.11051E+09
        -0.16784E+09
        -0.16885E+09
        -0.11008E+09
        -0.92754E+07
         0.34639E+08
        -0.49138E+08
         0.10969E+09
         0.14231E+09
         0.17335E+09
         0.19481E+09
         0.19809E+09
         0.19247E+09
         0.18907E+09
         0.17578E+09
         0.11240E+09
         0.37878E+08
         0.17828E+08
         0.16454E+08
        -0.59327E+07
        -0.54336E+08
        -0.10518E+09
        -0.13464E+09
        -0.18142E+09
        -0.19620E+09
        -0.18970E+09
        -0.18799E+09
        -0.17683E+09
        -0.12678E+09
        -0.63719E+08
        -0.60563E+08
        -0.16296E+09
        -0.16701E+09
        -0.16355E+09
        -0.45855E+08
        -0.12038E+09
        -0.77852E+08
        -0.80882E+08
        -0.15847E+09
        -0.16080E+09
        -0.15803E+09
         0.14043E+09
         0.17756E+09
         0.13589E+09
         0.39396E+08
         0.16858E+09
         0.82803E+08
        -0.39293E+08
         0.31555E+08
         0.14766E+09
         0.25333E+08
         0.48408E+08
         0.35550E+08
        -0.21278E+08
         0.42790E+08
        -0.16008E+09
         0.41331E+08
         0.10858E+08
         0.23666E+08
        -0.26925E+08
        -0.14769E+09
         0.10340E+09
         0.29166E+08
         0.80798E+08
         0.69599E+08
        -0.11353E+08
         0.67975E+08
         0.10040E+09
         0.15440E+09
         0.17390E+09
         0.16349E+09
         0.87106E+08
        -0.21542E+08
        -0.48303E+08
        -0.77605E+08
        -0.11020E+09
        -0.16645E+09
        -0.14439E+09
        -0.11049E+09
        -0.16785E+09
        -0.16885E+09
        -0.11009E+09
        -0.91056E+07
         0.34617E+08
        -0.49150E+08
         0.10971E+09
         0.14231E+09
         0.17336E+09
         0.19480E+09
         0.19808E+09
         0.19246E+09
         0.18908E+09
         0.17578E+09
         0.11240E+09
         0.37903E+08
         0.17831E+08
         0.16486E+08
        -0.58761E+07
        -0.54354E+08
        -0.10521E+09
        -0.13465E+09
        -0.18142E+09
        -0.19620E+09
        -0.18970E+09
        -0.18800E+09
        -0.17684E+09
        -0.12676E+09
        -0.63683E+08
        -0.60511E+08
        -0.16295E+09
        -0.16700E+09
        -0.16355E+09
        -0.46176E+08
        -0.12044E+09
        -0.77955E+08
        -0.80939E+08
        -0.15858E+09
        -0.16083E+09
        -0.15816E+09
         0.14056E+09
         0.17755E+09
         0.13588E+09
         0.39520E+08
         0.16863E+09
         0.82741E+08
        -0.39649E+08
         0.31501E+08
         0.14777E+09
         0.25158E+08
         0.48520E+08
         0.35572E+08
        -0.21307E+08
         0.42729E+08
        -0.16013E+09
         0.41173E+08
         0.11018E+08
         0.23877E+08
        -0.26552E+08
        -0.14772E+09
         0.10330E+09
         0.28980E+08
         0.80977E+08
         0.69726E+08
        -0.11215E+08
         0.68040E+08
         0.10042E+09
         0.15442E+09
         0.17391E+09
         0.16347E+09
         0.87142E+08
        -0.21415E+08
        -0.48318E+08
        -0.77694E+08
        -0.11027E+09
        -0.16646E+09
        -0.14442E+09
        -0.11046E+09
        -0.16786E+09
        -0.16884E+09
        -0.11009E+09
        -0.89354E+07
         0.34595E+08
        -0.49163E+08
         0.10973E+09
         0.14231E+09
         0.17336E+09
         0.19480E+09
         0.19807E+09
         0.19245E+09
         0.18908E+09
         0.17577E+09
         0.11240E+09
         0.37927E+08
         0.17832E+08
         0.16518E+08
        -0.58196E+07
        -0.54372E+08
        -0.10525E+09
        -0.13467E+09
        -0.18143E+09
        -0.19620E+09
        -0.18971E+09
        -0.18800E+09
        -0.17685E+09
        -0.12675E+09
        -0.63647E+08
        -0.60459E+08
        -0.16294E+09
        -0.16699E+09
        -0.16355E+09
        -0.46496E+08
        -0.12050E+09
        -0.78057E+08
        -0.80995E+08
        -0.15868E+09
        -0.16086E+09
        -0.15829E+09
         0.14068E+09
         0.17754E+09
         0.13587E+09
         0.39646E+08
         0.16868E+09
         0.82680E+08
        -0.40011E+08
         0.31448E+08
         0.14789E+09
         0.24991E+08
         0.48633E+08
         0.35595E+08
        -0.21335E+08
         0.42671E+08
        -0.16018E+09
         0.41013E+08
         0.11187E+08
         0.24086E+08
        -0.26179E+08
        -0.14774E+09
         0.10319E+09
         0.28796E+08
         0.81156E+08
         0.69852E+08
        -0.11075E+08
         0.68103E+08
         0.10043E+09
         0.15445E+09
         0.17392E+09
         0.16344E+09
         0.87179E+08
        -0.21290E+08
        -0.48335E+08
        -0.77784E+08
        -0.11033E+09
        -0.16647E+09
        -0.14446E+09
        -0.11044E+09
        -0.16787E+09
        -0.16883E+09
        -0.11010E+09
        -0.87634E+07
         0.34573E+08
        -0.49175E+08
         0.10975E+09
         0.14231E+09
         0.17337E+09
         0.19479E+09
         0.19806E+09
         0.19243E+09
         0.18909E+09
         0.17577E+09
         0.11240E+09
         0.37951E+08
         0.17831E+08
         0.16550E+08
        -0.57628E+07
        -0.54390E+08
        -0.10528E+09
        -0.13468E+09
        -0.18144E+09
        -0.19620E+09
        -0.18972E+09
        -0.18800E+09
        -0.17686E+09
        -0.12673E+09
        -0.63611E+08
        -0.60407E+08
        -0.16292E+09
        -0.16697E+09
        -0.16355E+09
        -0.46816E+08
        -0.12057E+09
        -0.78159E+08
        -0.81057E+08
        -0.15879E+09
        -0.16089E+09
        -0.15841E+09
         0.14081E+09
         0.17753E+09
         0.13586E+09
         0.39767E+08
         0.16873E+09
         0.82620E+08
        -0.40375E+08
         0.31395E+08
         0.14800E+09
         0.24829E+08
         0.48747E+08
         0.35617E+08
        -0.21362E+08
         0.42616E+08
        -0.16023E+09
         0.40859E+08
         0.11350E+08
         0.24286E+08
        -0.25812E+08
        -0.14777E+09
         0.10309E+09
         0.28615E+08
         0.81336E+08
         0.69981E+08
        -0.10938E+08
         0.68165E+08
         0.10045E+09
         0.15448E+09
         0.17393E+09
         0.16342E+09
         0.87216E+08
        -0.21168E+08
        -0.48355E+08
        -0.77871E+08
        -0.11039E+09
        -0.16649E+09
        -0.14449E+09
        -0.11042E+09
        -0.16788E+09
        -0.16882E+09
        -0.11010E+09
        -0.85919E+07
         0.34551E+08
        -0.49188E+08
         0.10977E+09
         0.14231E+09
         0.17337E+09
         0.19478E+09
         0.19805E+09
         0.19242E+09
         0.18909E+09
         0.17577E+09
         0.11240E+09
         0.37974E+08
         0.17829E+08
         0.16582E+08
        -0.57060E+07
        -0.54408E+08
        -0.10531E+09
        -0.13469E+09
        -0.18144E+09
        -0.19620E+09
        -0.18972E+09
        -0.18801E+09
        -0.17687E+09
        -0.12672E+09
        -0.63576E+08
        -0.60356E+08
        -0.15678E+09
        -0.14967E+09
        -0.14536E+09
        -0.47263E+08
        -0.11451E+09
        -0.71366E+08
        -0.81357E+08
        -0.15110E+09
        -0.14722E+09
        -0.15039E+09
         0.13036E+09
         0.17366E+09
         0.13184E+09
         0.35405E+08
         0.16539E+09
         0.77444E+08
        -0.40834E+08
         0.31437E+08
         0.13615E+09
         0.24753E+08
         0.47696E+08
         0.34660E+08
        -0.20817E+08
         0.42712E+08
        -0.14305E+09
         0.40875E+08
         0.10223E+08
         0.24504E+08
        -0.25582E+08
        -0.13189E+09
         0.94369E+08
         0.28571E+08
         0.81750E+08
         0.70312E+08
        -0.10416E+08
         0.62792E+08
         0.95448E+08
         0.15042E+09
         0.16710E+09
         0.15603E+09
         0.85041E+08
        -0.20493E+08
        -0.47182E+08
        -0.75351E+08
        -0.10549E+09
        -0.16114E+09
        -0.13601E+09
        -0.10268E+09
        -0.15140E+09
        -0.15545E+09
        -0.10597E+09
        -0.78663E+07
         0.34292E+08
        -0.48907E+08
         0.10916E+09
         0.14154E+09
         0.17250E+09
         0.19383E+09
         0.19698E+09
         0.19114E+09
         0.18775E+09
         0.17462E+09
         0.11169E+09
         0.37769E+08
         0.17702E+08
         0.16500E+08
        -0.56203E+07
        -0.54142E+08
        -0.10483E+09
        -0.13405E+09
        -0.18035E+09
        -0.19506E+09
        -0.18858E+09
        -0.18683E+09
        -0.17582E+09
        -0.12592E+09
        -0.63179E+08
        -0.59955E+08
        -0.77095E+08
        -0.49299E+08
        -0.46523E+08
        -0.13955E+08
        -0.50241E+08
        -0.25189E+08
        -0.20500E+08
        -0.67144E+08
        -0.52661E+08
        -0.65632E+08
         0.32093E+08
         0.10308E+09
         0.70627E+08
         0.11268E+08
         0.10072E+09
         0.31309E+08
        -0.11155E+08
         0.97226E+07
         0.38533E+08
         0.62384E+07
         0.27524E+08
         0.19042E+08
        -0.11596E+08
         0.11652E+08
        -0.46431E+08
         0.11702E+08
         0.32927E+07
         0.57050E+07
        -0.58773E+07
        -0.42807E+08
         0.33796E+08
         0.78617E+07
         0.23938E+08
         0.19842E+08
        -0.50835E+07
         0.23055E+08
         0.42110E+08
         0.83885E+08
         0.80932E+08
         0.71781E+08
         0.48173E+08
        -0.11245E+08
        -0.26844E+08
        -0.38623E+08
        -0.48400E+08
        -0.83534E+08
        -0.56250E+08
        -0.39667E+08
        -0.50923E+08
        -0.57170E+08
        -0.52098E+08
        -0.30685E+07
         0.27290E+08
        -0.39683E+08
         0.89473E+08
         0.11709E+09
         0.14421E+09
         0.16325E+09
         0.16355E+09
         0.15305E+09
         0.14835E+09
         0.14000E+09
         0.89954E+08
         0.30946E+08
         0.14101E+08
         0.13201E+08
        -0.45924E+07
        -0.45218E+08
        -0.88240E+08
        -0.11290E+09
        -0.14629E+09
        -0.15960E+09
        -0.15326E+09
        -0.15098E+09
        -0.14327E+09
        -0.10194E+09
        -0.51823E+08
        -0.49002E+08
  
SCALARS                      stress_xz  double 1
LOOKUP_TABLE default
         0.53503E+05
        -0.37732E+06
        -0.12456E+07
         0.85576E+05
        -0.49051E+01
         0.17392E+01
         0.58156E+01
         0.11615E+01
        -0.35049E+07
        -0.23417E+07
         0.17395E+02
         0.15668E+02
         0.14943E+06
        -0.60975E+06
        -0.21454E+01
        -0.10050E+02
        -0.12512E+06
        -0.58515E+06
        -0.72595E+01
        -0.10812E+02
        -0.85751E+06
        -0.14448E+07
        -0.13683E+07
        -0.72196E+01
        -0.33291E+01
         0.58162E+01
        -0.15262E+07
        -0.12392E+07
        -0.13514E+02
        -0.10720E+02
         0.29275E+06
        -0.65028E+06
         0.62238E+05
         0.13759E+01
        -0.53171E+01
        -0.32757E+01
         0.86855E+06
         0.41861E+06
        -0.78941E+01
        -0.84052E+01
         0.17311E+07
         0.24527E+07
        -0.17807E+02
        -0.13132E+02
         0.18522E+07
         0.98645E+06
        -0.19555E+02
        -0.94123E+01
        -0.53161E+06
        -0.59081E+01
         0.12662E+07
        -0.16446E+01
        -0.55451E+06
        -0.11545E+02
         0.41422E+06
        -0.30538E+01
         0.18123E+07
         0.49721E+06
        -0.26160E+01
        -0.63233E+01
        -0.31260E+05
         0.86236E+06
         0.52323E+01
         0.35880E+01
        -0.22397E+06
        -0.52630E+00
        -0.74972E+06
         0.34618E+01
        -0.49322E+07
        -0.33798E+07
         0.21637E+02
         0.15693E+02
        -0.21737E+07
         0.11426E+02
         0.51222E+06
        -0.79043E+01
         0.16029E+07
        -0.15513E+01
         0.33981E+07
        -0.24068E+01
         0.44962E+07
         0.31929E+07
        -0.88204E+01
        -0.10088E+02
         0.28205E+07
        -0.10849E+02
         0.22462E+07
        -0.15619E+02
         0.13988E+07
        -0.99624E+01
         0.22019E+07
         0.16194E+07
        -0.42518E+01
         0.58308E+01
        -0.37020E+06
         0.68394E+01
        -0.10162E+07
         0.28718E+01
        -0.24399E+07
         0.70916E+01
        -0.36068E+07
        -0.24754E+07
         0.16351E+02
         0.17063E+02
        -0.88332E+07
        -0.97810E+07
         0.30214E+02
         0.29775E+02
        -0.87485E+07
         0.25812E+02
        -0.79735E+07
         0.19289E+02
        -0.57203E+07
         0.10600E+02
        -0.41560E+07
         0.11335E+01
        -0.15420E+07
        -0.40373E+01
         0.19865E+07
        -0.32301E+01
         0.47407E+07
        -0.31748E+01
         0.70440E+07
        -0.71593E+01
         0.94756E+07
        -0.13621E+02
         0.11515E+08
        -0.16254E+02
         0.12242E+08
        -0.15336E+02
         0.11661E+08
        -0.16677E+02
         0.10687E+08
        -0.21644E+02
         0.96118E+07
        -0.25522E+02
         0.84774E+07
        -0.23726E+02
         0.67410E+07
        -0.19282E+02
         0.39551E+07
        -0.91027E+01
         0.33905E+06
         0.17382E+01
        -0.22118E+07
         0.42201E+01
        -0.34619E+07
         0.69007E+01
        -0.52065E+07
         0.13505E+02
        -0.68646E+07
         0.22161E+02
        -0.90227E+07
         0.26625E+02
        -0.10366E+08
         0.27233E+02
        -0.88224E+06
         0.45927E+06
         0.53881E+06
        -0.10851E+07
         0.41990E+07
         0.32489E+07
         0.49037E+06
        -0.72044E+06
        -0.37178E+06
        -0.66142E+06
         0.36286E+06
         0.15710E+07
         0.32820E+07
        -0.10499E+07
        -0.12629E+07
         0.14441E+07
         0.12118E+07
        -0.56194E+06
        -0.87397E+06
        -0.94020E+06
        -0.51391E+07
        -0.54720E+07
        -0.49417E+07
        -0.15359E+07
         0.61587E+06
        -0.45894E+06
        -0.14741E+07
        -0.16529E+06
        -0.16910E+07
        -0.11630E+07
         0.12893E+07
         0.25297E+06
        -0.60753E+06
        -0.19642E+06
         0.62076E+07
         0.39562E+07
         0.35808E+07
        -0.25062E+07
        -0.14276E+07
        -0.30530E+07
        -0.62807E+07
        -0.58569E+07
        -0.57850E+07
        -0.42523E+07
        -0.30497E+07
        -0.23849E+07
         0.44807E+06
         0.18721E+07
         0.54137E+06
         0.17158E+07
         0.45819E+07
         0.38608E+07
         0.18109E+08
         0.19020E+08
         0.16999E+08
         0.14463E+08
         0.10768E+08
         0.54833E+07
        -0.32525E+06
        -0.39047E+07
        -0.59497E+07
        -0.10214E+08
        -0.16647E+08
        -0.20274E+08
        -0.18578E+08
        -0.17820E+08
        -0.18827E+08
        -0.18824E+08
        -0.17100E+08
        -0.14969E+08
        -0.75777E+07
         0.11980E+07
         0.46060E+07
         0.51346E+07
         0.86943E+07
         0.13881E+08
         0.18013E+08
         0.18935E+08
        -0.55407E+08
         0.18474E+08
        -0.37198E+08
        -0.11399E+09
         0.12479E+09
         0.15139E+09
         0.58216E+08
        -0.71407E+08
        -0.51216E+08
        -0.71816E+08
        -0.24408E+08
         0.26375E+08
         0.11216E+09
        -0.16550E+09
        -0.66021E+08
         0.14743E+09
         0.10956E+09
        -0.65622E+08
        -0.44162E+08
        -0.77556E+08
        -0.17051E+09
        -0.17250E+09
        -0.17451E+09
        -0.10467E+09
         0.53651E+08
         0.40031E+08
        -0.16905E+09
         0.28826E+08
        -0.72655E+08
        -0.82712E+08
         0.13167E+09
         0.97841E+08
        -0.98067E+08
        -0.84637E+08
         0.17478E+09
         0.15668E+09
         0.14073E+09
        -0.88518E+08
        -0.18947E+08
        -0.58767E+08
        -0.15542E+09
        -0.17522E+09
        -0.17021E+09
        -0.15647E+09
        -0.13406E+09
        -0.58425E+08
         0.93967E+08
         0.12938E+09
        -0.20555E+08
         0.21120E+08
         0.13601E+09
         0.17086E+09
         0.19265E+09
         0.19000E+09
         0.16381E+09
         0.13601E+09
         0.95745E+08
         0.41334E+08
        -0.10655E+08
        -0.38421E+08
        -0.51819E+08
        -0.89291E+08
        -0.16154E+09
        -0.19296E+09
        -0.19251E+09
        -0.19182E+09
        -0.19394E+09
        -0.18759E+09
        -0.16553E+09
        -0.14450E+09
        -0.76276E+08
         0.19348E+08
         0.47085E+08
         0.50014E+08
         0.83851E+08
         0.14821E+09
         0.18482E+09
         0.18567E+09
        -0.55473E+08
         0.18539E+08
        -0.37248E+08
        -0.11406E+09
         0.12473E+09
         0.15133E+09
         0.58586E+08
        -0.71161E+08
        -0.51188E+08
        -0.71560E+08
        -0.23914E+08
         0.26440E+08
         0.11219E+09
        -0.16546E+09
        -0.65922E+08
         0.14747E+09
         0.10980E+09
        -0.65441E+08
        -0.44140E+08
        -0.77419E+08
        -0.17048E+09
        -0.17250E+09
        -0.17450E+09
        -0.10468E+09
         0.53551E+08
         0.40098E+08
        -0.16905E+09
         0.28284E+08
        -0.73166E+08
        -0.82626E+08
         0.13174E+09
         0.97828E+08
        -0.97659E+08
        -0.84675E+08
         0.17479E+09
         0.15666E+09
         0.14071E+09
        -0.88532E+08
        -0.19088E+08
        -0.58876E+08
        -0.15542E+09
        -0.17523E+09
        -0.17020E+09
        -0.15645E+09
        -0.13403E+09
        -0.58398E+08
         0.93948E+08
         0.12944E+09
        -0.20433E+08
         0.21075E+08
         0.13599E+09
         0.17085E+09
         0.19264E+09
         0.18999E+09
         0.16379E+09
         0.13601E+09
         0.95729E+08
         0.41334E+08
        -0.10671E+08
        -0.38454E+08
        -0.51788E+08
        -0.89281E+08
        -0.16154E+09
        -0.19296E+09
        -0.19251E+09
        -0.19182E+09
        -0.19394E+09
        -0.18759E+09
        -0.16552E+09
        -0.14450E+09
        -0.76259E+08
         0.19358E+08
         0.47056E+08
         0.49997E+08
         0.83815E+08
         0.14821E+09
         0.18483E+09
         0.18567E+09
        -0.55538E+08
         0.18602E+08
        -0.37297E+08
        -0.11414E+09
         0.12466E+09
         0.15128E+09
         0.58958E+08
        -0.70916E+08
        -0.51155E+08
        -0.71303E+08
        -0.23421E+08
         0.26504E+08
         0.11222E+09
        -0.16542E+09
        -0.65825E+08
         0.14751E+09
         0.11005E+09
        -0.65257E+08
        -0.44118E+08
        -0.77287E+08
        -0.17045E+09
        -0.17249E+09
        -0.17450E+09
        -0.10469E+09
         0.53462E+08
         0.40171E+08
        -0.16905E+09
         0.27749E+08
        -0.73680E+08
        -0.82544E+08
         0.13181E+09
         0.97821E+08
        -0.97248E+08
        -0.84713E+08
         0.17481E+09
         0.15663E+09
         0.14070E+09
        -0.88545E+08
        -0.19229E+08
        -0.58985E+08
        -0.15542E+09
        -0.17525E+09
        -0.17019E+09
        -0.15643E+09
        -0.13401E+09
        -0.58371E+08
         0.93930E+08
         0.12949E+09
        -0.20306E+08
         0.21028E+08
         0.13597E+09
         0.17085E+09
         0.19264E+09
         0.18998E+09
         0.16378E+09
         0.13601E+09
         0.95714E+08
         0.41335E+08
        -0.10687E+08
        -0.38487E+08
        -0.51756E+08
        -0.89270E+08
        -0.16154E+09
        -0.19296E+09
        -0.19251E+09
        -0.19182E+09
        -0.19395E+09
        -0.18759E+09
        -0.16551E+09
        -0.14450E+09
        -0.76241E+08
         0.19368E+08
         0.47026E+08
         0.49980E+08
         0.83780E+08
         0.14821E+09
         0.18483E+09
         0.18568E+09
        -0.55603E+08
         0.18668E+08
        -0.37346E+08
        -0.11422E+09
         0.12459E+09
         0.15122E+09
         0.59326E+08
        -0.70671E+08
        -0.51117E+08
        -0.71041E+08
        -0.22929E+08
         0.26570E+08
         0.11224E+09
        -0.16538E+09
        -0.65726E+08
         0.14755E+09
         0.11030E+09
        -0.65073E+08
        -0.44099E+08
        -0.77150E+08
        -0.17042E+09
        -0.17248E+09
        -0.17450E+09
        -0.10469E+09
         0.53402E+08
         0.40260E+08
        -0.16905E+09
         0.27230E+08
        -0.74192E+08
        -0.82471E+08
         0.13190E+09
         0.97830E+08
        -0.96835E+08
        -0.84751E+08
         0.17482E+09
         0.15660E+09
         0.14068E+09
        -0.88557E+08
        -0.19367E+08
        -0.59088E+08
        -0.15542E+09
        -0.17527E+09
        -0.17018E+09
        -0.15640E+09
        -0.13397E+09
        -0.58341E+08
         0.93909E+08
         0.12954E+09
        -0.20179E+08
         0.20981E+08
         0.13596E+09
         0.17085E+09
         0.19264E+09
         0.18998E+09
         0.16377E+09
         0.13601E+09
         0.95699E+08
         0.41335E+08
        -0.10704E+08
        -0.38520E+08
        -0.51724E+08
        -0.89258E+08
        -0.16154E+09
        -0.19295E+09
        -0.19250E+09
        -0.19181E+09
        -0.19395E+09
        -0.18759E+09
        -0.16550E+09
        -0.14450E+09
        -0.76223E+08
         0.19378E+08
         0.46996E+08
         0.49964E+08
         0.83744E+08
         0.14821E+09
         0.18483E+09
         0.18569E+09
        -0.55667E+08
         0.18733E+08
        -0.37394E+08
        -0.11429E+09
         0.12452E+09
         0.15116E+09
         0.59698E+08
        -0.70425E+08
        -0.51074E+08
        -0.70774E+08
        -0.22436E+08
         0.26636E+08
         0.11227E+09
        -0.16534E+09
        -0.65628E+08
         0.14760E+09
         0.11057E+09
        -0.64888E+08
        -0.44075E+08
        -0.77011E+08
        -0.17040E+09
        -0.17248E+09
        -0.17450E+09
        -0.10470E+09
         0.53371E+08
         0.40361E+08
        -0.16904E+09
         0.26728E+08
        -0.74702E+08
        -0.82407E+08
         0.13199E+09
         0.97854E+08
        -0.96421E+08
        -0.84789E+08
         0.17484E+09
         0.15657E+09
         0.14067E+09
        -0.88568E+08
        -0.19504E+08
        -0.59190E+08
        -0.15541E+09
        -0.17529E+09
        -0.17018E+09
        -0.15636E+09
        -0.13392E+09
        -0.58304E+08
         0.93888E+08
         0.12959E+09
        -0.20052E+08
         0.20935E+08
         0.13594E+09
         0.17084E+09
         0.19264E+09
         0.18997E+09
         0.16375E+09
         0.13601E+09
         0.95684E+08
         0.41335E+08
        -0.10720E+08
        -0.38554E+08
        -0.51692E+08
        -0.89247E+08
        -0.16154E+09
        -0.19295E+09
        -0.19250E+09
        -0.19181E+09
        -0.19395E+09
        -0.18759E+09
        -0.16548E+09
        -0.14449E+09
        -0.76206E+08
         0.19388E+08
         0.46966E+08
         0.49947E+08
         0.83709E+08
         0.14821E+09
         0.18483E+09
         0.18570E+09
        -0.55730E+08
         0.18806E+08
        -0.37436E+08
        -0.11436E+09
         0.12445E+09
         0.15111E+09
         0.60070E+08
        -0.70182E+08
        -0.51028E+08
        -0.70512E+08
        -0.21943E+08
         0.26701E+08
         0.11229E+09
        -0.16530E+09
        -0.65530E+08
         0.14765E+09
         0.11084E+09
        -0.64703E+08
        -0.44050E+08
        -0.76878E+08
        -0.17037E+09
        -0.17247E+09
        -0.17450E+09
        -0.10471E+09
         0.53345E+08
         0.40466E+08
        -0.16904E+09
         0.26229E+08
        -0.75216E+08
        -0.82355E+08
         0.13209E+09
         0.97876E+08
        -0.96002E+08
        -0.84823E+08
         0.17485E+09
         0.15654E+09
         0.14065E+09
        -0.88578E+08
        -0.19640E+08
        -0.59288E+08
        -0.15540E+09
        -0.17531E+09
        -0.17018E+09
        -0.15631E+09
        -0.13387E+09
        -0.58270E+08
         0.93862E+08
         0.12963E+09
        -0.19919E+08
         0.20894E+08
         0.13593E+09
         0.17084E+09
         0.19263E+09
         0.18996E+09
         0.16374E+09
         0.13601E+09
         0.95669E+08
         0.41335E+08
        -0.10736E+08
        -0.38587E+08
        -0.51661E+08
        -0.89237E+08
        -0.16153E+09
        -0.19295E+09
        -0.19250E+09
        -0.19181E+09
        -0.19396E+09
        -0.18759E+09
        -0.16547E+09
        -0.14449E+09
        -0.76188E+08
         0.19397E+08
         0.46936E+08
         0.49930E+08
         0.83674E+08
         0.14820E+09
         0.18484E+09
         0.18570E+09
        -0.55787E+08
         0.18896E+08
        -0.37465E+08
        -0.11443E+09
         0.12438E+09
         0.15105E+09
         0.60449E+08
        -0.69943E+08
        -0.50983E+08
        -0.70262E+08
        -0.21448E+08
         0.26765E+08
         0.11232E+09
        -0.16526E+09
        -0.65430E+08
         0.14769E+09
         0.11109E+09
        -0.64516E+08
        -0.44030E+08
        -0.76748E+08
        -0.17034E+09
        -0.17247E+09
        -0.17449E+09
        -0.10472E+09
         0.53305E+08
         0.40559E+08
        -0.16903E+09
         0.25718E+08
        -0.75734E+08
        -0.82311E+08
         0.13218E+09
         0.97880E+08
        -0.95574E+08
        -0.84847E+08
         0.17487E+09
         0.15651E+09
         0.14064E+09
        -0.88586E+08
        -0.19776E+08
        -0.59390E+08
        -0.15540E+09
        -0.17534E+09
        -0.17018E+09
        -0.15627E+09
        -0.13382E+09
        -0.58237E+08
         0.93821E+08
         0.12966E+09
        -0.19769E+08
         0.20867E+08
         0.13592E+09
         0.17084E+09
         0.19263E+09
         0.18995E+09
         0.16373E+09
         0.13601E+09
         0.95654E+08
         0.41335E+08
        -0.10752E+08
        -0.38620E+08
        -0.51629E+08
        -0.89226E+08
        -0.16153E+09
        -0.19294E+09
        -0.19250E+09
        -0.19181E+09
        -0.19396E+09
        -0.18759E+09
        -0.16545E+09
        -0.14448E+09
        -0.76171E+08
         0.19404E+08
         0.46904E+08
         0.49913E+08
         0.83640E+08
         0.14820E+09
         0.18484E+09
         0.18571E+09
        -0.55841E+08
         0.18992E+08
        -0.37487E+08
        -0.11450E+09
         0.12432E+09
         0.15099E+09
         0.60832E+08
        -0.69707E+08
        -0.50938E+08
        -0.70021E+08
        -0.20951E+08
         0.26830E+08
         0.11234E+09
        -0.16521E+09
        -0.65330E+08
         0.14774E+09
         0.11135E+09
        -0.64329E+08
        -0.44007E+08
        -0.76626E+08
        -0.17031E+09
        -0.17246E+09
        -0.17449E+09
        -0.10473E+09
         0.53258E+08
         0.40645E+08
        -0.16902E+09
         0.25205E+08
        -0.76260E+08
        -0.82273E+08
         0.13227E+09
         0.97873E+08
        -0.95142E+08
        -0.84867E+08
         0.17488E+09
         0.15648E+09
         0.14062E+09
        -0.88593E+08
        -0.19911E+08
        -0.59490E+08
        -0.15539E+09
        -0.17536E+09
        -0.17018E+09
        -0.15623E+09
        -0.13376E+09
        -0.58206E+08
         0.93775E+08
         0.12968E+09
        -0.19611E+08
         0.20847E+08
         0.13591E+09
         0.17084E+09
         0.19263E+09
         0.18995E+09
         0.16371E+09
         0.13601E+09
         0.95638E+08
         0.41335E+08
        -0.10768E+08
        -0.38653E+08
        -0.51597E+08
        -0.89216E+08
        -0.16153E+09
        -0.19294E+09
        -0.19250E+09
        -0.19180E+09
        -0.19397E+09
        -0.18759E+09
        -0.16544E+09
        -0.14448E+09
        -0.76153E+08
         0.19412E+08
         0.46871E+08
         0.49896E+08
         0.83607E+08
         0.14820E+09
         0.18484E+09
         0.18572E+09
        -0.55896E+08
         0.19088E+08
        -0.37508E+08
        -0.11457E+09
         0.12425E+09
         0.15093E+09
         0.61213E+08
        -0.69471E+08
        -0.50895E+08
        -0.69782E+08
        -0.20456E+08
         0.26894E+08
         0.11236E+09
        -0.16516E+09
        -0.65230E+08
         0.14778E+09
         0.11160E+09
        -0.64142E+08
        -0.43983E+08
        -0.76499E+08
        -0.17028E+09
        -0.17245E+09
        -0.17449E+09
        -0.10474E+09
         0.53212E+08
         0.40731E+08
        -0.16902E+09
         0.24692E+08
        -0.76785E+08
        -0.82234E+08
         0.13236E+09
         0.97868E+08
        -0.94710E+08
        -0.84888E+08
         0.17490E+09
         0.15645E+09
         0.14061E+09
        -0.88600E+08
        -0.20046E+08
        -0.59591E+08
        -0.15538E+09
        -0.17539E+09
        -0.17018E+09
        -0.15619E+09
        -0.13371E+09
        -0.58176E+08
         0.93731E+08
         0.12971E+09
        -0.19452E+08
         0.20828E+08
         0.13590E+09
         0.17083E+09
         0.19263E+09
         0.18994E+09
         0.16370E+09
         0.13601E+09
         0.95623E+08
         0.41335E+08
        -0.10784E+08
        -0.38686E+08
        -0.51565E+08
        -0.89206E+08
        -0.16153E+09
        -0.19293E+09
        -0.19250E+09
        -0.19180E+09
        -0.19397E+09
        -0.18759E+09
        -0.16543E+09
        -0.14447E+09
        -0.76135E+08
         0.19419E+08
         0.46838E+08
         0.49879E+08
         0.83574E+08
         0.14820E+09
         0.18484E+09
         0.18572E+09
        -0.55951E+08
         0.19186E+08
        -0.37530E+08
        -0.11464E+09
         0.12418E+09
         0.15088E+09
         0.61596E+08
        -0.69235E+08
        -0.50851E+08
        -0.69544E+08
        -0.19961E+08
         0.26958E+08
         0.11238E+09
        -0.16512E+09
        -0.65131E+08
         0.14783E+09
         0.11185E+09
        -0.63958E+08
        -0.43959E+08
        -0.76376E+08
        -0.17025E+09
        -0.17245E+09
        -0.17449E+09
        -0.10476E+09
         0.53166E+08
         0.40817E+08
        -0.16901E+09
         0.24182E+08
        -0.77308E+08
        -0.82194E+08
         0.13245E+09
         0.97860E+08
        -0.94279E+08
        -0.84909E+08
         0.17491E+09
         0.15642E+09
         0.14059E+09
        -0.88606E+08
        -0.20181E+08
        -0.59692E+08
        -0.15537E+09
        -0.17541E+09
        -0.17018E+09
        -0.15615E+09
        -0.13366E+09
        -0.58144E+08
         0.93684E+08
         0.12973E+09
        -0.19295E+08
         0.20806E+08
         0.13589E+09
         0.17083E+09
         0.19262E+09
         0.18993E+09
         0.16368E+09
         0.13601E+09
         0.95608E+08
         0.41335E+08
        -0.10800E+08
        -0.38718E+08
        -0.51533E+08
        -0.89195E+08
        -0.16153E+09
        -0.19293E+09
        -0.19250E+09
        -0.19180E+09
        -0.19398E+09
        -0.18759E+09
        -0.16541E+09
        -0.14447E+09
        -0.76118E+08
         0.19426E+08
         0.46805E+08
         0.49861E+08
         0.83540E+08
         0.14820E+09
         0.18485E+09
         0.18573E+09
        -0.56005E+08
         0.19283E+08
        -0.37553E+08
        -0.11471E+09
         0.12412E+09
         0.15082E+09
         0.61976E+08
        -0.69000E+08
        -0.50807E+08
        -0.69308E+08
        -0.19465E+08
         0.27023E+08
         0.11241E+09
        -0.16507E+09
        -0.65031E+08
         0.14787E+09
         0.11210E+09
        -0.63773E+08
        -0.43940E+08
        -0.76248E+08
        -0.17022E+09
        -0.17244E+09
        -0.17448E+09
        -0.10477E+09
         0.53119E+08
         0.40902E+08
        -0.16900E+09
         0.23672E+08
        -0.77830E+08
        -0.82154E+08
         0.13253E+09
         0.97853E+08
        -0.93848E+08
        -0.84929E+08
         0.17493E+09
         0.15639E+09
         0.14057E+09
        -0.88612E+08
        -0.20316E+08
        -0.59792E+08
        -0.15537E+09
        -0.17543E+09
        -0.17018E+09
        -0.15611E+09
        -0.13361E+09
        -0.58114E+08
         0.93637E+08
         0.12975E+09
        -0.19136E+08
         0.20785E+08
         0.13588E+09
         0.17083E+09
         0.19262E+09
         0.18992E+09
         0.16367E+09
         0.13601E+09
         0.95592E+08
         0.41336E+08
        -0.10815E+08
        -0.38751E+08
        -0.51502E+08
        -0.89185E+08
        -0.16152E+09
        -0.19293E+09
        -0.19250E+09
        -0.19179E+09
        -0.19398E+09
        -0.18759E+09
        -0.16540E+09
        -0.14446E+09
        -0.76101E+08
         0.19433E+08
         0.46772E+08
         0.49844E+08
         0.83507E+08
         0.14820E+09
         0.18485E+09
         0.18574E+09
        -0.56060E+08
         0.19380E+08
        -0.37574E+08
        -0.11478E+09
         0.12405E+09
         0.15076E+09
         0.62358E+08
        -0.68765E+08
        -0.50762E+08
        -0.69073E+08
        -0.18970E+08
         0.27088E+08
         0.11243E+09
        -0.16502E+09
        -0.64932E+08
         0.14791E+09
         0.11235E+09
        -0.63586E+08
        -0.43918E+08
        -0.76125E+08
        -0.17019E+09
        -0.17244E+09
        -0.17448E+09
        -0.10479E+09
         0.53073E+08
         0.40990E+08
        -0.16899E+09
         0.23164E+08
        -0.78348E+08
        -0.82117E+08
         0.13262E+09
         0.97846E+08
        -0.93415E+08
        -0.84950E+08
         0.17494E+09
         0.15636E+09
         0.14056E+09
        -0.88618E+08
        -0.20450E+08
        -0.59894E+08
        -0.15536E+09
        -0.17546E+09
        -0.17018E+09
        -0.15606E+09
        -0.13356E+09
        -0.58083E+08
         0.93592E+08
         0.12977E+09
        -0.18976E+08
         0.20766E+08
         0.13587E+09
         0.17082E+09
         0.19262E+09
         0.18992E+09
         0.16366E+09
         0.13600E+09
         0.95577E+08
         0.41336E+08
        -0.10831E+08
        -0.38784E+08
        -0.51470E+08
        -0.89175E+08
        -0.16152E+09
        -0.19292E+09
        -0.19250E+09
        -0.19179E+09
        -0.19399E+09
        -0.18759E+09
        -0.16538E+09
        -0.14445E+09
        -0.76083E+08
         0.19440E+08
         0.46738E+08
         0.49827E+08
         0.83474E+08
         0.14820E+09
         0.18485E+09
         0.18575E+09
        -0.56115E+08
         0.19477E+08
        -0.37594E+08
        -0.11485E+09
         0.12398E+09
         0.15070E+09
         0.62739E+08
        -0.68530E+08
        -0.50717E+08
        -0.68838E+08
        -0.18477E+08
         0.27153E+08
         0.11245E+09
        -0.16498E+09
        -0.64832E+08
         0.14796E+09
         0.11260E+09
        -0.63400E+08
        -0.43896E+08
        -0.75999E+08
        -0.17016E+09
        -0.17243E+09
        -0.17448E+09
        -0.10480E+09
         0.53025E+08
         0.41075E+08
        -0.16899E+09
         0.22655E+08
        -0.78869E+08
        -0.82078E+08
         0.13271E+09
         0.97839E+08
        -0.92981E+08
        -0.84970E+08
         0.17496E+09
         0.15634E+09
         0.14054E+09
        -0.88623E+08
        -0.20584E+08
        -0.59994E+08
        -0.15535E+09
        -0.17548E+09
        -0.17018E+09
        -0.15602E+09
        -0.13350E+09
        -0.58051E+08
         0.93545E+08
         0.12979E+09
        -0.18814E+08
         0.20745E+08
         0.13586E+09
         0.17082E+09
         0.19262E+09
         0.18991E+09
         0.16364E+09
         0.13600E+09
         0.95562E+08
         0.41336E+08
        -0.10847E+08
        -0.38817E+08
        -0.51438E+08
        -0.89165E+08
        -0.16152E+09
        -0.19292E+09
        -0.19250E+09
        -0.19179E+09
        -0.19399E+09
        -0.18759E+09
        -0.16537E+09
        -0.14445E+09
        -0.76065E+08
         0.19447E+08
         0.46705E+08
         0.49810E+08
         0.83441E+08
         0.14819E+09
         0.18486E+09
         0.18575E+09
        -0.56170E+08
         0.19573E+08
        -0.37615E+08
        -0.11491E+09
         0.12392E+09
         0.15065E+09
         0.63116E+08
        -0.68297E+08
        -0.50673E+08
        -0.68605E+08
        -0.17985E+08
         0.27217E+08
         0.11248E+09
        -0.16493E+09
        -0.64732E+08
         0.14800E+09
         0.11285E+09
        -0.63215E+08
        -0.43878E+08
        -0.75876E+08
        -0.17013E+09
        -0.17243E+09
        -0.17448E+09
        -0.10482E+09
         0.52978E+08
         0.41161E+08
        -0.16898E+09
         0.22149E+08
        -0.79391E+08
        -0.82038E+08
         0.13280E+09
         0.97832E+08
        -0.92547E+08
        -0.84990E+08
         0.17497E+09
         0.15631E+09
         0.14053E+09
        -0.88626E+08
        -0.20718E+08
        -0.60096E+08
        -0.15534E+09
        -0.17550E+09
        -0.17018E+09
        -0.15598E+09
        -0.13345E+09
        -0.58021E+08
         0.93498E+08
         0.12981E+09
        -0.18654E+08
         0.20724E+08
         0.13585E+09
         0.17082E+09
         0.19261E+09
         0.18990E+09
         0.16363E+09
         0.13600E+09
         0.95547E+08
         0.41336E+08
        -0.10863E+08
        -0.38849E+08
        -0.51406E+08
        -0.89155E+08
        -0.16152E+09
        -0.19292E+09
        -0.19249E+09
        -0.19178E+09
        -0.19399E+09
        -0.18759E+09
        -0.16535E+09
        -0.14444E+09
        -0.76048E+08
         0.19454E+08
         0.46672E+08
         0.49793E+08
         0.83408E+08
         0.14819E+09
         0.18486E+09
         0.18576E+09
        -0.56225E+08
         0.19669E+08
        -0.37635E+08
        -0.11498E+09
         0.12385E+09
         0.15059E+09
         0.63496E+08
        -0.68062E+08
        -0.50628E+08
        -0.68373E+08
        -0.17493E+08
         0.27283E+08
         0.11250E+09
        -0.16488E+09
        -0.64632E+08
         0.14805E+09
         0.11310E+09
        -0.63030E+08
        -0.43856E+08
        -0.75749E+08
        -0.17010E+09
        -0.17242E+09
        -0.17448E+09
        -0.10483E+09
         0.52930E+08
         0.41246E+08
        -0.16897E+09
         0.21643E+08
        -0.79911E+08
        -0.81998E+08
         0.13289E+09
         0.97823E+08
        -0.92113E+08
        -0.85010E+08
         0.17498E+09
         0.15628E+09
         0.14051E+09
        -0.88629E+08
        -0.20851E+08
        -0.60196E+08
        -0.15534E+09
        -0.17553E+09
        -0.17018E+09
        -0.15594E+09
        -0.13340E+09
        -0.57991E+08
         0.93453E+08
         0.12983E+09
        -0.18490E+08
         0.20704E+08
         0.13583E+09
         0.17081E+09
         0.19261E+09
         0.18989E+09
         0.16362E+09
         0.13600E+09
         0.95532E+08
         0.41336E+08
        -0.10879E+08
        -0.38881E+08
        -0.51374E+08
        -0.89145E+08
        -0.16151E+09
        -0.19291E+09
        -0.19249E+09
        -0.19178E+09
        -0.19400E+09
        -0.18759E+09
        -0.16534E+09
        -0.14444E+09
        -0.76030E+08
         0.19460E+08
         0.46639E+08
         0.49776E+08
         0.83375E+08
         0.14819E+09
         0.18486E+09
         0.18577E+09
        -0.56280E+08
         0.19767E+08
        -0.37656E+08
        -0.11505E+09
         0.12378E+09
         0.15053E+09
         0.63874E+08
        -0.67829E+08
        -0.50583E+08
        -0.68142E+08
        -0.17000E+08
         0.27347E+08
         0.11252E+09
        -0.16483E+09
        -0.64533E+08
         0.14809E+09
         0.11335E+09
        -0.62846E+08
        -0.43834E+08
        -0.75625E+08
        -0.17007E+09
        -0.17242E+09
        -0.17447E+09
        -0.10485E+09
         0.52881E+08
         0.41332E+08
        -0.16896E+09
         0.21138E+08
        -0.80431E+08
        -0.81958E+08
         0.13298E+09
         0.97816E+08
        -0.91680E+08
        -0.85031E+08
         0.17500E+09
         0.15625E+09
         0.14050E+09
        -0.88632E+08
        -0.20985E+08
        -0.60297E+08
        -0.15533E+09
        -0.17555E+09
        -0.17018E+09
        -0.15590E+09
        -0.13335E+09
        -0.57958E+08
         0.93406E+08
         0.12985E+09
        -0.18327E+08
         0.20683E+08
         0.13583E+09
         0.17081E+09
         0.19261E+09
         0.18989E+09
         0.16360E+09
         0.13600E+09
         0.95516E+08
         0.41337E+08
        -0.10894E+08
        -0.38913E+08
        -0.51342E+08
        -0.89135E+08
        -0.16151E+09
        -0.19291E+09
        -0.19249E+09
        -0.19178E+09
        -0.19400E+09
        -0.18760E+09
        -0.16532E+09
        -0.14443E+09
        -0.76012E+08
         0.19467E+08
         0.46606E+08
         0.49759E+08
         0.83342E+08
         0.14819E+09
         0.18486E+09
         0.18578E+09
        -0.56335E+08
         0.19863E+08
        -0.37678E+08
        -0.11511E+09
         0.12372E+09
         0.15047E+09
         0.64253E+08
        -0.67595E+08
        -0.50536E+08
        -0.67910E+08
        -0.16508E+08
         0.27412E+08
         0.11254E+09
        -0.16479E+09
        -0.64432E+08
         0.14813E+09
         0.11360E+09
        -0.62663E+08
        -0.43814E+08
        -0.75498E+08
        -0.17004E+09
        -0.17241E+09
        -0.17447E+09
        -0.10487E+09
         0.52830E+08
         0.41416E+08
        -0.16896E+09
         0.20628E+08
        -0.80946E+08
        -0.81921E+08
         0.13307E+09
         0.97810E+08
        -0.91247E+08
        -0.85054E+08
         0.17501E+09
         0.15622E+09
         0.14048E+09
        -0.88633E+08
        -0.21119E+08
        -0.60400E+08
        -0.15532E+09
        -0.17557E+09
        -0.17018E+09
        -0.15586E+09
        -0.13329E+09
        -0.57928E+08
         0.93359E+08
         0.12987E+09
        -0.18165E+08
         0.20661E+08
         0.13581E+09
         0.17081E+09
         0.19261E+09
         0.18988E+09
         0.16359E+09
         0.13600E+09
         0.95501E+08
         0.41337E+08
        -0.10910E+08
        -0.38945E+08
        -0.51311E+08
        -0.89126E+08
        -0.16151E+09
        -0.19290E+09
        -0.19249E+09
        -0.19177E+09
        -0.19401E+09
        -0.18760E+09
        -0.16531E+09
        -0.14443E+09
        -0.75994E+08
         0.19474E+08
         0.46573E+08
         0.49742E+08
         0.83309E+08
         0.14819E+09
         0.18487E+09
         0.18578E+09
        -0.56390E+08
         0.19959E+08
        -0.37697E+08
        -0.11518E+09
         0.12365E+09
         0.15041E+09
         0.64629E+08
        -0.67363E+08
        -0.50486E+08
        -0.67672E+08
        -0.16017E+08
         0.27477E+08
         0.11257E+09
        -0.16474E+09
        -0.64332E+08
         0.14817E+09
         0.11385E+09
        -0.62478E+08
        -0.43799E+08
        -0.75377E+08
        -0.17001E+09
        -0.17241E+09
        -0.17447E+09
        -0.10488E+09
         0.52772E+08
         0.41505E+08
        -0.16895E+09
         0.20105E+08
        -0.81465E+08
        -0.81892E+08
         0.13315E+09
         0.97801E+08
        -0.90812E+08
        -0.85074E+08
         0.17503E+09
         0.15619E+09
         0.14047E+09
        -0.88631E+08
        -0.21258E+08
        -0.60502E+08
        -0.15531E+09
        -0.17559E+09
        -0.17018E+09
        -0.15581E+09
        -0.13324E+09
        -0.57896E+08
         0.93314E+08
         0.12989E+09
        -0.18003E+08
         0.20640E+08
         0.13580E+09
         0.17080E+09
         0.19260E+09
         0.18987E+09
         0.16358E+09
         0.13600E+09
         0.95486E+08
         0.41337E+08
        -0.10925E+08
        -0.38978E+08
        -0.51279E+08
        -0.89116E+08
        -0.16151E+09
        -0.19290E+09
        -0.19249E+09
        -0.19177E+09
        -0.19401E+09
        -0.18760E+09
        -0.16530E+09
        -0.14442E+09
        -0.75977E+08
         0.19481E+08
         0.46540E+08
         0.49725E+08
         0.83276E+08
         0.14819E+09
         0.18487E+09
         0.18579E+09
        -0.56446E+08
         0.20055E+08
        -0.37717E+08
        -0.11525E+09
         0.12358E+09
         0.15036E+09
         0.65008E+08
        -0.67131E+08
        -0.50432E+08
        -0.67428E+08
        -0.15527E+08
         0.27542E+08
         0.11259E+09
        -0.16469E+09
        -0.64230E+08
         0.14822E+09
         0.11409E+09
        -0.62293E+08
        -0.43779E+08
        -0.75252E+08
        -0.16998E+09
        -0.17240E+09
        -0.17447E+09
        -0.10490E+09
         0.52705E+08
         0.41589E+08
        -0.16894E+09
         0.19567E+08
        -0.81982E+08
        -0.81865E+08
         0.13324E+09
         0.97793E+08
        -0.90377E+08
        -0.85095E+08
         0.17504E+09
         0.15616E+09
         0.14045E+09
        -0.88626E+08
        -0.21402E+08
        -0.60607E+08
        -0.15530E+09
        -0.17561E+09
        -0.17017E+09
        -0.15577E+09
        -0.13319E+09
        -0.57866E+08
         0.93267E+08
         0.12992E+09
        -0.17838E+08
         0.20619E+08
         0.13579E+09
         0.17080E+09
         0.19260E+09
         0.18986E+09
         0.16356E+09
         0.13600E+09
         0.95471E+08
         0.41338E+08
        -0.10941E+08
        -0.39009E+08
        -0.51249E+08
        -0.89107E+08
        -0.16150E+09
        -0.19290E+09
        -0.19249E+09
        -0.19177E+09
        -0.19402E+09
        -0.18760E+09
        -0.16528E+09
        -0.14442E+09
        -0.75959E+08
         0.19488E+08
         0.46507E+08
         0.49708E+08
         0.83243E+08
         0.14818E+09
         0.18487E+09
         0.18580E+09
        -0.56500E+08
         0.20151E+08
        -0.37736E+08
        -0.11531E+09
         0.12352E+09
         0.15030E+09
         0.65381E+08
        -0.66899E+08
        -0.50375E+08
        -0.67183E+08
        -0.15040E+08
         0.27606E+08
         0.11261E+09
        -0.16464E+09
        -0.64129E+08
         0.14826E+09
         0.11434E+09
        -0.62111E+08
        -0.43758E+08
        -0.75131E+08
        -0.16995E+09
        -0.17240E+09
        -0.17446E+09
        -0.10491E+09
         0.52636E+08
         0.41673E+08
        -0.16893E+09
         0.19026E+08
        -0.82496E+08
        -0.81839E+08
         0.13333E+09
         0.97785E+08
        -0.89945E+08
        -0.85118E+08
         0.17506E+09
         0.15613E+09
         0.14044E+09
        -0.88620E+08
        -0.21548E+08
        -0.60709E+08
        -0.15529E+09
        -0.17563E+09
        -0.17017E+09
        -0.15573E+09
        -0.13314E+09
        -0.57835E+08
         0.93223E+08
         0.12994E+09
        -0.17675E+08
         0.20596E+08
         0.13578E+09
         0.17079E+09
         0.19260E+09
         0.18986E+09
         0.16355E+09
         0.13600E+09
         0.95455E+08
         0.41337E+08
        -0.10956E+08
        -0.39040E+08
        -0.51219E+08
        -0.89097E+08
        -0.16150E+09
        -0.19290E+09
        -0.19249E+09
        -0.19177E+09
        -0.19402E+09
        -0.18760E+09
        -0.16527E+09
        -0.14441E+09
        -0.75941E+08
         0.19495E+08
         0.46475E+08
         0.49691E+08
         0.83211E+08
         0.14818E+09
         0.18487E+09
         0.18580E+09
        -0.54423E+08
         0.18129E+08
        -0.33553E+08
        -0.11571E+09
         0.11716E+09
         0.13700E+09
         0.65893E+08
        -0.63430E+08
        -0.46034E+08
        -0.63532E+08
        -0.13521E+08
         0.27053E+08
         0.10930E+09
        -0.14613E+09
        -0.62752E+08
         0.13908E+09
         0.11490E+09
        -0.62125E+08
        -0.40194E+08
        -0.75197E+08
        -0.16588E+09
        -0.16765E+09
        -0.16991E+09
        -0.10522E+09
         0.46915E+08
         0.41867E+08
        -0.15018E+09
         0.18570E+08
        -0.83187E+08
        -0.72994E+08
         0.12221E+09
         0.98045E+08
        -0.89811E+08
        -0.85389E+08
         0.16862E+09
         0.14372E+09
         0.13342E+09
        -0.86286E+08
        -0.20826E+08
        -0.58055E+08
        -0.15135E+09
        -0.17081E+09
        -0.16593E+09
        -0.15054E+09
        -0.12714E+09
        -0.55946E+08
         0.87718E+08
         0.12092E+09
        -0.15811E+08
         0.18944E+08
         0.13067E+09
         0.15952E+09
         0.19131E+09
         0.18869E+09
         0.16260E+09
         0.13526E+09
         0.94954E+08
         0.41130E+08
        -0.10915E+08
        -0.38805E+08
        -0.50825E+08
        -0.88503E+08
        -0.16046E+09
        -0.19178E+09
        -0.19119E+09
        -0.19048E+09
        -0.19292E+09
        -0.18664E+09
        -0.16445E+09
        -0.14371E+09
        -0.75465E+08
         0.19394E+08
         0.46170E+08
         0.49365E+08
         0.82690E+08
         0.14727E+09
         0.18382E+09
         0.18472E+09
        -0.26776E+08
         0.59902E+07
        -0.10739E+08
        -0.33993E+08
         0.51348E+08
         0.48277E+08
         0.16642E+08
        -0.28134E+08
        -0.16448E+08
        -0.27682E+08
        -0.32803E+07
         0.16063E+08
         0.58552E+08
        -0.46423E+08
        -0.38181E+08
         0.56240E+08
         0.31213E+08
        -0.19209E+08
        -0.11370E+08
        -0.18990E+08
        -0.95549E+08
        -0.92058E+08
        -0.94692E+08
        -0.28705E+08
         0.15205E+08
         0.11998E+08
        -0.47914E+08
         0.42387E+07
        -0.19283E+08
        -0.23670E+08
         0.43793E+08
         0.27004E+08
        -0.26172E+08
        -0.24074E+08
         0.83382E+08
         0.52748E+08
         0.58866E+08
        -0.48140E+08
        -0.10122E+08
        -0.26732E+08
        -0.85721E+08
        -0.93900E+08
        -0.94318E+08
        -0.77137E+08
        -0.58317E+08
        -0.28998E+08
         0.36269E+08
         0.46772E+08
        -0.52879E+07
         0.69636E+07
         0.64222E+08
         0.63139E+08
         0.15236E+09
         0.15303E+09
         0.13327E+09
         0.11190E+09
         0.79375E+08
         0.34631E+08
        -0.90761E+07
        -0.31080E+08
        -0.40140E+08
        -0.70942E+08
        -0.12924E+09
        -0.15713E+09
        -0.15237E+09
        -0.15222E+09
        -0.15866E+09
        -0.15587E+09
        -0.13841E+09
        -0.12102E+09
        -0.61200E+08
         0.15879E+08
         0.37517E+08
         0.39884E+08
         0.67367E+08
         0.11923E+09
         0.15083E+09
         0.15106E+09
  
SCALARS                      stress_xy  double 1
LOOKUP_TABLE default
        -0.56986E+00
        -0.13370E+01
        -0.11467E+02
         0.40507E+00
        -0.38483E-09
         0.37608E-10
         0.56544E-09
         0.86134E-10
        -0.12095E+03
         0.53145E+02
         0.25169E-08
         0.19959E-08
         0.45249E+01
        -0.93886E+00
         0.22216E-09
        -0.66723E-10
         0.13018E+01
         0.22705E+02
         0.11060E-10
         0.16854E-09
        -0.17270E+02
        -0.10955E+03
        -0.10782E+03
         0.17138E-08
         0.13648E-08
        -0.19930E-08
        -0.11406E+02
        -0.95277E+02
         0.23075E-08
         0.35511E-08
        -0.34810E+01
         0.67417E+01
         0.54776E+00
        -0.12180E-09
         0.48047E-09
        -0.61454E-11
        -0.30697E+02
        -0.14262E+02
         0.12859E-08
         0.10652E-08
        -0.60152E+02
        -0.54264E+02
         0.21921E-08
         0.14773E-08
        -0.58356E+02
        -0.10714E+02
        -0.79856E-10
         0.59453E-09
         0.15563E+02
         0.17571E-09
        -0.36504E+01
        -0.39614E-11
         0.95664E+00
         0.13281E-08
         0.47364E+01
         0.20436E-09
         0.67585E+02
        -0.32916E+01
         0.47493E-11
        -0.23300E-10
         0.45076E+00
        -0.45377E+02
         0.12942E-09
         0.33198E-09
         0.19501E+01
        -0.26278E-10
         0.28028E+02
         0.21057E-09
        -0.14980E+03
        -0.54375E+02
         0.16264E-09
        -0.15575E-08
        -0.12228E+03
        -0.24903E-08
         0.49997E+02
         0.16680E-08
         0.15790E+03
         0.24850E-09
         0.27574E+03
         0.32314E-09
         0.53503E+03
         0.29157E+03
         0.75970E-09
        -0.19264E-09
         0.36012E+02
        -0.23181E-10
        -0.11059E+03
        -0.20908E-08
        -0.16280E+03
        -0.23345E-08
        -0.35814E+03
        -0.16328E+03
        -0.14778E-08
         0.16403E-08
         0.26250E+02
         0.14935E-08
         0.64650E+02
         0.64158E-09
         0.15106E+03
         0.17035E-08
         0.37160E+03
         0.21193E+03
         0.36527E-08
         0.18263E-08
        -0.61065E+03
         0.25591E+03
        -0.23732E-08
         0.29063E-08
        -0.14869E+04
        -0.67447E-08
        -0.19397E+04
        -0.73729E-08
        -0.17040E+04
        -0.50039E-08
        -0.14523E+04
        -0.53076E-09
        -0.63452E+03
         0.14960E-08
         0.83575E+03
         0.92626E-09
         0.18780E+04
         0.84675E-09
         0.24830E+04
         0.18167E-08
         0.24356E+04
         0.22089E-08
         0.19982E+04
         0.87026E-09
         0.10653E+04
         0.53057E-09
        -0.72978E+02
         0.86721E-09
        -0.88700E+03
         0.58131E-09
        -0.14309E+04
        -0.20730E-08
        -0.19531E+04
        -0.54395E-08
        -0.17482E+04
        -0.69030E-08
        -0.11222E+04
        -0.42722E-08
        -0.12291E+03
         0.81509E-09
         0.83041E+03
         0.17275E-08
         0.12010E+04
         0.27531E-08
         0.14692E+04
         0.54215E-08
         0.13170E+04
         0.70349E-08
         0.12259E+04
         0.49980E-08
         0.10128E+04
         0.39527E-08
        -0.82883E+02
         0.22313E+02
         0.22853E+02
        -0.14297E+02
         0.18237E+03
         0.15013E+03
         0.23871E+01
        -0.53928E+02
        -0.23897E+02
        -0.62344E+02
        -0.17837E+02
        -0.32938E+03
        -0.47040E+03
         0.17454E+02
         0.26755E+03
        -0.35942E+02
         0.26718E+02
         0.79792E+01
         0.16185E+02
        -0.13164E+02
         0.66047E+02
         0.57999E+02
        -0.17592E+03
         0.46090E+01
         0.39634E+02
         0.43663E+01
         0.72569E+00
         0.14229E+01
         0.17653E+02
        -0.58652E+02
        -0.31319E+02
         0.66615E+01
         0.10733E+02
        -0.84477E+00
        -0.43966E+02
        -0.15202E+03
        -0.30867E+03
         0.46676E+03
         0.24293E+03
         0.43862E+03
         0.84909E+03
         0.19698E+03
        -0.15940E+03
        -0.32132E+03
        -0.38049E+03
        -0.48532E+03
         0.59904E+02
         0.17971E+03
         0.55442E+02
         0.18650E+03
         0.58357E+03
         0.22504E+03
        -0.19795E+04
         0.25021E+04
        -0.60550E+04
        -0.71196E+04
        -0.67565E+04
        -0.40825E+04
         0.24333E+03
         0.26443E+04
         0.38344E+04
         0.62208E+04
         0.65486E+04
         0.35071E+04
         0.14151E+04
         0.59856E+03
        -0.96882E+03
        -0.38303E+04
        -0.63946E+04
        -0.73014E+04
        -0.44660E+04
         0.80990E+03
         0.29348E+04
         0.30929E+04
         0.48718E+04
         0.54067E+04
         0.41015E+04
         0.37865E+04
        -0.23168E+06
         0.56592E+05
        -0.10590E+06
        -0.77070E+05
         0.38847E+06
         0.24308E+06
         0.76868E+05
        -0.28438E+06
        -0.15375E+06
        -0.27611E+06
         0.56024E+05
        -0.14630E+06
        -0.45098E+06
         0.13396E+06
         0.34785E+06
        -0.26253E+06
         0.61497E+05
         0.35165E+05
         0.10667E+06
         0.36217E+05
         0.23679E+06
         0.17760E+06
        -0.10598E+06
         0.75709E+05
         0.15605E+06
        -0.28948E+05
         0.29778E+05
        -0.97235E+04
        -0.39148E+05
        -0.23747E+06
        -0.26041E+06
        -0.51446E+05
         0.12653E+06
         0.94816E+05
         0.67940E+05
        -0.23829E+06
        -0.36761E+06
         0.41418E+06
         0.93180E+05
         0.26567E+06
         0.41015E+06
        -0.12254E+06
        -0.24407E+06
        -0.32975E+06
        -0.38664E+06
        -0.28597E+06
         0.33920E+06
         0.32888E+06
        -0.69087E+05
         0.80338E+05
         0.42516E+06
         0.48500E+05
        -0.22144E+06
         0.30581E+06
        -0.58952E+06
        -0.63672E+06
        -0.54611E+06
        -0.26534E+06
         0.69538E+05
         0.24344E+06
         0.32206E+06
         0.51647E+06
         0.59750E+06
         0.23816E+06
         0.11240E+06
         0.10045E+06
        -0.43216E+05
        -0.33331E+06
        -0.56984E+06
        -0.63947E+06
        -0.45497E+06
         0.12493E+06
         0.29345E+06
         0.30879E+06
         0.48706E+06
         0.61870E+06
         0.39057E+06
         0.37436E+06
        -0.23202E+06
         0.56799E+05
        -0.10610E+06
        -0.77688E+05
         0.38839E+06
         0.24322E+06
         0.77454E+05
        -0.28375E+06
        -0.15391E+06
        -0.27581E+06
         0.54923E+05
        -0.14665E+06
        -0.45108E+06
         0.13402E+06
         0.34749E+06
        -0.26257E+06
         0.62193E+05
         0.35016E+05
         0.10669E+06
         0.35951E+05
         0.23732E+06
         0.17777E+06
        -0.10601E+06
         0.75677E+05
         0.15640E+06
        -0.28943E+05
         0.30126E+05
        -0.95941E+04
        -0.39163E+05
        -0.23765E+06
        -0.26056E+06
        -0.51327E+05
         0.12628E+06
         0.95014E+05
         0.67289E+05
        -0.23842E+06
        -0.36760E+06
         0.41441E+06
         0.93949E+05
         0.26626E+06
         0.41027E+06
        -0.12218E+06
        -0.24429E+06
        -0.32988E+06
        -0.38663E+06
        -0.28585E+06
         0.33916E+06
         0.32881E+06
        -0.68603E+05
         0.80095E+05
         0.42507E+06
         0.47794E+05
        -0.22130E+06
         0.30588E+06
        -0.58958E+06
        -0.63672E+06
        -0.54604E+06
        -0.26534E+06
         0.69640E+05
         0.24363E+06
         0.32187E+06
         0.51641E+06
         0.59747E+06
         0.23826E+06
         0.11240E+06
         0.10066E+06
        -0.42861E+05
        -0.33341E+06
        -0.56994E+06
        -0.63950E+06
        -0.45489E+06
         0.12499E+06
         0.29327E+06
         0.30869E+06
         0.48688E+06
         0.61862E+06
         0.39035E+06
         0.37406E+06
        -0.23236E+06
         0.57003E+05
        -0.10629E+06
        -0.78312E+05
         0.38831E+06
         0.24336E+06
         0.78043E+05
        -0.28313E+06
        -0.15406E+06
        -0.27550E+06
         0.53823E+05
        -0.14700E+06
        -0.45118E+06
         0.13405E+06
         0.34713E+06
        -0.26261E+06
         0.62899E+05
         0.34865E+05
         0.10671E+06
         0.35685E+05
         0.23785E+06
         0.17793E+06
        -0.10606E+06
         0.75634E+05
         0.15677E+06
        -0.28935E+05
         0.30499E+05
        -0.94682E+04
        -0.39153E+05
        -0.23783E+06
        -0.26072E+06
        -0.51187E+05
         0.12603E+06
         0.95209E+05
         0.66634E+05
        -0.23856E+06
        -0.36758E+06
         0.41464E+06
         0.94716E+05
         0.26685E+06
         0.41040E+06
        -0.12178E+06
        -0.24449E+06
        -0.33004E+06
        -0.38663E+06
        -0.28573E+06
         0.33912E+06
         0.32875E+06
        -0.68106E+05
         0.79844E+05
         0.42499E+06
         0.47090E+05
        -0.22116E+06
         0.30595E+06
        -0.58965E+06
        -0.63672E+06
        -0.54596E+06
        -0.26533E+06
         0.69743E+05
         0.24383E+06
         0.32168E+06
         0.51634E+06
         0.59744E+06
         0.23837E+06
         0.11240E+06
         0.10087E+06
        -0.42503E+05
        -0.33352E+06
        -0.57004E+06
        -0.63953E+06
        -0.45480E+06
         0.12505E+06
         0.29310E+06
         0.30859E+06
         0.48670E+06
         0.61853E+06
         0.39012E+06
         0.37376E+06
        -0.23269E+06
         0.57213E+05
        -0.10647E+06
        -0.78938E+05
         0.38823E+06
         0.24350E+06
         0.78634E+05
        -0.28250E+06
        -0.15419E+06
        -0.27515E+06
         0.52724E+05
        -0.14735E+06
        -0.45128E+06
         0.13411E+06
         0.34676E+06
        -0.26265E+06
         0.63625E+05
         0.34712E+05
         0.10674E+06
         0.35405E+05
         0.23839E+06
         0.17808E+06
        -0.10615E+06
         0.75564E+05
         0.15720E+06
        -0.28920E+05
         0.30883E+05
        -0.93635E+04
        -0.39068E+05
        -0.23800E+06
        -0.26087E+06
        -0.51008E+05
         0.12577E+06
         0.95407E+05
         0.65983E+05
        -0.23869E+06
        -0.36756E+06
         0.41487E+06
         0.95476E+05
         0.26743E+06
         0.41056E+06
        -0.12129E+06
        -0.24464E+06
        -0.33028E+06
        -0.38666E+06
        -0.28560E+06
         0.33910E+06
         0.32869E+06
        -0.67608E+05
         0.79592E+05
         0.42489E+06
         0.46386E+05
        -0.22102E+06
         0.30602E+06
        -0.58971E+06
        -0.63672E+06
        -0.54589E+06
        -0.26532E+06
         0.69847E+05
         0.24402E+06
         0.32149E+06
         0.51628E+06
         0.59741E+06
         0.23850E+06
         0.11241E+06
         0.10107E+06
        -0.42142E+05
        -0.33363E+06
        -0.57015E+06
        -0.63956E+06
        -0.45471E+06
         0.12511E+06
         0.29292E+06
         0.30850E+06
         0.48652E+06
         0.61845E+06
         0.38990E+06
         0.37346E+06
        -0.23302E+06
         0.57424E+05
        -0.10667E+06
        -0.79562E+05
         0.38815E+06
         0.24363E+06
         0.79224E+05
        -0.28186E+06
        -0.15430E+06
        -0.27477E+06
         0.51622E+05
        -0.14771E+06
        -0.45138E+06
         0.13417E+06
         0.34640E+06
        -0.26269E+06
         0.64368E+05
         0.34559E+05
         0.10676E+06
         0.35113E+05
         0.23894E+06
         0.17821E+06
        -0.10628E+06
         0.75463E+05
         0.15769E+06
        -0.28893E+05
         0.31312E+05
        -0.92777E+04
        -0.38905E+05
        -0.23815E+06
        -0.26102E+06
        -0.50780E+05
         0.12550E+06
         0.95604E+05
         0.65327E+05
        -0.23883E+06
        -0.36755E+06
         0.41510E+06
         0.96228E+05
         0.26801E+06
         0.41074E+06
        -0.12069E+06
        -0.24474E+06
        -0.33060E+06
        -0.38672E+06
        -0.28545E+06
         0.33908E+06
         0.32864E+06
        -0.67112E+05
         0.79344E+05
         0.42481E+06
         0.45677E+05
        -0.22089E+06
         0.30609E+06
        -0.58977E+06
        -0.63673E+06
        -0.54582E+06
        -0.26531E+06
         0.69949E+05
         0.24422E+06
         0.32130E+06
         0.51621E+06
         0.59739E+06
         0.23864E+06
         0.11243E+06
         0.10127E+06
        -0.41780E+05
        -0.33375E+06
        -0.57028E+06
        -0.63959E+06
        -0.45462E+06
         0.12518E+06
         0.29274E+06
         0.30840E+06
         0.48634E+06
         0.61836E+06
         0.38967E+06
         0.37316E+06
        -0.23334E+06
         0.57652E+05
        -0.10683E+06
        -0.80192E+05
         0.38806E+06
         0.24377E+06
         0.79806E+05
        -0.28121E+06
        -0.15441E+06
        -0.27439E+06
         0.50522E+05
        -0.14806E+06
        -0.45148E+06
         0.13424E+06
         0.34603E+06
        -0.26274E+06
         0.65127E+05
         0.34408E+05
         0.10679E+06
         0.34820E+05
         0.23948E+06
         0.17833E+06
        -0.10643E+06
         0.75353E+05
         0.15817E+06
        -0.28861E+05
         0.31773E+05
        -0.91987E+04
        -0.38707E+05
        -0.23831E+06
        -0.26116E+06
        -0.50523E+05
         0.12524E+06
         0.95804E+05
         0.64667E+05
        -0.23897E+06
        -0.36754E+06
         0.41532E+06
         0.96977E+05
         0.26858E+06
         0.41094E+06
        -0.12005E+06
        -0.24483E+06
        -0.33094E+06
        -0.38680E+06
        -0.28531E+06
         0.33905E+06
         0.32860E+06
        -0.66601E+05
         0.79117E+05
         0.42472E+06
         0.44968E+05
        -0.22075E+06
         0.30616E+06
        -0.58983E+06
        -0.63673E+06
        -0.54575E+06
        -0.26530E+06
         0.70050E+05
         0.24441E+06
         0.32111E+06
         0.51614E+06
         0.59738E+06
         0.23880E+06
         0.11245E+06
         0.10147E+06
        -0.41419E+05
        -0.33387E+06
        -0.57042E+06
        -0.63963E+06
        -0.45453E+06
         0.12523E+06
         0.29256E+06
         0.30830E+06
         0.48616E+06
         0.61828E+06
         0.38945E+06
         0.37286E+06
        -0.23364E+06
         0.57927E+05
        -0.10696E+06
        -0.80838E+05
         0.38799E+06
         0.24391E+06
         0.80378E+05
        -0.28056E+06
        -0.15452E+06
        -0.27402E+06
         0.49421E+05
        -0.14841E+06
        -0.45158E+06
         0.13438E+06
         0.34566E+06
        -0.26280E+06
         0.65897E+05
         0.34255E+05
         0.10682E+06
         0.34529E+05
         0.24003E+06
         0.17846E+06
        -0.10659E+06
         0.75248E+05
         0.15860E+06
        -0.28819E+05
         0.32316E+05
        -0.91179E+04
        -0.38497E+05
        -0.23849E+06
        -0.26128E+06
        -0.50238E+05
         0.12497E+06
         0.96001E+05
         0.64005E+05
        -0.23913E+06
        -0.36754E+06
         0.41554E+06
         0.97729E+05
         0.26917E+06
         0.41114E+06
        -0.11941E+06
        -0.24491E+06
        -0.33128E+06
        -0.38689E+06
        -0.28518E+06
         0.33901E+06
         0.32861E+06
        -0.66043E+05
         0.78946E+05
         0.42464E+06
         0.44248E+05
        -0.22061E+06
         0.30623E+06
        -0.58989E+06
        -0.63673E+06
        -0.54568E+06
        -0.26530E+06
         0.70151E+05
         0.24461E+06
         0.32092E+06
         0.51608E+06
         0.59736E+06
         0.23896E+06
         0.11246E+06
         0.10167E+06
        -0.41057E+05
        -0.33398E+06
        -0.57055E+06
        -0.63966E+06
        -0.45444E+06
         0.12528E+06
         0.29237E+06
         0.30820E+06
         0.48599E+06
         0.61819E+06
         0.38922E+06
         0.37256E+06
        -0.23392E+06
         0.58216E+05
        -0.10708E+06
        -0.81490E+05
         0.38791E+06
         0.24404E+06
         0.80942E+05
        -0.27990E+06
        -0.15464E+06
        -0.27367E+06
         0.48320E+05
        -0.14876E+06
        -0.45168E+06
         0.13455E+06
         0.34529E+06
        -0.26286E+06
         0.66675E+05
         0.34102E+05
         0.10685E+06
         0.34243E+05
         0.24057E+06
         0.17859E+06
        -0.10673E+06
         0.75145E+05
         0.15899E+06
        -0.28773E+05
         0.32881E+05
        -0.90346E+04
        -0.38282E+05
        -0.23868E+06
        -0.26140E+06
        -0.49935E+05
         0.12469E+06
         0.96200E+05
         0.63337E+05
        -0.23929E+06
        -0.36755E+06
         0.41575E+06
         0.98479E+05
         0.26974E+06
         0.41134E+06
        -0.11876E+06
        -0.24498E+06
        -0.33162E+06
        -0.38698E+06
        -0.28506E+06
         0.33896E+06
         0.32862E+06
        -0.65466E+05
         0.78801E+05
         0.42456E+06
         0.43527E+05
        -0.22047E+06
         0.30630E+06
        -0.58995E+06
        -0.63673E+06
        -0.54561E+06
        -0.26529E+06
         0.70252E+05
         0.24480E+06
         0.32073E+06
         0.51602E+06
         0.59734E+06
         0.23912E+06
         0.11248E+06
         0.10188E+06
        -0.40694E+05
        -0.33410E+06
        -0.57069E+06
        -0.63969E+06
        -0.45435E+06
         0.12533E+06
         0.29217E+06
         0.30810E+06
         0.48582E+06
         0.61811E+06
         0.38900E+06
         0.37226E+06
        -0.23420E+06
         0.58508E+05
        -0.10719E+06
        -0.82142E+05
         0.38783E+06
         0.24418E+06
         0.81504E+05
        -0.27925E+06
        -0.15475E+06
        -0.27331E+06
         0.47219E+05
        -0.14911E+06
        -0.45179E+06
         0.13472E+06
         0.34492E+06
        -0.26293E+06
         0.67459E+05
         0.33948E+05
         0.10687E+06
         0.33953E+05
         0.24112E+06
         0.17871E+06
        -0.10689E+06
         0.75046E+05
         0.15939E+06
        -0.28727E+05
         0.33459E+05
        -0.89464E+04
        -0.38062E+05
        -0.23887E+06
        -0.26151E+06
        -0.49637E+05
         0.12441E+06
         0.96398E+05
         0.62665E+05
        -0.23944E+06
        -0.36756E+06
         0.41596E+06
         0.99229E+05
         0.27032E+06
         0.41155E+06
        -0.11811E+06
        -0.24505E+06
        -0.33196E+06
        -0.38708E+06
        -0.28495E+06
         0.33891E+06
         0.32864E+06
        -0.64888E+05
         0.78662E+05
         0.42448E+06
         0.42802E+05
        -0.22033E+06
         0.30637E+06
        -0.59001E+06
        -0.63673E+06
        -0.54554E+06
        -0.26528E+06
         0.70353E+05
         0.24499E+06
         0.32054E+06
         0.51595E+06
         0.59732E+06
         0.23927E+06
         0.11251E+06
         0.10208E+06
        -0.40333E+05
        -0.33422E+06
        -0.57083E+06
        -0.63973E+06
        -0.45426E+06
         0.12537E+06
         0.29198E+06
         0.30800E+06
         0.48565E+06
         0.61802E+06
         0.38877E+06
         0.37196E+06
        -0.23448E+06
         0.58803E+05
        -0.10730E+06
        -0.82793E+05
         0.38775E+06
         0.24431E+06
         0.82070E+05
        -0.27859E+06
        -0.15487E+06
        -0.27295E+06
         0.46117E+05
        -0.14945E+06
        -0.45189E+06
         0.13488E+06
         0.34455E+06
        -0.26299E+06
         0.68248E+05
         0.33796E+05
         0.10689E+06
         0.33664E+05
         0.24166E+06
         0.17884E+06
        -0.10703E+06
         0.74946E+05
         0.15978E+06
        -0.28680E+05
         0.34021E+05
        -0.88545E+04
        -0.37835E+05
        -0.23906E+06
        -0.26163E+06
        -0.49335E+05
         0.12413E+06
         0.96597E+05
         0.61995E+05
        -0.23961E+06
        -0.36757E+06
         0.41617E+06
         0.99978E+05
         0.27091E+06
         0.41175E+06
        -0.11747E+06
        -0.24513E+06
        -0.33230E+06
        -0.38717E+06
        -0.28482E+06
         0.33887E+06
         0.32866E+06
        -0.64314E+05
         0.78511E+05
         0.42440E+06
         0.42080E+05
        -0.22019E+06
         0.30644E+06
        -0.59007E+06
        -0.63673E+06
        -0.54546E+06
        -0.26527E+06
         0.70454E+05
         0.24519E+06
         0.32034E+06
         0.51589E+06
         0.59731E+06
         0.23942E+06
         0.11253E+06
         0.10229E+06
        -0.39972E+05
        -0.33434E+06
        -0.57096E+06
        -0.63976E+06
        -0.45417E+06
         0.12542E+06
         0.29178E+06
         0.30790E+06
         0.48548E+06
         0.61793E+06
         0.38855E+06
         0.37165E+06
        -0.23475E+06
         0.59096E+05
        -0.10741E+06
        -0.83443E+05
         0.38767E+06
         0.24444E+06
         0.82637E+05
        -0.27793E+06
        -0.15499E+06
        -0.27260E+06
         0.45011E+05
        -0.14981E+06
        -0.45200E+06
         0.13505E+06
         0.34418E+06
        -0.26305E+06
         0.69042E+05
         0.33645E+05
         0.10693E+06
         0.33373E+05
         0.24220E+06
         0.17896E+06
        -0.10718E+06
         0.74849E+05
         0.16017E+06
        -0.28633E+05
         0.34594E+05
        -0.87571E+04
        -0.37602E+05
        -0.23924E+06
        -0.26174E+06
        -0.49036E+05
         0.12384E+06
         0.96795E+05
         0.61322E+05
        -0.23977E+06
        -0.36758E+06
         0.41639E+06
         0.10073E+06
         0.27148E+06
         0.41195E+06
        -0.11683E+06
        -0.24521E+06
        -0.33264E+06
        -0.38727E+06
        -0.28471E+06
         0.33882E+06
         0.32868E+06
        -0.63734E+05
         0.78364E+05
         0.42432E+06
         0.41353E+05
        -0.22005E+06
         0.30651E+06
        -0.59012E+06
        -0.63673E+06
        -0.54539E+06
        -0.26526E+06
         0.70553E+05
         0.24538E+06
         0.32015E+06
         0.51583E+06
         0.59729E+06
         0.23958E+06
         0.11255E+06
         0.10249E+06
        -0.39610E+05
        -0.33446E+06
        -0.57110E+06
        -0.63980E+06
        -0.45408E+06
         0.12546E+06
         0.29159E+06
         0.30780E+06
         0.48531E+06
         0.61785E+06
         0.38833E+06
         0.37135E+06
        -0.23503E+06
         0.59388E+05
        -0.10752E+06
        -0.84100E+05
         0.38759E+06
         0.24457E+06
         0.83202E+05
        -0.27726E+06
        -0.15510E+06
        -0.27223E+06
         0.43907E+05
        -0.15016E+06
        -0.45210E+06
         0.13522E+06
         0.34380E+06
        -0.26311E+06
         0.69839E+05
         0.33492E+05
         0.10695E+06
         0.33086E+05
         0.24275E+06
         0.17908E+06
        -0.10733E+06
         0.74754E+05
         0.16055E+06
        -0.28587E+05
         0.35153E+05
        -0.86563E+04
        -0.37360E+05
        -0.23943E+06
        -0.26185E+06
        -0.48736E+05
         0.12355E+06
         0.96996E+05
         0.60646E+05
        -0.23993E+06
        -0.36759E+06
         0.41659E+06
         0.10147E+06
         0.27206E+06
         0.41215E+06
        -0.11619E+06
        -0.24528E+06
        -0.33298E+06
        -0.38736E+06
        -0.28460E+06
         0.33877E+06
         0.32870E+06
        -0.63153E+05
         0.78225E+05
         0.42424E+06
         0.40628E+05
        -0.21991E+06
         0.30657E+06
        -0.59018E+06
        -0.63673E+06
        -0.54532E+06
        -0.26526E+06
         0.70653E+05
         0.24557E+06
         0.31996E+06
         0.51576E+06
         0.59727E+06
         0.23973E+06
         0.11257E+06
         0.10269E+06
        -0.39247E+05
        -0.33457E+06
        -0.57123E+06
        -0.63983E+06
        -0.45399E+06
         0.12551E+06
         0.29139E+06
         0.30770E+06
         0.48514E+06
         0.61776E+06
         0.38811E+06
         0.37105E+06
        -0.23531E+06
         0.59682E+05
        -0.10762E+06
        -0.84758E+05
         0.38751E+06
         0.24471E+06
         0.83767E+05
        -0.27660E+06
        -0.15521E+06
        -0.27187E+06
         0.42804E+05
        -0.15051E+06
        -0.45220E+06
         0.13538E+06
         0.34343E+06
        -0.26317E+06
         0.70638E+05
         0.33338E+05
         0.10698E+06
         0.32800E+05
         0.24329E+06
         0.17920E+06
        -0.10748E+06
         0.74658E+05
         0.16093E+06
        -0.28538E+05
         0.35728E+05
        -0.85503E+04
        -0.37115E+05
        -0.23961E+06
        -0.26197E+06
        -0.48432E+05
         0.12326E+06
         0.97195E+05
         0.59970E+05
        -0.24009E+06
        -0.36760E+06
         0.41680E+06
         0.10222E+06
         0.27264E+06
         0.41234E+06
        -0.11555E+06
        -0.24535E+06
        -0.33331E+06
        -0.38746E+06
        -0.28447E+06
         0.33872E+06
         0.32872E+06
        -0.62569E+05
         0.78077E+05
         0.42415E+06
         0.39903E+05
        -0.21977E+06
         0.30664E+06
        -0.59024E+06
        -0.63673E+06
        -0.54525E+06
        -0.26525E+06
         0.70754E+05
         0.24576E+06
         0.31977E+06
         0.51570E+06
         0.59725E+06
         0.23989E+06
         0.11259E+06
         0.10290E+06
        -0.38885E+05
        -0.33469E+06
        -0.57137E+06
        -0.63986E+06
        -0.45390E+06
         0.12555E+06
         0.29119E+06
         0.30760E+06
         0.48497E+06
         0.61768E+06
         0.38789E+06
         0.37075E+06
        -0.23559E+06
         0.59972E+05
        -0.10773E+06
        -0.85416E+05
         0.38744E+06
         0.24484E+06
         0.84334E+05
        -0.27593E+06
        -0.15533E+06
        -0.27150E+06
         0.41700E+05
        -0.15086E+06
        -0.45231E+06
         0.13554E+06
         0.34305E+06
        -0.26323E+06
         0.71444E+05
         0.33187E+05
         0.10702E+06
         0.32516E+05
         0.24383E+06
         0.17933E+06
        -0.10763E+06
         0.74563E+05
         0.16131E+06
        -0.28489E+05
         0.36289E+05
        -0.84408E+04
        -0.36865E+05
        -0.23979E+06
        -0.26208E+06
        -0.48132E+05
         0.12296E+06
         0.97395E+05
         0.59291E+05
        -0.24025E+06
        -0.36760E+06
         0.41700E+06
         0.10297E+06
         0.27322E+06
         0.41254E+06
        -0.11491E+06
        -0.24543E+06
        -0.33365E+06
        -0.38756E+06
        -0.28435E+06
         0.33867E+06
         0.32874E+06
        -0.61986E+05
         0.77930E+05
         0.42408E+06
         0.39182E+05
        -0.21963E+06
         0.30671E+06
        -0.59030E+06
        -0.63673E+06
        -0.54518E+06
        -0.26524E+06
         0.70855E+05
         0.24595E+06
         0.31958E+06
         0.51564E+06
         0.59723E+06
         0.24004E+06
         0.11261E+06
         0.10310E+06
        -0.38524E+05
        -0.33481E+06
        -0.57150E+06
        -0.63990E+06
        -0.45381E+06
         0.12559E+06
         0.29100E+06
         0.30750E+06
         0.48480E+06
         0.61759E+06
         0.38767E+06
         0.37044E+06
        -0.23587E+06
         0.60260E+05
        -0.10784E+06
        -0.86074E+05
         0.38735E+06
         0.24497E+06
         0.84900E+05
        -0.27526E+06
        -0.15544E+06
        -0.27113E+06
         0.40595E+05
        -0.15121E+06
        -0.45241E+06
         0.13569E+06
         0.34268E+06
        -0.26329E+06
         0.72255E+05
         0.33036E+05
         0.10705E+06
         0.32228E+05
         0.24437E+06
         0.17944E+06
        -0.10777E+06
         0.74470E+05
         0.16168E+06
        -0.28440E+05
         0.36858E+05
        -0.83260E+04
        -0.36610E+05
        -0.23997E+06
        -0.26219E+06
        -0.47829E+05
         0.12266E+06
         0.97594E+05
         0.58614E+05
        -0.24041E+06
        -0.36761E+06
         0.41720E+06
         0.10371E+06
         0.27380E+06
         0.41274E+06
        -0.11427E+06
        -0.24550E+06
        -0.33398E+06
        -0.38765E+06
        -0.28424E+06
         0.33862E+06
         0.32876E+06
        -0.61394E+05
         0.77787E+05
         0.42400E+06
         0.38455E+05
        -0.21949E+06
         0.30677E+06
        -0.59036E+06
        -0.63673E+06
        -0.54510E+06
        -0.26523E+06
         0.70953E+05
         0.24614E+06
         0.31938E+06
         0.51558E+06
         0.59721E+06
         0.24020E+06
         0.11263E+06
         0.10331E+06
        -0.38163E+05
        -0.33492E+06
        -0.57164E+06
        -0.63993E+06
        -0.45372E+06
         0.12563E+06
         0.29080E+06
         0.30740E+06
         0.48463E+06
         0.61750E+06
         0.38745E+06
         0.37014E+06
        -0.23615E+06
         0.60556E+05
        -0.10795E+06
        -0.86729E+05
         0.38727E+06
         0.24510E+06
         0.85465E+05
        -0.27459E+06
        -0.15555E+06
        -0.27076E+06
         0.39488E+05
        -0.15156E+06
        -0.45251E+06
         0.13585E+06
         0.34230E+06
        -0.26335E+06
         0.73072E+05
         0.32886E+05
         0.10708E+06
         0.31945E+05
         0.24491E+06
         0.17956E+06
        -0.10792E+06
         0.74378E+05
         0.16204E+06
        -0.28390E+05
         0.37413E+05
        -0.82069E+04
        -0.36350E+05
        -0.24015E+06
        -0.26229E+06
        -0.47529E+05
         0.12236E+06
         0.97797E+05
         0.57930E+05
        -0.24057E+06
        -0.36762E+06
         0.41740E+06
         0.10446E+06
         0.27437E+06
         0.41294E+06
        -0.11363E+06
        -0.24558E+06
        -0.33431E+06
        -0.38775E+06
        -0.28412E+06
         0.33857E+06
         0.32878E+06
        -0.60807E+05
         0.77637E+05
         0.42391E+06
         0.37727E+05
        -0.21935E+06
         0.30684E+06
        -0.59041E+06
        -0.63673E+06
        -0.54503E+06
        -0.26522E+06
         0.71051E+05
         0.24633E+06
         0.31919E+06
         0.51551E+06
         0.59719E+06
         0.24035E+06
         0.11265E+06
         0.10351E+06
        -0.37801E+05
        -0.33504E+06
        -0.57177E+06
        -0.63996E+06
        -0.45363E+06
         0.12568E+06
         0.29060E+06
         0.30730E+06
         0.48447E+06
         0.61742E+06
         0.38723E+06
         0.36984E+06
        -0.23643E+06
         0.60846E+05
        -0.10806E+06
        -0.87389E+05
         0.38719E+06
         0.24523E+06
         0.86035E+05
        -0.27392E+06
        -0.15565E+06
        -0.27038E+06
         0.38379E+05
        -0.15191E+06
        -0.45262E+06
         0.13600E+06
         0.34192E+06
        -0.26341E+06
         0.73896E+05
         0.32735E+05
         0.10711E+06
         0.31663E+05
         0.24545E+06
         0.17967E+06
        -0.10806E+06
         0.74287E+05
         0.16239E+06
        -0.28339E+05
         0.37982E+05
        -0.80816E+04
        -0.36081E+05
        -0.24033E+06
        -0.26240E+06
        -0.47228E+05
         0.12205E+06
         0.98001E+05
         0.57246E+05
        -0.24072E+06
        -0.36762E+06
         0.41759E+06
         0.10521E+06
         0.27496E+06
         0.41314E+06
        -0.11300E+06
        -0.24566E+06
        -0.33465E+06
        -0.38784E+06
        -0.28400E+06
         0.33852E+06
         0.32880E+06
        -0.60223E+05
         0.77488E+05
         0.42383E+06
         0.37004E+05
        -0.21920E+06
         0.30690E+06
        -0.59047E+06
        -0.63673E+06
        -0.54496E+06
        -0.26521E+06
         0.71148E+05
         0.24652E+06
         0.31900E+06
         0.51545E+06
         0.59718E+06
         0.24051E+06
         0.11266E+06
         0.10371E+06
        -0.37441E+05
        -0.33515E+06
        -0.57191E+06
        -0.64000E+06
        -0.45354E+06
         0.12572E+06
         0.29041E+06
         0.30720E+06
         0.48430E+06
         0.61733E+06
         0.38701E+06
         0.36953E+06
        -0.23671E+06
         0.61136E+05
        -0.10816E+06
        -0.88051E+05
         0.38711E+06
         0.24536E+06
         0.86600E+05
        -0.27325E+06
        -0.15575E+06
        -0.26997E+06
         0.37270E+05
        -0.15227E+06
        -0.45272E+06
         0.13616E+06
         0.34154E+06
        -0.26347E+06
         0.74729E+05
         0.32583E+05
         0.10715E+06
         0.31395E+05
         0.24599E+06
         0.17978E+06
        -0.10821E+06
         0.74192E+05
         0.16272E+06
        -0.28290E+05
         0.38547E+05
        -0.79471E+04
        -0.35809E+05
        -0.24051E+06
        -0.26251E+06
        -0.46921E+05
         0.12174E+06
         0.98204E+05
         0.56562E+05
        -0.24089E+06
        -0.36763E+06
         0.41777E+06
         0.10598E+06
         0.27553E+06
         0.41334E+06
        -0.11237E+06
        -0.24574E+06
        -0.33498E+06
        -0.38794E+06
        -0.28388E+06
         0.33847E+06
         0.32882E+06
        -0.59640E+05
         0.77340E+05
         0.42376E+06
         0.36280E+05
        -0.21906E+06
         0.30697E+06
        -0.59052E+06
        -0.63673E+06
        -0.54489E+06
        -0.26521E+06
         0.71246E+05
         0.24670E+06
         0.31881E+06
         0.51539E+06
         0.59716E+06
         0.24066E+06
         0.11267E+06
         0.10391E+06
        -0.37082E+05
        -0.33527E+06
        -0.57204E+06
        -0.64003E+06
        -0.45345E+06
         0.12576E+06
         0.29021E+06
         0.30710E+06
         0.48413E+06
         0.61725E+06
         0.38680E+06
         0.36923E+06
        -0.23699E+06
         0.61424E+05
        -0.10826E+06
        -0.88713E+05
         0.38703E+06
         0.24548E+06
         0.87167E+05
        -0.27257E+06
        -0.15584E+06
        -0.26953E+06
         0.36162E+05
        -0.15262E+06
        -0.45282E+06
         0.13631E+06
         0.34115E+06
        -0.26353E+06
         0.75574E+05
         0.32432E+05
         0.10718E+06
         0.31135E+05
         0.24653E+06
         0.17989E+06
        -0.10836E+06
         0.74102E+05
         0.16303E+06
        -0.28238E+05
         0.39136E+05
        -0.78019E+04
        -0.35531E+05
        -0.24069E+06
        -0.26261E+06
        -0.46619E+05
         0.12143E+06
         0.98406E+05
         0.55873E+05
        -0.24105E+06
        -0.36764E+06
         0.41795E+06
         0.10678E+06
         0.27611E+06
         0.41354E+06
        -0.11174E+06
        -0.24584E+06
        -0.33531E+06
        -0.38804E+06
        -0.28377E+06
         0.33843E+06
         0.32884E+06
        -0.59049E+05
         0.77194E+05
         0.42367E+06
         0.35550E+05
        -0.21892E+06
         0.30703E+06
        -0.59058E+06
        -0.63673E+06
        -0.54482E+06
        -0.26520E+06
         0.71343E+05
         0.24689E+06
         0.31863E+06
         0.51533E+06
         0.59716E+06
         0.24081E+06
         0.11267E+06
         0.10411E+06
        -0.36721E+05
        -0.33538E+06
        -0.57218E+06
        -0.64006E+06
        -0.45336E+06
         0.12580E+06
         0.29001E+06
         0.30700E+06
         0.48396E+06
         0.61716E+06
         0.38658E+06
         0.36892E+06
        -0.23727E+06
         0.61715E+05
        -0.10837E+06
        -0.89374E+05
         0.38695E+06
         0.24561E+06
         0.87735E+05
        -0.27190E+06
        -0.15591E+06
        -0.26908E+06
         0.35060E+05
        -0.15296E+06
        -0.45292E+06
         0.13645E+06
         0.34076E+06
        -0.26359E+06
         0.76425E+05
         0.32282E+05
         0.10721E+06
         0.30882E+05
         0.24707E+06
         0.17999E+06
        -0.10850E+06
         0.74019E+05
         0.16332E+06
        -0.28189E+05
         0.39710E+05
        -0.76495E+04
        -0.35251E+05
        -0.24086E+06
        -0.26272E+06
        -0.46323E+05
         0.12111E+06
         0.98613E+05
         0.55190E+05
        -0.24120E+06
        -0.36764E+06
         0.41811E+06
         0.10759E+06
         0.27667E+06
         0.41374E+06
        -0.11112E+06
        -0.24594E+06
        -0.33564E+06
        -0.38813E+06
        -0.28365E+06
         0.33838E+06
         0.32886E+06
        -0.58464E+05
         0.77040E+05
         0.42360E+06
         0.34823E+05
        -0.21877E+06
         0.30710E+06
        -0.59064E+06
        -0.63673E+06
        -0.54474E+06
        -0.26519E+06
         0.71439E+05
         0.24707E+06
         0.31845E+06
         0.51527E+06
         0.59715E+06
         0.24095E+06
         0.11265E+06
         0.10431E+06
        -0.36360E+05
        -0.33549E+06
        -0.57231E+06
        -0.64010E+06
        -0.45327E+06
         0.12585E+06
         0.28982E+06
         0.30691E+06
         0.48379E+06
         0.61707E+06
         0.38637E+06
         0.36862E+06
        -0.22475E+06
         0.54815E+05
        -0.95508E+05
        -0.90687E+05
         0.35821E+06
         0.21910E+06
         0.88923E+05
        -0.25225E+06
        -0.14078E+06
        -0.24909E+06
         0.31599E+05
        -0.14736E+06
        -0.43093E+06
         0.11760E+06
         0.32824E+06
        -0.24335E+06
         0.77811E+05
         0.32384E+05
         0.98654E+05
         0.30876E+05
         0.23786E+06
         0.17204E+06
        -0.10399E+06
         0.74533E+05
         0.14303E+06
        -0.28380E+05
         0.34727E+05
        -0.75497E+04
        -0.35307E+05
        -0.21003E+06
        -0.23778E+06
        -0.46457E+05
         0.12175E+06
         0.99567E+05
         0.51346E+05
        -0.21618E+06
        -0.34081E+06
         0.39942E+06
         0.10149E+06
         0.25768E+06
         0.39602E+06
        -0.10557E+06
        -0.23593E+06
        -0.31878E+06
        -0.36251E+06
        -0.26853E+06
         0.31010E+06
         0.29866E+06
        -0.51250E+05
         0.69064E+05
         0.39842E+06
         0.31058E+05
        -0.21585E+06
         0.30369E+06
        -0.58436E+06
        -0.63026E+06
        -0.53949E+06
        -0.26273E+06
         0.70834E+05
         0.24413E+06
         0.31401E+06
         0.50886E+06
         0.59000E+06
         0.23843E+06
         0.11118E+06
         0.10317E+06
        -0.35637E+05
        -0.33237E+06
        -0.56723E+06
        -0.63437E+06
        -0.44804E+06
         0.12456E+06
         0.28640E+06
         0.30322E+06
         0.47827E+06
         0.60985E+06
         0.38203E+06
         0.36430E+06
        -0.67637E+05
         0.96727E+04
        -0.16356E+05
        -0.15470E+05
         0.84786E+05
         0.39883E+05
         0.11192E+05
        -0.62068E+05
        -0.28314E+05
        -0.59690E+05
         0.34615E+04
        -0.54630E+05
        -0.13621E+06
         0.17213E+05
         0.12694E+06
        -0.57550E+05
         0.11392E+05
         0.60741E+04
         0.14352E+05
         0.38848E+04
         0.86530E+05
         0.57686E+05
        -0.36097E+05
         0.10940E+05
         0.23183E+05
        -0.45848E+04
         0.51914E+04
        -0.79507E+03
        -0.37269E+04
        -0.33300E+05
        -0.48365E+05
        -0.69425E+04
         0.20438E+05
         0.15608E+05
         0.13959E+05
        -0.39954E+05
        -0.81484E+05
         0.13321E+06
         0.27004E+05
         0.63234E+05
         0.13619E+06
        -0.34797E+05
        -0.83382E+05
        -0.97840E+05
        -0.92728E+05
        -0.79783E+05
         0.67056E+05
         0.60884E+05
        -0.88287E+04
         0.13068E+05
         0.11011E+06
         0.63611E+04
        -0.13776E+06
         0.20118E+06
        -0.39509E+06
        -0.43405E+06
        -0.37930E+06
        -0.18739E+06
         0.49203E+05
         0.15764E+06
         0.19736E+06
         0.32921E+06
         0.38529E+06
         0.16111E+06
         0.71129E+05
         0.66496E+05
        -0.24118E+05
        -0.23333E+06
        -0.40437E+06
        -0.45260E+06
        -0.29665E+06
         0.83975E+05
         0.19042E+06
         0.19939E+06
         0.31965E+06
         0.40251E+06
         0.25886E+06
         0.24513E+06
  
SCALARS                      strain_xx  double 1
LOOKUP_TABLE default
        -0.91534E-07
        -0.44744E-05
        -0.49306E-04
        -0.23718E-06
        -0.13243E-19
        -0.16649E-20
        -0.18616E-19
        -0.74252E-21
        -0.38581E-03
        -0.17325E-03
        -0.16654E-18
        -0.13512E-18
        -0.68344E-06
        -0.11368E-04
        -0.25334E-20
        -0.55594E-19
        -0.50563E-06
        -0.10485E-04
        -0.29007E-19
        -0.64342E-19
        -0.22038E-04
        -0.61485E-04
        -0.56677E-04
        -0.28689E-19
        -0.61004E-20
        -0.18620E-19
        -0.68650E-04
        -0.44072E-04
        -0.10052E-18
        -0.63256E-19
        -0.27657E-05
        -0.13344E-04
        -0.12757E-06
        -0.10420E-20
        -0.15561E-19
        -0.59062E-20
        -0.24035E-04
        -0.54194E-05
        -0.34301E-19
        -0.38886E-19
        -0.94387E-04
        -0.18508E-03
        -0.17453E-18
        -0.94916E-19
        -0.11010E-03
        -0.31482E-04
        -0.21048E-18
        -0.48763E-19
        -0.85243E-05
        -0.19213E-19
        -0.51792E-04
        -0.14887E-20
        -0.89947E-05
        -0.73358E-19
        -0.49777E-05
        -0.51331E-20
        -0.95298E-04
        -0.73835E-05
        -0.37669E-20
        -0.22008E-19
        -0.31519E-07
        -0.23785E-04
        -0.15069E-19
        -0.70861E-20
        -0.16265E-05
        -0.15246E-21
        -0.18045E-04
        -0.65962E-20
        -0.75978E-03
        -0.35577E-03
        -0.25769E-18
        -0.13555E-18
        -0.14620E-03
        -0.71865E-19
        -0.74574E-05
        -0.34389E-19
        -0.72669E-04
        -0.13246E-20
        -0.32740E-03
        -0.31884E-20
        -0.58087E-03
        -0.29690E-03
        -0.42822E-19
        -0.56010E-19
        -0.23780E-03
        -0.64781E-19
        -0.16185E-03
        -0.13428E-18
        -0.62128E-04
        -0.54629E-19
        -0.15263E-03
        -0.82163E-04
        -0.99507E-20
        -0.18714E-19
        -0.43192E-05
        -0.25747E-19
        -0.32681E-04
        -0.45394E-20
        -0.18770E-03
        -0.27681E-19
        -0.40960E-03
        -0.19367E-03
        -0.14717E-18
        -0.16025E-18
        -0.24040E-02
        -0.29785E-02
        -0.50247E-18
        -0.48798E-18
        -0.23533E-02
        -0.36671E-18
        -0.19785E-02
        -0.20480E-18
        -0.10063E-02
        -0.61849E-19
        -0.51666E-03
        -0.70723E-21
        -0.69121E-04
        -0.89717E-20
        -0.11270E-03
        -0.57428E-20
        -0.64061E-03
        -0.55478E-20
        -0.14151E-02
        -0.28213E-19
        -0.26109E-02
        -0.10212E-18
        -0.39905E-02
        -0.14542E-18
        -0.46703E-02
        -0.12945E-18
        -0.43193E-02
        -0.15308E-18
        -0.36941E-02
        -0.25785E-18
        -0.30225E-02
        -0.35854E-18
        -0.23501E-02
        -0.30984E-18
        -0.14445E-02
        -0.20464E-18
        -0.48684E-03
        -0.45608E-19
        -0.35506E-05
        -0.16630E-20
        -0.15288E-03
        -0.98024E-20
        -0.37676E-03
        -0.26211E-19
        -0.84369E-03
        -0.10039E-18
        -0.14670E-02
        -0.27032E-18
        -0.25536E-02
        -0.39019E-18
        -0.34034E-02
        -0.40820E-18
        -0.18621E-05
        -0.51360E-06
        -0.70525E-06
        -0.27944E-05
        -0.43644E-04
        -0.25595E-04
        -0.59784E-06
        -0.12741E-05
        -0.32928E-06
        -0.10622E-05
        -0.33168E-06
        -0.62447E-05
        -0.26969E-04
        -0.27566E-05
        -0.40182E-05
        -0.49549E-05
        -0.35044E-05
        -0.74408E-06
        -0.18633E-05
        -0.21435E-05
        -0.64615E-04
        -0.72851E-04
        -0.60027E-04
        -0.57811E-05
        -0.92023E-06
        -0.51135E-06
        -0.53661E-05
        -0.67370E-07
        -0.71365E-05
        -0.33142E-05
        -0.39580E-05
        -0.15585E-06
        -0.87899E-06
        -0.93267E-07
        -0.97759E-04
        -0.39129E-04
        -0.31828E-04
        -0.15726E-04
        -0.51074E-05
        -0.23666E-04
        -0.10111E-03
        -0.85925E-04
        -0.81860E-04
        -0.44371E-04
        -0.23105E-04
        -0.14423E-04
        -0.50024E-06
        -0.85608E-05
        -0.71689E-06
        -0.73126E-05
        -0.52945E-04
        -0.36831E-04
        -0.86160E-03
        -0.93668E-03
        -0.75042E-03
        -0.54146E-03
        -0.30065E-03
        -0.78680E-04
        -0.27900E-06
        -0.40269E-04
        -0.93367E-04
        -0.27550E-03
        -0.73401E-03
        -0.10659E-02
        -0.88623E-03
        -0.81218E-03
        -0.90170E-03
        -0.89775E-03
        -0.74131E-03
        -0.57273E-03
        -0.15020E-03
        -0.37363E-05
        -0.54751E-04
        -0.68012E-04
        -0.19530E-03
        -0.50148E-03
        -0.83522E-03
        -0.91907E-03
        -0.55236E-05
        -0.23275E-06
        -0.84359E-06
        -0.71519E-05
        -0.30093E-04
        -0.21977E-04
        -0.18655E-05
        -0.88900E-05
        -0.18769E-05
        -0.80349E-05
        -0.32791E-06
        -0.43652E-05
        -0.47241E-04
        -0.27781E-04
        -0.29808E-04
        -0.21319E-04
        -0.66073E-05
        -0.23703E-05
        -0.10735E-05
        -0.33107E-05
        -0.11656E-03
        -0.10587E-03
        -0.10309E-03
        -0.60309E-05
        -0.19456E-05
        -0.88206E-06
        -0.25941E-04
        -0.45735E-06
        -0.29055E-05
        -0.54032E-05
        -0.12584E-04
        -0.52691E-05
        -0.52936E-05
        -0.39430E-05
        -0.95714E-04
        -0.29155E-04
        -0.38362E-04
        -0.36656E-04
        -0.10275E-05
        -0.86372E-05
        -0.11658E-03
        -0.12336E-03
        -0.11786E-03
        -0.61617E-04
        -0.36540E-04
        -0.12510E-04
        -0.14612E-04
        -0.20365E-04
        -0.35584E-06
        -0.51586E-06
        -0.54201E-04
        -0.42058E-04
        -0.16735E-02
        -0.16995E-02
        -0.13695E-02
        -0.93167E-03
        -0.51874E-03
        -0.11004E-03
        -0.67833E-05
        -0.71207E-04
        -0.12357E-03
        -0.41523E-03
        -0.13100E-02
        -0.18231E-02
        -0.12819E-02
        -0.11602E-02
        -0.14083E-02
        -0.14937E-02
        -0.12444E-02
        -0.11135E-02
        -0.28905E-03
        -0.19527E-04
        -0.95511E-04
        -0.98031E-04
        -0.30989E-03
        -0.92898E-03
        -0.15220E-02
        -0.15124E-02
        -0.55445E-05
        -0.23449E-06
        -0.84678E-06
        -0.71616E-05
        -0.30035E-04
        -0.21936E-04
        -0.18893E-05
        -0.88451E-05
        -0.18810E-05
        -0.80223E-05
        -0.31477E-06
        -0.43865E-05
        -0.47298E-04
        -0.27644E-04
        -0.29776E-04
        -0.21364E-04
        -0.66363E-05
        -0.23572E-05
        -0.10724E-05
        -0.32991E-05
        -0.11654E-03
        -0.10585E-03
        -0.10308E-03
        -0.60315E-05
        -0.19544E-05
        -0.88501E-06
        -0.25957E-04
        -0.44031E-06
        -0.29465E-05
        -0.54101E-05
        -0.12621E-04
        -0.52678E-05
        -0.52496E-05
        -0.39466E-05
        -0.95811E-04
        -0.29129E-04
        -0.38338E-04
        -0.36774E-04
        -0.10473E-05
        -0.86917E-05
        -0.11673E-03
        -0.12350E-03
        -0.11787E-03
        -0.61599E-04
        -0.36514E-04
        -0.12497E-04
        -0.14606E-04
        -0.20378E-04
        -0.35067E-06
        -0.51235E-06
        -0.54131E-04
        -0.41934E-04
        -0.16723E-02
        -0.16986E-02
        -0.13693E-02
        -0.93168E-03
        -0.51842E-03
        -0.10998E-03
        -0.67987E-05
        -0.71295E-04
        -0.12336E-03
        -0.41491E-03
        -0.13096E-02
        -0.18232E-02
        -0.12816E-02
        -0.11601E-02
        -0.14086E-02
        -0.14944E-02
        -0.12448E-02
        -0.11139E-02
        -0.28889E-03
        -0.19545E-04
        -0.95371E-04
        -0.97953E-04
        -0.30943E-03
        -0.92784E-03
        -0.15205E-02
        -0.15111E-02
        -0.55655E-05
        -0.23620E-06
        -0.84996E-06
        -0.71711E-05
        -0.29976E-04
        -0.21896E-04
        -0.19133E-05
        -0.88002E-05
        -0.18849E-05
        -0.80087E-05
        -0.30193E-06
        -0.44077E-05
        -0.47356E-04
        -0.27508E-04
        -0.29744E-04
        -0.21409E-04
        -0.66660E-05
        -0.23440E-05
        -0.10714E-05
        -0.32879E-05
        -0.11652E-03
        -0.10582E-03
        -0.10307E-03
        -0.60321E-05
        -0.19638E-05
        -0.88820E-06
        -0.25972E-04
        -0.42381E-06
        -0.29881E-05
        -0.54169E-05
        -0.12659E-04
        -0.52669E-05
        -0.52055E-05
        -0.39501E-05
        -0.95908E-04
        -0.29104E-04
        -0.38313E-04
        -0.36892E-04
        -0.10673E-05
        -0.87468E-05
        -0.11687E-03
        -0.12364E-03
        -0.11789E-03
        -0.61584E-04
        -0.36489E-04
        -0.12485E-04
        -0.14601E-04
        -0.20392E-04
        -0.34540E-06
        -0.50873E-06
        -0.54064E-04
        -0.41811E-04
        -0.16712E-02
        -0.16978E-02
        -0.13691E-02
        -0.93169E-03
        -0.51810E-03
        -0.10991E-03
        -0.68143E-05
        -0.71383E-04
        -0.12315E-03
        -0.41458E-03
        -0.13092E-02
        -0.18233E-02
        -0.12814E-02
        -0.11600E-02
        -0.14090E-02
        -0.14950E-02
        -0.12453E-02
        -0.11143E-02
        -0.28873E-03
        -0.19563E-04
        -0.95232E-04
        -0.97877E-04
        -0.30897E-03
        -0.92670E-03
        -0.15190E-02
        -0.15097E-02
        -0.55865E-05
        -0.23797E-06
        -0.85309E-06
        -0.71805E-05
        -0.29917E-04
        -0.21856E-04
        -0.19372E-05
        -0.87553E-05
        -0.18883E-05
        -0.79929E-05
        -0.28938E-06
        -0.44295E-05
        -0.47414E-04
        -0.27372E-04
        -0.29712E-04
        -0.21459E-04
        -0.66970E-05
        -0.23308E-05
        -0.10704E-05
        -0.32762E-05
        -0.11651E-03
        -0.10581E-03
        -0.10307E-03
        -0.60328E-05
        -0.19750E-05
        -0.89214E-06
        -0.25985E-04
        -0.40811E-06
        -0.30297E-05
        -0.54233E-05
        -0.12699E-04
        -0.52680E-05
        -0.51614E-05
        -0.39537E-05
        -0.96001E-04
        -0.29078E-04
        -0.38288E-04
        -0.37009E-04
        -0.10874E-05
        -0.88017E-05
        -0.11703E-03
        -0.12380E-03
        -0.11792E-03
        -0.61572E-04
        -0.36460E-04
        -0.12471E-04
        -0.14597E-04
        -0.20406E-04
        -0.34016E-06
        -0.50512E-06
        -0.53993E-04
        -0.41687E-04
        -0.16700E-02
        -0.16969E-02
        -0.13688E-02
        -0.93171E-03
        -0.51778E-03
        -0.10985E-03
        -0.68300E-05
        -0.71471E-04
        -0.12294E-03
        -0.41425E-03
        -0.13088E-02
        -0.18234E-02
        -0.12812E-02
        -0.11598E-02
        -0.14094E-02
        -0.14958E-02
        -0.12458E-02
        -0.11148E-02
        -0.28857E-03
        -0.19581E-04
        -0.95092E-04
        -0.97800E-04
        -0.30852E-03
        -0.92556E-03
        -0.15175E-02
        -0.15084E-02
        -0.56074E-05
        -0.23975E-06
        -0.85626E-06
        -0.71899E-05
        -0.29859E-04
        -0.21816E-04
        -0.19616E-05
        -0.87100E-05
        -0.18912E-05
        -0.79746E-05
        -0.27707E-06
        -0.44510E-05
        -0.47471E-04
        -0.27237E-04
        -0.29680E-04
        -0.21512E-04
        -0.67295E-05
        -0.23176E-05
        -0.10693E-05
        -0.32644E-05
        -0.11650E-03
        -0.10580E-03
        -0.10308E-03
        -0.60336E-05
        -0.19880E-05
        -0.89666E-06
        -0.25995E-04
        -0.39320E-06
        -0.30715E-05
        -0.54292E-05
        -0.12743E-04
        -0.52706E-05
        -0.51174E-05
        -0.39572E-05
        -0.96098E-04
        -0.29051E-04
        -0.38264E-04
        -0.37127E-04
        -0.11075E-05
        -0.88575E-05
        -0.11719E-03
        -0.12397E-03
        -0.11797E-03
        -0.61565E-04
        -0.36431E-04
        -0.12457E-04
        -0.14593E-04
        -0.20421E-04
        -0.33500E-06
        -0.50157E-06
        -0.53926E-04
        -0.41563E-04
        -0.16689E-02
        -0.16960E-02
        -0.13686E-02
        -0.93171E-03
        -0.51746E-03
        -0.10978E-03
        -0.68453E-05
        -0.71560E-04
        -0.12274E-03
        -0.41391E-03
        -0.13084E-02
        -0.18235E-02
        -0.12811E-02
        -0.11598E-02
        -0.14098E-02
        -0.14967E-02
        -0.12463E-02
        -0.11152E-02
        -0.28841E-03
        -0.19598E-04
        -0.94953E-04
        -0.97723E-04
        -0.30807E-03
        -0.92443E-03
        -0.15160E-02
        -0.15070E-02
        -0.56275E-05
        -0.24169E-06
        -0.85906E-06
        -0.71991E-05
        -0.29801E-04
        -0.21775E-04
        -0.19862E-05
        -0.86642E-05
        -0.18940E-05
        -0.79559E-05
        -0.26503E-06
        -0.44726E-05
        -0.47528E-04
        -0.27101E-04
        -0.29648E-04
        -0.21566E-04
        -0.67620E-05
        -0.23044E-05
        -0.10681E-05
        -0.32531E-05
        -0.11650E-03
        -0.10579E-03
        -0.10309E-03
        -0.60346E-05
        -0.20010E-05
        -0.90133E-06
        -0.26005E-04
        -0.37865E-06
        -0.31139E-05
        -0.54363E-05
        -0.12786E-04
        -0.52729E-05
        -0.50730E-05
        -0.39603E-05
        -0.96198E-04
        -0.29028E-04
        -0.38242E-04
        -0.37244E-04
        -0.11280E-05
        -0.89134E-05
        -0.11734E-03
        -0.12414E-03
        -0.11802E-03
        -0.61559E-04
        -0.36405E-04
        -0.12445E-04
        -0.14589E-04
        -0.20436E-04
        -0.32973E-06
        -0.49833E-06
        -0.53860E-04
        -0.41443E-04
        -0.16677E-02
        -0.16951E-02
        -0.13683E-02
        -0.93172E-03
        -0.51714E-03
        -0.10971E-03
        -0.68605E-05
        -0.71648E-04
        -0.12253E-03
        -0.41358E-03
        -0.13080E-02
        -0.18237E-02
        -0.12810E-02
        -0.11597E-02
        -0.14103E-02
        -0.14976E-02
        -0.12469E-02
        -0.11156E-02
        -0.28824E-03
        -0.19614E-04
        -0.94811E-04
        -0.97646E-04
        -0.30762E-03
        -0.92330E-03
        -0.15145E-02
        -0.15057E-02
        -0.56460E-05
        -0.24403E-06
        -0.86124E-06
        -0.72081E-05
        -0.29744E-04
        -0.21736E-04
        -0.20113E-05
        -0.86175E-05
        -0.18970E-05
        -0.79382E-05
        -0.25319E-06
        -0.44942E-05
        -0.47587E-04
        -0.26966E-04
        -0.29615E-04
        -0.21621E-04
        -0.67933E-05
        -0.22911E-05
        -0.10671E-05
        -0.32421E-05
        -0.11650E-03
        -0.10578E-03
        -0.10311E-03
        -0.60360E-05
        -0.20125E-05
        -0.90545E-06
        -0.26016E-04
        -0.36406E-06
        -0.31570E-05
        -0.54443E-05
        -0.12827E-04
        -0.52733E-05
        -0.50279E-05
        -0.39626E-05
        -0.96298E-04
        -0.29007E-04
        -0.38221E-04
        -0.37361E-04
        -0.11487E-05
        -0.89706E-05
        -0.11751E-03
        -0.12431E-03
        -0.11808E-03
        -0.61555E-04
        -0.36381E-04
        -0.12433E-04
        -0.14582E-04
        -0.20449E-04
        -0.32405E-06
        -0.49582E-06
        -0.53802E-04
        -0.41322E-04
        -0.16666E-02
        -0.16943E-02
        -0.13681E-02
        -0.93173E-03
        -0.51682E-03
        -0.10965E-03
        -0.68757E-05
        -0.71736E-04
        -0.12232E-03
        -0.41326E-03
        -0.13076E-02
        -0.18238E-02
        -0.12809E-02
        -0.11596E-02
        -0.14108E-02
        -0.14985E-02
        -0.12474E-02
        -0.11160E-02
        -0.28808E-03
        -0.19628E-04
        -0.94665E-04
        -0.97571E-04
        -0.30718E-03
        -0.92218E-03
        -0.15130E-02
        -0.15043E-02
        -0.56638E-05
        -0.24650E-06
        -0.86312E-06
        -0.72167E-05
        -0.29689E-04
        -0.21696E-04
        -0.20369E-05
        -0.85705E-05
        -0.19001E-05
        -0.79213E-05
        -0.24160E-06
        -0.45160E-05
        -0.47647E-04
        -0.26830E-04
        -0.29582E-04
        -0.21675E-04
        -0.68241E-05
        -0.22778E-05
        -0.10660E-05
        -0.32319E-05
        -0.11649E-03
        -0.10578E-03
        -0.10313E-03
        -0.60372E-05
        -0.20233E-05
        -0.90933E-06
        -0.26028E-04
        -0.34966E-06
        -0.32010E-05
        -0.54530E-05
        -0.12867E-04
        -0.52726E-05
        -0.49825E-05
        -0.39645E-05
        -0.96404E-04
        -0.28988E-04
        -0.38203E-04
        -0.37477E-04
        -0.11696E-05
        -0.90277E-05
        -0.11767E-03
        -0.12449E-03
        -0.11813E-03
        -0.61555E-04
        -0.36359E-04
        -0.12424E-04
        -0.14575E-04
        -0.20462E-04
        -0.31825E-06
        -0.49366E-06
        -0.53745E-04
        -0.41205E-04
        -0.16654E-02
        -0.16934E-02
        -0.13678E-02
        -0.93173E-03
        -0.51650E-03
        -0.10958E-03
        -0.68908E-05
        -0.71823E-04
        -0.12212E-03
        -0.41293E-03
        -0.13071E-02
        -0.18240E-02
        -0.12808E-02
        -0.11595E-02
        -0.14112E-02
        -0.14994E-02
        -0.12480E-02
        -0.11164E-02
        -0.28791E-03
        -0.19640E-04
        -0.94517E-04
        -0.97496E-04
        -0.30674E-03
        -0.92106E-03
        -0.15115E-02
        -0.15030E-02
        -0.56815E-05
        -0.24902E-06
        -0.86495E-06
        -0.72254E-05
        -0.29633E-04
        -0.21655E-04
        -0.20625E-05
        -0.85236E-05
        -0.19032E-05
        -0.79046E-05
        -0.23032E-06
        -0.45377E-05
        -0.47707E-04
        -0.26696E-04
        -0.29549E-04
        -0.21729E-04
        -0.68549E-05
        -0.22646E-05
        -0.10648E-05
        -0.32212E-05
        -0.11649E-03
        -0.10577E-03
        -0.10315E-03
        -0.60389E-05
        -0.20341E-05
        -0.91318E-06
        -0.26040E-04
        -0.33558E-06
        -0.32452E-05
        -0.54617E-05
        -0.12908E-04
        -0.52720E-05
        -0.49374E-05
        -0.39664E-05
        -0.96510E-04
        -0.28967E-04
        -0.38184E-04
        -0.37594E-04
        -0.11908E-05
        -0.90848E-05
        -0.11783E-03
        -0.12466E-03
        -0.11819E-03
        -0.61556E-04
        -0.36338E-04
        -0.12415E-04
        -0.14567E-04
        -0.20475E-04
        -0.31249E-06
        -0.49159E-06
        -0.53691E-04
        -0.41086E-04
        -0.16643E-02
        -0.16925E-02
        -0.13675E-02
        -0.93174E-03
        -0.51618E-03
        -0.10951E-03
        -0.69060E-05
        -0.71910E-04
        -0.12191E-03
        -0.41260E-03
        -0.13067E-02
        -0.18241E-02
        -0.12807E-02
        -0.11595E-02
        -0.14117E-02
        -0.15004E-02
        -0.12486E-02
        -0.11168E-02
        -0.28774E-03
        -0.19653E-04
        -0.94369E-04
        -0.97420E-04
        -0.30630E-03
        -0.91995E-03
        -0.15100E-02
        -0.15017E-02
        -0.56993E-05
        -0.25157E-06
        -0.86679E-06
        -0.72343E-05
        -0.29577E-04
        -0.21615E-04
        -0.20884E-05
        -0.84769E-05
        -0.19064E-05
        -0.78878E-05
        -0.21930E-06
        -0.45595E-05
        -0.47767E-04
        -0.26563E-04
        -0.29516E-04
        -0.21783E-04
        -0.68859E-05
        -0.22516E-05
        -0.10637E-05
        -0.32108E-05
        -0.11649E-03
        -0.10576E-03
        -0.10316E-03
        -0.60405E-05
        -0.20449E-05
        -0.91703E-06
        -0.26052E-04
        -0.32186E-06
        -0.32896E-05
        -0.54702E-05
        -0.12948E-04
        -0.52712E-05
        -0.48926E-05
        -0.39684E-05
        -0.96612E-04
        -0.28949E-04
        -0.38166E-04
        -0.37711E-04
        -0.12122E-05
        -0.91429E-05
        -0.11800E-03
        -0.12484E-03
        -0.11825E-03
        -0.61556E-04
        -0.36317E-04
        -0.12405E-04
        -0.14560E-04
        -0.20488E-04
        -0.30684E-06
        -0.48936E-06
        -0.53633E-04
        -0.40968E-04
        -0.16631E-02
        -0.16917E-02
        -0.13673E-02
        -0.93174E-03
        -0.51586E-03
        -0.10944E-03
        -0.69210E-05
        -0.71996E-04
        -0.12170E-03
        -0.41228E-03
        -0.13063E-02
        -0.18242E-02
        -0.12806E-02
        -0.11594E-02
        -0.14121E-02
        -0.15013E-02
        -0.12491E-02
        -0.11172E-02
        -0.28757E-03
        -0.19665E-04
        -0.94220E-04
        -0.97344E-04
        -0.30586E-03
        -0.91884E-03
        -0.15085E-02
        -0.15003E-02
        -0.57170E-05
        -0.25411E-06
        -0.86871E-06
        -0.72428E-05
        -0.29523E-04
        -0.21576E-04
        -0.21142E-05
        -0.84302E-05
        -0.19095E-05
        -0.78712E-05
        -0.20854E-06
        -0.45816E-05
        -0.47827E-04
        -0.26430E-04
        -0.29483E-04
        -0.21837E-04
        -0.69168E-05
        -0.22386E-05
        -0.10627E-05
        -0.32000E-05
        -0.11648E-03
        -0.10576E-03
        -0.10318E-03
        -0.60422E-05
        -0.20557E-05
        -0.92086E-06
        -0.26064E-04
        -0.30842E-06
        -0.33342E-05
        -0.54786E-05
        -0.12988E-04
        -0.52704E-05
        -0.48479E-05
        -0.39703E-05
        -0.96719E-04
        -0.28929E-04
        -0.38148E-04
        -0.37828E-04
        -0.12339E-05
        -0.92003E-05
        -0.11816E-03
        -0.12501E-03
        -0.11830E-03
        -0.61554E-04
        -0.36295E-04
        -0.12396E-04
        -0.14552E-04
        -0.20501E-04
        -0.30117E-06
        -0.48720E-06
        -0.53580E-04
        -0.40850E-04
        -0.16620E-02
        -0.16908E-02
        -0.13670E-02
        -0.93173E-03
        -0.51554E-03
        -0.10938E-03
        -0.69357E-05
        -0.72083E-04
        -0.12150E-03
        -0.41195E-03
        -0.13058E-02
        -0.18244E-02
        -0.12805E-02
        -0.11593E-02
        -0.14126E-02
        -0.15022E-02
        -0.12497E-02
        -0.11176E-02
        -0.28740E-03
        -0.19677E-04
        -0.94071E-04
        -0.97269E-04
        -0.30543E-03
        -0.91772E-03
        -0.15070E-02
        -0.14990E-02
        -0.57348E-05
        -0.25666E-06
        -0.87049E-06
        -0.72515E-05
        -0.29467E-04
        -0.21536E-04
        -0.21403E-05
        -0.83837E-05
        -0.19126E-05
        -0.78546E-05
        -0.19808E-06
        -0.46037E-05
        -0.47886E-04
        -0.26297E-04
        -0.29450E-04
        -0.21891E-04
        -0.69477E-05
        -0.22255E-05
        -0.10617E-05
        -0.31897E-05
        -0.11648E-03
        -0.10575E-03
        -0.10320E-03
        -0.60440E-05
        -0.20664E-05
        -0.92482E-06
        -0.26076E-04
        -0.29533E-06
        -0.33787E-05
        -0.54876E-05
        -0.13028E-04
        -0.52697E-05
        -0.48032E-05
        -0.39722E-05
        -0.96826E-04
        -0.28909E-04
        -0.38129E-04
        -0.37945E-04
        -0.12558E-05
        -0.92589E-05
        -0.11832E-03
        -0.12518E-03
        -0.11836E-03
        -0.61554E-04
        -0.36274E-04
        -0.12387E-04
        -0.14545E-04
        -0.20515E-04
        -0.29556E-06
        -0.48515E-06
        -0.53523E-04
        -0.40732E-04
        -0.16608E-02
        -0.16899E-02
        -0.13667E-02
        -0.93174E-03
        -0.51522E-03
        -0.10931E-03
        -0.69506E-05
        -0.72170E-04
        -0.12129E-03
        -0.41162E-03
        -0.13054E-02
        -0.18245E-02
        -0.12804E-02
        -0.11592E-02
        -0.14130E-02
        -0.15031E-02
        -0.12503E-02
        -0.11179E-02
        -0.28724E-03
        -0.19689E-04
        -0.93922E-04
        -0.97194E-04
        -0.30499E-03
        -0.91661E-03
        -0.15055E-02
        -0.14976E-02
        -0.57527E-05
        -0.25925E-06
        -0.87229E-06
        -0.72600E-05
        -0.29412E-04
        -0.21496E-04
        -0.21666E-05
        -0.83372E-05
        -0.19156E-05
        -0.78376E-05
        -0.18791E-06
        -0.46256E-05
        -0.47947E-04
        -0.26165E-04
        -0.29416E-04
        -0.21945E-04
        -0.69787E-05
        -0.22125E-05
        -0.10606E-05
        -0.31791E-05
        -0.11648E-03
        -0.10574E-03
        -0.10322E-03
        -0.60458E-05
        -0.20770E-05
        -0.92866E-06
        -0.26088E-04
        -0.28249E-06
        -0.34238E-05
        -0.54960E-05
        -0.13068E-04
        -0.52689E-05
        -0.47587E-05
        -0.39741E-05
        -0.96929E-04
        -0.28891E-04
        -0.38112E-04
        -0.38061E-04
        -0.12779E-05
        -0.93171E-05
        -0.11849E-03
        -0.12536E-03
        -0.11842E-03
        -0.61555E-04
        -0.36254E-04
        -0.12376E-04
        -0.14537E-04
        -0.20528E-04
        -0.28997E-06
        -0.48298E-06
        -0.53466E-04
        -0.40614E-04
        -0.16597E-02
        -0.16891E-02
        -0.13665E-02
        -0.93174E-03
        -0.51490E-03
        -0.10924E-03
        -0.69658E-05
        -0.72255E-04
        -0.12109E-03
        -0.41129E-03
        -0.13050E-02
        -0.18247E-02
        -0.12803E-02
        -0.11591E-02
        -0.14135E-02
        -0.15040E-02
        -0.12508E-02
        -0.11183E-02
        -0.28707E-03
        -0.19701E-04
        -0.93775E-04
        -0.97119E-04
        -0.30456E-03
        -0.91550E-03
        -0.15040E-02
        -0.14963E-02
        -0.57707E-05
        -0.26181E-06
        -0.87409E-06
        -0.72685E-05
        -0.29358E-04
        -0.21456E-04
        -0.21927E-05
        -0.82910E-05
        -0.19186E-05
        -0.78207E-05
        -0.17803E-06
        -0.46476E-05
        -0.48007E-04
        -0.26033E-04
        -0.29382E-04
        -0.21999E-04
        -0.70097E-05
        -0.21996E-05
        -0.10597E-05
        -0.31689E-05
        -0.11647E-03
        -0.10574E-03
        -0.10324E-03
        -0.60475E-05
        -0.20876E-05
        -0.93253E-06
        -0.26100E-04
        -0.27002E-06
        -0.34692E-05
        -0.55044E-05
        -0.13108E-04
        -0.52681E-05
        -0.47144E-05
        -0.39760E-05
        -0.97037E-04
        -0.28871E-04
        -0.38094E-04
        -0.38177E-04
        -0.13003E-05
        -0.93761E-05
        -0.11865E-03
        -0.12553E-03
        -0.11848E-03
        -0.61555E-04
        -0.36232E-04
        -0.12367E-04
        -0.14529E-04
        -0.20540E-04
        -0.28445E-06
        -0.48084E-06
        -0.53411E-04
        -0.40497E-04
        -0.16585E-02
        -0.16882E-02
        -0.13662E-02
        -0.93174E-03
        -0.51459E-03
        -0.10918E-03
        -0.69808E-05
        -0.72339E-04
        -0.12088E-03
        -0.41096E-03
        -0.13046E-02
        -0.18248E-02
        -0.12802E-02
        -0.11591E-02
        -0.14139E-02
        -0.15050E-02
        -0.12514E-02
        -0.11187E-02
        -0.28690E-03
        -0.19712E-04
        -0.93627E-04
        -0.97046E-04
        -0.30412E-03
        -0.91439E-03
        -0.15025E-02
        -0.14950E-02
        -0.57887E-05
        -0.26437E-06
        -0.87589E-06
        -0.72771E-05
        -0.29303E-04
        -0.21416E-04
        -0.22192E-05
        -0.82448E-05
        -0.19217E-05
        -0.78040E-05
        -0.16842E-06
        -0.46701E-05
        -0.48066E-04
        -0.25902E-04
        -0.29348E-04
        -0.22053E-04
        -0.70408E-05
        -0.21867E-05
        -0.10587E-05
        -0.31583E-05
        -0.11647E-03
        -0.10573E-03
        -0.10325E-03
        -0.60493E-05
        -0.20982E-05
        -0.93639E-06
        -0.26111E-04
        -0.25783E-06
        -0.35149E-05
        -0.55128E-05
        -0.13148E-04
        -0.52672E-05
        -0.46703E-05
        -0.39778E-05
        -0.97140E-04
        -0.28854E-04
        -0.38076E-04
        -0.38292E-04
        -0.13228E-05
        -0.94348E-05
        -0.11881E-03
        -0.12571E-03
        -0.11853E-03
        -0.61554E-04
        -0.36211E-04
        -0.12358E-04
        -0.14522E-04
        -0.20554E-04
        -0.27890E-06
        -0.47875E-06
        -0.53354E-04
        -0.40379E-04
        -0.16574E-02
        -0.16874E-02
        -0.13660E-02
        -0.93175E-03
        -0.51427E-03
        -0.10911E-03
        -0.69954E-05
        -0.72422E-04
        -0.12068E-03
        -0.41063E-03
        -0.13041E-02
        -0.18250E-02
        -0.12801E-02
        -0.11590E-02
        -0.14144E-02
        -0.15059E-02
        -0.12520E-02
        -0.11191E-02
        -0.28673E-03
        -0.19724E-04
        -0.93479E-04
        -0.96972E-04
        -0.30368E-03
        -0.91327E-03
        -0.15011E-02
        -0.14936E-02
        -0.58067E-05
        -0.26700E-06
        -0.87771E-06
        -0.72855E-05
        -0.29247E-04
        -0.21377E-04
        -0.22456E-05
        -0.81987E-05
        -0.19248E-05
        -0.77873E-05
        -0.15908E-06
        -0.46923E-05
        -0.48126E-04
        -0.25771E-04
        -0.29314E-04
        -0.22107E-04
        -0.70719E-05
        -0.21740E-05
        -0.10576E-05
        -0.31480E-05
        -0.11646E-03
        -0.10572E-03
        -0.10327E-03
        -0.60511E-05
        -0.21087E-05
        -0.94028E-06
        -0.26123E-04
        -0.24593E-06
        -0.35607E-05
        -0.55211E-05
        -0.13189E-04
        -0.52665E-05
        -0.46265E-05
        -0.39798E-05
        -0.97248E-04
        -0.28834E-04
        -0.38058E-04
        -0.38407E-04
        -0.13457E-05
        -0.94936E-05
        -0.11897E-03
        -0.12588E-03
        -0.11859E-03
        -0.61552E-04
        -0.36191E-04
        -0.12348E-04
        -0.14514E-04
        -0.20567E-04
        -0.27346E-06
        -0.47659E-06
        -0.53300E-04
        -0.40261E-04
        -0.16562E-02
        -0.16865E-02
        -0.13657E-02
        -0.93175E-03
        -0.51395E-03
        -0.10904E-03
        -0.70098E-05
        -0.72506E-04
        -0.12047E-03
        -0.41030E-03
        -0.13037E-02
        -0.18251E-02
        -0.12800E-02
        -0.11589E-02
        -0.14149E-02
        -0.15068E-02
        -0.12526E-02
        -0.11195E-02
        -0.28656E-03
        -0.19735E-04
        -0.93330E-04
        -0.96898E-04
        -0.30325E-03
        -0.91216E-03
        -0.14996E-02
        -0.14923E-02
        -0.58247E-05
        -0.26961E-06
        -0.87954E-06
        -0.72940E-05
        -0.29194E-04
        -0.21337E-04
        -0.22724E-05
        -0.81528E-05
        -0.19277E-05
        -0.77698E-05
        -0.15000E-06
        -0.47147E-05
        -0.48187E-04
        -0.25641E-04
        -0.29279E-04
        -0.22161E-04
        -0.71032E-05
        -0.21613E-05
        -0.10566E-05
        -0.31374E-05
        -0.11646E-03
        -0.10572E-03
        -0.10329E-03
        -0.60531E-05
        -0.21189E-05
        -0.94415E-06
        -0.26133E-04
        -0.23420E-06
        -0.36065E-05
        -0.55294E-05
        -0.13229E-04
        -0.52658E-05
        -0.45829E-05
        -0.39819E-05
        -0.97356E-04
        -0.28815E-04
        -0.38040E-04
        -0.38522E-04
        -0.13690E-05
        -0.95533E-05
        -0.11913E-03
        -0.12605E-03
        -0.11864E-03
        -0.61553E-04
        -0.36169E-04
        -0.12339E-04
        -0.14506E-04
        -0.20580E-04
        -0.26810E-06
        -0.47444E-06
        -0.53243E-04
        -0.40145E-04
        -0.16551E-02
        -0.16857E-02
        -0.13654E-02
        -0.93174E-03
        -0.51363E-03
        -0.10897E-03
        -0.70239E-05
        -0.72589E-04
        -0.12027E-03
        -0.40997E-03
        -0.13033E-02
        -0.18253E-02
        -0.12799E-02
        -0.11588E-02
        -0.14153E-02
        -0.15077E-02
        -0.12531E-02
        -0.11199E-02
        -0.28640E-03
        -0.19747E-04
        -0.93183E-04
        -0.96822E-04
        -0.30282E-03
        -0.91105E-03
        -0.14981E-02
        -0.14910E-02
        -0.58428E-05
        -0.27222E-06
        -0.88129E-06
        -0.73024E-05
        -0.29139E-04
        -0.21298E-04
        -0.22991E-05
        -0.81070E-05
        -0.19303E-05
        -0.77504E-05
        -0.14120E-06
        -0.47372E-05
        -0.48246E-04
        -0.25510E-04
        -0.29244E-04
        -0.22216E-04
        -0.71342E-05
        -0.21486E-05
        -0.10559E-05
        -0.31274E-05
        -0.11646E-03
        -0.10571E-03
        -0.10331E-03
        -0.60547E-05
        -0.21285E-05
        -0.94818E-06
        -0.26139E-04
        -0.22248E-06
        -0.36528E-05
        -0.55383E-05
        -0.13270E-04
        -0.52648E-05
        -0.45393E-05
        -0.39838E-05
        -0.97461E-04
        -0.28797E-04
        -0.38022E-04
        -0.38634E-04
        -0.13931E-05
        -0.96120E-05
        -0.11928E-03
        -0.12621E-03
        -0.11869E-03
        -0.61553E-04
        -0.36148E-04
        -0.12329E-04
        -0.14499E-04
        -0.20593E-04
        -0.26280E-06
        -0.47231E-06
        -0.53189E-04
        -0.40027E-04
        -0.16539E-02
        -0.16848E-02
        -0.13652E-02
        -0.93174E-03
        -0.51331E-03
        -0.10891E-03
        -0.70384E-05
        -0.72673E-04
        -0.12007E-03
        -0.40963E-03
        -0.13029E-02
        -0.18256E-02
        -0.12799E-02
        -0.11588E-02
        -0.14157E-02
        -0.15086E-02
        -0.12537E-02
        -0.11202E-02
        -0.28623E-03
        -0.19758E-04
        -0.93037E-04
        -0.96747E-04
        -0.30238E-03
        -0.90995E-03
        -0.14966E-02
        -0.14896E-02
        -0.58609E-05
        -0.27483E-06
        -0.88306E-06
        -0.73108E-05
        -0.29084E-04
        -0.21258E-04
        -0.23261E-05
        -0.80612E-05
        -0.19327E-05
        -0.77292E-05
        -0.13270E-06
        -0.47596E-05
        -0.48307E-04
        -0.25378E-04
        -0.29208E-04
        -0.22270E-04
        -0.71650E-05
        -0.21359E-05
        -0.10550E-05
        -0.31170E-05
        -0.11645E-03
        -0.10570E-03
        -0.10333E-03
        -0.60567E-05
        -0.21374E-05
        -0.95203E-06
        -0.26141E-04
        -0.21072E-06
        -0.36994E-05
        -0.55468E-05
        -0.13310E-04
        -0.52640E-05
        -0.44959E-05
        -0.39858E-05
        -0.97569E-04
        -0.28778E-04
        -0.38005E-04
        -0.38744E-04
        -0.14181E-05
        -0.96713E-05
        -0.11942E-03
        -0.12635E-03
        -0.11873E-03
        -0.61553E-04
        -0.36127E-04
        -0.12320E-04
        -0.14491E-04
        -0.20607E-04
        -0.25750E-06
        -0.47021E-06
        -0.53132E-04
        -0.39909E-04
        -0.16528E-02
        -0.16840E-02
        -0.13649E-02
        -0.93174E-03
        -0.51299E-03
        -0.10884E-03
        -0.70526E-05
        -0.72756E-04
        -0.11987E-03
        -0.40928E-03
        -0.13024E-02
        -0.18260E-02
        -0.12799E-02
        -0.11587E-02
        -0.14162E-02
        -0.15095E-02
        -0.12543E-02
        -0.11206E-02
        -0.28606E-03
        -0.19769E-04
        -0.92890E-04
        -0.96673E-04
        -0.30195E-03
        -0.90884E-03
        -0.14951E-02
        -0.14883E-02
        -0.58790E-05
        -0.27747E-06
        -0.88489E-06
        -0.73193E-05
        -0.29030E-04
        -0.21219E-04
        -0.23529E-05
        -0.80158E-05
        -0.19350E-05
        -0.77077E-05
        -0.12451E-06
        -0.47817E-05
        -0.48366E-04
        -0.25247E-04
        -0.29172E-04
        -0.22324E-04
        -0.71959E-05
        -0.21234E-05
        -0.10539E-05
        -0.31069E-05
        -0.11645E-03
        -0.10569E-03
        -0.10334E-03
        -0.60585E-05
        -0.21460E-05
        -0.95590E-06
        -0.26143E-04
        -0.19924E-06
        -0.37459E-05
        -0.55552E-05
        -0.13351E-04
        -0.52631E-05
        -0.44531E-05
        -0.39879E-05
        -0.97678E-04
        -0.28760E-04
        -0.37987E-04
        -0.38853E-04
        -0.14437E-05
        -0.97291E-05
        -0.11955E-03
        -0.12649E-03
        -0.11877E-03
        -0.61553E-04
        -0.36106E-04
        -0.12311E-04
        -0.14484E-04
        -0.20621E-04
        -0.25230E-06
        -0.46802E-06
        -0.53078E-04
        -0.39794E-04
        -0.16516E-02
        -0.16831E-02
        -0.13646E-02
        -0.93175E-03
        -0.51268E-03
        -0.10877E-03
        -0.70666E-05
        -0.72836E-04
        -0.11967E-03
        -0.40893E-03
        -0.13020E-02
        -0.18264E-02
        -0.12799E-02
        -0.11586E-02
        -0.14167E-02
        -0.15105E-02
        -0.12548E-02
        -0.11210E-02
        -0.28589E-03
        -0.19782E-04
        -0.92745E-04
        -0.96598E-04
        -0.30152E-03
        -0.90774E-03
        -0.14936E-02
        -0.14870E-02
        -0.59436E-05
        -0.28181E-06
        -0.89395E-06
        -0.73849E-05
        -0.29198E-04
        -0.21346E-04
        -0.23957E-05
        -0.80399E-05
        -0.19522E-05
        -0.77519E-05
        -0.11855E-06
        -0.48358E-05
        -0.48789E-04
        -0.25332E-04
        -0.29375E-04
        -0.22550E-04
        -0.72825E-05
        -0.21285E-05
        -0.10607E-05
        -0.31201E-05
        -0.11731E-03
        -0.10648E-03
        -0.10412E-03
        -0.61073E-05
        -0.21710E-05
        -0.96688E-06
        -0.26361E-04
        -0.19033E-06
        -0.38192E-05
        -0.56070E-05
        -0.13495E-04
        -0.53029E-05
        -0.44490E-05
        -0.40220E-05
        -0.98530E-04
        -0.28966E-04
        -0.38261E-04
        -0.39272E-04
        -0.14788E-05
        -0.98601E-05
        -0.12062E-03
        -0.12763E-03
        -0.11974E-03
        -0.62006E-04
        -0.36356E-04
        -0.12392E-04
        -0.14590E-04
        -0.20798E-04
        -0.24967E-06
        -0.46947E-06
        -0.53436E-04
        -0.39992E-04
        -0.16635E-02
        -0.16952E-02
        -0.13751E-02
        -0.93893E-03
        -0.51639E-03
        -0.10955E-03
        -0.71425E-05
        -0.73492E-04
        -0.12046E-03
        -0.41197E-03
        -0.13122E-02
        -0.18412E-02
        -0.12895E-02
        -0.11671E-02
        -0.14273E-02
        -0.15220E-02
        -0.12643E-02
        -0.11297E-02
        -0.28796E-03
        -0.19958E-04
        -0.93334E-04
        -0.97244E-04
        -0.30341E-03
        -0.91360E-03
        -0.15034E-02
        -0.14968E-02
        -0.13236E-04
        -0.63609E-06
        -0.19830E-05
        -0.16494E-04
        -0.60220E-04
        -0.44858E-04
        -0.53791E-05
        -0.17673E-04
        -0.43193E-05
        -0.16983E-04
        -0.24861E-06
        -0.96454E-05
        -0.10018E-03
        -0.54074E-04
        -0.59149E-04
        -0.50288E-04
        -0.16159E-04
        -0.47347E-05
        -0.23005E-05
        -0.67982E-05
        -0.24042E-03
        -0.22389E-03
        -0.21455E-03
        -0.13455E-04
        -0.48527E-05
        -0.21684E-05
        -0.57274E-04
        -0.41053E-06
        -0.86410E-05
        -0.12501E-04
        -0.30124E-04
        -0.11765E-04
        -0.98898E-05
        -0.89859E-05
        -0.19599E-03
        -0.60824E-04
        -0.80419E-04
        -0.82828E-04
        -0.32287E-05
        -0.21561E-04
        -0.25606E-03
        -0.27487E-03
        -0.25742E-03
        -0.12960E-03
        -0.75485E-04
        -0.24292E-04
        -0.30092E-04
        -0.44047E-04
        -0.52676E-06
        -0.99197E-06
        -0.10771E-03
        -0.83538E-04
        -0.26110E-02
        -0.26513E-02
        -0.21533E-02
        -0.14785E-02
        -0.81200E-03
        -0.17313E-03
        -0.11584E-04
        -0.12089E-03
        -0.19714E-03
        -0.66688E-03
        -0.21295E-02
        -0.29758E-02
        -0.21281E-02
        -0.19372E-02
        -0.23092E-02
        -0.24074E-02
        -0.19877E-02
        -0.17579E-02
        -0.44752E-03
        -0.31147E-04
        -0.14834E-03
        -0.15588E-03
        -0.48296E-03
        -0.14644E-02
        -0.23949E-02
        -0.23671E-02
  
SCALARS                      strain_yy  double 1
LOOKUP_TABLE default
        -0.33614E-05
        -0.36552E-06
        -0.24950E-05
        -0.67271E-06
        -0.12362E-19
        -0.93906E-21
        -0.18986E-19
        -0.11045E-19
        -0.34643E-04
        -0.15076E-04
        -0.42048E-19
        -0.32590E-19
        -0.25977E-04
        -0.67098E-07
        -0.21536E-19
        -0.88524E-22
        -0.32409E-05
        -0.42676E-04
        -0.46615E-23
        -0.48803E-21
        -0.11246E-04
        -0.15659E-03
        -0.17393E-03
        -0.11316E-18
        -0.33751E-18
        -0.23581E-18
        -0.15223E-05
        -0.15683E-03
        -0.58554E-19
        -0.22037E-18
        -0.42291E-05
        -0.31420E-05
        -0.23661E-05
        -0.15737E-19
        -0.16399E-19
        -0.70685E-23
        -0.36877E-04
        -0.33237E-04
        -0.53290E-19
        -0.32258E-19
        -0.35226E-04
        -0.13941E-04
        -0.30436E-19
        -0.25419E-19
        -0.29524E-04
        -0.35378E-05
        -0.33492E-22
        -0.80130E-20
        -0.23918E-04
        -0.17763E-20
        -0.24885E-06
        -0.11652E-22
        -0.80507E-07
        -0.26578E-19
        -0.35066E-05
        -0.89939E-20
        -0.37304E-04
        -0.12109E-05
        -0.66193E-23
        -0.27268E-22
        -0.62168E-05
        -0.82067E-04
        -0.12288E-20
        -0.17192E-19
        -0.22787E-05
        -0.50067E-20
        -0.41583E-04
        -0.74304E-20
        -0.26682E-04
        -0.74648E-05
        -0.11348E-21
        -0.19783E-19
        -0.90664E-04
        -0.95391E-19
        -0.25022E-03
        -0.89429E-19
        -0.25360E-03
        -0.51533E-19
        -0.17250E-03
        -0.36204E-19
        -0.37605E-03
        -0.22453E-03
        -0.14899E-19
        -0.73239E-21
        -0.45084E-05
        -0.91697E-23
        -0.72074E-04
        -0.35984E-19
        -0.39849E-03
        -0.11028E-18
        -0.77141E-03
        -0.29499E-03
        -0.24260E-18
        -0.15894E-18
        -0.14679E-03
        -0.95772E-19
        -0.11867E-03
        -0.10024E-18
        -0.11195E-03
        -0.11589E-18
        -0.30958E-03
        -0.21463E-03
        -0.10022E-18
        -0.23009E-19
        -0.13632E-03
        -0.19737E-04
        -0.12391E-19
        -0.19134E-19
        -0.82220E-03
        -0.13713E-18
        -0.17055E-02
        -0.29341E-18
        -0.25261E-02
        -0.44752E-18
        -0.33793E-02
        -0.44033E-18
        -0.45513E-02
        -0.27576E-18
        -0.46711E-02
        -0.16515E-18
        -0.41338E-02
        -0.14286E-18
        -0.32751E-02
        -0.12932E-18
        -0.17762E-02
        -0.52817E-19
        -0.83849E-03
        -0.57573E-20
        -0.21855E-03
        -0.24038E-20
        -0.11529E-05
        -0.54308E-20
        -0.20655E-03
        -0.14487E-20
        -0.67238E-03
        -0.13250E-19
        -0.16097E-02
        -0.10556E-18
        -0.19808E-02
        -0.25740E-18
        -0.23203E-02
        -0.44239E-18
        -0.37580E-02
        -0.44162E-18
        -0.40794E-02
        -0.33654E-18
        -0.35047E-02
        -0.31966E-18
        -0.22951E-02
        -0.32365E-18
        -0.10611E-02
        -0.20239E-18
        -0.53638E-03
        -0.70771E-19
        -0.28009E-03
        -0.42311E-19
        -0.19417E-04
        -0.52855E-05
        -0.40187E-05
        -0.37881E-06
        -0.42934E-05
        -0.47615E-05
        -0.54178E-07
        -0.12647E-04
        -0.90512E-05
        -0.19837E-04
        -0.55977E-05
        -0.10229E-03
        -0.47292E-04
        -0.63553E-06
        -0.10398E-03
        -0.13534E-05
        -0.10669E-05
        -0.43689E-06
        -0.76931E-06
        -0.43710E-06
        -0.37161E-06
        -0.25135E-06
        -0.28648E-05
        -0.20295E-07
        -0.92400E-05
        -0.20208E-06
        -0.55038E-09
        -0.16801E-06
        -0.25012E-06
        -0.57303E-05
        -0.12922E-05
        -0.15531E-05
        -0.68348E-06
        -0.41120E-07
        -0.11702E-06
        -0.33942E-05
        -0.16962E-04
        -0.79864E-04
        -0.66733E-04
        -0.48192E-04
        -0.43076E-04
        -0.26055E-05
        -0.17077E-05
        -0.12884E-04
        -0.35559E-04
        -0.96561E-04
        -0.40953E-04
        -0.20699E-04
        -0.23591E-04
        -0.26988E-04
        -0.37619E-04
        -0.77194E-05
        -0.28866E-04
        -0.41201E-04
        -0.30299E-03
        -0.57675E-03
        -0.93852E-03
        -0.13338E-02
        -0.13574E-02
        -0.11138E-02
        -0.10073E-02
        -0.90068E-03
        -0.37686E-03
        -0.71357E-04
        -0.13698E-04
        -0.26535E-05
        -0.61946E-05
        -0.96464E-04
        -0.32601E-03
        -0.55913E-03
        -0.83546E-03
        -0.10939E-02
        -0.96347E-03
        -0.86071E-03
        -0.74594E-03
        -0.36308E-03
        -0.12271E-03
        -0.94263E-04
        -0.47906E-04
        -0.19057E-04
        -0.16319E-04
        -0.91809E-06
        -0.27528E-04
        -0.55684E-05
        -0.35014E-05
        -0.42793E-04
        -0.18403E-04
        -0.37855E-04
        -0.10581E-04
        -0.19820E-03
        -0.69562E-04
        -0.14365E-05
        -0.19239E-03
        -0.68898E-05
        -0.63274E-06
        -0.57672E-06
        -0.11716E-04
        -0.43795E-06
        -0.87046E-05
        -0.43879E-05
        -0.14748E-05
        -0.10506E-05
        -0.17165E-04
        -0.10502E-05
        -0.66128E-07
        -0.22852E-06
        -0.58308E-06
        -0.17081E-04
        -0.80023E-05
        -0.55526E-06
        -0.33431E-05
        -0.25204E-05
        -0.57304E-06
        -0.53247E-05
        -0.19411E-04
        -0.11112E-03
        -0.86413E-04
        -0.67112E-04
        -0.36221E-04
        -0.22116E-05
        -0.93830E-05
        -0.14640E-04
        -0.24275E-04
        -0.10130E-03
        -0.34297E-04
        -0.14998E-04
        -0.23691E-04
        -0.33017E-04
        -0.35449E-04
        -0.19956E-06
        -0.55111E-04
        -0.11277E-03
        -0.61070E-03
        -0.10199E-02
        -0.16991E-02
        -0.24468E-02
        -0.23475E-02
        -0.17901E-02
        -0.16440E-02
        -0.16094E-02
        -0.63463E-03
        -0.68939E-04
        -0.10944E-04
        -0.80354E-05
        -0.17237E-05
        -0.12405E-03
        -0.49787E-03
        -0.96443E-03
        -0.16335E-02
        -0.20086E-02
        -0.15487E-02
        -0.13842E-02
        -0.13760E-02
        -0.68216E-03
        -0.18409E-03
        -0.16505E-03
        -0.47966E-04
        -0.19064E-04
        -0.16335E-04
        -0.93160E-06
        -0.27535E-04
        -0.55771E-05
        -0.35102E-05
        -0.42938E-04
        -0.18469E-04
        -0.38138E-04
        -0.10594E-04
        -0.19816E-03
        -0.69596E-04
        -0.14366E-05
        -0.19288E-03
        -0.68905E-05
        -0.64430E-06
        -0.57500E-06
        -0.11732E-04
        -0.43308E-06
        -0.87477E-05
        -0.43963E-05
        -0.14755E-05
        -0.10496E-05
        -0.17322E-04
        -0.10464E-05
        -0.67696E-07
        -0.23109E-06
        -0.57542E-06
        -0.17153E-04
        -0.80051E-05
        -0.55284E-06
        -0.33579E-05
        -0.25287E-05
        -0.56233E-06
        -0.53316E-05
        -0.19409E-04
        -0.11146E-03
        -0.86785E-04
        -0.67267E-04
        -0.36277E-04
        -0.21997E-05
        -0.94023E-05
        -0.14655E-04
        -0.24276E-04
        -0.10130E-03
        -0.34304E-04
        -0.14980E-04
        -0.23628E-04
        -0.32929E-04
        -0.35418E-04
        -0.19356E-06
        -0.55008E-04
        -0.11278E-03
        -0.61093E-03
        -0.10199E-02
        -0.16986E-02
        -0.24451E-02
        -0.23455E-02
        -0.17890E-02
        -0.16433E-02
        -0.16085E-02
        -0.63436E-03
        -0.69003E-04
        -0.10943E-04
        -0.80684E-05
        -0.16958E-05
        -0.12418E-03
        -0.49832E-03
        -0.96487E-03
        -0.16334E-02
        -0.20083E-02
        -0.15485E-02
        -0.13841E-02
        -0.13753E-02
        -0.68119E-03
        -0.18369E-03
        -0.16461E-03
        -0.48026E-04
        -0.19071E-04
        -0.16351E-04
        -0.94537E-06
        -0.27541E-04
        -0.55863E-05
        -0.35190E-05
        -0.43082E-04
        -0.18535E-04
        -0.38420E-04
        -0.10606E-04
        -0.19813E-03
        -0.69631E-04
        -0.14363E-05
        -0.19337E-03
        -0.68915E-05
        -0.65609E-06
        -0.57325E-06
        -0.11749E-04
        -0.42815E-06
        -0.87913E-05
        -0.44045E-05
        -0.14766E-05
        -0.10483E-05
        -0.17476E-04
        -0.10420E-05
        -0.69392E-07
        -0.23383E-06
        -0.56710E-06
        -0.17223E-04
        -0.80076E-05
        -0.54991E-06
        -0.33729E-05
        -0.25368E-05
        -0.55166E-06
        -0.53389E-05
        -0.19406E-04
        -0.11181E-03
        -0.87161E-04
        -0.67424E-04
        -0.36336E-04
        -0.21866E-05
        -0.94204E-05
        -0.14674E-04
        -0.24282E-04
        -0.10130E-03
        -0.34310E-04
        -0.14962E-04
        -0.23565E-04
        -0.32840E-04
        -0.35389E-04
        -0.18768E-06
        -0.54906E-04
        -0.11279E-03
        -0.61116E-03
        -0.10200E-02
        -0.16982E-02
        -0.24435E-02
        -0.23435E-02
        -0.17879E-02
        -0.16426E-02
        -0.16076E-02
        -0.63410E-03
        -0.69072E-04
        -0.10941E-04
        -0.81016E-05
        -0.16679E-05
        -0.12432E-03
        -0.49879E-03
        -0.96534E-03
        -0.16334E-02
        -0.20080E-02
        -0.15483E-02
        -0.13840E-02
        -0.13746E-02
        -0.68022E-03
        -0.18328E-03
        -0.16418E-03
        -0.48086E-04
        -0.19078E-04
        -0.16368E-04
        -0.95929E-06
        -0.27547E-04
        -0.55953E-05
        -0.35283E-05
        -0.43226E-04
        -0.18602E-04
        -0.38701E-04
        -0.10619E-04
        -0.19810E-03
        -0.69669E-04
        -0.14363E-05
        -0.19387E-03
        -0.68926E-05
        -0.66820E-06
        -0.57147E-06
        -0.11766E-04
        -0.42296E-06
        -0.88360E-05
        -0.44119E-05
        -0.14791E-05
        -0.10463E-05
        -0.17627E-04
        -0.10363E-05
        -0.71165E-07
        -0.23748E-06
        -0.55688E-06
        -0.17287E-04
        -0.80087E-05
        -0.54596E-06
        -0.33877E-05
        -0.25450E-05
        -0.54114E-06
        -0.53458E-05
        -0.19404E-04
        -0.11216E-03
        -0.87544E-04
        -0.67593E-04
        -0.36403E-04
        -0.21700E-05
        -0.94353E-05
        -0.14703E-04
        -0.24296E-04
        -0.10131E-03
        -0.34322E-04
        -0.14943E-04
        -0.23503E-04
        -0.32752E-04
        -0.35357E-04
        -0.18190E-06
        -0.54803E-04
        -0.11280E-03
        -0.61139E-03
        -0.10200E-02
        -0.16978E-02
        -0.24418E-02
        -0.23415E-02
        -0.17868E-02
        -0.16419E-02
        -0.16067E-02
        -0.63387E-03
        -0.69153E-04
        -0.10942E-04
        -0.81343E-05
        -0.16400E-05
        -0.12446E-03
        -0.49933E-03
        -0.96586E-03
        -0.16333E-02
        -0.20078E-02
        -0.15481E-02
        -0.13839E-02
        -0.13739E-02
        -0.67926E-03
        -0.18288E-03
        -0.16375E-03
        -0.48146E-04
        -0.19085E-04
        -0.16384E-04
        -0.97324E-06
        -0.27554E-04
        -0.56042E-05
        -0.35370E-05
        -0.43370E-04
        -0.18669E-04
        -0.38978E-04
        -0.10632E-04
        -0.19806E-03
        -0.69704E-04
        -0.14365E-05
        -0.19436E-03
        -0.68939E-05
        -0.68061E-06
        -0.56968E-06
        -0.11784E-04
        -0.41751E-06
        -0.88815E-05
        -0.44185E-05
        -0.14830E-05
        -0.10433E-05
        -0.17772E-04
        -0.10292E-05
        -0.73166E-07
        -0.24199E-06
        -0.54473E-06
        -0.17344E-04
        -0.80088E-05
        -0.54082E-06
        -0.34025E-05
        -0.25533E-05
        -0.53064E-06
        -0.53529E-05
        -0.19402E-04
        -0.11250E-03
        -0.87934E-04
        -0.67771E-04
        -0.36481E-04
        -0.21498E-05
        -0.94467E-05
        -0.14742E-04
        -0.24321E-04
        -0.10134E-03
        -0.34337E-04
        -0.14927E-04
        -0.23441E-04
        -0.32663E-04
        -0.35327E-04
        -0.17618E-06
        -0.54700E-04
        -0.11282E-03
        -0.61161E-03
        -0.10200E-02
        -0.16974E-02
        -0.24401E-02
        -0.23396E-02
        -0.17858E-02
        -0.16412E-02
        -0.16058E-02
        -0.63365E-03
        -0.69249E-04
        -0.10944E-04
        -0.81664E-05
        -0.16123E-05
        -0.12462E-03
        -0.49995E-03
        -0.96645E-03
        -0.16333E-02
        -0.20075E-02
        -0.15479E-02
        -0.13838E-02
        -0.13732E-02
        -0.67829E-03
        -0.18248E-03
        -0.16332E-03
        -0.48202E-04
        -0.19089E-04
        -0.16400E-04
        -0.98747E-06
        -0.27560E-04
        -0.56131E-05
        -0.35448E-05
        -0.43507E-04
        -0.18737E-04
        -0.39250E-04
        -0.10646E-04
        -0.19803E-03
        -0.69741E-04
        -0.14370E-05
        -0.19485E-03
        -0.68956E-05
        -0.69340E-06
        -0.56793E-06
        -0.11802E-04
        -0.41200E-06
        -0.89271E-05
        -0.44248E-05
        -0.14875E-05
        -0.10401E-05
        -0.17914E-04
        -0.10216E-05
        -0.75349E-07
        -0.24702E-06
        -0.53187E-06
        -0.17398E-04
        -0.80079E-05
        -0.53513E-06
        -0.34177E-05
        -0.25620E-05
        -0.52018E-06
        -0.53606E-05
        -0.19402E-04
        -0.11286E-03
        -0.88331E-04
        -0.67957E-04
        -0.36560E-04
        -0.21284E-05
        -0.94565E-05
        -0.14785E-04
        -0.24350E-04
        -0.10137E-03
        -0.34355E-04
        -0.14914E-04
        -0.23383E-04
        -0.32576E-04
        -0.35298E-04
        -0.17055E-06
        -0.54597E-04
        -0.11283E-03
        -0.61183E-03
        -0.10200E-02
        -0.16970E-02
        -0.24385E-02
        -0.23376E-02
        -0.17847E-02
        -0.16406E-02
        -0.16049E-02
        -0.63345E-03
        -0.69352E-04
        -0.10947E-04
        -0.81986E-05
        -0.15849E-05
        -0.12478E-03
        -0.50058E-03
        -0.96705E-03
        -0.16333E-02
        -0.20073E-02
        -0.15477E-02
        -0.13837E-02
        -0.13725E-02
        -0.67732E-03
        -0.18208E-03
        -0.16288E-03
        -0.48254E-04
        -0.19088E-04
        -0.16416E-04
        -0.10022E-05
        -0.27567E-04
        -0.56223E-05
        -0.35509E-05
        -0.43632E-04
        -0.18806E-04
        -0.39510E-04
        -0.10664E-04
        -0.19801E-03
        -0.69787E-04
        -0.14392E-05
        -0.19536E-03
        -0.68979E-05
        -0.70662E-06
        -0.56617E-06
        -0.11820E-04
        -0.40651E-06
        -0.89731E-05
        -0.44314E-05
        -0.14921E-05
        -0.10370E-05
        -0.18054E-04
        -0.10140E-05
        -0.77962E-07
        -0.25243E-06
        -0.51893E-06
        -0.17450E-04
        -0.80065E-05
        -0.52907E-06
        -0.34335E-05
        -0.25710E-05
        -0.50980E-06
        -0.53688E-05
        -0.19403E-04
        -0.11321E-03
        -0.88732E-04
        -0.68142E-04
        -0.36643E-04
        -0.21067E-05
        -0.94658E-05
        -0.14828E-04
        -0.24383E-04
        -0.10141E-03
        -0.34383E-04
        -0.14909E-04
        -0.23334E-04
        -0.32493E-04
        -0.35268E-04
        -0.16495E-06
        -0.54494E-04
        -0.11284E-03
        -0.61205E-03
        -0.10200E-02
        -0.16966E-02
        -0.24368E-02
        -0.23356E-02
        -0.17836E-02
        -0.16399E-02
        -0.16040E-02
        -0.63325E-03
        -0.69455E-04
        -0.10950E-04
        -0.82311E-05
        -0.15576E-05
        -0.12495E-03
        -0.50122E-03
        -0.96764E-03
        -0.16332E-02
        -0.20070E-02
        -0.15475E-02
        -0.13836E-02
        -0.13718E-02
        -0.67635E-03
        -0.18168E-03
        -0.16245E-03
        -0.48304E-04
        -0.19086E-04
        -0.16432E-04
        -0.10172E-05
        -0.27575E-04
        -0.56313E-05
        -0.35556E-05
        -0.43750E-04
        -0.18876E-04
        -0.39765E-04
        -0.10683E-04
        -0.19799E-03
        -0.69833E-04
        -0.14418E-05
        -0.19586E-03
        -0.69005E-05
        -0.72014E-06
        -0.56438E-06
        -0.11839E-04
        -0.40107E-06
        -0.90192E-05
        -0.44380E-05
        -0.14965E-05
        -0.10339E-05
        -0.18192E-04
        -0.10064E-05
        -0.80726E-07
        -0.25805E-06
        -0.50611E-06
        -0.17502E-04
        -0.80049E-05
        -0.52278E-06
        -0.34494E-05
        -0.25805E-05
        -0.49943E-06
        -0.53777E-05
        -0.19406E-04
        -0.11358E-03
        -0.89134E-04
        -0.68330E-04
        -0.36725E-04
        -0.20851E-05
        -0.94750E-05
        -0.14871E-04
        -0.24416E-04
        -0.10146E-03
        -0.34415E-04
        -0.14907E-04
        -0.23289E-04
        -0.32411E-04
        -0.35239E-04
        -0.15944E-06
        -0.54391E-04
        -0.11285E-03
        -0.61226E-03
        -0.10200E-02
        -0.16962E-02
        -0.24351E-02
        -0.23336E-02
        -0.17825E-02
        -0.16392E-02
        -0.16031E-02
        -0.63305E-03
        -0.69556E-04
        -0.10953E-04
        -0.82640E-05
        -0.15306E-05
        -0.12511E-03
        -0.50186E-03
        -0.96822E-03
        -0.16331E-02
        -0.20068E-02
        -0.15474E-02
        -0.13836E-02
        -0.13711E-02
        -0.67538E-03
        -0.18128E-03
        -0.16202E-03
        -0.48353E-04
        -0.19084E-04
        -0.16448E-04
        -0.10323E-05
        -0.27582E-04
        -0.56403E-05
        -0.35605E-05
        -0.43868E-04
        -0.18946E-04
        -0.40021E-04
        -0.10701E-04
        -0.19797E-03
        -0.69879E-04
        -0.14447E-05
        -0.19636E-03
        -0.69032E-05
        -0.73386E-06
        -0.56257E-06
        -0.11857E-04
        -0.39562E-06
        -0.90654E-05
        -0.44447E-05
        -0.15010E-05
        -0.10309E-05
        -0.18331E-04
        -0.99897E-06
        -0.83608E-07
        -0.26366E-06
        -0.49348E-06
        -0.17555E-04
        -0.80030E-05
        -0.51661E-06
        -0.34654E-05
        -0.25898E-05
        -0.48911E-06
        -0.53859E-05
        -0.19408E-04
        -0.11394E-03
        -0.89540E-04
        -0.68514E-04
        -0.36808E-04
        -0.20637E-05
        -0.94843E-05
        -0.14915E-04
        -0.24450E-04
        -0.10151E-03
        -0.34445E-04
        -0.14905E-04
        -0.23245E-04
        -0.32331E-04
        -0.35211E-04
        -0.15400E-06
        -0.54289E-04
        -0.11287E-03
        -0.61248E-03
        -0.10201E-02
        -0.16958E-02
        -0.24335E-02
        -0.23316E-02
        -0.17814E-02
        -0.16385E-02
        -0.16022E-02
        -0.63284E-03
        -0.69658E-04
        -0.10957E-04
        -0.82976E-05
        -0.15039E-05
        -0.12527E-03
        -0.50249E-03
        -0.96880E-03
        -0.16330E-02
        -0.20065E-02
        -0.15472E-02
        -0.13835E-02
        -0.13703E-02
        -0.67440E-03
        -0.18089E-03
        -0.16159E-03
        -0.48402E-04
        -0.19080E-04
        -0.16463E-04
        -0.10474E-05
        -0.27588E-04
        -0.56491E-05
        -0.35653E-05
        -0.43987E-04
        -0.19017E-04
        -0.40276E-04
        -0.10720E-04
        -0.19795E-03
        -0.69928E-04
        -0.14473E-05
        -0.19687E-03
        -0.69058E-05
        -0.74776E-06
        -0.56077E-06
        -0.11875E-04
        -0.39017E-06
        -0.91115E-05
        -0.44511E-05
        -0.15053E-05
        -0.10279E-05
        -0.18471E-04
        -0.99154E-06
        -0.86461E-07
        -0.26927E-06
        -0.48104E-06
        -0.17607E-04
        -0.80011E-05
        -0.51043E-06
        -0.34813E-05
        -0.25993E-05
        -0.47892E-06
        -0.53948E-05
        -0.19411E-04
        -0.11431E-03
        -0.89946E-04
        -0.68701E-04
        -0.36890E-04
        -0.20425E-05
        -0.94937E-05
        -0.14958E-04
        -0.24483E-04
        -0.10155E-03
        -0.34477E-04
        -0.14904E-04
        -0.23200E-04
        -0.32249E-04
        -0.35182E-04
        -0.14868E-06
        -0.54186E-04
        -0.11288E-03
        -0.61268E-03
        -0.10201E-02
        -0.16954E-02
        -0.24318E-02
        -0.23296E-02
        -0.17803E-02
        -0.16378E-02
        -0.16013E-02
        -0.63263E-03
        -0.69758E-04
        -0.10960E-04
        -0.83310E-05
        -0.14774E-05
        -0.12544E-03
        -0.50313E-03
        -0.96938E-03
        -0.16329E-02
        -0.20062E-02
        -0.15471E-02
        -0.13834E-02
        -0.13696E-02
        -0.67344E-03
        -0.18049E-03
        -0.16116E-03
        -0.48450E-04
        -0.19077E-04
        -0.16479E-04
        -0.10627E-05
        -0.27596E-04
        -0.56581E-05
        -0.35706E-05
        -0.44105E-04
        -0.19087E-04
        -0.40532E-04
        -0.10739E-04
        -0.19793E-03
        -0.69974E-04
        -0.14501E-05
        -0.19737E-03
        -0.69085E-05
        -0.76182E-06
        -0.55899E-06
        -0.11893E-04
        -0.38473E-06
        -0.91579E-05
        -0.44574E-05
        -0.15098E-05
        -0.10250E-05
        -0.18610E-04
        -0.98414E-06
        -0.89413E-07
        -0.27486E-06
        -0.46878E-06
        -0.17659E-04
        -0.79994E-05
        -0.50433E-06
        -0.34973E-05
        -0.26087E-05
        -0.46879E-06
        -0.54034E-05
        -0.19414E-04
        -0.11467E-03
        -0.90354E-04
        -0.68885E-04
        -0.36972E-04
        -0.20213E-05
        -0.95029E-05
        -0.15001E-04
        -0.24517E-04
        -0.10160E-03
        -0.34509E-04
        -0.14902E-04
        -0.23156E-04
        -0.32168E-04
        -0.35154E-04
        -0.14343E-06
        -0.54082E-04
        -0.11289E-03
        -0.61289E-03
        -0.10201E-02
        -0.16949E-02
        -0.24301E-02
        -0.23275E-02
        -0.17792E-02
        -0.16372E-02
        -0.16004E-02
        -0.63242E-03
        -0.69859E-04
        -0.10964E-04
        -0.83640E-05
        -0.14511E-05
        -0.12560E-03
        -0.50377E-03
        -0.96996E-03
        -0.16328E-02
        -0.20060E-02
        -0.15469E-02
        -0.13834E-02
        -0.13689E-02
        -0.67247E-03
        -0.18010E-03
        -0.16073E-03
        -0.48499E-04
        -0.19074E-04
        -0.16495E-04
        -0.10782E-05
        -0.27603E-04
        -0.56671E-05
        -0.35754E-05
        -0.44223E-04
        -0.19158E-04
        -0.40788E-04
        -0.10759E-04
        -0.19791E-03
        -0.70020E-04
        -0.14529E-05
        -0.19788E-03
        -0.69113E-05
        -0.77604E-06
        -0.55716E-06
        -0.11911E-04
        -0.37937E-06
        -0.92044E-05
        -0.44637E-05
        -0.15142E-05
        -0.10220E-05
        -0.18750E-04
        -0.97683E-06
        -0.92348E-07
        -0.28047E-06
        -0.45667E-06
        -0.17712E-04
        -0.79975E-05
        -0.49824E-06
        -0.35133E-05
        -0.26183E-05
        -0.45872E-06
        -0.54120E-05
        -0.19416E-04
        -0.11504E-03
        -0.90762E-04
        -0.69072E-04
        -0.37055E-04
        -0.20005E-05
        -0.95120E-05
        -0.15044E-04
        -0.24550E-04
        -0.10164E-03
        -0.34540E-04
        -0.14901E-04
        -0.23112E-04
        -0.32088E-04
        -0.35126E-04
        -0.13829E-06
        -0.53979E-04
        -0.11290E-03
        -0.61310E-03
        -0.10201E-02
        -0.16945E-02
        -0.24285E-02
        -0.23255E-02
        -0.17782E-02
        -0.16365E-02
        -0.15994E-02
        -0.63221E-03
        -0.69961E-04
        -0.10967E-04
        -0.83971E-05
        -0.14250E-05
        -0.12576E-03
        -0.50441E-03
        -0.97054E-03
        -0.16327E-02
        -0.20057E-02
        -0.15468E-02
        -0.13833E-02
        -0.13682E-02
        -0.67150E-03
        -0.17971E-03
        -0.16031E-03
        -0.48548E-04
        -0.19071E-04
        -0.16511E-04
        -0.10939E-05
        -0.27610E-04
        -0.56761E-05
        -0.35802E-05
        -0.44341E-04
        -0.19229E-04
        -0.41045E-04
        -0.10778E-04
        -0.19789E-03
        -0.70069E-04
        -0.14553E-05
        -0.19839E-03
        -0.69139E-05
        -0.79039E-06
        -0.55532E-06
        -0.11929E-04
        -0.37408E-06
        -0.92510E-05
        -0.44701E-05
        -0.15186E-05
        -0.10191E-05
        -0.18890E-04
        -0.96947E-06
        -0.95417E-07
        -0.28608E-06
        -0.44475E-06
        -0.17764E-04
        -0.79956E-05
        -0.49213E-06
        -0.35292E-05
        -0.26277E-05
        -0.44876E-06
        -0.54210E-05
        -0.19419E-04
        -0.11541E-03
        -0.91172E-04
        -0.69259E-04
        -0.37138E-04
        -0.19796E-05
        -0.95211E-05
        -0.15088E-04
        -0.24585E-04
        -0.10169E-03
        -0.34572E-04
        -0.14900E-04
        -0.23069E-04
        -0.32007E-04
        -0.35096E-04
        -0.13325E-06
        -0.53876E-04
        -0.11291E-03
        -0.61331E-03
        -0.10201E-02
        -0.16941E-02
        -0.24268E-02
        -0.23235E-02
        -0.17771E-02
        -0.16358E-02
        -0.15985E-02
        -0.63200E-03
        -0.70062E-04
        -0.10970E-04
        -0.84305E-05
        -0.13991E-05
        -0.12592E-03
        -0.50505E-03
        -0.97112E-03
        -0.16326E-02
        -0.20055E-02
        -0.15466E-02
        -0.13833E-02
        -0.13674E-02
        -0.67053E-03
        -0.17932E-03
        -0.15988E-03
        -0.48596E-04
        -0.19069E-04
        -0.16526E-04
        -0.11096E-05
        -0.27617E-04
        -0.56851E-05
        -0.35856E-05
        -0.44458E-04
        -0.19300E-04
        -0.41302E-04
        -0.10797E-04
        -0.19787E-03
        -0.70115E-04
        -0.14581E-05
        -0.19889E-03
        -0.69164E-05
        -0.80494E-06
        -0.55352E-06
        -0.11947E-04
        -0.36881E-06
        -0.92978E-05
        -0.44764E-05
        -0.15231E-05
        -0.10162E-05
        -0.19031E-04
        -0.96213E-06
        -0.98452E-07
        -0.29168E-06
        -0.43304E-06
        -0.17816E-04
        -0.79936E-05
        -0.48612E-06
        -0.35453E-05
        -0.26373E-05
        -0.43885E-06
        -0.54296E-05
        -0.19421E-04
        -0.11578E-03
        -0.91584E-04
        -0.69442E-04
        -0.37221E-04
        -0.19588E-05
        -0.95303E-05
        -0.15131E-04
        -0.24619E-04
        -0.10173E-03
        -0.34605E-04
        -0.14898E-04
        -0.23024E-04
        -0.31927E-04
        -0.35069E-04
        -0.12833E-06
        -0.53773E-04
        -0.11292E-03
        -0.61351E-03
        -0.10201E-02
        -0.16937E-02
        -0.24251E-02
        -0.23215E-02
        -0.17760E-02
        -0.16351E-02
        -0.15975E-02
        -0.63180E-03
        -0.70163E-04
        -0.10974E-04
        -0.84641E-05
        -0.13736E-05
        -0.12609E-03
        -0.50569E-03
        -0.97171E-03
        -0.16326E-02
        -0.20052E-02
        -0.15465E-02
        -0.13832E-02
        -0.13667E-02
        -0.66957E-03
        -0.17893E-03
        -0.15945E-03
        -0.48644E-04
        -0.19066E-04
        -0.16542E-04
        -0.11254E-05
        -0.27624E-04
        -0.56939E-05
        -0.35905E-05
        -0.44576E-04
        -0.19372E-04
        -0.41559E-04
        -0.10816E-04
        -0.19785E-03
        -0.70161E-04
        -0.14605E-05
        -0.19941E-03
        -0.69191E-05
        -0.81969E-06
        -0.55173E-06
        -0.11965E-04
        -0.36355E-06
        -0.93447E-05
        -0.44826E-05
        -0.15275E-05
        -0.10134E-05
        -0.19172E-04
        -0.95484E-06
        -0.10159E-06
        -0.29722E-06
        -0.42153E-06
        -0.17868E-04
        -0.79917E-05
        -0.48010E-06
        -0.35613E-05
        -0.26469E-05
        -0.42907E-06
        -0.54385E-05
        -0.19423E-04
        -0.11615E-03
        -0.91996E-04
        -0.69628E-04
        -0.37304E-04
        -0.19382E-05
        -0.95397E-05
        -0.15174E-04
        -0.24652E-04
        -0.10178E-03
        -0.34635E-04
        -0.14897E-04
        -0.22980E-04
        -0.31846E-04
        -0.35041E-04
        -0.12348E-06
        -0.53669E-04
        -0.11293E-03
        -0.61371E-03
        -0.10201E-02
        -0.16933E-02
        -0.24235E-02
        -0.23195E-02
        -0.17749E-02
        -0.16345E-02
        -0.15966E-02
        -0.63159E-03
        -0.70264E-04
        -0.10977E-04
        -0.84976E-05
        -0.13483E-05
        -0.12625E-03
        -0.50634E-03
        -0.97229E-03
        -0.16325E-02
        -0.20049E-02
        -0.15463E-02
        -0.13831E-02
        -0.13660E-02
        -0.66861E-03
        -0.17854E-03
        -0.15902E-03
        -0.48692E-04
        -0.19062E-04
        -0.16558E-04
        -0.11413E-05
        -0.27630E-04
        -0.57029E-05
        -0.35956E-05
        -0.44693E-04
        -0.19444E-04
        -0.41817E-04
        -0.10836E-04
        -0.19783E-03
        -0.70210E-04
        -0.14632E-05
        -0.19991E-03
        -0.69218E-05
        -0.83465E-06
        -0.54991E-06
        -0.11983E-04
        -0.35834E-06
        -0.93917E-05
        -0.44886E-05
        -0.15319E-05
        -0.10106E-05
        -0.19314E-04
        -0.94755E-06
        -0.10469E-06
        -0.30275E-06
        -0.41021E-06
        -0.17921E-04
        -0.79898E-05
        -0.47416E-06
        -0.35773E-05
        -0.26566E-05
        -0.41932E-06
        -0.54470E-05
        -0.19426E-04
        -0.11652E-03
        -0.92408E-04
        -0.69810E-04
        -0.37387E-04
        -0.19177E-05
        -0.95491E-05
        -0.15217E-04
        -0.24687E-04
        -0.10183E-03
        -0.34668E-04
        -0.14895E-04
        -0.22937E-04
        -0.31766E-04
        -0.35012E-04
        -0.11872E-06
        -0.53566E-04
        -0.11294E-03
        -0.61391E-03
        -0.10202E-02
        -0.16929E-02
        -0.24218E-02
        -0.23174E-02
        -0.17738E-02
        -0.16338E-02
        -0.15956E-02
        -0.63139E-03
        -0.70366E-04
        -0.10980E-04
        -0.85307E-05
        -0.13231E-05
        -0.12641E-03
        -0.50698E-03
        -0.97287E-03
        -0.16324E-02
        -0.20047E-02
        -0.15462E-02
        -0.13831E-02
        -0.13652E-02
        -0.66764E-03
        -0.17816E-03
        -0.15860E-03
        -0.48740E-04
        -0.19059E-04
        -0.16573E-04
        -0.11574E-05
        -0.27638E-04
        -0.57118E-05
        -0.36008E-05
        -0.44810E-04
        -0.19516E-04
        -0.42075E-04
        -0.10855E-04
        -0.19782E-03
        -0.70256E-04
        -0.14655E-05
        -0.20042E-03
        -0.69245E-05
        -0.84983E-06
        -0.54807E-06
        -0.12002E-04
        -0.35323E-06
        -0.94387E-05
        -0.44944E-05
        -0.15363E-05
        -0.10078E-05
        -0.19456E-04
        -0.94026E-06
        -0.10793E-06
        -0.30827E-06
        -0.39903E-06
        -0.17972E-04
        -0.79877E-05
        -0.46823E-06
        -0.35933E-05
        -0.26663E-05
        -0.40966E-06
        -0.54557E-05
        -0.19428E-04
        -0.11690E-03
        -0.92822E-04
        -0.69993E-04
        -0.37470E-04
        -0.18976E-05
        -0.95586E-05
        -0.15261E-04
        -0.24721E-04
        -0.10187E-03
        -0.34700E-04
        -0.14895E-04
        -0.22893E-04
        -0.31685E-04
        -0.34984E-04
        -0.11409E-06
        -0.53462E-04
        -0.11295E-03
        -0.61412E-03
        -0.10202E-02
        -0.16925E-02
        -0.24201E-02
        -0.23154E-02
        -0.17727E-02
        -0.16331E-02
        -0.15947E-02
        -0.63119E-03
        -0.70469E-04
        -0.10982E-04
        -0.85637E-05
        -0.12984E-05
        -0.12657E-03
        -0.50762E-03
        -0.97345E-03
        -0.16323E-02
        -0.20044E-02
        -0.15460E-02
        -0.13830E-02
        -0.13645E-02
        -0.66668E-03
        -0.17777E-03
        -0.15817E-03
        -0.48787E-04
        -0.19057E-04
        -0.16589E-04
        -0.11736E-05
        -0.27645E-04
        -0.57207E-05
        -0.36059E-05
        -0.44926E-04
        -0.19589E-04
        -0.42334E-04
        -0.10874E-04
        -0.19780E-03
        -0.70302E-04
        -0.14681E-05
        -0.20093E-03
        -0.69271E-05
        -0.86530E-06
        -0.54622E-06
        -0.12020E-04
        -0.34839E-06
        -0.94857E-05
        -0.45000E-05
        -0.15408E-05
        -0.10050E-05
        -0.19599E-04
        -0.93308E-06
        -0.11118E-06
        -0.31380E-06
        -0.38804E-06
        -0.18020E-04
        -0.79857E-05
        -0.46226E-06
        -0.36093E-05
        -0.26760E-05
        -0.40012E-06
        -0.54647E-05
        -0.19431E-04
        -0.11728E-03
        -0.93236E-04
        -0.70166E-04
        -0.37551E-04
        -0.18772E-05
        -0.95685E-05
        -0.15304E-04
        -0.24756E-04
        -0.10192E-03
        -0.34731E-04
        -0.14893E-04
        -0.22849E-04
        -0.31605E-04
        -0.34957E-04
        -0.10955E-06
        -0.53359E-04
        -0.11296E-03
        -0.61432E-03
        -0.10202E-02
        -0.16921E-02
        -0.24184E-02
        -0.23133E-02
        -0.17716E-02
        -0.16325E-02
        -0.15936E-02
        -0.63101E-03
        -0.70573E-04
        -0.10983E-04
        -0.85968E-05
        -0.12739E-05
        -0.12673E-03
        -0.50826E-03
        -0.97403E-03
        -0.16322E-02
        -0.20041E-02
        -0.15459E-02
        -0.13829E-02
        -0.13637E-02
        -0.66572E-03
        -0.17739E-03
        -0.15775E-03
        -0.48835E-04
        -0.19054E-04
        -0.16605E-04
        -0.11900E-05
        -0.27651E-04
        -0.57294E-05
        -0.36108E-05
        -0.45042E-04
        -0.19663E-04
        -0.42594E-04
        -0.10894E-04
        -0.19778E-03
        -0.70351E-04
        -0.14707E-05
        -0.20145E-03
        -0.69297E-05
        -0.88117E-06
        -0.54436E-06
        -0.12038E-04
        -0.34378E-06
        -0.95330E-05
        -0.45055E-05
        -0.15452E-05
        -0.10022E-05
        -0.19742E-04
        -0.92585E-06
        -0.11462E-06
        -0.31932E-06
        -0.37724E-06
        -0.18066E-04
        -0.79835E-05
        -0.45640E-06
        -0.36253E-05
        -0.26857E-05
        -0.39061E-06
        -0.54733E-05
        -0.19433E-04
        -0.11767E-03
        -0.93646E-04
        -0.70335E-04
        -0.37632E-04
        -0.18571E-05
        -0.95789E-05
        -0.15348E-04
        -0.24791E-04
        -0.10197E-03
        -0.34764E-04
        -0.14892E-04
        -0.22806E-04
        -0.31524E-04
        -0.34927E-04
        -0.10506E-06
        -0.53256E-04
        -0.11296E-03
        -0.61451E-03
        -0.10202E-02
        -0.16917E-02
        -0.24167E-02
        -0.23113E-02
        -0.17705E-02
        -0.16318E-02
        -0.15926E-02
        -0.63085E-03
        -0.70678E-04
        -0.10982E-04
        -0.86300E-05
        -0.12494E-05
        -0.12689E-03
        -0.50891E-03
        -0.97461E-03
        -0.16321E-02
        -0.20039E-02
        -0.15458E-02
        -0.13829E-02
        -0.13630E-02
        -0.66476E-03
        -0.17702E-03
        -0.15732E-03
        -0.48884E-04
        -0.19051E-04
        -0.16621E-04
        -0.12064E-05
        -0.27660E-04
        -0.57384E-05
        -0.36164E-05
        -0.45158E-04
        -0.19738E-04
        -0.42853E-04
        -0.10913E-04
        -0.19776E-03
        -0.70397E-04
        -0.14730E-05
        -0.20196E-03
        -0.69325E-05
        -0.89726E-06
        -0.54253E-06
        -0.12056E-04
        -0.33933E-06
        -0.95806E-05
        -0.45110E-05
        -0.15494E-05
        -0.99965E-06
        -0.19886E-04
        -0.91890E-06
        -0.11803E-06
        -0.32465E-06
        -0.36671E-06
        -0.18110E-04
        -0.79818E-05
        -0.45070E-06
        -0.36414E-05
        -0.26957E-05
        -0.38132E-06
        -0.54819E-05
        -0.19434E-04
        -0.11805E-03
        -0.94057E-04
        -0.70497E-04
        -0.37710E-04
        -0.18374E-05
        -0.95901E-05
        -0.15390E-04
        -0.24824E-04
        -0.10201E-03
        -0.34795E-04
        -0.14891E-04
        -0.22762E-04
        -0.31445E-04
        -0.34900E-04
        -0.10071E-06
        -0.53151E-04
        -0.11297E-03
        -0.61471E-03
        -0.10202E-02
        -0.16913E-02
        -0.24151E-02
        -0.23093E-02
        -0.17694E-02
        -0.16311E-02
        -0.15915E-02
        -0.63070E-03
        -0.70780E-04
        -0.10980E-04
        -0.86631E-05
        -0.12253E-05
        -0.12705E-03
        -0.50954E-03
        -0.97519E-03
        -0.16321E-02
        -0.20036E-02
        -0.15456E-02
        -0.13828E-02
        -0.13623E-02
        -0.66381E-03
        -0.17664E-03
        -0.15690E-03
        -0.49324E-04
        -0.19208E-04
        -0.16777E-04
        -0.12321E-05
        -0.27890E-04
        -0.57924E-05
        -0.36521E-05
        -0.45627E-04
        -0.19966E-04
        -0.43438E-04
        -0.11019E-04
        -0.19927E-03
        -0.70984E-04
        -0.14870E-05
        -0.20405E-03
        -0.69921E-05
        -0.91986E-06
        -0.54506E-06
        -0.12170E-04
        -0.33808E-06
        -0.96985E-05
        -0.45512E-05
        -0.15629E-05
        -0.10064E-05
        -0.20184E-04
        -0.92161E-06
        -0.12216E-06
        -0.33140E-06
        -0.36120E-06
        -0.18304E-04
        -0.80470E-05
        -0.45031E-06
        -0.36862E-05
        -0.27271E-05
        -0.37597E-06
        -0.55289E-05
        -0.19580E-04
        -0.11935E-03
        -0.95197E-04
        -0.71218E-04
        -0.38080E-04
        -0.18370E-05
        -0.96813E-05
        -0.15535E-04
        -0.25032E-04
        -0.10280E-03
        -0.35077E-04
        -0.14995E-04
        -0.22893E-04
        -0.31613E-04
        -0.35145E-04
        -0.97255E-07
        -0.53447E-04
        -0.11388E-03
        -0.61965E-03
        -0.10281E-02
        -0.17041E-02
        -0.24330E-02
        -0.23263E-02
        -0.17830E-02
        -0.16439E-02
        -0.16038E-02
        -0.63573E-03
        -0.71410E-04
        -0.11055E-04
        -0.87571E-05
        -0.12113E-05
        -0.12808E-03
        -0.51371E-03
        -0.98295E-03
        -0.16447E-02
        -0.20190E-02
        -0.15571E-02
        -0.13929E-02
        -0.13717E-02
        -0.66791E-03
        -0.17761E-03
        -0.15767E-03
        -0.10973E-03
        -0.43083E-04
        -0.37213E-04
        -0.27797E-05
        -0.57651E-04
        -0.12212E-04
        -0.81624E-05
        -0.10066E-03
        -0.44277E-04
        -0.95467E-04
        -0.23796E-04
        -0.39721E-03
        -0.14576E-03
        -0.31857E-05
        -0.41159E-03
        -0.15586E-04
        -0.20640E-05
        -0.12129E-05
        -0.26423E-04
        -0.73369E-06
        -0.19949E-04
        -0.95797E-05
        -0.32178E-05
        -0.22172E-05
        -0.45251E-04
        -0.20629E-05
        -0.27050E-06
        -0.74369E-06
        -0.80274E-06
        -0.40887E-04
        -0.17940E-04
        -0.99714E-06
        -0.82736E-05
        -0.61042E-05
        -0.72848E-06
        -0.11620E-04
        -0.41152E-04
        -0.25149E-03
        -0.20641E-03
        -0.15545E-03
        -0.80868E-04
        -0.39420E-05
        -0.20853E-04
        -0.32491E-04
        -0.51994E-04
        -0.20159E-03
        -0.72379E-04
        -0.31681E-04
        -0.48850E-04
        -0.66862E-04
        -0.70876E-04
        -0.19730E-06
        -0.83762E-04
        -0.17828E-03
        -0.97049E-03
        -0.16188E-02
        -0.26803E-02
        -0.38473E-02
        -0.37614E-02
        -0.29314E-02
        -0.26929E-02
        -0.25970E-02
        -0.10317E-02
        -0.11543E-03
        -0.18226E-04
        -0.14569E-04
        -0.19346E-05
        -0.20261E-03
        -0.80790E-03
        -0.15297E-02
        -0.25570E-02
        -0.31465E-02
        -0.24755E-02
        -0.22336E-02
        -0.21842E-02
        -0.10703E-02
        -0.28272E-03
        -0.24909E-03
  
SCALARS                      strain_zz  double 1
LOOKUP_TABLE default
         0.28131E+01
         0.27646E+01
         0.27955E+01
         0.28506E+01
        -0.20368E-08
        -0.22840E-08
        -0.21870E-08
        -0.19868E-08
         0.27634E+01
         0.27796E+01
        -0.20539E-08
        -0.19876E-08
         0.26944E+01
         0.26918E+01
        -0.24404E-08
        -0.22946E-08
         0.28425E+01
         0.26957E+01
        -0.18032E-08
        -0.20001E-08
         0.26417E+01
         0.26000E+01
         0.26667E+01
        -0.24188E-08
        -0.21123E-08
        -0.21812E-08
         0.26015E+01
         0.25405E+01
        -0.23205E-08
        -0.19569E-08
         0.28398E+01
         0.27759E+01
         0.29018E+01
        -0.19802E-08
        -0.18409E-08
        -0.17898E-08
         0.28029E+01
         0.27215E+01
        -0.20949E-08
        -0.19116E-08
         0.27707E+01
         0.27080E+01
        -0.18106E-08
        -0.16029E-08
         0.28239E+01
         0.28474E+01
        -0.19842E-08
        -0.22170E-08
         0.26575E+01
        -0.19384E-08
         0.28428E+01
        -0.22777E-08
         0.25838E+01
        -0.20470E-08
         0.25646E+01
        -0.19635E-08
         0.25650E+01
         0.26332E+01
        -0.20006E-08
        -0.19483E-08
         0.28385E+01
         0.28141E+01
        -0.20061E-08
        -0.22678E-08
         0.28539E+01
        -0.19357E-08
         0.28247E+01
        -0.21126E-08
         0.27486E+01
         0.27405E+01
        -0.20336E-08
        -0.21308E-08
         0.27230E+01
        -0.21487E-08
         0.25188E+01
        -0.16976E-08
         0.25081E+01
        -0.16478E-08
         0.25137E+01
        -0.17375E-08
         0.25437E+01
         0.25740E+01
        -0.16554E-08
        -0.17258E-08
         0.26356E+01
        -0.16074E-08
         0.28228E+01
        -0.21079E-08
         0.27938E+01
        -0.21574E-08
         0.27703E+01
         0.27566E+01
        -0.20718E-08
        -0.20959E-08
         0.27726E+01
        -0.19037E-08
         0.27841E+01
        -0.18766E-08
         0.27738E+01
        -0.20089E-08
         0.27706E+01
         0.27808E+01
        -0.19700E-08
        -0.20278E-08
         0.27146E+01
         0.27428E+01
        -0.15295E-08
        -0.14386E-08
         0.27100E+01
        -0.14605E-08
         0.27425E+01
        -0.14004E-08
         0.27107E+01
        -0.13809E-08
         0.26412E+01
        -0.13049E-08
         0.25742E+01
        -0.11593E-08
         0.25338E+01
        -0.10439E-08
         0.25296E+01
        -0.10366E-08
         0.25308E+01
        -0.11242E-08
         0.25745E+01
        -0.11815E-08
         0.26572E+01
        -0.10788E-08
         0.27476E+01
        -0.97242E-09
         0.27999E+01
        -0.97131E-09
         0.28518E+01
        -0.10857E-08
         0.28861E+01
        -0.12379E-08
         0.28851E+01
        -0.13299E-08
         0.28007E+01
        -0.14363E-08
         0.27416E+01
        -0.15388E-08
         0.27225E+01
        -0.14096E-08
         0.27543E+01
        -0.12366E-08
         0.27703E+01
        -0.12328E-08
         0.27421E+01
        -0.13488E-08
         0.27419E+01
        -0.14379E-08
         0.27632E+01
        -0.13646E-08
         0.27907E+01
        -0.13192E-08
        -0.44367E+00
        -0.44792E+00
        -0.44736E+00
        -0.44180E+00
        -0.45177E+00
        -0.44686E+00
        -0.45296E+00
        -0.44984E+00
        -0.44269E+00
        -0.44720E+00
        -0.45614E+00
        -0.45698E+00
        -0.45447E+00
        -0.45436E+00
        -0.45592E+00
        -0.44207E+00
        -0.44313E+00
        -0.44013E+00
        -0.44837E+00
        -0.44693E+00
        -0.44892E+00
        -0.44756E+00
        -0.45005E+00
        -0.44947E+00
        -0.44704E+00
        -0.44723E+00
        -0.45132E+00
        -0.45096E+00
        -0.45387E+00
        -0.44941E+00
        -0.44259E+00
        -0.44799E+00
        -0.44264E+00
        -0.44621E+00
        -0.45764E+00
        -0.45419E+00
        -0.45246E+00
        -0.45444E+00
        -0.45472E+00
        -0.45791E+00
        -0.46006E+00
        -0.45456E+00
        -0.44882E+00
        -0.44965E+00
        -0.45262E+00
        -0.45750E+00
        -0.45338E+00
        -0.44862E+00
        -0.44897E+00
        -0.45266E+00
        -0.45621E+00
        -0.45135E+00
        -0.46438E+00
        -0.46052E+00
        -0.46109E+00
        -0.46012E+00
        -0.46023E+00
        -0.46212E+00
        -0.46422E+00
        -0.46507E+00
        -0.46485E+00
        -0.46497E+00
        -0.46587E+00
        -0.46053E+00
        -0.45864E+00
        -0.45789E+00
        -0.45634E+00
        -0.45512E+00
        -0.45510E+00
        -0.45694E+00
        -0.46305E+00
        -0.46157E+00
        -0.45962E+00
        -0.45973E+00
        -0.46008E+00
        -0.46209E+00
        -0.45912E+00
        -0.45796E+00
         0.66143E-04
         0.25008E-04
         0.24749E-04
         0.21991E-04
         0.66743E-04
         0.42844E-04
         0.18071E-05
         0.44167E-04
         0.36862E-04
         0.37387E-04
        -0.19973E-05
         0.20239E-03
         0.12044E-03
         0.18420E-05
         0.21344E-03
         0.32534E-04
         0.16178E-04
         0.14635E-04
         0.13230E-04
         0.55545E-05
         0.12360E-03
         0.11496E-03
         0.98239E-04
         0.44962E-05
         0.78378E-05
         0.73477E-06
        -0.11529E-04
        -0.29506E-04
        -0.11909E-04
         0.12875E-04
         0.24430E-04
         0.55477E-05
         0.20419E-04
         0.24642E-04
         0.96962E-04
         0.35340E-04
         0.61263E-04
         0.13735E-03
         0.78808E-04
         0.71410E-04
         0.15366E-03
         0.12297E-03
         0.12607E-03
         0.70720E-04
         0.56318E-04
         0.11046E-03
         0.49767E-04
         0.38378E-04
         0.30807E-04
         0.44366E-04
         0.99910E-04
         0.57326E-04
         0.17148E-02
         0.18195E-02
         0.19741E-02
         0.19617E-02
         0.22410E-02
         0.25891E-02
         0.23805E-02
         0.18903E-02
         0.17912E-02
         0.20394E-02
         0.19566E-02
         0.19008E-02
         0.12949E-02
         0.11788E-02
         0.14061E-02
         0.16036E-02
         0.17297E-02
         0.20658E-02
         0.19142E-02
         0.20338E-02
         0.16506E-02
         0.14836E-02
         0.16798E-02
         0.16050E-02
         0.17090E-02
         0.16887E-02
         0.65507E-04
         0.24273E-04
         0.24033E-04
         0.21353E-04
         0.65838E-04
         0.42015E-04
         0.10263E-05
         0.43441E-04
         0.36168E-04
         0.36755E-04
        -0.29113E-05
         0.20130E-03
         0.11959E-03
         0.79922E-06
         0.21284E-03
         0.31800E-04
         0.15364E-04
         0.13962E-04
         0.12373E-04
         0.46256E-05
         0.12269E-03
         0.11404E-03
         0.97267E-04
         0.36073E-05
         0.70131E-05
        -0.11302E-06
        -0.12388E-04
        -0.30437E-04
        -0.12855E-04
         0.11934E-04
         0.23716E-04
         0.47419E-05
         0.19708E-04
         0.23980E-04
         0.96094E-04
         0.34480E-04
         0.60396E-04
         0.13673E-03
         0.78185E-04
         0.70618E-04
         0.15280E-03
         0.12206E-03
         0.12512E-03
         0.69788E-04
         0.55410E-04
         0.10949E-03
         0.48876E-04
         0.37529E-04
         0.29964E-04
         0.43500E-04
         0.98927E-04
         0.56381E-04
         0.17118E-02
         0.18170E-02
         0.19724E-02
         0.19602E-02
         0.22387E-02
         0.25855E-02
         0.23767E-02
         0.18875E-02
         0.17884E-02
         0.20363E-02
         0.19541E-02
         0.18992E-02
         0.12932E-02
         0.11774E-02
         0.14050E-02
         0.16028E-02
         0.17290E-02
         0.20651E-02
         0.19124E-02
         0.20319E-02
         0.16486E-02
         0.14820E-02
         0.16772E-02
         0.16014E-02
         0.17056E-02
         0.16854E-02
         0.65757E-04
         0.24428E-04
         0.24209E-04
         0.21554E-04
         0.66009E-04
         0.42200E-04
         0.12261E-05
         0.43727E-04
         0.36365E-04
         0.37059E-04
        -0.27262E-05
         0.20150E-03
         0.11986E-03
         0.88730E-06
         0.21355E-03
         0.31690E-04
         0.15360E-04
         0.14124E-04
         0.12173E-04
         0.44362E-05
         0.12256E-03
         0.11397E-03
         0.96627E-04
         0.29656E-05
         0.67519E-05
        -0.70747E-06
        -0.12198E-04
        -0.30571E-04
        -0.13216E-04
         0.11298E-04
         0.23757E-04
         0.45562E-05
         0.19863E-04
         0.24214E-04
         0.96429E-04
         0.34675E-04
         0.60555E-04
         0.13738E-03
         0.78742E-04
         0.70885E-04
         0.15298E-03
         0.12181E-03
         0.12462E-03
         0.69170E-04
         0.55239E-04
         0.10962E-03
         0.49039E-04
         0.37715E-04
         0.30109E-04
         0.43648E-04
         0.99082E-04
         0.56484E-04
         0.17111E-02
         0.18165E-02
         0.19729E-02
         0.19606E-02
         0.22382E-02
         0.25841E-02
         0.23751E-02
         0.18869E-02
         0.17879E-02
         0.20355E-02
         0.19537E-02
         0.18993E-02
         0.12930E-02
         0.11775E-02
         0.14055E-02
         0.16033E-02
         0.17296E-02
         0.20661E-02
         0.19126E-02
         0.20321E-02
         0.16487E-02
         0.14823E-02
         0.16765E-02
         0.15998E-02
         0.17040E-02
         0.16840E-02
         0.65736E-04
         0.24374E-04
         0.24167E-04
         0.21474E-04
         0.65877E-04
         0.42101E-04
         0.11897E-05
         0.43717E-04
         0.36215E-04
         0.36936E-04
        -0.28203E-05
         0.20137E-03
         0.11988E-03
         0.64576E-06
         0.21388E-03
         0.31120E-04
         0.14900E-04
         0.13991E-04
         0.11428E-04
         0.36514E-05
         0.12189E-03
         0.11333E-03
         0.95168E-04
         0.15305E-05
         0.57390E-05
        -0.20608E-05
        -0.12422E-04
        -0.31325E-04
        -0.14389E-04
         0.96586E-05
         0.23433E-04
         0.38307E-05
         0.19729E-04
         0.24117E-04
         0.96388E-04
         0.34571E-04
         0.60460E-04
         0.13764E-03
         0.78894E-04
         0.70653E-04
         0.15260E-03
         0.12077E-03
         0.12322E-03
         0.67721E-04
         0.54494E-04
         0.10923E-03
         0.48760E-04
         0.37554E-04
         0.29910E-04
         0.43410E-04
         0.98846E-04
         0.56266E-04
         0.17096E-02
         0.18155E-02
         0.19726E-02
         0.19604E-02
         0.22373E-02
         0.25822E-02
         0.23729E-02
         0.18856E-02
         0.17867E-02
         0.20339E-02
         0.19524E-02
         0.18986E-02
         0.12920E-02
         0.11770E-02
         0.14055E-02
         0.16030E-02
         0.17293E-02
         0.20664E-02
         0.19121E-02
         0.20316E-02
         0.16481E-02
         0.14818E-02
         0.16751E-02
         0.15975E-02
         0.17019E-02
         0.16821E-02
         0.65631E-04
         0.24255E-04
         0.24080E-04
         0.21390E-04
         0.65733E-04
         0.41976E-04
         0.11141E-05
         0.43636E-04
         0.36021E-04
         0.36791E-04
        -0.29203E-05
         0.20129E-03
         0.11989E-03
         0.39341E-06
         0.21428E-03
         0.30755E-04
         0.14546E-04
         0.13867E-04
         0.10944E-04
         0.30811E-05
         0.12148E-03
         0.11288E-03
         0.94282E-04
         0.64025E-06
         0.50515E-05
        -0.29285E-05
        -0.12617E-04
        -0.31870E-04
        -0.15190E-04
         0.85860E-05
         0.23094E-04
         0.33035E-05
         0.19494E-04
         0.23976E-04
         0.96348E-04
         0.34444E-04
         0.60334E-04
         0.13796E-03
         0.79097E-04
         0.70541E-04
         0.15241E-03
         0.12012E-03
         0.12233E-03
         0.66821E-04
         0.54007E-04
         0.10898E-03
         0.48517E-04
         0.37302E-04
         0.29615E-04
         0.43102E-04
         0.98543E-04
         0.55992E-04
         0.17082E-02
         0.18145E-02
         0.19724E-02
         0.19603E-02
         0.22365E-02
         0.25804E-02
         0.23708E-02
         0.18844E-02
         0.17856E-02
         0.20325E-02
         0.19515E-02
         0.18982E-02
         0.12913E-02
         0.11767E-02
         0.14055E-02
         0.16032E-02
         0.17295E-02
         0.20670E-02
         0.19118E-02
         0.20311E-02
         0.16475E-02
         0.14813E-02
         0.16736E-02
         0.15951E-02
         0.16998E-02
         0.16801E-02
         0.65258E-04
         0.24016E-04
         0.23993E-04
         0.21506E-04
         0.65798E-04
         0.42095E-04
         0.10708E-05
         0.43414E-04
         0.35720E-04
         0.36499E-04
        -0.28399E-05
         0.20152E-03
         0.12008E-03
         0.29727E-06
         0.21504E-03
         0.30886E-04
         0.14498E-04
         0.14034E-04
         0.11063E-04
         0.31450E-05
         0.12165E-03
         0.11304E-03
         0.94323E-04
         0.62084E-06
         0.48456E-05
        -0.30516E-05
        -0.12652E-04
        -0.31938E-04
        -0.15112E-04
         0.86061E-05
         0.22680E-04
         0.30241E-05
         0.19121E-04
         0.23951E-04
         0.96546E-04
         0.34440E-04
         0.60293E-04
         0.13861E-03
         0.79678E-04
         0.70967E-04
         0.15286E-03
         0.12040E-03
         0.12249E-03
         0.66798E-04
         0.53949E-04
         0.10896E-03
         0.48310E-04
         0.36796E-04
         0.28989E-04
         0.42718E-04
         0.98379E-04
         0.55936E-04
         0.17073E-02
         0.18141E-02
         0.19727E-02
         0.19605E-02
         0.22361E-02
         0.25790E-02
         0.23692E-02
         0.18838E-02
         0.17851E-02
         0.20318E-02
         0.19513E-02
         0.18987E-02
         0.12915E-02
         0.11770E-02
         0.14063E-02
         0.16045E-02
         0.17309E-02
         0.20682E-02
         0.19118E-02
         0.20310E-02
         0.16471E-02
         0.14809E-02
         0.16723E-02
         0.15930E-02
         0.16981E-02
         0.16787E-02
         0.64644E-04
         0.23583E-04
         0.23758E-04
         0.21465E-04
         0.65657E-04
         0.42057E-04
         0.77343E-06
         0.42882E-04
         0.35167E-04
         0.35940E-04
        -0.30533E-05
         0.20143E-03
         0.12003E-03
        -0.12466E-06
         0.21544E-03
         0.30816E-04
         0.14215E-04
         0.13985E-04
         0.10992E-04
         0.30005E-05
         0.12163E-03
         0.11299E-03
         0.94276E-04
         0.51185E-06
         0.44856E-05
        -0.32726E-05
        -0.12993E-04
        -0.32219E-04
        -0.15170E-04
         0.85306E-05
         0.22081E-04
         0.25652E-05
         0.18566E-04
         0.23758E-04
         0.96486E-04
         0.34252E-04
         0.60075E-04
         0.13893E-03
         0.79949E-04
         0.71127E-04
         0.15306E-03
         0.12053E-03
         0.12255E-03
         0.66695E-04
         0.53690E-04
         0.10863E-03
         0.47824E-04
         0.36043E-04
         0.28133E-04
         0.42118E-04
         0.98014E-04
         0.55713E-04
         0.17059E-02
         0.18131E-02
         0.19726E-02
         0.19605E-02
         0.22352E-02
         0.25771E-02
         0.23670E-02
         0.18826E-02
         0.17841E-02
         0.20304E-02
         0.19506E-02
         0.18988E-02
         0.12914E-02
         0.11769E-02
         0.14066E-02
         0.16055E-02
         0.17320E-02
         0.20689E-02
         0.19111E-02
         0.20303E-02
         0.16462E-02
         0.14801E-02
         0.16706E-02
         0.15906E-02
         0.16961E-02
         0.16768E-02
         0.64512E-04
         0.23422E-04
         0.23671E-04
         0.21401E-04
         0.65511E-04
         0.41935E-04
         0.63665E-06
         0.42742E-04
         0.35056E-04
         0.35935E-04
        -0.32019E-05
         0.20131E-03
         0.11999E-03
        -0.41532E-06
         0.21580E-03
         0.30759E-04
         0.14127E-04
         0.13885E-04
         0.10929E-04
         0.28847E-05
         0.12157E-03
         0.11289E-03
         0.94204E-04
         0.42809E-06
         0.44528E-05
        -0.33994E-05
        -0.13129E-04
        -0.32371E-04
        -0.15291E-04
         0.84618E-05
         0.21910E-04
         0.23794E-05
         0.18368E-04
         0.23655E-04
         0.96455E-04
         0.34147E-04
         0.59939E-04
         0.13921E-03
         0.80198E-04
         0.71197E-04
         0.15313E-03
         0.12055E-03
         0.12252E-03
         0.66610E-04
         0.53542E-04
         0.10850E-03
         0.47680E-04
         0.35864E-04
         0.27884E-04
         0.41856E-04
         0.97757E-04
         0.55468E-04
         0.17044E-02
         0.18120E-02
         0.19724E-02
         0.19603E-02
         0.22342E-02
         0.25752E-02
         0.23649E-02
         0.18814E-02
         0.17828E-02
         0.20289E-02
         0.19497E-02
         0.18989E-02
         0.12912E-02
         0.11766E-02
         0.14068E-02
         0.16064E-02
         0.17329E-02
         0.20695E-02
         0.19106E-02
         0.20299E-02
         0.16458E-02
         0.14798E-02
         0.16691E-02
         0.15883E-02
         0.16940E-02
         0.16748E-02
         0.64706E-04
         0.23531E-04
         0.23769E-04
         0.21454E-04
         0.65570E-04
         0.41932E-04
         0.77946E-06
         0.42968E-04
         0.35249E-04
         0.36323E-04
        -0.30853E-05
         0.20144E-03
         0.12019E-03
        -0.37930E-06
         0.21648E-03
         0.30961E-04
         0.14296E-04
         0.13953E-04
         0.11096E-04
         0.29998E-05
         0.12175E-03
         0.11302E-03
         0.94364E-04
         0.57391E-06
         0.47317E-05
        -0.32643E-05
        -0.12897E-04
        -0.32206E-04
        -0.15134E-04
         0.86459E-05
         0.22069E-04
         0.24768E-05
         0.18424E-04
         0.23707E-04
         0.96693E-04
         0.34244E-04
         0.60017E-04
         0.13983E-03
         0.80736E-04
         0.71540E-04
         0.15350E-03
         0.12083E-03
         0.12273E-03
         0.66778E-04
         0.53659E-04
         0.10864E-03
         0.47811E-04
         0.36006E-04
         0.27966E-04
         0.41875E-04
         0.97749E-04
         0.55375E-04
         0.17035E-02
         0.18115E-02
         0.19725E-02
         0.19604E-02
         0.22337E-02
         0.25737E-02
         0.23632E-02
         0.18806E-02
         0.17820E-02
         0.20277E-02
         0.19493E-02
         0.18995E-02
         0.12914E-02
         0.11767E-02
         0.14074E-02
         0.16077E-02
         0.17343E-02
         0.20707E-02
         0.19106E-02
         0.20299E-02
         0.16458E-02
         0.14799E-02
         0.16682E-02
         0.15864E-02
         0.16923E-02
         0.16732E-02
         0.64740E-04
         0.23521E-04
         0.23765E-04
         0.21421E-04
         0.65501E-04
         0.41853E-04
         0.78866E-06
         0.42984E-04
         0.35231E-04
         0.36466E-04
        -0.31439E-05
         0.20136E-03
         0.12028E-03
        -0.58825E-06
         0.21683E-03
         0.30947E-04
         0.14255E-04
         0.13848E-04
         0.11046E-04
         0.29062E-05
         0.12174E-03
         0.11295E-03
         0.94336E-04
         0.51892E-06
         0.48276E-05
        -0.33180E-05
        -0.12929E-04
        -0.32228E-04
        -0.15142E-04
         0.86461E-05
         0.22042E-04
         0.24158E-05
         0.18304E-04
         0.23635E-04
         0.96739E-04
         0.34192E-04
         0.59974E-04
         0.14014E-03
         0.81065E-04
         0.71696E-04
         0.15366E-03
         0.12093E-03
         0.12271E-03
         0.66785E-04
         0.53633E-04
         0.10862E-03
         0.47757E-04
         0.35932E-04
         0.27837E-04
         0.41722E-04
         0.97595E-04
         0.55181E-04
         0.17021E-02
         0.18106E-02
         0.19723E-02
         0.19603E-02
         0.22329E-02
         0.25719E-02
         0.23610E-02
         0.18794E-02
         0.17810E-02
         0.20263E-02
         0.19484E-02
         0.18996E-02
         0.12911E-02
         0.11766E-02
         0.14078E-02
         0.16087E-02
         0.17355E-02
         0.20717E-02
         0.19103E-02
         0.20295E-02
         0.16453E-02
         0.14796E-02
         0.16669E-02
         0.15843E-02
         0.16903E-02
         0.16713E-02
         0.64715E-04
         0.23439E-04
         0.23723E-04
         0.21412E-04
         0.65385E-04
         0.41792E-04
         0.75070E-06
         0.42971E-04
         0.35222E-04
         0.36610E-04
        -0.32105E-05
         0.20126E-03
         0.12031E-03
        -0.77828E-06
         0.21719E-03
         0.30905E-04
         0.14231E-04
         0.13780E-04
         0.10981E-04
         0.28312E-05
         0.12172E-03
         0.11288E-03
         0.94286E-04
         0.43365E-06
         0.49245E-05
        -0.34175E-05
        -0.12947E-04
        -0.32270E-04
        -0.15156E-04
         0.86621E-05
         0.21986E-04
         0.23196E-05
         0.18224E-04
         0.23632E-04
         0.96723E-04
         0.34106E-04
         0.59894E-04
         0.14046E-03
         0.81384E-04
         0.71860E-04
         0.15385E-03
         0.12104E-03
         0.12271E-03
         0.66756E-04
         0.53578E-04
         0.10859E-03
         0.47708E-04
         0.35867E-04
         0.27713E-04
         0.41579E-04
         0.97450E-04
         0.55028E-04
         0.17007E-02
         0.18095E-02
         0.19721E-02
         0.19603E-02
         0.22321E-02
         0.25700E-02
         0.23587E-02
         0.18781E-02
         0.17800E-02
         0.20249E-02
         0.19476E-02
         0.18998E-02
         0.12908E-02
         0.11765E-02
         0.14081E-02
         0.16096E-02
         0.17366E-02
         0.20725E-02
         0.19099E-02
         0.20290E-02
         0.16448E-02
         0.14793E-02
         0.16656E-02
         0.15821E-02
         0.16882E-02
         0.16694E-02
         0.64841E-04
         0.23473E-04
         0.23770E-04
         0.21489E-04
         0.65409E-04
         0.41831E-04
         0.85360E-06
         0.43150E-04
         0.35351E-04
         0.36911E-04
        -0.30983E-05
         0.20135E-03
         0.12045E-03
        -0.75426E-06
         0.21785E-03
         0.31043E-04
         0.14326E-04
         0.13849E-04
         0.11089E-04
         0.29208E-05
         0.12187E-03
         0.11299E-03
         0.94402E-04
         0.52324E-06
         0.51351E-05
        -0.33324E-05
        -0.12792E-04
        -0.32165E-04
        -0.14982E-04
         0.88578E-05
         0.22120E-04
         0.23841E-05
         0.18298E-04
         0.23741E-04
         0.96908E-04
         0.34165E-04
         0.59917E-04
         0.14106E-03
         0.81925E-04
         0.72253E-04
         0.15423E-03
         0.12129E-03
         0.12288E-03
         0.66875E-04
         0.53653E-04
         0.10869E-03
         0.47797E-04
         0.35960E-04
         0.27751E-04
         0.41583E-04
         0.97443E-04
         0.54989E-04
         0.16997E-02
         0.18090E-02
         0.19723E-02
         0.19604E-02
         0.22314E-02
         0.25682E-02
         0.23569E-02
         0.18774E-02
         0.17793E-02
         0.20238E-02
         0.19472E-02
         0.19001E-02
         0.12909E-02
         0.11766E-02
         0.14087E-02
         0.16108E-02
         0.17379E-02
         0.20736E-02
         0.19097E-02
         0.20290E-02
         0.16447E-02
         0.14793E-02
         0.16646E-02
         0.15801E-02
         0.16866E-02
         0.16678E-02
         0.64865E-04
         0.23407E-04
         0.23729E-04
         0.21447E-04
         0.65290E-04
         0.41731E-04
         0.79766E-06
         0.43146E-04
         0.35358E-04
         0.37034E-04
        -0.31969E-05
         0.20122E-03
         0.12042E-03
        -0.98518E-06
         0.21824E-03
         0.31020E-04
         0.14283E-04
         0.13737E-04
         0.11006E-04
         0.28131E-05
         0.12179E-03
         0.11287E-03
         0.94297E-04
         0.42492E-06
         0.51775E-05
        -0.34199E-05
        -0.12906E-04
        -0.32309E-04
        -0.15063E-04
         0.88392E-05
         0.22071E-04
         0.22928E-05
         0.18159E-04
         0.23677E-04
         0.96895E-04
         0.34069E-04
         0.59795E-04
         0.14136E-03
         0.82182E-04
         0.72347E-04
         0.15431E-03
         0.12129E-03
         0.12283E-03
         0.66780E-04
         0.53546E-04
         0.10861E-03
         0.47718E-04
         0.35853E-04
         0.27605E-04
         0.41433E-04
         0.97270E-04
         0.54786E-04
         0.16982E-02
         0.18080E-02
         0.19721E-02
         0.19602E-02
         0.22304E-02
         0.25663E-02
         0.23547E-02
         0.18761E-02
         0.17781E-02
         0.20223E-02
         0.19463E-02
         0.19001E-02
         0.12906E-02
         0.11763E-02
         0.14089E-02
         0.16117E-02
         0.17388E-02
         0.20743E-02
         0.19093E-02
         0.20285E-02
         0.16442E-02
         0.14791E-02
         0.16634E-02
         0.15779E-02
         0.16845E-02
         0.16659E-02
         0.64924E-04
         0.23385E-04
         0.23729E-04
         0.21453E-04
         0.65236E-04
         0.41681E-04
         0.81333E-06
         0.43212E-04
         0.35437E-04
         0.37268E-04
        -0.32045E-05
         0.20121E-03
         0.12050E-03
        -0.11013E-05
         0.21872E-03
         0.31060E-04
         0.14332E-04
         0.13702E-04
         0.11013E-04
         0.27903E-05
         0.12180E-03
         0.11285E-03
         0.94293E-04
         0.40610E-06
         0.53174E-05
        -0.34465E-05
        -0.12863E-04
        -0.32332E-04
        -0.15060E-04
         0.88824E-05
         0.22062E-04
         0.22534E-05
         0.18086E-04
         0.23674E-04
         0.96967E-04
         0.34031E-04
         0.59747E-04
         0.14176E-03
         0.82515E-04
         0.72529E-04
         0.15454E-03
         0.12143E-03
         0.12288E-03
         0.66799E-04
         0.53535E-04
         0.10863E-03
         0.47708E-04
         0.35818E-04
         0.27518E-04
         0.41337E-04
         0.97173E-04
         0.54646E-04
         0.16970E-02
         0.18071E-02
         0.19720E-02
         0.19601E-02
         0.22296E-02
         0.25645E-02
         0.23527E-02
         0.18750E-02
         0.17770E-02
         0.20209E-02
         0.19456E-02
         0.19003E-02
         0.12905E-02
         0.11762E-02
         0.14093E-02
         0.16127E-02
         0.17400E-02
         0.20752E-02
         0.19090E-02
         0.20282E-02
         0.16438E-02
         0.14789E-02
         0.16622E-02
         0.15758E-02
         0.16825E-02
         0.16640E-02
         0.65179E-04
         0.23592E-04
         0.23921E-04
         0.21611E-04
         0.65400E-04
         0.41810E-04
         0.10863E-05
         0.43508E-04
         0.35654E-04
         0.37680E-04
        -0.29467E-05
         0.20149E-03
         0.12085E-03
        -0.97020E-06
         0.21947E-03
         0.31294E-04
         0.14549E-04
         0.13842E-04
         0.11229E-04
         0.29906E-05
         0.12209E-03
         0.11308E-03
         0.94539E-04
         0.60069E-06
         0.56829E-05
        -0.32549E-05
        -0.12573E-04
        -0.32045E-04
        -0.14749E-04
         0.91917E-05
         0.22293E-04
         0.24449E-05
         0.18216E-04
         0.23815E-04
         0.97296E-04
         0.34225E-04
         0.59939E-04
         0.14242E-03
         0.83170E-04
         0.73014E-04
         0.15501E-03
         0.12181E-03
         0.12315E-03
         0.67075E-04
         0.53783E-04
         0.10890E-03
         0.47943E-04
         0.36033E-04
         0.27643E-04
         0.41409E-04
         0.97248E-04
         0.54669E-04
         0.16962E-02
         0.18067E-02
         0.19723E-02
         0.19604E-02
         0.22293E-02
         0.25632E-02
         0.23510E-02
         0.18742E-02
         0.17765E-02
         0.20200E-02
         0.19453E-02
         0.19009E-02
         0.12906E-02
         0.11765E-02
         0.14101E-02
         0.16142E-02
         0.17416E-02
         0.20766E-02
         0.19092E-02
         0.20283E-02
         0.16439E-02
         0.14790E-02
         0.16613E-02
         0.15741E-02
         0.16810E-02
         0.16626E-02
         0.65166E-04
         0.23532E-04
         0.23884E-04
         0.21555E-04
         0.65263E-04
         0.41709E-04
         0.10402E-05
         0.43482E-04
         0.35634E-04
         0.37777E-04
        -0.30425E-05
         0.20140E-03
         0.12090E-03
        -0.12057E-05
         0.21982E-03
         0.31248E-04
         0.14484E-04
         0.13748E-04
         0.11113E-04
         0.28622E-05
         0.12205E-03
         0.11297E-03
         0.94485E-04
         0.48229E-06
         0.57076E-05
        -0.33777E-05
        -0.12674E-04
        -0.32144E-04
        -0.14738E-04
         0.91966E-05
         0.22268E-04
         0.23424E-05
         0.18113E-04
         0.23734E-04
         0.97257E-04
         0.34136E-04
         0.59872E-04
         0.14271E-03
         0.83462E-04
         0.73188E-04
         0.15515E-03
         0.12184E-03
         0.12307E-03
         0.67011E-04
         0.53691E-04
         0.10884E-03
         0.47881E-04
         0.35978E-04
         0.27514E-04
         0.41224E-04
         0.97063E-04
         0.54464E-04
         0.16946E-02
         0.18056E-02
         0.19720E-02
         0.19603E-02
         0.22285E-02
         0.25613E-02
         0.23487E-02
         0.18729E-02
         0.17753E-02
         0.20184E-02
         0.19444E-02
         0.19008E-02
         0.12903E-02
         0.11763E-02
         0.14104E-02
         0.16152E-02
         0.17427E-02
         0.20774E-02
         0.19087E-02
         0.20279E-02
         0.16434E-02
         0.14787E-02
         0.16600E-02
         0.15719E-02
         0.16790E-02
         0.16607E-02
         0.65100E-04
         0.23380E-04
         0.23754E-04
         0.21470E-04
         0.65076E-04
         0.41542E-04
         0.94368E-06
         0.43437E-04
         0.35572E-04
         0.37764E-04
        -0.31608E-05
         0.20124E-03
         0.12088E-03
        -0.14441E-05
         0.22015E-03
         0.31180E-04
         0.14363E-04
         0.13642E-04
         0.11022E-04
         0.27928E-05
         0.12199E-03
         0.11283E-03
         0.94414E-04
         0.38084E-06
         0.56337E-05
        -0.34982E-05
        -0.12927E-04
        -0.32303E-04
        -0.14379E-04
         0.94328E-05
         0.22191E-04
         0.22006E-05
         0.18010E-04
         0.23682E-04
         0.97202E-04
         0.33994E-04
         0.59730E-04
         0.14290E-03
         0.83758E-04
         0.73653E-04
         0.15538E-03
         0.12186E-03
         0.12295E-03
         0.66944E-04
         0.53568E-04
         0.10872E-03
         0.47755E-04
         0.35873E-04
         0.27372E-04
         0.41059E-04
         0.96888E-04
         0.54243E-04
         0.16932E-02
         0.18046E-02
         0.19718E-02
         0.19602E-02
         0.22276E-02
         0.25593E-02
         0.23464E-02
         0.18716E-02
         0.17741E-02
         0.20171E-02
         0.19432E-02
         0.19003E-02
         0.12899E-02
         0.11761E-02
         0.14107E-02
         0.16161E-02
         0.17437E-02
         0.20781E-02
         0.19082E-02
         0.20274E-02
         0.16429E-02
         0.14783E-02
         0.16586E-02
         0.15696E-02
         0.16769E-02
         0.16586E-02
         0.65346E-04
         0.23571E-04
         0.23960E-04
         0.21657E-04
         0.65254E-04
         0.41684E-04
         0.11872E-05
         0.43729E-04
         0.35746E-04
         0.37959E-04
        -0.29272E-05
         0.20145E-03
         0.12116E-03
        -0.13265E-05
         0.22087E-03
         0.31415E-04
         0.14526E-04
         0.13773E-04
         0.11268E-04
         0.31328E-05
         0.12223E-03
         0.11303E-03
         0.94620E-04
         0.59065E-06
         0.58381E-05
        -0.32891E-05
        -0.12961E-04
        -0.32124E-04
        -0.13337E-04
         0.10257E-04
         0.22394E-04
         0.23954E-05
         0.18137E-04
         0.23866E-04
         0.97549E-04
         0.34212E-04
         0.59911E-04
         0.14341E-03
         0.84449E-04
         0.74722E-04
         0.15605E-03
         0.12223E-03
         0.12313E-03
         0.67188E-04
         0.53811E-04
         0.10902E-03
         0.47999E-04
         0.36070E-04
         0.27514E-04
         0.41188E-04
         0.97020E-04
         0.54293E-04
         0.16924E-02
         0.18042E-02
         0.19722E-02
         0.19605E-02
         0.22271E-02
         0.25578E-02
         0.23447E-02
         0.18709E-02
         0.17737E-02
         0.20165E-02
         0.19424E-02
         0.19000E-02
         0.12899E-02
         0.11763E-02
         0.14113E-02
         0.16174E-02
         0.17452E-02
         0.20795E-02
         0.19085E-02
         0.20276E-02
         0.16430E-02
         0.14786E-02
         0.16578E-02
         0.15680E-02
         0.16754E-02
         0.16572E-02
         0.64743E-04
         0.22871E-04
         0.23298E-04
         0.21032E-04
         0.64404E-04
         0.40895E-04
         0.44983E-06
         0.43015E-04
         0.35085E-04
         0.37221E-04
        -0.37795E-05
         0.20046E-03
         0.12034E-03
        -0.23492E-05
         0.22034E-03
         0.30795E-04
         0.13784E-04
         0.13103E-04
         0.10515E-04
         0.23894E-05
         0.12140E-03
         0.11217E-03
         0.93796E-04
        -0.15212E-06
         0.50631E-05
        -0.39954E-05
        -0.14018E-04
        -0.33011E-04
        -0.13698E-04
         0.97907E-05
         0.21758E-04
         0.16588E-05
         0.17424E-04
         0.23154E-04
         0.96719E-04
         0.33373E-04
         0.59034E-04
         0.14273E-03
         0.83955E-04
         0.74403E-04
         0.15541E-03
         0.12143E-03
         0.12225E-03
         0.66401E-04
         0.52956E-04
         0.10807E-03
         0.47161E-04
         0.35298E-04
         0.26696E-04
         0.40274E-04
         0.95984E-04
         0.53333E-04
         0.16895E-02
         0.18018E-02
         0.19705E-02
         0.19589E-02
         0.22246E-02
         0.25544E-02
         0.23410E-02
         0.18681E-02
         0.17711E-02
         0.20135E-02
         0.19397E-02
         0.18981E-02
         0.12882E-02
         0.11749E-02
         0.14103E-02
         0.16170E-02
         0.17448E-02
         0.20787E-02
         0.19064E-02
         0.20256E-02
         0.16411E-02
         0.14770E-02
         0.16551E-02
         0.15643E-02
         0.16720E-02
         0.16540E-02
         0.65193E-04
         0.22919E-04
         0.23443E-04
         0.21306E-04
         0.64629E-04
         0.41114E-04
         0.59157E-06
         0.43564E-04
         0.35642E-04
         0.38157E-04
        -0.35320E-05
         0.20049E-03
         0.12020E-03
        -0.18977E-05
         0.22127E-03
         0.31377E-04
         0.14343E-04
         0.13444E-04
         0.10948E-04
         0.28081E-05
         0.12184E-03
         0.11246E-03
         0.94424E-04
         0.40416E-06
         0.60241E-05
        -0.34791E-05
        -0.13105E-04
        -0.32000E-04
        -0.12822E-04
         0.10619E-04
         0.22212E-04
         0.19752E-05
         0.17591E-04
         0.23062E-04
         0.96959E-04
         0.33302E-04
         0.58772E-04
         0.14377E-03
         0.85052E-04
         0.75203E-04
         0.15600E-03
         0.12207E-03
         0.12286E-03
         0.67007E-04
         0.53283E-04
         0.10825E-03
         0.47315E-04
         0.35645E-04
         0.26906E-04
         0.40208E-04
         0.95966E-04
         0.53231E-04
         0.16889E-02
         0.18018E-02
         0.19706E-02
         0.19585E-02
         0.22232E-02
         0.25522E-02
         0.23397E-02
         0.18679E-02
         0.17708E-02
         0.20124E-02
         0.19392E-02
         0.18989E-02
         0.12889E-02
         0.11752E-02
         0.14114E-02
         0.16190E-02
         0.17468E-02
         0.20803E-02
         0.19065E-02
         0.20253E-02
         0.16412E-02
         0.14773E-02
         0.16547E-02
         0.15632E-02
         0.16709E-02
         0.16530E-02
         0.26790E-02
         0.27491E-02
         0.27286E-02
         0.24898E-02
         0.31940E-02
         0.29618E-02
         0.29514E-02
         0.30319E-02
         0.26045E-02
         0.30354E-02
         0.32827E-02
         0.39981E-02
         0.35265E-02
         0.33912E-02
         0.41297E-02
         0.25427E-02
         0.27162E-02
         0.23742E-02
         0.28275E-02
         0.29491E-02
         0.32541E-02
         0.32695E-02
         0.31007E-02
         0.26954E-02
         0.30129E-02
         0.25782E-02
         0.33470E-02
         0.32255E-02
         0.32475E-02
         0.31209E-02
         0.25602E-02
         0.26722E-02
         0.25025E-02
         0.26171E-02
         0.35777E-02
         0.31533E-02
         0.31833E-02
         0.38537E-02
         0.36566E-02
         0.35909E-02
         0.37751E-02
         0.35428E-02
         0.33654E-02
         0.29856E-02
         0.30983E-02
         0.36102E-02
         0.32168E-02
         0.29871E-02
         0.29079E-02
         0.30340E-02
         0.34131E-02
         0.30722E-02
         0.77848E-02
         0.77516E-02
         0.80393E-02
         0.78206E-02
         0.82535E-02
         0.88649E-02
         0.86862E-02
         0.81510E-02
         0.81105E-02
         0.85303E-02
         0.82674E-02
         0.78717E-02
         0.66051E-02
         0.61891E-02
         0.65056E-02
         0.68379E-02
         0.70295E-02
         0.78257E-02
         0.80548E-02
         0.81864E-02
         0.72991E-02
         0.69432E-02
         0.73166E-02
         0.71669E-02
         0.72266E-02
         0.72124E-02
         0.28229E-01
         0.29492E-01
         0.29082E-01
         0.26627E-01
         0.32564E-01
         0.30629E-01
         0.31803E-01
         0.32086E-01
         0.27605E-01
         0.32067E-01
         0.34809E-01
         0.39095E-01
         0.35463E-01
         0.35800E-01
         0.40458E-01
         0.27075E-01
         0.29008E-01
         0.25451E-01
         0.29925E-01
         0.31418E-01
         0.32587E-01
         0.33258E-01
         0.31302E-01
         0.28820E-01
         0.32400E-01
         0.27846E-01
         0.35675E-01
         0.35066E-01
         0.35223E-01
         0.33506E-01
         0.27351E-01
         0.28699E-01
         0.26830E-01
         0.28009E-01
         0.35585E-01
         0.32687E-01
         0.32814E-01
         0.39127E-01
         0.38078E-01
         0.37617E-01
         0.38362E-01
         0.36458E-01
         0.34545E-01
         0.30557E-01
         0.31756E-01
         0.35588E-01
         0.32937E-01
         0.31028E-01
         0.30425E-01
         0.31511E-01
         0.34167E-01
         0.31607E-01
         0.57741E-01
         0.56475E-01
         0.57848E-01
         0.56136E-01
         0.58056E-01
         0.61305E-01
         0.61981E-01
         0.61186E-01
         0.61440E-01
         0.63101E-01
         0.61305E-01
         0.57817E-01
         0.51371E-01
         0.48539E-01
         0.48986E-01
         0.49846E-01
         0.50467E-01
         0.54881E-01
         0.58251E-01
         0.58631E-01
         0.54054E-01
         0.52275E-01
         0.54150E-01
         0.53668E-01
         0.53228E-01
         0.53033E-01
  
SCALARS                      strain_yz  double 1
LOOKUP_TABLE default
         0.10871E-02
        -0.36990E-03
        -0.94750E-03
        -0.47425E-03
        -0.15756E-09
        -0.43428E-10
        -0.19527E-09
        -0.14894E-09
        -0.36034E-02
         0.23530E-02
        -0.29060E-09
        -0.25584E-09
        -0.32554E-02
        -0.16571E-03
         0.20797E-09
        -0.13334E-10
         0.10467E-02
         0.41695E-02
         0.30597E-11
         0.31307E-10
        -0.22087E-02
        -0.84353E-02
        -0.85616E-02
         0.47673E-09
         0.82331E-09
         0.68818E-09
        -0.83109E-03
        -0.87161E-02
         0.34292E-09
         0.66527E-09
         0.11978E-02
         0.10768E-02
        -0.85802E-03
         0.17778E-09
         0.18148E-09
        -0.37677E-11
         0.36250E-02
         0.36229E-02
         0.32714E-09
         0.25453E-09
         0.36171E-02
         0.23654E-02
         0.24724E-09
         0.22594E-09
         0.31987E-02
         0.10899E-02
        -0.82014E-11
         0.12686E-09
         0.31920E-02
         0.59728E-10
         0.28997E-03
        -0.48375E-11
         0.19298E-03
         0.23104E-09
        -0.12869E-02
         0.13440E-09
        -0.41962E-02
         0.72824E-03
         0.36461E-11
        -0.74002E-11
         0.14536E-02
         0.53682E-02
        -0.49678E-10
        -0.18582E-09
         0.87087E-03
        -0.10028E-09
         0.37943E-02
        -0.12216E-09
        -0.31913E-02
        -0.16968E-02
        -0.15096E-10
         0.19933E-09
        -0.59775E-02
         0.43769E-09
        -0.11134E-01
         0.42380E-09
        -0.11271E-01
         0.32171E-09
        -0.92687E-02
         0.26965E-09
        -0.13471E-01
        -0.10244E-01
         0.17298E-09
        -0.38352E-10
        -0.14031E-02
        -0.42914E-11
         0.50014E-02
        -0.26883E-09
         0.11985E-01
        -0.47062E-09
         0.16926E-01
         0.10560E-01
        -0.69801E-09
        -0.56498E-09
         0.73750E-02
        -0.43857E-09
         0.65824E-02
        -0.44868E-09
         0.64352E-02
        -0.48243E-09
         0.10721E-01
         0.88701E-02
        -0.44863E-09
        -0.21496E-09
        -0.73604E-02
         0.27522E-02
         0.15775E-09
        -0.19603E-09
        -0.18122E-01
         0.52479E-09
        -0.25580E-01
         0.76764E-09
        -0.31745E-01
         0.94804E-09
        -0.38241E-01
         0.94038E-09
        -0.46049E-01
         0.74418E-09
        -0.47661E-01
         0.57591E-09
        -0.44934E-01
         0.53565E-09
        -0.39972E-01
         0.50963E-09
        -0.28764E-01
         0.32569E-09
        -0.18868E-01
         0.10753E-09
        -0.91232E-02
         0.69482E-10
         0.64096E-03
         0.10444E-09
         0.82875E-02
         0.53940E-10
         0.14600E-01
        -0.16312E-09
         0.22602E-01
        -0.46044E-09
         0.26566E-01
        -0.71899E-09
         0.29864E-01
        -0.94259E-09
         0.38441E-01
        -0.94177E-09
         0.39262E-01
        -0.82213E-09
         0.36030E-01
        -0.80124E-09
         0.29688E-01
        -0.80623E-09
         0.20193E-01
        -0.63754E-09
         0.14164E-01
        -0.37700E-09
         0.10054E-01
        -0.29150E-09
        -0.66930E-02
        -0.34943E-02
        -0.30466E-02
        -0.93460E-03
        -0.31511E-02
        -0.33160E-02
        -0.35404E-03
        -0.54067E-02
        -0.45691E-02
        -0.67687E-02
         0.36004E-02
         0.15393E-01
         0.10462E-01
         0.12128E-02
         0.15517E-01
         0.17666E-02
        -0.15688E-02
         0.10035E-02
         0.13332E-02
        -0.10047E-02
         0.92666E-03
         0.76195E-03
        -0.25733E-02
         0.21658E-03
        -0.46195E-02
         0.68318E-03
         0.35675E-04
         0.62328E-03
         0.76081E-03
        -0.36391E-02
         0.17263E-02
        -0.18942E-02
         0.12556E-02
        -0.30813E-03
         0.52068E-03
         0.28028E-02
         0.62638E-02
         0.13596E-01
         0.12429E-01
         0.10567E-01
         0.99934E-02
         0.24558E-02
        -0.19865E-02
        -0.54570E-02
        -0.90696E-02
        -0.14957E-01
        -0.97344E-02
        -0.69156E-02
        -0.73834E-02
        -0.79014E-02
        -0.93336E-02
        -0.42250E-02
         0.81855E-02
        -0.97736E-02
         0.26506E-01
         0.36565E-01
         0.46644E-01
         0.55621E-01
         0.56128E-01
         0.50851E-01
         0.48356E-01
         0.45727E-01
         0.29582E-01
         0.12862E-01
         0.56340E-02
         0.24794E-02
        -0.37874E-02
        -0.14943E-01
        -0.27470E-01
        -0.35985E-01
        -0.44028E-01
        -0.50368E-01
        -0.47256E-01
        -0.44666E-01
        -0.41584E-01
        -0.29021E-01
        -0.16864E-01
        -0.14778E-01
        -0.98086E-02
        -0.61864E-02
        -0.57247E-02
        -0.13579E-02
        -0.74353E-02
        -0.33441E-02
        -0.26518E-02
        -0.92704E-02
        -0.60793E-02
        -0.87191E-02
         0.46098E-02
         0.19950E-01
         0.11819E-01
         0.16985E-02
         0.19656E-01
         0.37198E-02
        -0.11273E-02
         0.10762E-02
         0.48508E-02
         0.93784E-03
         0.41810E-02
         0.29685E-02
        -0.17210E-02
         0.14526E-02
        -0.58714E-02
         0.14523E-02
         0.36443E-03
         0.67746E-03
        -0.10821E-02
        -0.58570E-02
         0.40089E-02
         0.10560E-02
         0.25911E-02
         0.22498E-02
        -0.10728E-02
         0.32701E-02
         0.62435E-02
         0.14938E-01
         0.13173E-01
         0.11609E-01
         0.85287E-02
        -0.21074E-02
        -0.43409E-02
        -0.54223E-02
        -0.69821E-02
        -0.14263E-01
        -0.82993E-02
        -0.54882E-02
        -0.68977E-02
        -0.81430E-02
        -0.84374E-02
        -0.63307E-03
         0.10516E-01
        -0.15042E-01
         0.35004E-01
         0.45237E-01
         0.58382E-01
         0.70054E-01
         0.68621E-01
         0.59931E-01
         0.57435E-01
         0.56823E-01
         0.35684E-01
         0.11761E-01
         0.46868E-02
         0.40160E-02
        -0.18599E-02
        -0.15778E-01
        -0.31607E-01
        -0.43988E-01
        -0.57249E-01
        -0.63480E-01
        -0.55748E-01
        -0.52706E-01
        -0.52547E-01
        -0.36999E-01
        -0.19220E-01
        -0.18199E-01
        -0.98147E-02
        -0.61875E-02
        -0.57276E-02
        -0.13678E-02
        -0.74362E-02
        -0.33467E-02
        -0.26551E-02
        -0.92861E-02
        -0.60902E-02
        -0.87517E-02
         0.46125E-02
         0.19948E-01
         0.11822E-01
         0.16986E-02
         0.19681E-01
         0.37200E-02
        -0.11375E-02
         0.10746E-02
         0.48541E-02
         0.93261E-03
         0.41913E-02
         0.29713E-02
        -0.17214E-02
         0.14519E-02
        -0.58981E-02
         0.14496E-02
         0.36872E-03
         0.68125E-03
        -0.10750E-02
        -0.58694E-02
         0.40096E-02
         0.10537E-02
         0.25969E-02
         0.22535E-02
        -0.10627E-02
         0.32722E-02
         0.62433E-02
         0.14961E-01
         0.13202E-01
         0.11623E-01
         0.85353E-02
        -0.21018E-02
        -0.43453E-02
        -0.54250E-02
        -0.69824E-02
        -0.14263E-01
        -0.83001E-02
        -0.54849E-02
        -0.68885E-02
        -0.81321E-02
        -0.84337E-02
        -0.62348E-03
         0.10506E-01
        -0.15043E-01
         0.35011E-01
         0.45237E-01
         0.58375E-01
         0.70031E-01
         0.68593E-01
         0.59913E-01
         0.57423E-01
         0.56808E-01
         0.35676E-01
         0.11766E-01
         0.46864E-02
         0.40242E-02
        -0.18448E-02
        -0.15786E-01
        -0.31622E-01
        -0.43998E-01
        -0.57248E-01
        -0.63476E-01
        -0.55744E-01
        -0.52704E-01
        -0.52533E-01
        -0.36972E-01
        -0.19199E-01
        -0.18175E-01
        -0.98209E-02
        -0.61887E-02
        -0.57305E-02
        -0.13779E-02
        -0.74370E-02
        -0.33495E-02
        -0.26584E-02
        -0.93017E-02
        -0.61012E-02
        -0.87840E-02
         0.46153E-02
         0.19947E-01
         0.11825E-01
         0.16984E-02
         0.19706E-01
         0.37202E-02
        -0.11479E-02
         0.10730E-02
         0.48575E-02
         0.92729E-03
         0.42018E-02
         0.29741E-02
        -0.17220E-02
         0.14510E-02
        -0.59244E-02
         0.14466E-02
         0.37331E-03
         0.68528E-03
        -0.10672E-02
        -0.58813E-02
         0.40102E-02
         0.10509E-02
         0.26027E-02
         0.22571E-02
        -0.10525E-02
         0.32745E-02
         0.62428E-02
         0.14984E-01
         0.13230E-01
         0.11636E-01
         0.85422E-02
        -0.20955E-02
        -0.43495E-02
        -0.54285E-02
        -0.69832E-02
        -0.14263E-01
        -0.83009E-02
        -0.54815E-02
        -0.68794E-02
        -0.81211E-02
        -0.84303E-02
        -0.61393E-03
         0.10496E-01
        -0.15044E-01
         0.35017E-01
         0.45237E-01
         0.58368E-01
         0.70007E-01
         0.68564E-01
         0.59895E-01
         0.57411E-01
         0.56792E-01
         0.35669E-01
         0.11772E-01
         0.46861E-02
         0.40325E-02
        -0.18296E-02
        -0.15795E-01
        -0.31637E-01
        -0.44008E-01
        -0.57247E-01
        -0.63472E-01
        -0.55740E-01
        -0.52702E-01
        -0.52520E-01
        -0.36946E-01
        -0.19178E-01
        -0.18151E-01
        -0.98270E-02
        -0.61899E-02
        -0.57334E-02
        -0.13880E-02
        -0.74379E-02
        -0.33522E-02
        -0.26620E-02
        -0.93172E-02
        -0.61122E-02
        -0.88160E-02
         0.46180E-02
         0.19945E-01
         0.11828E-01
         0.16984E-02
         0.19731E-01
         0.37205E-02
        -0.11584E-02
         0.10713E-02
         0.48611E-02
         0.92165E-03
         0.42124E-02
         0.29766E-02
        -0.17235E-02
         0.14496E-02
        -0.59498E-02
         0.14427E-02
         0.37805E-03
         0.69061E-03
        -0.10575E-02
        -0.58922E-02
         0.40105E-02
         0.10471E-02
         0.26084E-02
         0.22608E-02
        -0.10425E-02
         0.32766E-02
         0.62424E-02
         0.15008E-01
         0.13259E-01
         0.11651E-01
         0.85501E-02
        -0.20875E-02
        -0.43529E-02
        -0.54339E-02
        -0.69853E-02
        -0.14264E-01
        -0.83023E-02
        -0.54782E-02
        -0.68702E-02
        -0.81102E-02
        -0.84265E-02
        -0.60441E-03
         0.10487E-01
        -0.15045E-01
         0.35024E-01
         0.45238E-01
         0.58361E-01
         0.69983E-01
         0.68535E-01
         0.59877E-01
         0.57399E-01
         0.56777E-01
         0.35662E-01
         0.11779E-01
         0.46862E-02
         0.40407E-02
        -0.18142E-02
        -0.15804E-01
        -0.31654E-01
        -0.44020E-01
        -0.57246E-01
        -0.63468E-01
        -0.55736E-01
        -0.52700E-01
        -0.52507E-01
        -0.36920E-01
        -0.19157E-01
        -0.18127E-01
        -0.98331E-02
        -0.61910E-02
        -0.57363E-02
        -0.13981E-02
        -0.74388E-02
        -0.33548E-02
        -0.26652E-02
        -0.93327E-02
        -0.61232E-02
        -0.88476E-02
         0.46208E-02
         0.19943E-01
         0.11831E-01
         0.16985E-02
         0.19756E-01
         0.37209E-02
        -0.11691E-02
         0.10696E-02
         0.48648E-02
         0.91570E-03
         0.42232E-02
         0.29788E-02
        -0.17258E-02
         0.14475E-02
        -0.59742E-02
         0.14377E-02
         0.38333E-03
         0.69714E-03
        -0.10459E-02
        -0.59018E-02
         0.40105E-02
         0.10422E-02
         0.26141E-02
         0.22645E-02
        -0.10323E-02
         0.32787E-02
         0.62422E-02
         0.15031E-01
         0.13289E-01
         0.11666E-01
         0.85592E-02
        -0.20778E-02
        -0.43556E-02
        -0.54411E-02
        -0.69887E-02
        -0.14266E-01
        -0.83042E-02
        -0.54753E-02
        -0.68612E-02
        -0.80991E-02
        -0.84229E-02
        -0.59483E-03
         0.10477E-01
        -0.15046E-01
         0.35030E-01
         0.45238E-01
         0.58354E-01
         0.69959E-01
         0.68506E-01
         0.59859E-01
         0.57387E-01
         0.56761E-01
         0.35656E-01
         0.11787E-01
         0.46867E-02
         0.40486E-02
        -0.17988E-02
        -0.15814E-01
        -0.31673E-01
        -0.44033E-01
        -0.57246E-01
        -0.63465E-01
        -0.55732E-01
        -0.52698E-01
        -0.52493E-01
        -0.36894E-01
        -0.19136E-01
        -0.18103E-01
        -0.98388E-02
        -0.61917E-02
        -0.57391E-02
        -0.14082E-02
        -0.74397E-02
        -0.33575E-02
        -0.26682E-02
        -0.93474E-02
        -0.61343E-02
        -0.88783E-02
         0.46240E-02
         0.19942E-01
         0.11834E-01
         0.16988E-02
         0.19781E-01
         0.37213E-02
        -0.11801E-02
         0.10680E-02
         0.48685E-02
         0.90963E-03
         0.42341E-02
         0.29809E-02
        -0.17284E-02
         0.14453E-02
        -0.59981E-02
         0.14324E-02
         0.38901E-03
         0.70435E-03
        -0.10335E-02
        -0.59110E-02
         0.40103E-02
         0.10367E-02
         0.26199E-02
         0.22683E-02
        -0.10221E-02
         0.32811E-02
         0.62421E-02
         0.15054E-01
         0.13319E-01
         0.11682E-01
         0.85685E-02
        -0.20674E-02
        -0.43578E-02
        -0.54490E-02
        -0.69930E-02
        -0.14268E-01
        -0.83063E-02
        -0.54728E-02
        -0.68527E-02
        -0.80884E-02
        -0.84194E-02
        -0.58525E-03
         0.10467E-01
        -0.15046E-01
         0.35036E-01
         0.45238E-01
         0.58347E-01
         0.69936E-01
         0.68477E-01
         0.59840E-01
         0.57375E-01
         0.56745E-01
         0.35650E-01
         0.11796E-01
         0.46873E-02
         0.40566E-02
        -0.17835E-02
        -0.15824E-01
        -0.31693E-01
        -0.44047E-01
        -0.57245E-01
        -0.63460E-01
        -0.55728E-01
        -0.52696E-01
        -0.52480E-01
        -0.36867E-01
        -0.19115E-01
        -0.18079E-01
        -0.98441E-02
        -0.61916E-02
        -0.57419E-02
        -0.14187E-02
        -0.74406E-02
        -0.33602E-02
        -0.26705E-02
        -0.93608E-02
        -0.61456E-02
        -0.89077E-02
         0.46278E-02
         0.19941E-01
         0.11838E-01
         0.17001E-02
         0.19806E-01
         0.37220E-02
        -0.11913E-02
         0.10663E-02
         0.48723E-02
         0.90356E-03
         0.42450E-02
         0.29831E-02
        -0.17310E-02
         0.14431E-02
        -0.60215E-02
         0.14270E-02
         0.39569E-03
         0.71202E-03
        -0.10209E-02
        -0.59199E-02
         0.40099E-02
         0.10308E-02
         0.26259E-02
         0.22723E-02
        -0.10118E-02
         0.32836E-02
         0.62423E-02
         0.15078E-01
         0.13349E-01
         0.11698E-01
         0.85782E-02
        -0.20569E-02
        -0.43600E-02
        -0.54569E-02
        -0.69976E-02
        -0.14271E-01
        -0.83097E-02
        -0.54719E-02
        -0.68456E-02
        -0.80781E-02
        -0.84158E-02
        -0.57555E-03
         0.10457E-01
        -0.15047E-01
         0.35043E-01
         0.45239E-01
         0.58340E-01
         0.69912E-01
         0.68448E-01
         0.59822E-01
         0.57363E-01
         0.56729E-01
         0.35645E-01
         0.11805E-01
         0.46880E-02
         0.40646E-02
        -0.17681E-02
        -0.15835E-01
        -0.31714E-01
        -0.44061E-01
        -0.57244E-01
        -0.63456E-01
        -0.55726E-01
        -0.52695E-01
        -0.52466E-01
        -0.36841E-01
        -0.19094E-01
        -0.18055E-01
        -0.98492E-02
        -0.61912E-02
        -0.57446E-02
        -0.14293E-02
        -0.74416E-02
        -0.33629E-02
        -0.26722E-02
        -0.93735E-02
        -0.61570E-02
        -0.89365E-02
         0.46319E-02
         0.19940E-01
         0.11842E-01
         0.17016E-02
         0.19832E-01
         0.37227E-02
        -0.12026E-02
         0.10646E-02
         0.48760E-02
         0.89749E-03
         0.42559E-02
         0.29854E-02
        -0.17336E-02
         0.14410E-02
        -0.60445E-02
         0.14217E-02
         0.40265E-03
         0.71989E-03
        -0.10082E-02
        -0.59288E-02
         0.40095E-02
         0.10247E-02
         0.26320E-02
         0.22765E-02
        -0.10015E-02
         0.32863E-02
         0.62427E-02
         0.15102E-01
         0.13379E-01
         0.11714E-01
         0.85878E-02
        -0.20463E-02
        -0.43621E-02
        -0.54649E-02
        -0.70024E-02
        -0.14274E-01
        -0.83136E-02
        -0.54715E-02
        -0.68390E-02
        -0.80679E-02
        -0.84124E-02
        -0.56586E-03
         0.10447E-01
        -0.15048E-01
         0.35049E-01
         0.45239E-01
         0.58333E-01
         0.69888E-01
         0.68418E-01
         0.59804E-01
         0.57351E-01
         0.56713E-01
         0.35639E-01
         0.11814E-01
         0.46886E-02
         0.40727E-02
        -0.17526E-02
        -0.15845E-01
        -0.31734E-01
        -0.44074E-01
        -0.57242E-01
        -0.63452E-01
        -0.55723E-01
        -0.52694E-01
        -0.52453E-01
        -0.36814E-01
        -0.19073E-01
        -0.18031E-01
        -0.98543E-02
        -0.61908E-02
        -0.57474E-02
        -0.14399E-02
        -0.74425E-02
        -0.33656E-02
        -0.26741E-02
        -0.93862E-02
        -0.61685E-02
        -0.89651E-02
         0.46359E-02
         0.19939E-01
         0.11846E-01
         0.17034E-02
         0.19857E-01
         0.37234E-02
        -0.12140E-02
         0.10629E-02
         0.48798E-02
         0.89136E-03
         0.42668E-02
         0.29876E-02
        -0.17362E-02
         0.14389E-02
        -0.60676E-02
         0.14164E-02
         0.40977E-03
         0.72768E-03
        -0.99552E-03
        -0.59376E-02
         0.40091E-02
         0.10186E-02
         0.26381E-02
         0.22806E-02
        -0.99109E-03
         0.32888E-02
         0.62431E-02
         0.15127E-01
         0.13410E-01
         0.11730E-01
         0.85975E-02
        -0.20358E-02
        -0.43642E-02
        -0.54729E-02
        -0.70073E-02
        -0.14277E-01
        -0.83172E-02
        -0.54712E-02
        -0.68325E-02
        -0.80579E-02
        -0.84091E-02
        -0.55612E-03
         0.10437E-01
        -0.15049E-01
         0.35055E-01
         0.45239E-01
         0.58326E-01
         0.69864E-01
         0.68389E-01
         0.59786E-01
         0.57339E-01
         0.56696E-01
         0.35633E-01
         0.11822E-01
         0.46894E-02
         0.40810E-02
        -0.17373E-02
        -0.15855E-01
        -0.31754E-01
        -0.44087E-01
        -0.57240E-01
        -0.63448E-01
        -0.55720E-01
        -0.52692E-01
        -0.52439E-01
        -0.36788E-01
        -0.19052E-01
        -0.18007E-01
        -0.98592E-02
        -0.61903E-02
        -0.57501E-02
        -0.14504E-02
        -0.74435E-02
        -0.33682E-02
        -0.26759E-02
        -0.93989E-02
        -0.61799E-02
        -0.89937E-02
         0.46400E-02
         0.19938E-01
         0.11850E-01
         0.17049E-02
         0.19883E-01
         0.37241E-02
        -0.12255E-02
         0.10612E-02
         0.48835E-02
         0.88521E-03
         0.42776E-02
         0.29898E-02
        -0.17387E-02
         0.14368E-02
        -0.60906E-02
         0.14112E-02
         0.41670E-03
         0.73538E-03
        -0.98290E-03
        -0.59465E-02
         0.40086E-02
         0.10125E-02
         0.26442E-02
         0.22848E-02
        -0.98071E-03
         0.32916E-02
         0.62436E-02
         0.15151E-01
         0.13440E-01
         0.11746E-01
         0.86071E-02
        -0.20253E-02
        -0.43664E-02
        -0.54808E-02
        -0.70120E-02
        -0.14281E-01
        -0.83211E-02
        -0.54710E-02
        -0.68259E-02
        -0.80477E-02
        -0.84055E-02
        -0.54643E-03
         0.10427E-01
        -0.15050E-01
         0.35061E-01
         0.45240E-01
         0.58319E-01
         0.69840E-01
         0.68360E-01
         0.59768E-01
         0.57327E-01
         0.56680E-01
         0.35627E-01
         0.11831E-01
         0.46902E-02
         0.40892E-02
        -0.17219E-02
        -0.15865E-01
        -0.31774E-01
        -0.44100E-01
        -0.57239E-01
        -0.63444E-01
        -0.55718E-01
        -0.52691E-01
        -0.52425E-01
        -0.36762E-01
        -0.19031E-01
        -0.17983E-01
        -0.98642E-02
        -0.61897E-02
        -0.57528E-02
        -0.14609E-02
        -0.74444E-02
        -0.33709E-02
        -0.26779E-02
        -0.94114E-02
        -0.61914E-02
        -0.90222E-02
         0.46442E-02
         0.19937E-01
         0.11854E-01
         0.17065E-02
         0.19909E-01
         0.37248E-02
        -0.12369E-02
         0.10595E-02
         0.48872E-02
         0.87901E-03
         0.42885E-02
         0.29919E-02
        -0.17413E-02
         0.14347E-02
        -0.61135E-02
         0.14059E-02
         0.42376E-03
         0.74297E-03
        -0.97030E-03
        -0.59553E-02
         0.40082E-02
         0.10064E-02
         0.26502E-02
         0.22889E-02
        -0.97028E-03
         0.32942E-02
         0.62441E-02
         0.15175E-01
         0.13470E-01
         0.11762E-01
         0.86167E-02
        -0.20148E-02
        -0.43685E-02
        -0.54887E-02
        -0.70168E-02
        -0.14284E-01
        -0.83249E-02
        -0.54706E-02
        -0.68195E-02
        -0.80376E-02
        -0.84023E-02
        -0.53670E-03
         0.10417E-01
        -0.15050E-01
         0.35067E-01
         0.45240E-01
         0.58312E-01
         0.69816E-01
         0.68330E-01
         0.59749E-01
         0.57316E-01
         0.56664E-01
         0.35621E-01
         0.11839E-01
         0.46909E-02
         0.40973E-02
        -0.17065E-02
        -0.15876E-01
        -0.31794E-01
        -0.44113E-01
        -0.57237E-01
        -0.63440E-01
        -0.55715E-01
        -0.52690E-01
        -0.52411E-01
        -0.36735E-01
        -0.19010E-01
        -0.17959E-01
        -0.98691E-02
        -0.61893E-02
        -0.57556E-02
        -0.14715E-02
        -0.74454E-02
        -0.33736E-02
        -0.26796E-02
        -0.94240E-02
        -0.62029E-02
        -0.90507E-02
         0.46483E-02
         0.19936E-01
         0.11858E-01
         0.17082E-02
         0.19934E-01
         0.37256E-02
        -0.12484E-02
         0.10578E-02
         0.48909E-02
         0.87287E-03
         0.42993E-02
         0.29940E-02
        -0.17438E-02
         0.14327E-02
        -0.61365E-02
         0.14006E-02
         0.43066E-03
         0.75052E-03
        -0.95768E-03
        -0.59641E-02
         0.40077E-02
         0.10003E-02
         0.26563E-02
         0.22931E-02
        -0.95980E-03
         0.32968E-02
         0.62444E-02
         0.15199E-01
         0.13501E-01
         0.11778E-01
         0.86263E-02
        -0.20044E-02
        -0.43706E-02
        -0.54966E-02
        -0.70216E-02
        -0.14287E-01
        -0.83286E-02
        -0.54705E-02
        -0.68130E-02
        -0.80276E-02
        -0.83989E-02
        -0.52699E-03
         0.10407E-01
        -0.15051E-01
         0.35073E-01
         0.45240E-01
         0.58305E-01
         0.69792E-01
         0.68301E-01
         0.59731E-01
         0.57304E-01
         0.56648E-01
         0.35616E-01
         0.11848E-01
         0.46916E-02
         0.41054E-02
        -0.16911E-02
        -0.15886E-01
        -0.31814E-01
        -0.44126E-01
        -0.57236E-01
        -0.63435E-01
        -0.55712E-01
        -0.52689E-01
        -0.52397E-01
        -0.36709E-01
        -0.18990E-01
        -0.17935E-01
        -0.98741E-02
        -0.61888E-02
        -0.57583E-02
        -0.14822E-02
        -0.74463E-02
        -0.33763E-02
        -0.26815E-02
        -0.94366E-02
        -0.62143E-02
        -0.90791E-02
         0.46525E-02
         0.19935E-01
         0.11862E-01
         0.17096E-02
         0.19960E-01
         0.37263E-02
        -0.12599E-02
         0.10561E-02
         0.48946E-02
         0.86676E-03
         0.43102E-02
         0.29961E-02
        -0.17464E-02
         0.14306E-02
        -0.61593E-02
         0.13954E-02
         0.43775E-03
         0.75799E-03
        -0.94510E-03
        -0.59729E-02
         0.40072E-02
         0.99416E-03
         0.26623E-02
         0.22972E-02
        -0.94932E-03
         0.32995E-02
         0.62449E-02
         0.15224E-01
         0.13531E-01
         0.11794E-01
         0.86360E-02
        -0.19939E-02
        -0.43727E-02
        -0.55046E-02
        -0.70266E-02
        -0.14290E-01
        -0.83325E-02
        -0.54702E-02
        -0.68065E-02
        -0.80175E-02
        -0.83953E-02
        -0.51730E-03
         0.10398E-01
        -0.15052E-01
         0.35079E-01
         0.45241E-01
         0.58298E-01
         0.69768E-01
         0.68271E-01
         0.59713E-01
         0.57292E-01
         0.56631E-01
         0.35610E-01
         0.11856E-01
         0.46923E-02
         0.41136E-02
        -0.16757E-02
        -0.15896E-01
        -0.31834E-01
        -0.44140E-01
        -0.57234E-01
        -0.63431E-01
        -0.55710E-01
        -0.52688E-01
        -0.52383E-01
        -0.36682E-01
        -0.18969E-01
        -0.17912E-01
        -0.98790E-02
        -0.61884E-02
        -0.57611E-02
        -0.14928E-02
        -0.74473E-02
        -0.33789E-02
        -0.26835E-02
        -0.94490E-02
        -0.62258E-02
        -0.91075E-02
         0.46566E-02
         0.19934E-01
         0.11866E-01
         0.17113E-02
         0.19985E-01
         0.37270E-02
        -0.12714E-02
         0.10543E-02
         0.48983E-02
         0.86064E-03
         0.43211E-02
         0.29983E-02
        -0.17489E-02
         0.14286E-02
        -0.61822E-02
         0.13901E-02
         0.44466E-03
         0.76537E-03
        -0.93257E-03
        -0.59816E-02
         0.40067E-02
         0.98807E-03
         0.26683E-02
         0.23014E-02
        -0.93879E-03
         0.33021E-02
         0.62452E-02
         0.15248E-01
         0.13562E-01
         0.11809E-01
         0.86456E-02
        -0.19834E-02
        -0.43748E-02
        -0.55124E-02
        -0.70314E-02
        -0.14293E-01
        -0.83365E-02
        -0.54699E-02
        -0.67999E-02
        -0.80074E-02
        -0.83920E-02
        -0.50767E-03
         0.10388E-01
        -0.15052E-01
         0.35085E-01
         0.45241E-01
         0.58291E-01
         0.69744E-01
         0.68241E-01
         0.59694E-01
         0.57280E-01
         0.56614E-01
         0.35604E-01
         0.11865E-01
         0.46930E-02
         0.41217E-02
        -0.16603E-02
        -0.15907E-01
        -0.31855E-01
        -0.44153E-01
        -0.57233E-01
        -0.63427E-01
        -0.55707E-01
        -0.52686E-01
        -0.52369E-01
        -0.36656E-01
        -0.18948E-01
        -0.17888E-01
        -0.98839E-02
        -0.61880E-02
        -0.57638E-02
        -0.15034E-02
        -0.74482E-02
        -0.33816E-02
        -0.26853E-02
        -0.94615E-02
        -0.62374E-02
        -0.91358E-02
         0.46608E-02
         0.19933E-01
         0.11870E-01
         0.17127E-02
         0.20011E-01
         0.37277E-02
        -0.12830E-02
         0.10526E-02
         0.49021E-02
         0.85447E-03
         0.43320E-02
         0.30003E-02
        -0.17514E-02
         0.14266E-02
        -0.62052E-02
         0.13848E-02
         0.45169E-03
         0.77260E-03
        -0.92009E-03
        -0.59904E-02
         0.40062E-02
         0.98194E-03
         0.26744E-02
         0.23056E-02
        -0.92827E-03
         0.33049E-02
         0.62456E-02
         0.15273E-01
         0.13592E-01
         0.11825E-01
         0.86553E-02
        -0.19729E-02
        -0.43769E-02
        -0.55203E-02
        -0.70362E-02
        -0.14297E-01
        -0.83401E-02
        -0.54697E-02
        -0.67934E-02
        -0.79972E-02
        -0.83887E-02
        -0.49798E-03
         0.10378E-01
        -0.15053E-01
         0.35090E-01
         0.45242E-01
         0.58284E-01
         0.69720E-01
         0.68212E-01
         0.59676E-01
         0.57268E-01
         0.56597E-01
         0.35598E-01
         0.11874E-01
         0.46937E-02
         0.41299E-02
        -0.16449E-02
        -0.15917E-01
        -0.31875E-01
        -0.44166E-01
        -0.57231E-01
        -0.63423E-01
        -0.55705E-01
        -0.52685E-01
        -0.52355E-01
        -0.36630E-01
        -0.18928E-01
        -0.17864E-01
        -0.98887E-02
        -0.61873E-02
        -0.57665E-02
        -0.15140E-02
        -0.74491E-02
        -0.33843E-02
        -0.26872E-02
        -0.94740E-02
        -0.62489E-02
        -0.91641E-02
         0.46649E-02
         0.19932E-01
         0.11874E-01
         0.17142E-02
         0.20036E-01
         0.37284E-02
        -0.12947E-02
         0.10509E-02
         0.49058E-02
         0.84833E-03
         0.43429E-02
         0.30023E-02
        -0.17540E-02
         0.14247E-02
        -0.62280E-02
         0.13795E-02
         0.45854E-03
         0.77976E-03
        -0.90766E-03
        -0.59992E-02
         0.40058E-02
         0.97585E-03
         0.26804E-02
         0.23098E-02
        -0.91766E-03
         0.33075E-02
         0.62460E-02
         0.15297E-01
         0.13623E-01
         0.11840E-01
         0.86649E-02
        -0.19625E-02
        -0.43791E-02
        -0.55281E-02
        -0.70412E-02
        -0.14300E-01
        -0.83440E-02
        -0.54694E-02
        -0.67870E-02
        -0.79871E-02
        -0.83852E-02
        -0.48828E-03
         0.10368E-01
        -0.15054E-01
         0.35096E-01
         0.45242E-01
         0.58277E-01
         0.69696E-01
         0.68182E-01
         0.59658E-01
         0.57257E-01
         0.56581E-01
         0.35592E-01
         0.11882E-01
         0.46944E-02
         0.41379E-02
        -0.16295E-02
        -0.15927E-01
        -0.31895E-01
        -0.44179E-01
        -0.57230E-01
        -0.63419E-01
        -0.55702E-01
        -0.52684E-01
        -0.52341E-01
        -0.36603E-01
        -0.18908E-01
        -0.17840E-01
        -0.98936E-02
        -0.61869E-02
        -0.57693E-02
        -0.15246E-02
        -0.74501E-02
        -0.33869E-02
        -0.26892E-02
        -0.94864E-02
        -0.62606E-02
        -0.91924E-02
         0.46691E-02
         0.19931E-01
         0.11878E-01
         0.17156E-02
         0.20062E-01
         0.37291E-02
        -0.13064E-02
         0.10491E-02
         0.49095E-02
         0.84226E-03
         0.43537E-02
         0.30043E-02
        -0.17565E-02
         0.14227E-02
        -0.62509E-02
         0.13742E-02
         0.46557E-03
         0.78684E-03
        -0.89521E-03
        -0.60078E-02
         0.40052E-02
         0.96972E-03
         0.26864E-02
         0.23140E-02
        -0.90703E-03
         0.33101E-02
         0.62463E-02
         0.15322E-01
         0.13653E-01
         0.11856E-01
         0.86744E-02
        -0.19521E-02
        -0.43813E-02
        -0.55360E-02
        -0.70461E-02
        -0.14303E-01
        -0.83479E-02
        -0.54693E-02
        -0.67806E-02
        -0.79770E-02
        -0.83819E-02
        -0.47867E-03
         0.10358E-01
        -0.15054E-01
         0.35102E-01
         0.45242E-01
         0.58269E-01
         0.69672E-01
         0.68152E-01
         0.59639E-01
         0.57245E-01
         0.56563E-01
         0.35587E-01
         0.11891E-01
         0.46949E-02
         0.41459E-02
        -0.16142E-02
        -0.15937E-01
        -0.31915E-01
        -0.44193E-01
        -0.57228E-01
        -0.63415E-01
        -0.55700E-01
        -0.52683E-01
        -0.52327E-01
        -0.36577E-01
        -0.18887E-01
        -0.17816E-01
        -0.98984E-02
        -0.61864E-02
        -0.57720E-02
        -0.15353E-02
        -0.74510E-02
        -0.33895E-02
        -0.26911E-02
        -0.94986E-02
        -0.62723E-02
        -0.92206E-02
         0.46733E-02
         0.19930E-01
         0.11882E-01
         0.17171E-02
         0.20087E-01
         0.37298E-02
        -0.13183E-02
         0.10474E-02
         0.49132E-02
         0.83647E-03
         0.43645E-02
         0.30062E-02
        -0.17591E-02
         0.14207E-02
        -0.62738E-02
         0.13689E-02
         0.47253E-03
         0.79386E-03
        -0.88279E-03
        -0.60158E-02
         0.40047E-02
         0.96352E-03
         0.26923E-02
         0.23183E-02
        -0.89640E-03
         0.33128E-02
         0.62468E-02
         0.15347E-01
         0.13684E-01
         0.11871E-01
         0.86839E-02
        -0.19416E-02
        -0.43836E-02
        -0.55439E-02
        -0.70510E-02
        -0.14307E-01
        -0.83516E-02
        -0.54690E-02
        -0.67740E-02
        -0.79669E-02
        -0.83786E-02
        -0.46904E-03
         0.10348E-01
        -0.15055E-01
         0.35108E-01
         0.45243E-01
         0.58262E-01
         0.69648E-01
         0.68122E-01
         0.59621E-01
         0.57233E-01
         0.56545E-01
         0.35582E-01
         0.11900E-01
         0.46951E-02
         0.41539E-02
        -0.15989E-02
        -0.15947E-01
        -0.31935E-01
        -0.44206E-01
        -0.57227E-01
        -0.63411E-01
        -0.55697E-01
        -0.52682E-01
        -0.52312E-01
        -0.36550E-01
        -0.18867E-01
        -0.17792E-01
        -0.99032E-02
        -0.61859E-02
        -0.57747E-02
        -0.15459E-02
        -0.74519E-02
        -0.33921E-02
        -0.26929E-02
        -0.95109E-02
        -0.62841E-02
        -0.92488E-02
         0.46774E-02
         0.19929E-01
         0.11886E-01
         0.17186E-02
         0.20113E-01
         0.37305E-02
        -0.13303E-02
         0.10456E-02
         0.49169E-02
         0.83092E-03
         0.43754E-02
         0.30080E-02
        -0.17616E-02
         0.14187E-02
        -0.62967E-02
         0.13636E-02
         0.47979E-03
         0.80081E-03
        -0.87041E-03
        -0.60234E-02
         0.40042E-02
         0.95740E-03
         0.26983E-02
         0.23224E-02
        -0.88569E-03
         0.33154E-02
         0.62472E-02
         0.15372E-01
         0.13714E-01
         0.11885E-01
         0.86931E-02
        -0.19312E-02
        -0.43859E-02
        -0.55517E-02
        -0.70560E-02
        -0.14310E-01
        -0.83555E-02
        -0.54687E-02
        -0.67676E-02
        -0.79568E-02
        -0.83751E-02
        -0.45935E-03
         0.10338E-01
        -0.15055E-01
         0.35113E-01
         0.45243E-01
         0.58255E-01
         0.69624E-01
         0.68092E-01
         0.59603E-01
         0.57221E-01
         0.56526E-01
         0.35577E-01
         0.11908E-01
         0.46949E-02
         0.41620E-02
        -0.15835E-02
        -0.15957E-01
        -0.31956E-01
        -0.44219E-01
        -0.57225E-01
        -0.63406E-01
        -0.55694E-01
        -0.52680E-01
        -0.52298E-01
        -0.36524E-01
        -0.18847E-01
        -0.17768E-01
        -0.99081E-02
        -0.61855E-02
        -0.57776E-02
        -0.15565E-02
        -0.74531E-02
        -0.33948E-02
        -0.26950E-02
        -0.95231E-02
        -0.62959E-02
        -0.92770E-02
         0.46816E-02
         0.19928E-01
         0.11890E-01
         0.17200E-02
         0.20138E-01
         0.37313E-02
        -0.13424E-02
         0.10438E-02
         0.49207E-02
         0.82552E-03
         0.43863E-02
         0.30098E-02
        -0.17640E-02
         0.14169E-02
        -0.63196E-02
         0.13585E-02
         0.48687E-03
         0.80747E-03
        -0.85819E-03
        -0.60309E-02
         0.40037E-02
         0.95139E-03
         0.27043E-02
         0.23267E-02
        -0.87508E-03
         0.33180E-02
         0.62473E-02
         0.15397E-01
         0.13744E-01
         0.11899E-01
         0.87022E-02
        -0.19209E-02
        -0.43885E-02
        -0.55595E-02
        -0.70607E-02
        -0.14313E-01
        -0.83594E-02
        -0.54685E-02
        -0.67612E-02
        -0.79467E-02
        -0.83719E-02
        -0.44972E-03
         0.10327E-01
        -0.15056E-01
         0.35119E-01
         0.45243E-01
         0.58249E-01
         0.69600E-01
         0.68062E-01
         0.59584E-01
         0.57209E-01
         0.56507E-01
         0.35573E-01
         0.11917E-01
         0.46944E-02
         0.41699E-02
        -0.15681E-02
        -0.15967E-01
        -0.31976E-01
        -0.44232E-01
        -0.57224E-01
        -0.63402E-01
        -0.55692E-01
        -0.52679E-01
        -0.52284E-01
        -0.36498E-01
        -0.18827E-01
        -0.17744E-01
        -0.99484E-02
        -0.62081E-02
        -0.58021E-02
        -0.15724E-02
        -0.74802E-02
        -0.34090E-02
        -0.27069E-02
        -0.95677E-02
        -0.63296E-02
        -0.93354E-02
         0.47016E-02
         0.19992E-01
         0.11933E-01
         0.17272E-02
         0.20229E-01
         0.37457E-02
        -0.13586E-02
         0.10459E-02
         0.49416E-02
         0.82360E-03
         0.44109E-02
         0.30216E-02
        -0.17707E-02
         0.14211E-02
        -0.63637E-02
         0.13599E-02
         0.49503E-03
         0.81538E-03
        -0.85125E-03
        -0.60600E-02
         0.40184E-02
         0.95056E-03
         0.27197E-02
         0.23392E-02
        -0.86843E-03
         0.33305E-02
         0.62675E-02
         0.15472E-01
         0.13819E-01
         0.11952E-01
         0.87396E-02
        -0.19196E-02
        -0.44069E-02
        -0.55829E-02
        -0.70866E-02
        -0.14360E-01
        -0.83888E-02
        -0.54850E-02
        -0.67774E-02
        -0.79640E-02
        -0.83965E-02
        -0.44172E-03
         0.10346E-01
        -0.15102E-01
         0.35224E-01
         0.45372E-01
         0.58411E-01
         0.69784E-01
         0.68240E-01
         0.59750E-01
         0.57373E-01
         0.56664E-01
         0.35677E-01
         0.11958E-01
         0.47063E-02
         0.41890E-02
        -0.15578E-02
        -0.16018E-01
        -0.32078E-01
        -0.44365E-01
        -0.57387E-01
        -0.63581E-01
        -0.55845E-01
        -0.52824E-01
        -0.52416E-01
        -0.36577E-01
        -0.18861E-01
        -0.17771E-01
        -0.14775E-01
        -0.92563E-02
        -0.86032E-02
        -0.23523E-02
        -0.10702E-01
        -0.49271E-02
        -0.40274E-02
        -0.14143E-01
        -0.93867E-02
        -0.13773E-01
         0.68731E-02
         0.28060E-01
         0.17008E-01
         0.25144E-02
         0.28556E-01
         0.55696E-02
        -0.20261E-02
         0.15542E-02
         0.72484E-02
         0.12075E-02
         0.62953E-02
         0.43619E-02
        -0.25289E-02
         0.21001E-02
        -0.94817E-02
         0.20260E-02
         0.73268E-03
         0.12150E-02
        -0.12623E-02
        -0.90112E-02
         0.59752E-02
         0.14084E-02
         0.40581E-02
         0.34850E-02
        -0.12024E-02
         0.48045E-02
         0.90414E-02
         0.22327E-01
         0.20231E-01
         0.17559E-01
         0.12662E-01
        -0.27966E-02
        -0.64341E-02
        -0.80368E-02
        -0.10165E-01
        -0.20002E-01
        -0.11991E-01
        -0.79354E-02
        -0.98548E-02
        -0.11527E-01
        -0.11863E-01
        -0.62617E-03
         0.12843E-01
        -0.18740E-01
         0.43712E-01
         0.56471E-01
         0.72638E-01
         0.86975E-01
         0.85990E-01
         0.75928E-01
         0.72771E-01
         0.71441E-01
         0.45042E-01
         0.15075E-01
         0.59972E-02
         0.53646E-02
        -0.19547E-02
        -0.20000E-01
        -0.39933E-01
        -0.54906E-01
        -0.70949E-01
        -0.78697E-01
        -0.69860E-01
        -0.66381E-01
        -0.65620E-01
        -0.45939E-01
        -0.23612E-01
        -0.22164E-01
  
SCALARS                      strain_xz  double 1
LOOKUP_TABLE default
         0.17940E-03
        -0.12942E-02
        -0.42121E-02
         0.28160E-03
        -0.16308E-09
         0.57825E-10
         0.19336E-09
         0.38616E-10
        -0.12025E-01
        -0.79765E-02
         0.57834E-09
         0.52093E-09
         0.52803E-03
        -0.21569E-02
        -0.71329E-10
        -0.33414E-09
        -0.41343E-03
        -0.20667E-02
        -0.24136E-09
        -0.35947E-09
        -0.30918E-02
        -0.52857E-02
        -0.48873E-02
        -0.24004E-09
        -0.11069E-09
         0.19338E-09
        -0.55810E-02
        -0.46206E-02
        -0.44932E-09
        -0.35642E-09
         0.96866E-03
        -0.22190E-02
         0.19924E-03
         0.45746E-10
        -0.17678E-09
        -0.10891E-09
         0.29265E-02
         0.14629E-02
        -0.26247E-09
        -0.27946E-09
         0.59208E-02
         0.86187E-02
        -0.59204E-09
        -0.43660E-09
         0.61771E-02
         0.32513E-02
        -0.65017E-09
        -0.31294E-09
        -0.19056E-02
        -0.19643E-09
         0.41832E-02
        -0.54680E-10
        -0.20398E-02
        -0.38383E-09
         0.15333E-02
        -0.10153E-09
         0.67069E-02
         0.17983E-02
        -0.86978E-10
        -0.21024E-09
        -0.10350E-03
         0.28900E-02
         0.17396E-09
         0.11930E-09
        -0.73576E-03
        -0.17499E-10
        -0.24995E-02
         0.11510E-09
        -0.17029E-01
        -0.11714E-01
         0.71939E-09
         0.52175E-09
        -0.75907E-02
         0.37991E-09
         0.19222E-02
        -0.26280E-09
         0.60332E-02
        -0.51578E-10
         0.12769E-01
        -0.80021E-10
         0.16742E-01
         0.11780E-01
        -0.29326E-09
        -0.33539E-09
         0.10190E-01
        -0.36070E-09
         0.74947E-02
        -0.51932E-09
         0.47324E-02
        -0.33123E-09
         0.75287E-02
         0.55731E-02
        -0.14137E-09
         0.19386E-09
        -0.12651E-02
         0.22740E-09
        -0.34543E-02
         0.95481E-10
        -0.83324E-02
         0.23578E-09
        -0.12332E-01
        -0.84258E-02
         0.54365E-09
         0.56730E-09
        -0.30909E-01
        -0.33809E-01
         0.10045E-08
         0.98996E-09
        -0.30659E-01
         0.85818E-09
        -0.27552E-01
         0.64133E-09
        -0.20036E-01
         0.35244E-09
        -0.14953E-01
         0.37688E-10
        -0.56749E-02
        -0.13423E-09
         0.74031E-02
        -0.10739E-09
         0.17689E-01
        -0.10556E-09
         0.26275E-01
        -0.23803E-09
         0.34874E-01
        -0.45286E-09
         0.41161E-01
        -0.54041E-09
         0.42174E-01
        -0.50989E-09
         0.39233E-01
        -0.55447E-09
         0.35049E-01
        -0.71961E-09
         0.30954E-01
        -0.84857E-09
         0.27310E-01
        -0.78883E-09
         0.22686E-01
        -0.64109E-09
         0.13679E-01
        -0.30265E-09
         0.11816E-02
         0.57791E-10
        -0.76007E-02
         0.14031E-09
        -0.11813E-01
         0.22944E-09
        -0.18000E-01
         0.44902E-09
        -0.23744E-01
         0.73681E-09
        -0.30905E-01
         0.88523E-09
        -0.35046E-01
         0.90543E-09
        -0.20727E-02
         0.10892E-02
         0.12763E-02
        -0.25384E-02
         0.10047E-01
         0.76881E-02
         0.11761E-02
        -0.17161E-02
        -0.87148E-03
        -0.15663E-02
         0.87641E-03
         0.38032E-02
         0.79007E-02
        -0.25259E-02
        -0.30503E-02
         0.33803E-02
         0.28432E-02
        -0.13095E-02
        -0.20748E-02
        -0.22249E-02
        -0.12219E-01
        -0.12972E-01
        -0.11779E-01
        -0.36553E-02
         0.14578E-02
        -0.10867E-02
        -0.35226E-02
        -0.39468E-03
        -0.40639E-02
        -0.27676E-02
         0.30214E-02
         0.60003E-03
        -0.14239E-02
        -0.46405E-03
         0.15049E-01
         0.95163E-02
         0.85805E-02
        -0.60332E-02
        -0.34384E-02
        -0.74049E-02
        -0.15311E-01
        -0.14103E-01
        -0.13753E-01
        -0.10127E-01
        -0.73109E-02
        -0.57805E-02
         0.10759E-02
         0.44475E-02
         0.12871E-02
         0.41130E-02
         0.11073E-01
         0.92288E-02
         0.44720E-01
         0.46601E-01
         0.41714E-01
         0.35429E-01
         0.26400E-01
         0.13509E-01
        -0.80470E-03
        -0.96689E-02
        -0.14722E-01
        -0.25290E-01
        -0.41285E-01
        -0.49711E-01
        -0.45316E-01
        -0.43377E-01
        -0.45694E-01
        -0.45586E-01
        -0.41424E-01
        -0.36420E-01
        -0.18668E-01
         0.29437E-02
         0.11265E-01
         0.12556E-01
         0.21277E-01
         0.34106E-01
         0.43996E-01
         0.46143E-01
        -0.33306E-02
         0.68370E-03
        -0.13016E-02
        -0.37899E-02
         0.77740E-02
         0.66435E-02
         0.19356E-02
        -0.42254E-02
        -0.19415E-02
        -0.40170E-02
        -0.81151E-03
         0.29607E-02
         0.97402E-02
        -0.74695E-02
        -0.77368E-02
         0.65434E-02
         0.36427E-02
        -0.21818E-02
        -0.14683E-02
        -0.25786E-02
        -0.15300E-01
        -0.14581E-01
        -0.14389E-01
        -0.34802E-02
         0.19767E-02
         0.13310E-02
        -0.72180E-02
         0.95839E-03
        -0.24156E-02
        -0.32941E-02
         0.50272E-02
         0.32530E-02
        -0.32605E-02
        -0.28140E-02
         0.13864E-01
         0.76520E-02
         0.87774E-02
        -0.85798E-02
        -0.14365E-02
        -0.41648E-02
        -0.15301E-01
        -0.15739E-01
        -0.15385E-01
        -0.11124E-01
        -0.85664E-02
        -0.50122E-02
         0.54171E-02
         0.63952E-02
        -0.84537E-03
         0.10178E-02
         0.10433E-01
         0.91905E-02
         0.57948E-01
         0.58396E-01
         0.52419E-01
         0.43235E-01
         0.32259E-01
         0.14857E-01
        -0.36888E-02
        -0.11953E-01
        -0.15746E-01
        -0.28863E-01
        -0.51268E-01
        -0.60481E-01
        -0.50722E-01
        -0.48257E-01
        -0.53163E-01
        -0.54749E-01
        -0.49970E-01
        -0.47264E-01
        -0.24082E-01
         0.62592E-02
         0.13844E-01
         0.14026E-01
         0.24937E-01
         0.43176E-01
         0.55264E-01
         0.55090E-01
        -0.33369E-02
         0.68624E-03
        -0.13041E-02
        -0.37925E-02
         0.77665E-02
         0.66373E-02
         0.19479E-02
        -0.42147E-02
        -0.19436E-02
        -0.40139E-02
        -0.79509E-03
         0.29679E-02
         0.97460E-02
        -0.74511E-02
        -0.77326E-02
         0.65502E-02
         0.36507E-02
        -0.21758E-02
        -0.14676E-02
        -0.25740E-02
        -0.15298E-01
        -0.14580E-01
        -0.14388E-01
        -0.34804E-02
         0.19812E-02
         0.13332E-02
        -0.72201E-02
         0.94038E-03
        -0.24326E-02
        -0.32962E-02
         0.50345E-02
         0.32526E-02
        -0.32470E-02
        -0.28153E-02
         0.13871E-01
         0.76485E-02
         0.87746E-02
        -0.85936E-02
        -0.14502E-02
        -0.41779E-02
        -0.15310E-01
        -0.15748E-01
        -0.15385E-01
        -0.11122E-01
        -0.85633E-02
        -0.50097E-02
         0.54160E-02
         0.63973E-02
        -0.83919E-03
         0.10144E-02
         0.10426E-01
         0.91769E-02
         0.57928E-01
         0.58381E-01
         0.52415E-01
         0.43235E-01
         0.32249E-01
         0.14852E-01
        -0.36930E-02
        -0.11960E-01
        -0.15733E-01
        -0.28852E-01
        -0.51260E-01
        -0.60482E-01
        -0.50718E-01
        -0.48254E-01
        -0.53170E-01
        -0.54761E-01
        -0.49978E-01
        -0.47274E-01
        -0.24076E-01
         0.62620E-02
         0.13834E-01
         0.14021E-01
         0.24918E-01
         0.43150E-01
         0.55237E-01
         0.55065E-01
        -0.33432E-02
         0.68873E-03
        -0.13065E-02
        -0.37950E-02
         0.77588E-02
         0.66313E-02
         0.19603E-02
        -0.42040E-02
        -0.19456E-02
        -0.40105E-02
        -0.77870E-03
         0.29751E-02
         0.97519E-02
        -0.74327E-02
        -0.77285E-02
         0.65571E-02
         0.36589E-02
        -0.21697E-02
        -0.14668E-02
        -0.25697E-02
        -0.15297E-01
        -0.14578E-01
        -0.14387E-01
        -0.34806E-02
         0.19859E-02
         0.13356E-02
        -0.72222E-02
         0.92258E-03
        -0.24497E-02
        -0.32983E-02
         0.50421E-02
         0.32523E-02
        -0.32333E-02
        -0.28166E-02
         0.13878E-01
         0.76452E-02
         0.87717E-02
        -0.86073E-02
        -0.14640E-02
        -0.41912E-02
        -0.15320E-01
        -0.15758E-01
        -0.15387E-01
        -0.11121E-01
        -0.85603E-02
        -0.50072E-02
         0.54150E-02
         0.63994E-02
        -0.83287E-03
         0.10108E-02
         0.10420E-01
         0.91634E-02
         0.57909E-01
         0.58366E-01
         0.52410E-01
         0.43236E-01
         0.32239E-01
         0.14848E-01
        -0.36972E-02
        -0.11968E-01
        -0.15720E-01
        -0.28840E-01
        -0.51252E-01
        -0.60483E-01
        -0.50713E-01
        -0.48252E-01
        -0.53177E-01
        -0.54773E-01
        -0.49987E-01
        -0.47283E-01
        -0.24069E-01
         0.62649E-02
         0.13824E-01
         0.14015E-01
         0.24900E-01
         0.43124E-01
         0.55209E-01
         0.55041E-01
        -0.33495E-02
         0.69132E-03
        -0.13089E-02
        -0.37975E-02
         0.77512E-02
         0.66252E-02
         0.19725E-02
        -0.41932E-02
        -0.19474E-02
        -0.40065E-02
        -0.76235E-03
         0.29825E-02
         0.97579E-02
        -0.74143E-02
        -0.77244E-02
         0.65647E-02
         0.36674E-02
        -0.21636E-02
        -0.14662E-02
        -0.25651E-02
        -0.15296E-01
        -0.14577E-01
        -0.14387E-01
        -0.34808E-02
         0.19916E-02
         0.13386E-02
        -0.72240E-02
         0.90534E-03
        -0.24667E-02
        -0.33003E-02
         0.50502E-02
         0.32527E-02
        -0.32196E-02
        -0.28178E-02
         0.13885E-01
         0.76418E-02
         0.87689E-02
        -0.86210E-02
        -0.14777E-02
        -0.42043E-02
        -0.15330E-01
        -0.15768E-01
        -0.15389E-01
        -0.11120E-01
        -0.85570E-02
        -0.50045E-02
         0.54142E-02
         0.64016E-02
        -0.82653E-03
         0.10072E-02
         0.10413E-01
         0.91498E-02
         0.57889E-01
         0.58351E-01
         0.52405E-01
         0.43236E-01
         0.32229E-01
         0.14843E-01
        -0.37014E-02
        -0.11975E-01
        -0.15707E-01
        -0.28829E-01
        -0.51244E-01
        -0.60485E-01
        -0.50710E-01
        -0.48249E-01
        -0.53184E-01
        -0.54787E-01
        -0.49997E-01
        -0.47292E-01
        -0.24062E-01
         0.62677E-02
         0.13814E-01
         0.14010E-01
         0.24882E-01
         0.43097E-01
         0.55182E-01
         0.55016E-01
        -0.33558E-02
         0.69390E-03
        -0.13113E-02
        -0.38000E-02
         0.77437E-02
         0.66191E-02
         0.19848E-02
        -0.41824E-02
        -0.19489E-02
        -0.40019E-02
        -0.74596E-03
         0.29897E-02
         0.97638E-02
        -0.73959E-02
        -0.77202E-02
         0.65729E-02
         0.36763E-02
        -0.21574E-02
        -0.14654E-02
        -0.25605E-02
        -0.15296E-01
        -0.14576E-01
        -0.14388E-01
        -0.34810E-02
         0.19981E-02
         0.13419E-02
        -0.72255E-02
         0.88864E-03
        -0.24837E-02
        -0.33021E-02
         0.50588E-02
         0.32535E-02
        -0.32058E-02
        -0.28191E-02
         0.13892E-01
         0.76383E-02
         0.87661E-02
        -0.86347E-02
        -0.14914E-02
        -0.42176E-02
        -0.15340E-01
        -0.15778E-01
        -0.15392E-01
        -0.11119E-01
        -0.85536E-02
        -0.50016E-02
         0.54136E-02
         0.64040E-02
        -0.82023E-03
         0.10036E-02
         0.10407E-01
         0.91362E-02
         0.57869E-01
         0.58336E-01
         0.52401E-01
         0.43236E-01
         0.32219E-01
         0.14839E-01
        -0.37056E-02
        -0.11983E-01
        -0.15693E-01
        -0.28817E-01
        -0.51236E-01
        -0.60488E-01
        -0.50707E-01
        -0.48248E-01
        -0.53193E-01
        -0.54803E-01
        -0.50008E-01
        -0.47301E-01
        -0.24055E-01
         0.62706E-02
         0.13804E-01
         0.14004E-01
         0.24863E-01
         0.43071E-01
         0.55154E-01
         0.54992E-01
        -0.33618E-02
         0.69670E-03
        -0.13135E-02
        -0.38024E-02
         0.77361E-02
         0.66130E-02
         0.19972E-02
        -0.41714E-02
        -0.19503E-02
        -0.39972E-02
        -0.72957E-03
         0.29969E-02
         0.97697E-02
        -0.73775E-02
        -0.77160E-02
         0.65812E-02
         0.36851E-02
        -0.21513E-02
        -0.14646E-02
        -0.25561E-02
        -0.15296E-01
        -0.14576E-01
        -0.14389E-01
        -0.34813E-02
         0.20047E-02
         0.13454E-02
        -0.72268E-02
         0.87205E-03
        -0.25008E-02
        -0.33042E-02
         0.50675E-02
         0.32542E-02
        -0.31919E-02
        -0.28202E-02
         0.13899E-01
         0.76352E-02
         0.87635E-02
        -0.86483E-02
        -0.15051E-02
        -0.42309E-02
        -0.15351E-01
        -0.15789E-01
        -0.15395E-01
        -0.11119E-01
        -0.85505E-02
        -0.49991E-02
         0.54129E-02
         0.64063E-02
        -0.81375E-03
         0.10004E-02
         0.10400E-01
         0.91230E-02
         0.57849E-01
         0.58321E-01
         0.52396E-01
         0.43236E-01
         0.32209E-01
         0.14834E-01
        -0.37097E-02
        -0.11990E-01
        -0.15680E-01
        -0.28806E-01
        -0.51228E-01
        -0.60490E-01
        -0.50705E-01
        -0.48246E-01
        -0.53201E-01
        -0.54820E-01
        -0.50020E-01
        -0.47310E-01
        -0.24049E-01
         0.62731E-02
         0.13793E-01
         0.13999E-01
         0.24845E-01
         0.43044E-01
         0.55127E-01
         0.54967E-01
        -0.33673E-02
         0.70007E-03
        -0.13152E-02
        -0.38048E-02
         0.77288E-02
         0.66070E-02
         0.20098E-02
        -0.41601E-02
        -0.19518E-02
        -0.39928E-02
        -0.71309E-03
         0.30042E-02
         0.97758E-02
        -0.73590E-02
        -0.77117E-02
         0.65894E-02
         0.36937E-02
        -0.21451E-02
        -0.14639E-02
        -0.25517E-02
        -0.15295E-01
        -0.14575E-01
        -0.14390E-01
        -0.34817E-02
         0.20104E-02
         0.13485E-02
        -0.72284E-02
         0.85508E-03
        -0.25180E-02
        -0.33066E-02
         0.50756E-02
         0.32543E-02
        -0.31777E-02
        -0.28210E-02
         0.13906E-01
         0.76324E-02
         0.87611E-02
        -0.86618E-02
        -0.15188E-02
        -0.42444E-02
        -0.15361E-01
        -0.15800E-01
        -0.15399E-01
        -0.11118E-01
        -0.85477E-02
        -0.49969E-02
         0.54116E-02
         0.64085E-02
        -0.80672E-03
         0.99788E-03
         0.10395E-01
         0.91097E-02
         0.57829E-01
         0.58306E-01
         0.52391E-01
         0.43236E-01
         0.32199E-01
         0.14830E-01
        -0.37138E-02
        -0.11997E-01
        -0.15667E-01
        -0.28794E-01
        -0.51220E-01
        -0.60493E-01
        -0.50704E-01
        -0.48244E-01
        -0.53210E-01
        -0.54837E-01
        -0.50031E-01
        -0.47318E-01
        -0.24042E-01
         0.62753E-02
         0.13783E-01
         0.13993E-01
         0.24827E-01
         0.43018E-01
         0.55100E-01
         0.54943E-01
        -0.33726E-02
         0.70360E-03
        -0.13166E-02
        -0.38070E-02
         0.77217E-02
         0.66009E-02
         0.20226E-02
        -0.41487E-02
        -0.19534E-02
        -0.39885E-02
        -0.69657E-03
         0.30114E-02
         0.97819E-02
        -0.73406E-02
        -0.77074E-02
         0.65977E-02
         0.37020E-02
        -0.21388E-02
        -0.14632E-02
        -0.25477E-02
        -0.15295E-01
        -0.14575E-01
        -0.14391E-01
        -0.34820E-02
         0.20158E-02
         0.13514E-02
        -0.72299E-02
         0.83800E-03
        -0.25355E-02
        -0.33093E-02
         0.50835E-02
         0.32541E-02
        -0.31633E-02
        -0.28217E-02
         0.13914E-01
         0.76300E-02
         0.87591E-02
        -0.86753E-02
        -0.15326E-02
        -0.42579E-02
        -0.15372E-01
        -0.15811E-01
        -0.15403E-01
        -0.11118E-01
        -0.85451E-02
        -0.49950E-02
         0.54102E-02
         0.64105E-02
        -0.79946E-03
         0.99569E-03
         0.10389E-01
         0.90968E-02
         0.57809E-01
         0.58291E-01
         0.52386E-01
         0.43237E-01
         0.32189E-01
         0.14825E-01
        -0.37179E-02
        -0.12005E-01
        -0.15654E-01
        -0.28783E-01
        -0.51211E-01
        -0.60495E-01
        -0.50702E-01
        -0.48243E-01
        -0.53218E-01
        -0.54854E-01
        -0.50042E-01
        -0.47326E-01
        -0.24035E-01
         0.62773E-02
         0.13772E-01
         0.13988E-01
         0.24810E-01
         0.42992E-01
         0.55072E-01
         0.54918E-01
        -0.33779E-02
         0.70718E-03
        -0.13180E-02
        -0.38093E-02
         0.77143E-02
         0.65947E-02
         0.20352E-02
        -0.41374E-02
        -0.19551E-02
        -0.39843E-02
        -0.68012E-03
         0.30186E-02
         0.97880E-02
        -0.73222E-02
        -0.77031E-02
         0.66059E-02
         0.37104E-02
        -0.21326E-02
        -0.14624E-02
        -0.25435E-02
        -0.15295E-01
        -0.14574E-01
        -0.14393E-01
        -0.34825E-02
         0.20212E-02
         0.13542E-02
        -0.72316E-02
         0.82095E-03
        -0.25529E-02
        -0.33119E-02
         0.50914E-02
         0.32539E-02
        -0.31489E-02
        -0.28224E-02
         0.13922E-01
         0.76272E-02
         0.87570E-02
        -0.86889E-02
        -0.15465E-02
        -0.42714E-02
        -0.15383E-01
        -0.15822E-01
        -0.15406E-01
        -0.11118E-01
        -0.85427E-02
        -0.49932E-02
         0.54088E-02
         0.64125E-02
        -0.79220E-03
         0.99361E-03
         0.10384E-01
         0.90836E-02
         0.57789E-01
         0.58276E-01
         0.52381E-01
         0.43237E-01
         0.32179E-01
         0.14821E-01
        -0.37220E-02
        -0.12012E-01
        -0.15640E-01
        -0.28772E-01
        -0.51203E-01
        -0.60497E-01
        -0.50700E-01
        -0.48241E-01
        -0.53227E-01
        -0.54871E-01
        -0.50054E-01
        -0.47334E-01
        -0.24028E-01
         0.62793E-02
         0.13761E-01
         0.13982E-01
         0.24792E-01
         0.42966E-01
         0.55045E-01
         0.54894E-01
        -0.33832E-02
         0.71080E-03
        -0.13194E-02
        -0.38117E-02
         0.77071E-02
         0.65886E-02
         0.20480E-02
        -0.41260E-02
        -0.19567E-02
        -0.39801E-02
        -0.66365E-03
         0.30259E-02
         0.97942E-02
        -0.73039E-02
        -0.76989E-02
         0.66141E-02
         0.37187E-02
        -0.21265E-02
        -0.14616E-02
        -0.25394E-02
        -0.15295E-01
        -0.14574E-01
        -0.14394E-01
        -0.34830E-02
         0.20266E-02
         0.13571E-02
        -0.72333E-02
         0.80400E-03
        -0.25703E-02
        -0.33145E-02
         0.50993E-02
         0.32537E-02
        -0.31346E-02
        -0.28231E-02
         0.13929E-01
         0.76248E-02
         0.87549E-02
        -0.87023E-02
        -0.15603E-02
        -0.42850E-02
        -0.15393E-01
        -0.15833E-01
        -0.15410E-01
        -0.11118E-01
        -0.85402E-02
        -0.49911E-02
         0.54074E-02
         0.64146E-02
        -0.78500E-03
         0.99135E-03
         0.10378E-01
         0.90705E-02
         0.57769E-01
         0.58261E-01
         0.52376E-01
         0.43237E-01
         0.32169E-01
         0.14816E-01
        -0.37260E-02
        -0.12019E-01
        -0.15627E-01
        -0.28760E-01
        -0.51195E-01
        -0.60500E-01
        -0.50698E-01
        -0.48240E-01
        -0.53235E-01
        -0.54887E-01
        -0.50065E-01
        -0.47343E-01
        -0.24021E-01
         0.62812E-02
         0.13750E-01
         0.13977E-01
         0.24774E-01
         0.42940E-01
         0.55018E-01
         0.54869E-01
        -0.33884E-02
         0.71438E-03
        -0.13208E-02
        -0.38139E-02
         0.77000E-02
         0.65827E-02
         0.20606E-02
        -0.41146E-02
        -0.19583E-02
        -0.39759E-02
        -0.64716E-03
         0.30332E-02
         0.98003E-02
        -0.72856E-02
        -0.76945E-02
         0.66223E-02
         0.37271E-02
        -0.21203E-02
        -0.14609E-02
        -0.25351E-02
        -0.15295E-01
        -0.14573E-01
        -0.14395E-01
        -0.34835E-02
         0.20319E-02
         0.13599E-02
        -0.72350E-02
         0.78703E-03
        -0.25877E-02
        -0.33171E-02
         0.51072E-02
         0.32534E-02
        -0.31203E-02
        -0.28237E-02
         0.13937E-01
         0.76222E-02
         0.87528E-02
        -0.87158E-02
        -0.15742E-02
        -0.42984E-02
        -0.15404E-01
        -0.15844E-01
        -0.15414E-01
        -0.11118E-01
        -0.85376E-02
        -0.49893E-02
         0.54060E-02
         0.64166E-02
        -0.77772E-03
         0.98916E-03
         0.10373E-01
         0.90575E-02
         0.57749E-01
         0.58246E-01
         0.52371E-01
         0.43237E-01
         0.32159E-01
         0.14812E-01
        -0.37300E-02
        -0.12026E-01
        -0.15614E-01
        -0.28749E-01
        -0.51186E-01
        -0.60502E-01
        -0.50695E-01
        -0.48238E-01
        -0.53244E-01
        -0.54904E-01
        -0.50077E-01
        -0.47351E-01
        -0.24014E-01
         0.62831E-02
         0.13739E-01
         0.13972E-01
         0.24757E-01
         0.42914E-01
         0.54991E-01
         0.54845E-01
        -0.33937E-02
         0.71795E-03
        -0.13222E-02
        -0.38162E-02
         0.76927E-02
         0.65765E-02
         0.20733E-02
        -0.41033E-02
        -0.19599E-02
        -0.39717E-02
        -0.63072E-03
         0.30405E-02
         0.98064E-02
        -0.72673E-02
        -0.76901E-02
         0.66305E-02
         0.37354E-02
        -0.21141E-02
        -0.14602E-02
        -0.25310E-02
        -0.15294E-01
        -0.14573E-01
        -0.14396E-01
        -0.34840E-02
         0.20372E-02
         0.13628E-02
        -0.72367E-02
         0.77014E-03
        -0.26049E-02
        -0.33198E-02
         0.51151E-02
         0.32532E-02
        -0.31059E-02
        -0.28244E-02
         0.13945E-01
         0.76196E-02
         0.87507E-02
        -0.87293E-02
        -0.15881E-02
        -0.43121E-02
        -0.15415E-01
        -0.15855E-01
        -0.15417E-01
        -0.11118E-01
        -0.85351E-02
        -0.49875E-02
         0.54046E-02
         0.64187E-02
        -0.77043E-03
         0.98708E-03
         0.10368E-01
         0.90444E-02
         0.57729E-01
         0.58232E-01
         0.52366E-01
         0.43237E-01
         0.32149E-01
         0.14807E-01
        -0.37340E-02
        -0.12034E-01
        -0.15601E-01
        -0.28737E-01
        -0.51178E-01
        -0.60505E-01
        -0.50693E-01
        -0.48236E-01
        -0.53253E-01
        -0.54921E-01
        -0.50088E-01
        -0.47359E-01
        -0.24007E-01
         0.62850E-02
         0.13729E-01
         0.13966E-01
         0.24739E-01
         0.42888E-01
         0.54964E-01
         0.54820E-01
        -0.33990E-02
         0.72157E-03
        -0.13236E-02
        -0.38184E-02
         0.76855E-02
         0.65704E-02
         0.20859E-02
        -0.40919E-02
        -0.19614E-02
        -0.39674E-02
        -0.61432E-03
         0.30477E-02
         0.98126E-02
        -0.72490E-02
        -0.76858E-02
         0.66387E-02
         0.37437E-02
        -0.21079E-02
        -0.14595E-02
        -0.25268E-02
        -0.15294E-01
        -0.14572E-01
        -0.14397E-01
        -0.34845E-02
         0.20424E-02
         0.13657E-02
        -0.72384E-02
         0.75322E-03
        -0.26222E-02
        -0.33223E-02
         0.51230E-02
         0.32529E-02
        -0.30914E-02
        -0.28251E-02
         0.13952E-01
         0.76172E-02
         0.87487E-02
        -0.87426E-02
        -0.16020E-02
        -0.43256E-02
        -0.15425E-01
        -0.15866E-01
        -0.15421E-01
        -0.11118E-01
        -0.85328E-02
        -0.49854E-02
         0.54032E-02
         0.64207E-02
        -0.76312E-03
         0.98487E-03
         0.10362E-01
         0.90313E-02
         0.57709E-01
         0.58217E-01
         0.52361E-01
         0.43237E-01
         0.32140E-01
         0.14803E-01
        -0.37381E-02
        -0.12041E-01
        -0.15587E-01
        -0.28726E-01
        -0.51169E-01
        -0.60507E-01
        -0.50691E-01
        -0.48235E-01
        -0.53261E-01
        -0.54938E-01
        -0.50099E-01
        -0.47367E-01
        -0.24000E-01
         0.62869E-02
         0.13718E-01
         0.13961E-01
         0.24721E-01
         0.42862E-01
         0.54937E-01
         0.54796E-01
        -0.34043E-02
         0.72512E-03
        -0.13249E-02
        -0.38207E-02
         0.76784E-02
         0.65643E-02
         0.20985E-02
        -0.40805E-02
        -0.19630E-02
        -0.39631E-02
        -0.59796E-03
         0.30550E-02
         0.98187E-02
        -0.72307E-02
        -0.76814E-02
         0.66468E-02
         0.37520E-02
        -0.21018E-02
        -0.14589E-02
        -0.25227E-02
        -0.15294E-01
        -0.14572E-01
        -0.14399E-01
        -0.34850E-02
         0.20476E-02
         0.13685E-02
        -0.72399E-02
         0.73640E-03
        -0.26396E-02
        -0.33249E-02
         0.51308E-02
         0.32527E-02
        -0.30770E-02
        -0.28258E-02
         0.13960E-01
         0.76146E-02
         0.87466E-02
        -0.87559E-02
        -0.16159E-02
        -0.43393E-02
        -0.15436E-01
        -0.15877E-01
        -0.15425E-01
        -0.11118E-01
        -0.85302E-02
        -0.49835E-02
         0.54017E-02
         0.64227E-02
        -0.75582E-03
         0.98268E-03
         0.10357E-01
         0.90183E-02
         0.57689E-01
         0.58202E-01
         0.52356E-01
         0.43237E-01
         0.32130E-01
         0.14798E-01
        -0.37421E-02
        -0.12048E-01
        -0.15574E-01
        -0.28714E-01
        -0.51161E-01
        -0.60510E-01
        -0.50689E-01
        -0.48233E-01
        -0.53270E-01
        -0.54955E-01
        -0.50111E-01
        -0.47375E-01
        -0.23993E-01
         0.62888E-02
         0.13707E-01
         0.13956E-01
         0.24704E-01
         0.42836E-01
         0.54910E-01
         0.54772E-01
        -0.34096E-02
         0.72865E-03
        -0.13263E-02
        -0.38229E-02
         0.76712E-02
         0.65582E-02
         0.21111E-02
        -0.40691E-02
        -0.19645E-02
        -0.39589E-02
        -0.58159E-03
         0.30624E-02
         0.98248E-02
        -0.72125E-02
        -0.76769E-02
         0.66550E-02
         0.37603E-02
        -0.20956E-02
        -0.14581E-02
        -0.25185E-02
        -0.15294E-01
        -0.14572E-01
        -0.14400E-01
        -0.34855E-02
         0.20528E-02
         0.13713E-02
        -0.72416E-02
         0.71959E-03
        -0.26569E-02
        -0.33274E-02
         0.51387E-02
         0.32524E-02
        -0.30626E-02
        -0.28264E-02
         0.13967E-01
         0.76123E-02
         0.87446E-02
        -0.87691E-02
        -0.16299E-02
        -0.43529E-02
        -0.15447E-01
        -0.15888E-01
        -0.15428E-01
        -0.11118E-01
        -0.85277E-02
        -0.49817E-02
         0.54003E-02
         0.64248E-02
        -0.74841E-03
         0.98054E-03
         0.10351E-01
         0.90051E-02
         0.57669E-01
         0.58187E-01
         0.52351E-01
         0.43237E-01
         0.32120E-01
         0.14793E-01
        -0.37460E-02
        -0.12055E-01
        -0.15561E-01
        -0.28703E-01
        -0.51153E-01
        -0.60512E-01
        -0.50687E-01
        -0.48232E-01
        -0.53278E-01
        -0.54971E-01
        -0.50122E-01
        -0.47384E-01
        -0.23986E-01
         0.62906E-02
         0.13696E-01
         0.13950E-01
         0.24686E-01
         0.42810E-01
         0.54883E-01
         0.54747E-01
        -0.34149E-02
         0.73227E-03
        -0.13277E-02
        -0.38251E-02
         0.76640E-02
         0.65522E-02
         0.21237E-02
        -0.40578E-02
        -0.19661E-02
        -0.39546E-02
        -0.56522E-03
         0.30697E-02
         0.98310E-02
        -0.71943E-02
        -0.76724E-02
         0.66631E-02
         0.37686E-02
        -0.20895E-02
        -0.14574E-02
        -0.25144E-02
        -0.15293E-01
        -0.14571E-01
        -0.14401E-01
        -0.34861E-02
         0.20579E-02
         0.13742E-02
        -0.72432E-02
         0.70279E-03
        -0.26742E-02
        -0.33299E-02
         0.51465E-02
         0.32522E-02
        -0.30482E-02
        -0.28271E-02
         0.13975E-01
         0.76097E-02
         0.87425E-02
        -0.87823E-02
        -0.16439E-02
        -0.43664E-02
        -0.15457E-01
        -0.15899E-01
        -0.15432E-01
        -0.11118E-01
        -0.85253E-02
        -0.49797E-02
         0.53989E-02
         0.64268E-02
        -0.74108E-03
         0.97833E-03
         0.10346E-01
         0.89920E-02
         0.57649E-01
         0.58173E-01
         0.52346E-01
         0.43237E-01
         0.32110E-01
         0.14789E-01
        -0.37499E-02
        -0.12062E-01
        -0.15548E-01
        -0.28691E-01
        -0.51145E-01
        -0.60515E-01
        -0.50685E-01
        -0.48230E-01
        -0.53287E-01
        -0.54988E-01
        -0.50133E-01
        -0.47392E-01
        -0.23978E-01
         0.62924E-02
         0.13685E-01
         0.13945E-01
         0.24668E-01
         0.42784E-01
         0.54855E-01
         0.54723E-01
        -0.34202E-02
         0.73584E-03
        -0.13291E-02
        -0.38274E-02
         0.76569E-02
         0.65461E-02
         0.21363E-02
        -0.40464E-02
        -0.19676E-02
        -0.39502E-02
        -0.54886E-03
         0.30770E-02
         0.98371E-02
        -0.71760E-02
        -0.76679E-02
         0.66713E-02
         0.37770E-02
        -0.20834E-02
        -0.14567E-02
        -0.25102E-02
        -0.15293E-01
        -0.14570E-01
        -0.14402E-01
        -0.34866E-02
         0.20629E-02
         0.13770E-02
        -0.72446E-02
         0.68583E-03
        -0.26913E-02
        -0.33324E-02
         0.51544E-02
         0.32520E-02
        -0.30338E-02
        -0.28279E-02
         0.13983E-01
         0.76071E-02
         0.87404E-02
        -0.87954E-02
        -0.16581E-02
        -0.43801E-02
        -0.15467E-01
        -0.15910E-01
        -0.15436E-01
        -0.11118E-01
        -0.85227E-02
        -0.49779E-02
         0.53975E-02
         0.64289E-02
        -0.73377E-03
         0.97612E-03
         0.10340E-01
         0.89790E-02
         0.57629E-01
         0.58158E-01
         0.52341E-01
         0.43237E-01
         0.32100E-01
         0.14784E-01
        -0.37537E-02
        -0.12068E-01
        -0.15535E-01
        -0.28680E-01
        -0.51136E-01
        -0.60518E-01
        -0.50684E-01
        -0.48228E-01
        -0.53295E-01
        -0.55005E-01
        -0.50145E-01
        -0.47400E-01
        -0.23971E-01
         0.62943E-02
         0.13674E-01
         0.13939E-01
         0.24651E-01
         0.42758E-01
         0.54828E-01
         0.54698E-01
        -0.34255E-02
         0.73939E-03
        -0.13304E-02
        -0.38296E-02
         0.76497E-02
         0.65400E-02
         0.21488E-02
        -0.40350E-02
        -0.19689E-02
        -0.39453E-02
        -0.53253E-03
         0.30843E-02
         0.98432E-02
        -0.71577E-02
        -0.76633E-02
         0.66795E-02
         0.37852E-02
        -0.20773E-02
        -0.14562E-02
        -0.25062E-02
        -0.15293E-01
        -0.14570E-01
        -0.14404E-01
        -0.34871E-02
         0.20675E-02
         0.13799E-02
        -0.72454E-02
         0.66845E-03
        -0.27085E-02
        -0.33351E-02
         0.51623E-02
         0.32517E-02
        -0.30193E-02
        -0.28286E-02
         0.13990E-01
         0.76048E-02
         0.87384E-02
        -0.88082E-02
        -0.16726E-02
        -0.43936E-02
        -0.15477E-01
        -0.15920E-01
        -0.15439E-01
        -0.11118E-01
        -0.85202E-02
        -0.49759E-02
         0.53961E-02
         0.64310E-02
        -0.72649E-03
         0.97393E-03
         0.10335E-01
         0.89658E-02
         0.57609E-01
         0.58143E-01
         0.52336E-01
         0.43237E-01
         0.32090E-01
         0.14780E-01
        -0.37575E-02
        -0.12075E-01
        -0.15522E-01
        -0.28668E-01
        -0.51128E-01
        -0.60522E-01
        -0.50683E-01
        -0.48227E-01
        -0.53304E-01
        -0.55021E-01
        -0.50156E-01
        -0.47408E-01
        -0.23965E-01
         0.62961E-02
         0.13664E-01
         0.13934E-01
         0.24633E-01
         0.42732E-01
         0.54801E-01
         0.54674E-01
        -0.34308E-02
         0.74293E-03
        -0.13317E-02
        -0.38318E-02
         0.76425E-02
         0.65339E-02
         0.21614E-02
        -0.40236E-02
        -0.19702E-02
        -0.39399E-02
        -0.51624E-03
         0.30916E-02
         0.98494E-02
        -0.71392E-02
        -0.76585E-02
         0.66876E-02
         0.37934E-02
        -0.20711E-02
        -0.14556E-02
        -0.25020E-02
        -0.15293E-01
        -0.14569E-01
        -0.14405E-01
        -0.34877E-02
         0.20719E-02
         0.13827E-02
        -0.72457E-02
         0.65054E-03
        -0.27257E-02
        -0.33376E-02
         0.51702E-02
         0.32514E-02
        -0.30049E-02
        -0.28293E-02
         0.13998E-01
         0.76023E-02
         0.87364E-02
        -0.88208E-02
        -0.16876E-02
        -0.44071E-02
        -0.15486E-01
        -0.15929E-01
        -0.15441E-01
        -0.11118E-01
        -0.85179E-02
        -0.49741E-02
         0.53947E-02
         0.64331E-02
        -0.71912E-03
         0.97176E-03
         0.10330E-01
         0.89526E-02
         0.57589E-01
         0.58129E-01
         0.52330E-01
         0.43237E-01
         0.32080E-01
         0.14775E-01
        -0.37613E-02
        -0.12082E-01
        -0.15509E-01
        -0.28656E-01
        -0.51119E-01
        -0.60528E-01
        -0.50683E-01
        -0.48226E-01
        -0.53312E-01
        -0.55038E-01
        -0.50167E-01
        -0.47416E-01
        -0.23957E-01
         0.62979E-02
         0.13653E-01
         0.13929E-01
         0.24615E-01
         0.42706E-01
         0.54774E-01
         0.54650E-01
        -0.34361E-02
         0.74649E-03
        -0.13331E-02
        -0.38340E-02
         0.76355E-02
         0.65280E-02
         0.21738E-02
        -0.40122E-02
        -0.19713E-02
        -0.39344E-02
        -0.50006E-03
         0.30988E-02
         0.98554E-02
        -0.71207E-02
        -0.76537E-02
         0.66958E-02
         0.38015E-02
        -0.20651E-02
        -0.14549E-02
        -0.24980E-02
        -0.15292E-01
        -0.14569E-01
        -0.14406E-01
        -0.34882E-02
         0.20760E-02
         0.13856E-02
        -0.72459E-02
         0.63257E-03
        -0.27428E-02
        -0.33402E-02
         0.51781E-02
         0.32512E-02
        -0.29905E-02
        -0.28300E-02
         0.14006E-01
         0.76000E-02
         0.87343E-02
        -0.88331E-02
        -0.17027E-02
        -0.44202E-02
        -0.15494E-01
        -0.15938E-01
        -0.15444E-01
        -0.11118E-01
        -0.85153E-02
        -0.49722E-02
         0.53934E-02
         0.64353E-02
        -0.71183E-03
         0.96950E-03
         0.10324E-01
         0.89397E-02
         0.57569E-01
         0.58114E-01
         0.52326E-01
         0.43237E-01
         0.32070E-01
         0.14771E-01
        -0.37650E-02
        -0.12089E-01
        -0.15496E-01
        -0.28643E-01
        -0.51110E-01
        -0.60535E-01
        -0.50684E-01
        -0.48224E-01
        -0.53321E-01
        -0.55055E-01
        -0.50179E-01
        -0.47424E-01
        -0.23950E-01
         0.62999E-02
         0.13642E-01
         0.13923E-01
         0.24598E-01
         0.42681E-01
         0.54747E-01
         0.54625E-01
        -0.34534E-02
         0.75197E-03
        -0.13393E-02
        -0.38495E-02
         0.76536E-02
         0.65443E-02
         0.21924E-02
        -0.40163E-02
        -0.19792E-02
        -0.39437E-02
        -0.48768E-03
         0.31143E-02
         0.98928E-02
        -0.71286E-02
        -0.76754E-02
         0.67267E-02
         0.38226E-02
        -0.20667E-02
        -0.14589E-02
        -0.25020E-02
        -0.15341E-01
        -0.14616E-01
        -0.14453E-01
        -0.35006E-02
         0.20870E-02
         0.13929E-02
        -0.72720E-02
         0.61793E-03
        -0.27680E-02
        -0.33540E-02
         0.52037E-02
         0.32620E-02
        -0.29879E-02
        -0.28409E-02
         0.14059E-01
         0.76231E-02
         0.87612E-02
        -0.88752E-02
        -0.17223E-02
        -0.44473E-02
        -0.15554E-01
        -0.16000E-01
        -0.15498E-01
        -0.11154E-01
        -0.85404E-02
        -0.49857E-02
         0.54102E-02
         0.64597E-02
        -0.70777E-03
         0.97051E-03
         0.10353E-01
         0.89574E-02
         0.57717E-01
         0.58265E-01
         0.52472E-01
         0.43361E-01
         0.32154E-01
         0.14808E-01
        -0.37812E-02
        -0.12131E-01
        -0.15531E-01
        -0.28718E-01
        -0.51258E-01
        -0.60720E-01
        -0.50829E-01
        -0.48359E-01
        -0.53475E-01
        -0.55218E-01
        -0.50323E-01
        -0.47561E-01
        -0.24012E-01
         0.63213E-02
         0.13673E-01
         0.13957E-01
         0.24651E-01
         0.42778E-01
         0.54875E-01
         0.54754E-01
        -0.51315E-02
         0.11247E-02
        -0.19860E-02
        -0.57300E-02
         0.10938E-01
         0.94432E-02
         0.32694E-02
        -0.59258E-02
        -0.29318E-02
        -0.58089E-02
        -0.70251E-03
         0.43725E-02
         0.14100E-01
        -0.10359E-01
        -0.10825E-01
         0.10004E-01
         0.56693E-02
        -0.30706E-02
        -0.21388E-02
        -0.36757E-02
        -0.21854E-01
        -0.21087E-01
        -0.20649E-01
        -0.51735E-02
         0.31050E-02
         0.20772E-02
        -0.10661E-01
         0.90272E-03
        -0.41414E-02
        -0.49828E-02
         0.77427E-02
         0.48377E-02
        -0.44368E-02
        -0.42284E-02
         0.19722E-01
         0.10992E-01
         0.12639E-01
        -0.12813E-01
        -0.25303E-02
        -0.65391E-02
        -0.22532E-01
        -0.23352E-01
        -0.22606E-01
        -0.16051E-01
        -0.12247E-01
        -0.69433E-02
         0.77314E-02
         0.93569E-02
        -0.10233E-02
         0.14041E-02
         0.14624E-01
         0.12885E-01
         0.71702E-01
         0.72268E-01
         0.65110E-01
         0.53968E-01
         0.39981E-01
         0.18450E-01
        -0.47720E-02
        -0.15419E-01
        -0.19690E-01
        -0.36202E-01
        -0.64712E-01
        -0.76544E-01
        -0.64805E-01
        -0.61860E-01
        -0.67533E-01
        -0.68942E-01
        -0.62637E-01
        -0.58858E-01
        -0.29681E-01
         0.78298E-02
         0.17101E-01
         0.17536E-01
         0.30856E-01
         0.53735E-01
         0.68722E-01
         0.68325E-01
  
SCALARS                      strain_xy  double 1
LOOKUP_TABLE default
        -0.55470E-06
        -0.12789E-05
        -0.11091E-04
         0.39944E-06
        -0.12795E-19
         0.12504E-20
         0.18800E-19
         0.28638E-20
        -0.11561E-03
         0.51108E-04
         0.83683E-19
         0.66360E-19
         0.42135E-05
        -0.87336E-06
         0.73863E-20
        -0.22184E-20
         0.12801E-05
         0.21153E-04
         0.36772E-21
         0.56036E-20
        -0.15743E-04
        -0.98121E-04
        -0.99288E-04
         0.56979E-19
         0.45376E-19
        -0.66263E-19
        -0.10223E-04
        -0.83136E-04
         0.76721E-19
         0.11807E-18
        -0.34200E-05
         0.64752E-05
         0.54941E-06
        -0.40495E-20
         0.15975E-19
        -0.20432E-21
        -0.29771E-04
        -0.13421E-04
         0.42754E-19
         0.35417E-19
        -0.57661E-04
        -0.50795E-04
         0.72884E-19
         0.49119E-19
        -0.57015E-04
        -0.10554E-04
        -0.26551E-20
         0.19767E-19
         0.14279E-04
         0.58419E-20
        -0.35901E-05
        -0.13171E-21
         0.85096E-06
         0.44156E-19
         0.41779E-05
         0.67946E-20
         0.59623E-04
        -0.29901E-05
         0.15791E-21
        -0.77468E-21
         0.44266E-06
        -0.44181E-04
         0.43031E-20
         0.11038E-19
         0.19251E-05
        -0.87369E-21
         0.27393E-04
         0.70009E-20
        -0.14238E-03
        -0.51534E-04
         0.54076E-20
        -0.51784E-19
        -0.11513E-03
        -0.82797E-19
         0.43197E-04
         0.55456E-19
         0.13575E-03
         0.82621E-20
         0.23765E-03
         0.10744E-19
         0.46737E-03
         0.25819E-03
         0.25259E-19
        -0.64048E-20
         0.32743E-04
        -0.77073E-21
        -0.10800E-03
        -0.69513E-19
        -0.15734E-03
        -0.77617E-19
        -0.34313E-03
        -0.15568E-03
        -0.49133E-19
         0.54537E-19
         0.25179E-04
         0.49658E-19
         0.62276E-04
         0.21331E-19
         0.14496E-03
         0.56638E-19
         0.35610E-03
         0.20388E-03
         0.12145E-18
         0.60722E-19
        -0.57247E-03
         0.24246E-03
        -0.78904E-19
         0.96629E-19
        -0.13910E-02
        -0.22425E-18
        -0.18369E-02
        -0.24513E-18
        -0.15943E-02
        -0.16637E-18
        -0.13213E-02
        -0.17647E-19
        -0.56088E-03
         0.49739E-19
         0.72554E-03
         0.30796E-19
         0.16273E-02
         0.28153E-19
         0.21528E-02
         0.60403E-19
         0.21535E-02
         0.73441E-19
         0.18292E-02
         0.28934E-19
         0.10103E-02
         0.17640E-19
        -0.70566E-04
         0.28833E-19
        -0.87351E-03
         0.19327E-19
        -0.14256E-02
        -0.68924E-19
        -0.19449E-02
        -0.18085E-18
        -0.16915E-02
        -0.22951E-18
        -0.10628E-02
        -0.14204E-18
        -0.11551E-03
         0.27100E-19
         0.78972E-03
         0.57437E-19
         0.11491E-02
         0.91535E-19
         0.13915E-02
         0.18025E-18
         0.12476E-02
         0.23390E-18
         0.11703E-02
         0.16618E-18
         0.97635E-03
         0.13142E-18
        -0.60129E-05
         0.16476E-05
         0.16835E-05
        -0.10289E-05
         0.13689E-04
         0.11039E-04
         0.17997E-06
        -0.40142E-05
        -0.17264E-05
        -0.45904E-05
        -0.13626E-05
        -0.25274E-04
        -0.35713E-04
         0.13236E-05
         0.20441E-04
        -0.25896E-05
         0.19336E-05
         0.57016E-06
         0.11973E-05
        -0.96795E-06
         0.49002E-05
         0.42791E-05
        -0.13113E-04
         0.34253E-06
         0.29160E-05
         0.32146E-06
         0.54345E-07
         0.10639E-06
         0.13360E-05
        -0.43579E-05
        -0.22615E-05
         0.49199E-06
         0.77510E-06
        -0.61929E-07
        -0.33823E-05
        -0.11524E-04
        -0.23235E-04
         0.35440E-04
         0.18462E-04
         0.33771E-04
         0.65996E-04
         0.14963E-04
        -0.11823E-04
        -0.23910E-04
        -0.28663E-04
        -0.37319E-04
         0.45262E-05
         0.13312E-04
         0.41125E-05
         0.14048E-04
         0.44629E-04
         0.16862E-04
        -0.15771E-03
         0.19645E-03
        -0.47683E-03
        -0.55883E-03
        -0.53120E-03
        -0.32395E-03
         0.19460E-04
         0.21178E-03
         0.30667E-03
         0.49814E-03
         0.52595E-03
         0.27579E-03
         0.11018E-03
         0.46423E-04
        -0.74737E-04
        -0.29428E-03
        -0.49161E-03
        -0.56589E-03
        -0.35424E-03
         0.63930E-04
         0.22968E-03
         0.24195E-03
         0.38168E-03
         0.42671E-03
         0.32014E-03
         0.29434E-03
        -0.16267E-04
         0.21061E-05
        -0.37103E-05
        -0.25624E-05
         0.28782E-04
         0.11062E-04
         0.25557E-05
        -0.19505E-04
        -0.58770E-05
        -0.17440E-04
         0.18627E-05
        -0.29414E-04
        -0.57325E-04
         0.63172E-05
         0.75728E-04
        -0.12120E-04
         0.20447E-05
         0.11692E-05
         0.35465E-05
         0.12041E-05
         0.31853E-04
         0.21553E-04
        -0.12330E-04
         0.25172E-05
         0.57790E-05
        -0.96246E-06
         0.13098E-05
        -0.32329E-06
        -0.13016E-05
        -0.96069E-05
        -0.10035E-04
        -0.17105E-05
         0.42068E-05
         0.31525E-05
         0.74059E-05
        -0.12460E-04
        -0.27288E-04
         0.63823E-04
         0.94228E-05
         0.24076E-04
         0.64982E-04
        -0.16517E-04
        -0.33255E-04
        -0.30034E-04
        -0.29783E-04
        -0.35598E-04
         0.22386E-04
         0.17477E-04
        -0.29035E-05
         0.41270E-05
         0.43833E-04
         0.28971E-05
        -0.30369E-03
         0.43778E-03
        -0.91454E-03
        -0.97480E-03
        -0.93881E-03
        -0.51890E-03
         0.12619E-03
         0.35702E-03
         0.45072E-03
         0.81748E-03
         0.91180E-03
         0.35452E-03
         0.11845E-03
         0.96554E-04
        -0.49270E-04
        -0.43046E-03
        -0.78711E-03
        -0.10363E-02
        -0.68714E-03
         0.19804E-03
         0.38460E-03
         0.36837E-03
         0.65300E-03
         0.79606E-03
         0.52933E-03
         0.49962E-03
        -0.16308E-04
         0.21143E-05
        -0.37191E-05
        -0.25830E-05
         0.28758E-04
         0.11061E-04
         0.25752E-05
        -0.19488E-04
        -0.58940E-05
        -0.17491E-04
         0.18261E-05
        -0.29483E-04
        -0.57374E-04
         0.63018E-05
         0.75784E-04
        -0.12133E-04
         0.20678E-05
         0.11642E-05
         0.35471E-05
         0.11953E-05
         0.31929E-04
         0.21572E-04
        -0.12332E-04
         0.25161E-05
         0.58183E-05
        -0.96231E-06
         0.13256E-05
        -0.31899E-06
        -0.13021E-05
        -0.96334E-05
        -0.10051E-04
        -0.17065E-05
         0.41986E-05
         0.31590E-05
         0.73401E-05
        -0.12462E-04
        -0.27278E-04
         0.64024E-04
         0.95336E-05
         0.24180E-04
         0.65073E-04
        -0.16482E-04
        -0.33291E-04
        -0.30045E-04
        -0.29773E-04
        -0.35580E-04
         0.22384E-04
         0.17472E-04
        -0.28784E-05
         0.41074E-05
         0.43786E-04
         0.28490E-05
        -0.30330E-03
         0.43769E-03
        -0.91463E-03
        -0.97481E-03
        -0.93841E-03
        -0.51856E-03
         0.12628E-03
         0.35714E-03
         0.45024E-03
         0.81693E-03
         0.91147E-03
         0.35469E-03
         0.11842E-03
         0.96747E-04
        -0.48874E-04
        -0.43078E-03
        -0.78760E-03
        -0.10367E-02
        -0.68694E-03
         0.19812E-03
         0.38429E-03
         0.36821E-03
         0.65235E-03
         0.79501E-03
         0.52848E-03
         0.49874E-03
        -0.16349E-04
         0.21224E-05
        -0.37280E-05
        -0.26037E-05
         0.28733E-04
         0.11060E-04
         0.25948E-05
        -0.19471E-04
        -0.59107E-05
        -0.17541E-04
         0.17895E-05
        -0.29552E-04
        -0.57423E-04
         0.62856E-05
         0.75840E-04
        -0.12147E-04
         0.20913E-05
         0.11592E-05
         0.35478E-05
         0.11865E-05
         0.32006E-04
         0.21589E-04
        -0.12336E-04
         0.25147E-05
         0.58583E-05
        -0.96204E-06
         0.13425E-05
        -0.31480E-06
        -0.13017E-05
        -0.96591E-05
        -0.10068E-04
        -0.17019E-05
         0.41902E-05
         0.31655E-05
         0.72738E-05
        -0.12465E-04
        -0.27267E-04
         0.64225E-04
         0.96448E-05
         0.24285E-04
         0.65167E-04
        -0.16443E-04
        -0.33325E-04
        -0.30061E-04
        -0.29766E-04
        -0.35563E-04
         0.22382E-04
         0.17467E-04
        -0.28530E-05
         0.40874E-05
         0.43741E-04
         0.28013E-05
        -0.30291E-03
         0.43760E-03
        -0.91472E-03
        -0.97483E-03
        -0.93801E-03
        -0.51823E-03
         0.12637E-03
         0.35725E-03
         0.44977E-03
         0.81638E-03
         0.91114E-03
         0.35487E-03
         0.11841E-03
         0.96941E-04
        -0.48477E-04
        -0.43111E-03
        -0.78812E-03
        -0.10372E-02
        -0.68673E-03
         0.19820E-03
         0.38399E-03
         0.36805E-03
         0.65170E-03
         0.79395E-03
         0.52764E-03
         0.49786E-03
        -0.16390E-04
         0.21307E-05
        -0.37367E-05
        -0.26245E-05
         0.28708E-04
         0.11059E-04
         0.26144E-05
        -0.19454E-04
        -0.59268E-05
        -0.17588E-04
         0.17530E-05
        -0.29622E-04
        -0.57474E-04
         0.62702E-05
         0.75896E-04
        -0.12162E-04
         0.21154E-05
         0.11541E-05
         0.35489E-05
         0.11771E-05
         0.32085E-04
         0.21606E-04
        -0.12347E-04
         0.25123E-05
         0.59002E-05
        -0.96153E-06
         0.13599E-05
        -0.31132E-06
        -0.12989E-05
        -0.96826E-05
        -0.10085E-04
        -0.16959E-05
         0.41815E-05
         0.31721E-05
         0.72076E-05
        -0.12468E-04
        -0.27257E-04
         0.64426E-04
         0.97566E-05
         0.24391E-04
         0.65270E-04
        -0.16390E-04
        -0.33356E-04
        -0.30088E-04
        -0.29763E-04
        -0.35546E-04
         0.22383E-04
         0.17462E-04
        -0.28275E-05
         0.40674E-05
         0.43692E-04
         0.27537E-05
        -0.30253E-03
         0.43751E-03
        -0.91481E-03
        -0.97484E-03
        -0.93761E-03
        -0.51790E-03
         0.12646E-03
         0.35736E-03
         0.44929E-03
         0.81583E-03
         0.91083E-03
         0.35509E-03
         0.11840E-03
         0.97132E-04
        -0.48077E-04
        -0.43148E-03
        -0.78870E-03
        -0.10377E-02
        -0.68653E-03
         0.19828E-03
         0.38368E-03
         0.36789E-03
         0.65106E-03
         0.79290E-03
         0.52680E-03
         0.49699E-03
        -0.16431E-04
         0.21391E-05
        -0.37456E-05
        -0.26453E-05
         0.28683E-04
         0.11057E-04
         0.26341E-05
        -0.19436E-04
        -0.59420E-05
        -0.17631E-04
         0.17163E-05
        -0.29691E-04
        -0.57523E-04
         0.62550E-05
         0.75952E-04
        -0.12178E-04
         0.21401E-05
         0.11490E-05
         0.35497E-05
         0.11674E-05
         0.32167E-04
         0.21621E-04
        -0.12364E-04
         0.25090E-05
         0.59439E-05
        -0.96064E-06
         0.13791E-05
        -0.30846E-06
        -0.12935E-05
        -0.97038E-05
        -0.10102E-04
        -0.16883E-05
         0.41728E-05
         0.31787E-05
         0.71410E-05
        -0.12470E-04
        -0.27247E-04
         0.64629E-04
         0.98687E-05
         0.24501E-04
         0.65383E-04
        -0.16325E-04
        -0.33383E-04
        -0.30126E-04
        -0.29766E-04
        -0.35530E-04
         0.22385E-04
         0.17459E-04
        -0.28023E-05
         0.40476E-05
         0.43647E-04
         0.27060E-05
        -0.30214E-03
         0.43742E-03
        -0.91489E-03
        -0.97485E-03
        -0.93720E-03
        -0.51757E-03
         0.12655E-03
         0.35748E-03
         0.44882E-03
         0.81528E-03
         0.91053E-03
         0.35535E-03
         0.11841E-03
         0.97320E-04
        -0.47677E-04
        -0.43188E-03
        -0.78936E-03
        -0.10382E-02
        -0.68633E-03
         0.19835E-03
         0.38337E-03
         0.36773E-03
         0.65042E-03
         0.79185E-03
         0.52596E-03
         0.49611E-03
        -0.16470E-04
         0.21480E-05
        -0.37535E-05
        -0.26663E-05
         0.28659E-04
         0.11056E-04
         0.26534E-05
        -0.19415E-04
        -0.59572E-05
        -0.17671E-04
         0.16797E-05
        -0.29761E-04
        -0.57573E-04
         0.62405E-05
         0.76007E-04
        -0.12195E-04
         0.21653E-05
         0.11440E-05
         0.35504E-05
         0.11577E-05
         0.32249E-04
         0.21636E-04
        -0.12384E-04
         0.25053E-05
         0.59872E-05
        -0.95958E-06
         0.13998E-05
        -0.30584E-06
        -0.12869E-05
        -0.97251E-05
        -0.10119E-04
        -0.16798E-05
         0.41639E-05
         0.31853E-05
         0.70739E-05
        -0.12474E-04
        -0.27239E-04
         0.64832E-04
         0.99816E-05
         0.24612E-04
         0.65499E-04
        -0.16255E-04
        -0.33407E-04
        -0.30169E-04
        -0.29774E-04
        -0.35518E-04
         0.22388E-04
         0.17458E-04
        -0.27767E-05
         0.40291E-05
         0.43602E-04
         0.26586E-05
        -0.30175E-03
         0.43733E-03
        -0.91497E-03
        -0.97486E-03
        -0.93680E-03
        -0.51723E-03
         0.12664E-03
         0.35759E-03
         0.44835E-03
         0.81472E-03
         0.91025E-03
         0.35563E-03
         0.11842E-03
         0.97508E-04
        -0.47277E-04
        -0.43229E-03
        -0.79004E-03
        -0.10387E-02
        -0.68613E-03
         0.19842E-03
         0.38306E-03
         0.36758E-03
         0.64977E-03
         0.79080E-03
         0.52512E-03
         0.49523E-03
        -0.16506E-04
         0.21583E-05
        -0.37601E-05
        -0.26877E-05
         0.28635E-04
         0.11055E-04
         0.26724E-05
        -0.19391E-04
        -0.59728E-05
        -0.17710E-04
         0.16432E-05
        -0.29832E-04
        -0.57628E-04
         0.62297E-05
         0.76062E-04
        -0.12212E-04
         0.21910E-05
         0.11389E-05
         0.35515E-05
         0.11480E-05
         0.32332E-04
         0.21651E-04
        -0.12404E-04
         0.25018E-05
         0.60277E-05
        -0.95818E-06
         0.14242E-05
        -0.30315E-06
        -0.12800E-05
        -0.97470E-05
        -0.10134E-04
        -0.16703E-05
         0.41549E-05
         0.31919E-05
         0.70066E-05
        -0.12479E-04
        -0.27232E-04
         0.65037E-04
         0.10096E-04
         0.24724E-04
         0.65618E-04
        -0.16183E-04
        -0.33432E-04
        -0.30211E-04
        -0.29783E-04
        -0.35509E-04
         0.22392E-04
         0.17461E-04
        -0.27498E-05
         0.40138E-05
         0.43560E-04
         0.26107E-05
        -0.30136E-03
         0.43725E-03
        -0.91505E-03
        -0.97488E-03
        -0.93639E-03
        -0.51690E-03
         0.12672E-03
         0.35770E-03
         0.44788E-03
         0.81417E-03
         0.90995E-03
         0.35591E-03
         0.11843E-03
         0.97698E-04
        -0.46877E-04
        -0.43271E-03
        -0.79073E-03
        -0.10392E-02
        -0.68592E-03
         0.19848E-03
         0.38275E-03
         0.36743E-03
         0.64914E-03
         0.78976E-03
         0.52429E-03
         0.49435E-03
        -0.16540E-04
         0.21691E-05
        -0.37660E-05
        -0.27094E-05
         0.28612E-04
         0.11053E-04
         0.26912E-05
        -0.19364E-04
        -0.59888E-05
        -0.17748E-04
         0.16065E-05
        -0.29902E-04
        -0.57683E-04
         0.62196E-05
         0.76117E-04
        -0.12230E-04
         0.22168E-05
         0.11338E-05
         0.35524E-05
         0.11385E-05
         0.32414E-04
         0.21666E-04
        -0.12423E-04
         0.24984E-05
         0.60671E-05
        -0.95665E-06
         0.14495E-05
        -0.30038E-06
        -0.12728E-05
        -0.97694E-05
        -0.10149E-04
        -0.16602E-05
         0.41457E-05
         0.31985E-05
         0.69388E-05
        -0.12486E-04
        -0.27228E-04
         0.65242E-04
         0.10211E-04
         0.24837E-04
         0.65738E-04
        -0.16111E-04
        -0.33456E-04
        -0.30255E-04
        -0.29795E-04
        -0.35504E-04
         0.22396E-04
         0.17465E-04
        -0.27225E-05
         0.40000E-05
         0.43519E-04
         0.25631E-05
        -0.30097E-03
         0.43716E-03
        -0.91513E-03
        -0.97489E-03
        -0.93599E-03
        -0.51657E-03
         0.12681E-03
         0.35781E-03
         0.44741E-03
         0.81362E-03
         0.90965E-03
         0.35618E-03
         0.11844E-03
         0.97890E-04
        -0.46476E-04
        -0.43312E-03
        -0.79141E-03
        -0.10397E-02
        -0.68569E-03
         0.19853E-03
         0.38243E-03
         0.36728E-03
         0.64851E-03
         0.78871E-03
         0.52345E-03
         0.49348E-03
        -0.16575E-04
         0.21799E-05
        -0.37718E-05
        -0.27311E-05
         0.28589E-04
         0.11052E-04
         0.27099E-05
        -0.19337E-04
        -0.60049E-05
        -0.17786E-04
         0.15699E-05
        -0.29972E-04
        -0.57738E-04
         0.62104E-05
         0.76173E-04
        -0.12247E-04
         0.22429E-05
         0.11287E-05
         0.35532E-05
         0.11289E-05
         0.32497E-04
         0.21682E-04
        -0.12443E-04
         0.24951E-05
         0.61064E-05
        -0.95511E-06
         0.14755E-05
        -0.29745E-06
        -0.12655E-05
        -0.97917E-05
        -0.10164E-04
        -0.16503E-05
         0.41365E-05
         0.32050E-05
         0.68705E-05
        -0.12491E-04
        -0.27223E-04
         0.65449E-04
         0.10326E-04
         0.24949E-04
         0.65857E-04
        -0.16039E-04
        -0.33481E-04
        -0.30300E-04
        -0.29807E-04
        -0.35499E-04
         0.22400E-04
         0.17469E-04
        -0.26952E-05
         0.39867E-05
         0.43480E-04
         0.25154E-05
        -0.30059E-03
         0.43707E-03
        -0.91520E-03
        -0.97490E-03
        -0.93559E-03
        -0.51623E-03
         0.12689E-03
         0.35791E-03
         0.44694E-03
         0.81306E-03
         0.90936E-03
         0.35646E-03
         0.11846E-03
         0.98085E-04
        -0.46075E-04
        -0.43353E-03
        -0.79209E-03
        -0.10402E-02
        -0.68547E-03
         0.19858E-03
         0.38211E-03
         0.36713E-03
         0.64787E-03
         0.78767E-03
         0.52262E-03
         0.49260E-03
        -0.16609E-04
         0.21909E-05
        -0.37776E-05
        -0.27527E-05
         0.28566E-04
         0.11050E-04
         0.27287E-05
        -0.19310E-04
        -0.60210E-05
        -0.17824E-04
         0.15333E-05
        -0.30043E-04
        -0.57795E-04
         0.62003E-05
         0.76229E-04
        -0.12265E-04
         0.22691E-05
         0.11237E-05
         0.35540E-05
         0.11193E-05
         0.32579E-04
         0.21697E-04
        -0.12461E-04
         0.24918E-05
         0.61459E-05
        -0.95356E-06
         0.15008E-05
        -0.29439E-06
        -0.12579E-05
        -0.98140E-05
        -0.10178E-04
        -0.16403E-05
         0.41270E-05
         0.32117E-05
         0.68022E-05
        -0.12497E-04
        -0.27218E-04
         0.65655E-04
         0.10442E-04
         0.25063E-04
         0.65976E-04
        -0.15968E-04
        -0.33505E-04
        -0.30344E-04
        -0.29819E-04
        -0.35492E-04
         0.22405E-04
         0.17475E-04
        -0.26681E-05
         0.39726E-05
         0.43439E-04
         0.24680E-05
        -0.30020E-03
         0.43698E-03
        -0.91526E-03
        -0.97490E-03
        -0.93518E-03
        -0.51589E-03
         0.12698E-03
         0.35802E-03
         0.44647E-03
         0.81251E-03
         0.90906E-03
         0.35673E-03
         0.11847E-03
         0.98279E-04
        -0.45676E-04
        -0.43395E-03
        -0.79277E-03
        -0.10407E-02
        -0.68526E-03
         0.19863E-03
         0.38179E-03
         0.36698E-03
         0.64724E-03
         0.78662E-03
         0.52179E-03
         0.49173E-03
        -0.16643E-04
         0.22018E-05
        -0.37836E-05
        -0.27743E-05
         0.28543E-04
         0.11049E-04
         0.27475E-05
        -0.19282E-04
        -0.60371E-05
        -0.17862E-04
         0.14965E-05
        -0.30114E-04
        -0.57850E-04
         0.61908E-05
         0.76284E-04
        -0.12282E-04
         0.22955E-05
         0.11186E-05
         0.35551E-05
         0.11096E-05
         0.32661E-04
         0.21712E-04
        -0.12481E-04
         0.24886E-05
         0.61852E-05
        -0.95198E-06
         0.15266E-05
        -0.29116E-06
        -0.12502E-05
        -0.98361E-05
        -0.10193E-04
        -0.16303E-05
         0.41176E-05
         0.32183E-05
         0.67336E-05
        -0.12502E-04
        -0.27214E-04
         0.65862E-04
         0.10559E-04
         0.25175E-04
         0.66095E-04
        -0.15896E-04
        -0.33530E-04
        -0.30387E-04
        -0.29830E-04
        -0.35487E-04
         0.22409E-04
         0.17479E-04
        -0.26409E-05
         0.39588E-05
         0.43400E-04
         0.24206E-05
        -0.29981E-03
         0.43689E-03
        -0.91533E-03
        -0.97491E-03
        -0.93478E-03
        -0.51556E-03
         0.12706E-03
         0.35813E-03
         0.44600E-03
         0.81195E-03
         0.90876E-03
         0.35700E-03
         0.11849E-03
         0.98470E-04
        -0.45275E-04
        -0.43437E-03
        -0.79345E-03
        -0.10411E-02
        -0.68504E-03
         0.19867E-03
         0.38147E-03
         0.36682E-03
         0.64660E-03
         0.78558E-03
         0.52097E-03
         0.49085E-03
        -0.16677E-04
         0.22126E-05
        -0.37893E-05
        -0.27962E-05
         0.28520E-04
         0.11047E-04
         0.27663E-05
        -0.19255E-04
        -0.60532E-05
        -0.17899E-04
         0.14598E-05
        -0.30185E-04
        -0.57905E-04
         0.61812E-05
         0.76338E-04
        -0.12300E-04
         0.23220E-05
         0.11135E-05
         0.35560E-05
         0.11000E-05
         0.32743E-04
         0.21726E-04
        -0.12501E-04
         0.24854E-05
         0.62245E-05
        -0.95047E-06
         0.15518E-05
        -0.28780E-06
        -0.12421E-05
        -0.98587E-05
        -0.10207E-04
        -0.16204E-05
         0.41079E-05
         0.32250E-05
         0.66645E-05
        -0.12508E-04
        -0.27209E-04
         0.66069E-04
         0.10676E-04
         0.25289E-04
         0.66215E-04
        -0.15825E-04
        -0.33554E-04
        -0.30431E-04
        -0.29842E-04
        -0.35483E-04
         0.22413E-04
         0.17484E-04
        -0.26136E-05
         0.39455E-05
         0.43359E-04
         0.23733E-05
        -0.29942E-03
         0.43680E-03
        -0.91540E-03
        -0.97492E-03
        -0.93438E-03
        -0.51523E-03
         0.12714E-03
         0.35823E-03
         0.44553E-03
         0.81139E-03
         0.90846E-03
         0.35728E-03
         0.11850E-03
         0.98662E-04
        -0.44872E-04
        -0.43478E-03
        -0.79414E-03
        -0.10416E-02
        -0.68482E-03
         0.19872E-03
         0.38115E-03
         0.36667E-03
         0.64597E-03
         0.78454E-03
         0.52014E-03
         0.48998E-03
        -0.16712E-04
         0.22236E-05
        -0.37950E-05
        -0.28180E-05
         0.28496E-04
         0.11046E-04
         0.27851E-05
        -0.19227E-04
        -0.60692E-05
        -0.17936E-04
         0.14231E-05
        -0.30255E-04
        -0.57962E-04
         0.61708E-05
         0.76392E-04
        -0.12318E-04
         0.23486E-05
         0.11084E-05
         0.35570E-05
         0.10905E-05
         0.32826E-04
         0.21741E-04
        -0.12520E-04
         0.24822E-05
         0.62638E-05
        -0.94885E-06
         0.15777E-05
        -0.28428E-06
        -0.12340E-05
        -0.98808E-05
        -0.10222E-04
        -0.16103E-05
         0.40981E-05
         0.32315E-05
         0.65953E-05
        -0.12515E-04
        -0.27205E-04
         0.66276E-04
         0.10794E-04
         0.25402E-04
         0.66336E-04
        -0.15753E-04
        -0.33578E-04
        -0.30475E-04
        -0.29855E-04
        -0.35475E-04
         0.22418E-04
         0.17489E-04
        -0.25863E-05
         0.39318E-05
         0.43318E-04
         0.23263E-05
        -0.29903E-03
         0.43671E-03
        -0.91546E-03
        -0.97493E-03
        -0.93398E-03
        -0.51489E-03
         0.12722E-03
         0.35833E-03
         0.44506E-03
         0.81082E-03
         0.90816E-03
         0.35755E-03
         0.11851E-03
         0.98855E-04
        -0.44470E-04
        -0.43519E-03
        -0.79482E-03
        -0.10421E-02
        -0.68460E-03
         0.19877E-03
         0.38083E-03
         0.36653E-03
         0.64534E-03
         0.78350E-03
         0.51932E-03
         0.48911E-03
        -0.16746E-04
         0.22344E-05
        -0.38007E-05
        -0.28399E-05
         0.28474E-04
         0.11044E-04
         0.28039E-05
        -0.19199E-04
        -0.60853E-05
        -0.17972E-04
         0.13865E-05
        -0.30325E-04
        -0.58017E-04
         0.61612E-05
         0.76446E-04
        -0.12335E-04
         0.23754E-05
         0.11034E-05
         0.35582E-05
         0.10811E-05
         0.32908E-04
         0.21756E-04
        -0.12540E-04
         0.24791E-05
         0.63031E-05
        -0.94721E-06
         0.16030E-05
        -0.28064E-06
        -0.12257E-05
        -0.99029E-05
        -0.10236E-04
        -0.16003E-05
         0.40883E-05
         0.32382E-05
         0.65257E-05
        -0.12520E-04
        -0.27199E-04
         0.66483E-04
         0.10913E-04
         0.25517E-04
         0.66455E-04
        -0.15681E-04
        -0.33602E-04
        -0.30519E-04
        -0.29866E-04
        -0.35470E-04
         0.22423E-04
         0.17493E-04
        -0.25591E-05
         0.39181E-05
         0.43279E-04
         0.22797E-05
        -0.29864E-03
         0.43662E-03
        -0.91553E-03
        -0.97493E-03
        -0.93358E-03
        -0.51455E-03
         0.12730E-03
         0.35843E-03
         0.44459E-03
         0.81026E-03
         0.90787E-03
         0.35782E-03
         0.11853E-03
         0.99048E-04
        -0.44070E-04
        -0.43561E-03
        -0.79551E-03
        -0.10426E-02
        -0.68438E-03
         0.19881E-03
         0.38052E-03
         0.36638E-03
         0.64470E-03
         0.78246E-03
         0.51850E-03
         0.48824E-03
        -0.16781E-04
         0.22451E-05
        -0.38064E-05
        -0.28618E-05
         0.28451E-04
         0.11043E-04
         0.28228E-05
        -0.19171E-04
        -0.61014E-05
        -0.18009E-04
         0.13497E-05
        -0.30397E-04
        -0.58072E-04
         0.61507E-05
         0.76500E-04
        -0.12353E-04
         0.24023E-05
         0.10984E-05
         0.35591E-05
         0.10715E-05
         0.32990E-04
         0.21770E-04
        -0.12559E-04
         0.24760E-05
         0.63425E-05
        -0.94557E-06
         0.16287E-05
        -0.27682E-06
        -0.12172E-05
        -0.99250E-05
        -0.10251E-04
        -0.15902E-05
         0.40783E-05
         0.32448E-05
         0.64560E-05
        -0.12527E-04
        -0.27195E-04
         0.66691E-04
         0.11031E-04
         0.25631E-04
         0.66575E-04
        -0.15609E-04
        -0.33627E-04
        -0.30562E-04
        -0.29878E-04
        -0.35466E-04
         0.22427E-04
         0.17498E-04
        -0.25316E-05
         0.39046E-05
         0.43239E-04
         0.22329E-05
        -0.29825E-03
         0.43652E-03
        -0.91559E-03
        -0.97494E-03
        -0.93318E-03
        -0.51422E-03
         0.12738E-03
         0.35853E-03
         0.44412E-03
         0.80970E-03
         0.90757E-03
         0.35809E-03
         0.11854E-03
         0.99241E-04
        -0.43669E-04
        -0.43602E-03
        -0.79620E-03
        -0.10431E-02
        -0.68417E-03
         0.19886E-03
         0.38020E-03
         0.36623E-03
         0.64407E-03
         0.78142E-03
         0.51769E-03
         0.48737E-03
        -0.16815E-04
         0.22560E-05
        -0.38122E-05
        -0.28836E-05
         0.28427E-04
         0.11041E-04
         0.28415E-05
        -0.19142E-04
        -0.61176E-05
        -0.18045E-04
         0.13129E-05
        -0.30468E-04
        -0.58129E-04
         0.61408E-05
         0.76552E-04
        -0.12370E-04
         0.24295E-05
         0.10934E-05
         0.35600E-05
         0.10621E-05
         0.33073E-04
         0.21784E-04
        -0.12578E-04
         0.24729E-05
         0.63817E-05
        -0.94391E-06
         0.16537E-05
        -0.27286E-06
        -0.12086E-05
        -0.99470E-05
        -0.10265E-04
        -0.15802E-05
         0.40682E-05
         0.32516E-05
         0.63858E-05
        -0.12532E-04
        -0.27190E-04
         0.66898E-04
         0.11151E-04
         0.25744E-04
         0.66694E-04
        -0.15537E-04
        -0.33651E-04
        -0.30604E-04
        -0.29890E-04
        -0.35459E-04
         0.22431E-04
         0.17503E-04
        -0.25045E-05
         0.38909E-05
         0.43198E-04
         0.21863E-05
        -0.29785E-03
         0.43643E-03
        -0.91565E-03
        -0.97495E-03
        -0.93277E-03
        -0.51388E-03
         0.12745E-03
         0.35862E-03
         0.44365E-03
         0.80913E-03
         0.90728E-03
         0.35837E-03
         0.11855E-03
         0.99430E-04
        -0.43267E-04
        -0.43643E-03
        -0.79688E-03
        -0.10436E-02
        -0.68395E-03
         0.19890E-03
         0.37988E-03
         0.36608E-03
         0.64343E-03
         0.78038E-03
         0.51687E-03
         0.48650E-03
        -0.16849E-04
         0.22668E-05
        -0.38180E-05
        -0.29055E-05
         0.28405E-04
         0.11040E-04
         0.28605E-05
        -0.19114E-04
        -0.61336E-05
        -0.18081E-04
         0.12760E-05
        -0.30539E-04
        -0.58184E-04
         0.61300E-05
         0.76605E-04
        -0.12388E-04
         0.24569E-05
         0.10884E-05
         0.35611E-05
         0.10527E-05
         0.33155E-04
         0.21797E-04
        -0.12597E-04
         0.24699E-05
         0.64207E-05
        -0.94220E-06
         0.16794E-05
        -0.26870E-06
        -0.11996E-05
        -0.99687E-05
        -0.10280E-04
        -0.15702E-05
         0.40581E-05
         0.32584E-05
         0.63153E-05
        -0.12538E-04
        -0.27185E-04
         0.67106E-04
         0.11273E-04
         0.25859E-04
         0.66812E-04
        -0.15466E-04
        -0.33676E-04
        -0.30649E-04
        -0.29902E-04
        -0.35454E-04
         0.22436E-04
         0.17508E-04
        -0.24774E-05
         0.38772E-05
         0.43158E-04
         0.21401E-05
        -0.29746E-03
         0.43634E-03
        -0.91572E-03
        -0.97496E-03
        -0.93237E-03
        -0.51354E-03
         0.12753E-03
         0.35872E-03
         0.44319E-03
         0.80856E-03
         0.90699E-03
         0.35865E-03
         0.11856E-03
         0.99619E-04
        -0.42867E-04
        -0.43684E-03
        -0.79757E-03
        -0.10441E-02
        -0.68373E-03
         0.19895E-03
         0.37956E-03
         0.36593E-03
         0.64280E-03
         0.77935E-03
         0.51606E-03
         0.48563E-03
        -0.16884E-04
         0.22776E-05
        -0.38236E-05
        -0.29275E-05
         0.28382E-04
         0.11038E-04
         0.28793E-05
        -0.19084E-04
        -0.61493E-05
        -0.18114E-04
         0.12392E-05
        -0.30610E-04
        -0.58239E-04
         0.61198E-05
         0.76656E-04
        -0.12405E-04
         0.24846E-05
         0.10833E-05
         0.35626E-05
         0.10438E-05
         0.33237E-04
         0.21810E-04
        -0.12617E-04
         0.24667E-05
         0.64588E-05
        -0.94060E-06
         0.17047E-05
        -0.26423E-06
        -0.11906E-05
        -0.99901E-05
        -0.10294E-04
        -0.15600E-05
         0.40477E-05
         0.32651E-05
         0.62447E-05
        -0.12545E-04
        -0.27181E-04
         0.67313E-04
         0.11397E-04
         0.25970E-04
         0.66926E-04
        -0.15392E-04
        -0.33700E-04
        -0.30692E-04
        -0.29914E-04
        -0.35448E-04
         0.22440E-04
         0.17513E-04
        -0.24505E-05
         0.38636E-05
         0.43120E-04
         0.20940E-05
        -0.29707E-03
         0.43625E-03
        -0.91577E-03
        -0.97496E-03
        -0.93197E-03
        -0.51321E-03
         0.12760E-03
         0.35881E-03
         0.44273E-03
         0.80797E-03
         0.90671E-03
         0.35894E-03
         0.11856E-03
         0.99809E-04
        -0.42467E-04
        -0.43725E-03
        -0.79825E-03
        -0.10446E-02
        -0.68351E-03
         0.19899E-03
         0.37924E-03
         0.36578E-03
         0.64216E-03
         0.77831E-03
         0.51525E-03
         0.48476E-03
        -0.16918E-04
         0.22884E-05
        -0.38292E-05
        -0.29495E-05
         0.28358E-04
         0.11036E-04
         0.28981E-05
        -0.19055E-04
        -0.61647E-05
        -0.18144E-04
         0.12023E-05
        -0.30681E-04
        -0.58296E-04
         0.61094E-05
         0.76706E-04
        -0.12423E-04
         0.25127E-05
         0.10783E-05
         0.35636E-05
         0.10352E-05
         0.33319E-04
         0.21822E-04
        -0.12636E-04
         0.24638E-05
         0.64959E-05
        -0.93885E-06
         0.17310E-05
        -0.25940E-06
        -0.11813E-05
        -0.10010E-04
        -0.10308E-04
        -0.15500E-05
         0.40372E-05
         0.32718E-05
         0.61735E-05
        -0.12550E-04
        -0.27176E-04
         0.67520E-04
         0.11524E-04
         0.26081E-04
         0.67036E-04
        -0.15318E-04
        -0.33724E-04
        -0.30736E-04
        -0.29927E-04
        -0.35444E-04
         0.22445E-04
         0.17518E-04
        -0.24233E-05
         0.38501E-05
         0.43078E-04
         0.20477E-05
        -0.29668E-03
         0.43615E-03
        -0.91583E-03
        -0.97497E-03
        -0.93157E-03
        -0.51287E-03
         0.12767E-03
         0.35891E-03
         0.44227E-03
         0.80735E-03
         0.90644E-03
         0.35924E-03
         0.11856E-03
         0.99999E-04
        -0.42065E-04
        -0.43766E-03
        -0.79894E-03
        -0.10451E-02
        -0.68329E-03
         0.19904E-03
         0.37893E-03
         0.36563E-03
         0.64153E-03
         0.77728E-03
         0.51445E-03
         0.48389E-03
        -0.16952E-04
         0.22992E-05
        -0.38351E-05
        -0.29715E-05
         0.28337E-04
         0.11035E-04
         0.29170E-05
        -0.19026E-04
        -0.61799E-05
        -0.18174E-04
         0.11657E-05
        -0.30751E-04
        -0.58351E-04
         0.60983E-05
         0.76755E-04
        -0.12440E-04
         0.25410E-05
         0.10733E-05
         0.35647E-05
         0.10268E-05
         0.33401E-04
         0.21835E-04
        -0.12654E-04
         0.24610E-05
         0.65326E-05
        -0.93722E-06
         0.17566E-05
        -0.25433E-06
        -0.11720E-05
        -0.10030E-04
        -0.10323E-04
        -0.15402E-05
         0.40268E-05
         0.32787E-05
         0.61030E-05
        -0.12556E-04
        -0.27171E-04
         0.67726E-04
         0.11653E-04
         0.26189E-04
         0.67142E-04
        -0.15245E-04
        -0.33749E-04
        -0.30779E-04
        -0.29938E-04
        -0.35438E-04
         0.22450E-04
         0.17523E-04
        -0.23965E-05
         0.38362E-05
         0.43040E-04
         0.20019E-05
        -0.29629E-03
         0.43606E-03
        -0.91589E-03
        -0.97498E-03
        -0.93117E-03
        -0.51253E-03
         0.12774E-03
         0.35900E-03
         0.44181E-03
         0.80672E-03
         0.90617E-03
         0.35954E-03
         0.11855E-03
         0.10019E-03
        -0.41663E-04
        -0.43807E-03
        -0.79962E-03
        -0.10456E-02
        -0.68308E-03
         0.19909E-03
         0.37861E-03
         0.36548E-03
         0.64089E-03
         0.77625E-03
         0.51365E-03
         0.48302E-03
        -0.17122E-04
         0.23266E-05
        -0.38727E-05
        -0.30164E-05
         0.28537E-04
         0.11120E-04
         0.29580E-05
        -0.19153E-04
        -0.62432E-05
        -0.18350E-04
         0.11429E-05
        -0.31043E-04
        -0.58849E-04
         0.61375E-05
         0.77421E-04
        -0.12557E-04
         0.25882E-05
         0.10771E-05
         0.35930E-05
         0.10271E-05
         0.33730E-04
         0.22014E-04
        -0.12757E-04
         0.24792E-05
         0.66196E-05
        -0.94397E-06
         0.17945E-05
        -0.25115E-06
        -0.11745E-05
        -0.10131E-04
        -0.10421E-04
        -0.15453E-05
         0.40497E-05
         0.33118E-05
         0.60864E-05
        -0.12655E-04
        -0.27371E-04
         0.68464E-04
         0.11865E-04
         0.26499E-04
         0.67774E-04
        -0.15312E-04
        -0.34047E-04
        -0.31037E-04
        -0.30167E-04
        -0.35692E-04
         0.22623E-04
         0.17660E-04
        -0.23908E-05
         0.38524E-05
         0.43336E-04
         0.19722E-05
        -0.29817E-03
         0.43939E-03
        -0.92306E-03
        -0.98248E-03
        -0.93808E-03
        -0.51626E-03
         0.12890E-03
         0.36199E-03
         0.44500E-03
         0.81284E-03
         0.91336E-03
         0.36260E-03
         0.11940E-03
         0.10109E-03
        -0.41579E-04
        -0.44153E-03
        -0.80590E-03
        -0.10538E-02
        -0.68819E-03
         0.20074E-03
         0.38122E-03
         0.36804E-03
         0.64514E-03
         0.78115E-03
         0.51674E-03
         0.48580E-03
        -0.38110E-04
         0.52349E-05
        -0.85902E-05
        -0.67711E-05
         0.58922E-04
         0.23405E-04
         0.66262E-05
        -0.42179E-04
        -0.13829E-04
        -0.40265E-04
         0.24323E-05
        -0.61898E-04
        -0.12084E-03
         0.13125E-04
         0.15603E-03
        -0.27996E-04
         0.57751E-05
         0.23964E-05
         0.77966E-05
         0.22333E-05
         0.69255E-04
         0.46312E-04
        -0.26275E-04
         0.54619E-05
         0.14819E-04
        -0.21150E-05
         0.39360E-05
        -0.55255E-06
        -0.26337E-05
        -0.22608E-04
        -0.23247E-04
        -0.34251E-05
         0.90457E-05
         0.74062E-05
         0.11949E-04
        -0.26585E-04
        -0.57528E-04
         0.14433E-03
         0.25815E-04
         0.57894E-04
         0.14390E-03
        -0.32917E-04
        -0.73265E-04
        -0.64891E-04
        -0.62648E-04
        -0.69980E-04
         0.46670E-04
         0.37356E-04
        -0.50727E-05
         0.81440E-05
         0.87371E-04
         0.40598E-05
        -0.46766E-03
         0.68753E-03
        -0.14456E-02
        -0.15470E-02
        -0.14753E-02
        -0.81614E-03
         0.20874E-03
         0.59530E-03
         0.72862E-03
         0.13160E-02
         0.14822E-02
         0.58609E-03
         0.19694E-03
         0.16799E-03
        -0.66839E-04
        -0.69840E-03
        -0.12672E-02
        -0.16398E-02
        -0.10697E-02
         0.31306E-03
         0.60598E-03
         0.59006E-03
         0.10271E-02
         0.12519E-02
         0.82285E-03
         0.76787E-03
  
SCALARS                      strain_eq  double 1
LOOKUP_TABLE default
         0.22969E+01
         0.22573E+01
         0.22825E+01
         0.23275E+01
         0.16836E-08
         0.18667E-08
         0.18137E-08
         0.16319E-08
         0.22563E+01
         0.22695E+01
         0.18360E-08
         0.17558E-08
         0.22000E+01
         0.21979E+01
         0.20087E-08
         0.19129E-08
         0.23209E+01
         0.22010E+01
         0.14985E-08
         0.16854E-08
         0.21569E+01
         0.21229E+01
         0.21773E+01
         0.20688E-08
         0.19735E-08
         0.19629E-08
         0.21241E+01
         0.20743E+01
         0.20039E-08
         0.18200E-08
         0.23187E+01
         0.22665E+01
         0.23693E+01
         0.16306E-08
         0.15313E-08
         0.14668E-08
         0.22886E+01
         0.22221E+01
         0.17778E-08
         0.16207E-08
         0.22623E+01
         0.22111E+01
         0.16536E-08
         0.14266E-08
         0.23057E+01
         0.23249E+01
         0.17856E-08
         0.18517E-08
         0.21698E+01
         0.16003E-08
         0.23211E+01
         0.18608E-08
         0.21097E+01
         0.17496E-08
         0.20940E+01
         0.16149E-08
         0.20943E+01
         0.21500E+01
         0.16365E-08
         0.16092E-08
         0.23176E+01
         0.22977E+01
         0.16512E-08
         0.18691E-08
         0.23302E+01
         0.15849E-08
         0.23064E+01
         0.17358E-08
         0.22443E+01
         0.22377E+01
         0.18567E-08
         0.18555E-08
         0.22234E+01
         0.18777E-08
         0.20566E+01
         0.15009E-08
         0.20479E+01
         0.13970E-08
         0.20525E+01
         0.14553E-08
         0.20770E+01
         0.21017E+01
         0.14076E-08
         0.14621E-08
         0.21520E+01
         0.13769E-08
         0.23048E+01
         0.18488E-08
         0.22812E+01
         0.18827E-08
         0.22620E+01
         0.22508E+01
         0.18809E-08
         0.18451E-08
         0.22638E+01
         0.16558E-08
         0.22732E+01
         0.16212E-08
         0.22649E+01
         0.17535E-08
         0.22622E+01
         0.22706E+01
         0.18027E-08
         0.17978E-08
         0.22168E+01
         0.22398E+01
         0.17141E-08
         0.16546E-08
         0.22131E+01
         0.16647E-08
         0.22396E+01
         0.16253E-08
         0.22137E+01
         0.16233E-08
         0.21571E+01
         0.15219E-08
         0.21025E+01
         0.12878E-08
         0.20696E+01
         0.10881E-08
         0.20662E+01
         0.10554E-08
         0.20671E+01
         0.11244E-08
         0.21027E+01
         0.11599E-08
         0.21702E+01
         0.10866E-08
         0.22440E+01
         0.99171E-09
         0.22866E+01
         0.10264E-08
         0.23289E+01
         0.12166E-08
         0.23569E+01
         0.14203E-08
         0.23561E+01
         0.15138E-08
         0.22871E+01
         0.16163E-08
         0.22388E+01
         0.16986E-08
         0.22233E+01
         0.15848E-08
         0.22493E+01
         0.13953E-08
         0.22624E+01
         0.13926E-08
         0.22393E+01
         0.15324E-08
         0.22391E+01
         0.16261E-08
         0.22565E+01
         0.15735E-08
         0.22790E+01
         0.15384E-08
         0.36234E+00
         0.36575E+00
         0.36529E+00
         0.36074E+00
         0.36907E+00
         0.36499E+00
         0.36984E+00
         0.36735E+00
         0.36150E+00
         0.36523E+00
         0.37246E+00
         0.37357E+00
         0.37138E+00
         0.37100E+00
         0.37270E+00
         0.36097E+00
         0.36183E+00
         0.35937E+00
         0.36611E+00
         0.36493E+00
         0.36682E+00
         0.36574E+00
         0.36773E+00
         0.36702E+00
         0.36505E+00
         0.36516E+00
         0.36852E+00
         0.36821E+00
         0.37061E+00
         0.36698E+00
         0.36140E+00
         0.36579E+00
         0.36142E+00
         0.36433E+00
         0.37407E+00
         0.37102E+00
         0.36964E+00
         0.37145E+00
         0.37158E+00
         0.37418E+00
         0.37623E+00
         0.37151E+00
         0.36681E+00
         0.36738E+00
         0.36981E+00
         0.37401E+00
         0.37036E+00
         0.36642E+00
         0.36668E+00
         0.36974E+00
         0.37287E+00
         0.36871E+00
         0.38278E+00
         0.38001E+00
         0.38078E+00
         0.38026E+00
         0.38084E+00
         0.38306E+00
         0.38454E+00
         0.38441E+00
         0.38401E+00
         0.38441E+00
         0.38488E+00
         0.38067E+00
         0.37817E+00
         0.37722E+00
         0.37634E+00
         0.37571E+00
         0.37600E+00
         0.37775E+00
         0.38209E+00
         0.38135E+00
         0.37945E+00
         0.37917E+00
         0.37951E+00
         0.38082E+00
         0.37880E+00
         0.37809E+00
         0.11961E-01
         0.71870E-02
         0.67791E-02
         0.46486E-02
         0.12422E-01
         0.85884E-02
         0.37909E-02
         0.11764E-01
         0.73692E-02
         0.11085E-01
         0.54048E-02
         0.23290E-01
         0.17685E-01
         0.88452E-02
         0.24393E-01
         0.86913E-02
         0.44031E-02
         0.28092E-02
         0.58522E-02
         0.31683E-02
         0.18315E-01
         0.17183E-01
         0.16733E-01
         0.43546E-02
         0.71537E-02
         0.22747E-02
         0.83452E-02
         0.13554E-02
         0.30564E-02
         0.77594E-02
         0.74247E-02
         0.39492E-02
         0.48091E-02
         0.41603E-02
         0.16057E-01
         0.96088E-02
         0.12438E-01
         0.19893E-01
         0.15302E-01
         0.14242E-01
         0.20228E-01
         0.18337E-01
         0.18459E-01
         0.14290E-01
         0.12761E-01
         0.17457E-01
         0.11444E-01
         0.97311E-02
         0.80245E-02
         0.94760E-02
         0.15494E-01
         0.10638E-01
         0.68035E-01
         0.69663E-01
         0.72819E-01
         0.72291E-01
         0.77063E-01
         0.82744E-01
         0.79399E-01
         0.70598E-01
         0.68798E-01
         0.73631E-01
         0.72162E-01
         0.71179E-01
         0.58838E-01
         0.55931E-01
         0.61446E-01
         0.65818E-01
         0.68303E-01
         0.74593E-01
         0.71751E-01
         0.73694E-01
         0.66354E-01
         0.63002E-01
         0.67190E-01
         0.65683E-01
         0.67591E-01
         0.67022E-01
         0.11970E-01
         0.71886E-02
         0.67830E-02
         0.46553E-02
         0.12416E-01
         0.85834E-02
         0.38024E-02
         0.11776E-01
         0.73819E-02
         0.11118E-01
         0.54047E-02
         0.23289E-01
         0.17692E-01
         0.88245E-02
         0.24418E-01
         0.86982E-02
         0.44154E-02
         0.28021E-02
         0.58556E-02
         0.31613E-02
         0.18317E-01
         0.17182E-01
         0.16732E-01
         0.43545E-02
         0.71845E-02
         0.22742E-02
         0.83480E-02
         0.13411E-02
         0.30710E-02
         0.77730E-02
         0.74318E-02
         0.39480E-02
         0.48010E-02
         0.41641E-02
         0.16064E-01
         0.96061E-02
         0.12435E-01
         0.19924E-01
         0.15336E-01
         0.14262E-01
         0.20241E-01
         0.18346E-01
         0.18461E-01
         0.14290E-01
         0.12759E-01
         0.17456E-01
         0.11444E-01
         0.97305E-02
         0.80130E-02
         0.94630E-02
         0.15485E-01
         0.10621E-01
         0.68010E-01
         0.69646E-01
         0.72819E-01
         0.72291E-01
         0.77051E-01
         0.82716E-01
         0.79366E-01
         0.70579E-01
         0.68780E-01
         0.73609E-01
         0.72150E-01
         0.71182E-01
         0.58832E-01
         0.55929E-01
         0.61453E-01
         0.65834E-01
         0.68321E-01
         0.74609E-01
         0.71746E-01
         0.73689E-01
         0.66347E-01
         0.62997E-01
         0.67167E-01
         0.65640E-01
         0.67553E-01
         0.66986E-01
         0.11979E-01
         0.71903E-02
         0.67868E-02
         0.46620E-02
         0.12410E-01
         0.85786E-02
         0.38140E-02
         0.11787E-01
         0.73947E-02
         0.11150E-01
         0.54046E-02
         0.23288E-01
         0.17699E-01
         0.88038E-02
         0.24443E-01
         0.87053E-02
         0.44280E-02
         0.27950E-02
         0.58591E-02
         0.31545E-02
         0.18318E-01
         0.17180E-01
         0.16731E-01
         0.43543E-02
         0.72150E-02
         0.22735E-02
         0.83507E-02
         0.13273E-02
         0.30855E-02
         0.77862E-02
         0.74390E-02
         0.39467E-02
         0.47928E-02
         0.41678E-02
         0.16072E-01
         0.96036E-02
         0.12432E-01
         0.19955E-01
         0.15371E-01
         0.14282E-01
         0.20255E-01
         0.18356E-01
         0.18464E-01
         0.14290E-01
         0.12757E-01
         0.17456E-01
         0.11444E-01
         0.97298E-02
         0.80017E-02
         0.94499E-02
         0.15477E-01
         0.10605E-01
         0.67986E-01
         0.69629E-01
         0.72819E-01
         0.72292E-01
         0.77038E-01
         0.82688E-01
         0.79333E-01
         0.70561E-01
         0.68763E-01
         0.73587E-01
         0.72137E-01
         0.71184E-01
         0.58827E-01
         0.55927E-01
         0.61461E-01
         0.65850E-01
         0.68339E-01
         0.74625E-01
         0.71742E-01
         0.73685E-01
         0.66340E-01
         0.62993E-01
         0.67143E-01
         0.65597E-01
         0.67515E-01
         0.66950E-01
         0.11989E-01
         0.71919E-02
         0.67907E-02
         0.46687E-02
         0.12405E-01
         0.85737E-02
         0.38256E-02
         0.11798E-01
         0.74074E-02
         0.11182E-01
         0.54046E-02
         0.23288E-01
         0.17707E-01
         0.87831E-02
         0.24468E-01
         0.87131E-02
         0.44410E-02
         0.27878E-02
         0.58629E-02
         0.31473E-02
         0.18321E-01
         0.17180E-01
         0.16732E-01
         0.43539E-02
         0.72449E-02
         0.22724E-02
         0.83530E-02
         0.13151E-02
         0.30991E-02
         0.77983E-02
         0.74466E-02
         0.39457E-02
         0.47846E-02
         0.41716E-02
         0.16079E-01
         0.96010E-02
         0.12429E-01
         0.19986E-01
         0.15406E-01
         0.14303E-01
         0.20270E-01
         0.18366E-01
         0.18467E-01
         0.14291E-01
         0.12755E-01
         0.17455E-01
         0.11445E-01
         0.97292E-02
         0.79903E-02
         0.94369E-02
         0.15468E-01
         0.10588E-01
         0.67961E-01
         0.69613E-01
         0.72818E-01
         0.72292E-01
         0.77025E-01
         0.82660E-01
         0.79300E-01
         0.70542E-01
         0.68745E-01
         0.73564E-01
         0.72125E-01
         0.71188E-01
         0.58823E-01
         0.55925E-01
         0.61469E-01
         0.65869E-01
         0.68359E-01
         0.74642E-01
         0.71739E-01
         0.73681E-01
         0.66333E-01
         0.62989E-01
         0.67121E-01
         0.65554E-01
         0.67477E-01
         0.66915E-01
         0.11997E-01
         0.71936E-02
         0.67946E-02
         0.46754E-02
         0.12399E-01
         0.85688E-02
         0.38372E-02
         0.11809E-01
         0.74200E-02
         0.11213E-01
         0.54048E-02
         0.23287E-01
         0.17714E-01
         0.87624E-02
         0.24494E-01
         0.87215E-02
         0.44545E-02
         0.27806E-02
         0.58667E-02
         0.31399E-02
         0.18323E-01
         0.17179E-01
         0.16733E-01
         0.43532E-02
         0.72741E-02
         0.22709E-02
         0.83550E-02
         0.13044E-02
         0.31119E-02
         0.78090E-02
         0.74544E-02
         0.39448E-02
         0.47764E-02
         0.41754E-02
         0.16086E-01
         0.95983E-02
         0.12426E-01
         0.20017E-01
         0.15441E-01
         0.14325E-01
         0.20285E-01
         0.18377E-01
         0.18471E-01
         0.14294E-01
         0.12755E-01
         0.17456E-01
         0.11447E-01
         0.97291E-02
         0.79792E-02
         0.94237E-02
         0.15460E-01
         0.10572E-01
         0.67936E-01
         0.69596E-01
         0.72818E-01
         0.72293E-01
         0.77013E-01
         0.82632E-01
         0.79266E-01
         0.70523E-01
         0.68728E-01
         0.73542E-01
         0.72114E-01
         0.71193E-01
         0.58820E-01
         0.55924E-01
         0.61478E-01
         0.65890E-01
         0.68382E-01
         0.74660E-01
         0.71735E-01
         0.73677E-01
         0.66326E-01
         0.62985E-01
         0.67098E-01
         0.65511E-01
         0.67439E-01
         0.66879E-01
         0.12006E-01
         0.71948E-02
         0.67983E-02
         0.46821E-02
         0.12394E-01
         0.85639E-02
         0.38485E-02
         0.11820E-01
         0.74328E-02
         0.11243E-01
         0.54054E-02
         0.23287E-01
         0.17721E-01
         0.87418E-02
         0.24519E-01
         0.87301E-02
         0.44681E-02
         0.27733E-02
         0.58705E-02
         0.31328E-02
         0.18327E-01
         0.17179E-01
         0.16734E-01
         0.43525E-02
         0.73026E-02
         0.22692E-02
         0.83569E-02
         0.12947E-02
         0.31246E-02
         0.78195E-02
         0.74621E-02
         0.39437E-02
         0.47683E-02
         0.41792E-02
         0.16093E-01
         0.95961E-02
         0.12424E-01
         0.20048E-01
         0.15477E-01
         0.14347E-01
         0.20301E-01
         0.18388E-01
         0.18476E-01
         0.14298E-01
         0.12755E-01
         0.17458E-01
         0.11448E-01
         0.97293E-02
         0.79685E-02
         0.94110E-02
         0.15451E-01
         0.10556E-01
         0.67912E-01
         0.69580E-01
         0.72817E-01
         0.72293E-01
         0.77000E-01
         0.82604E-01
         0.79233E-01
         0.70504E-01
         0.68711E-01
         0.73520E-01
         0.72102E-01
         0.71197E-01
         0.58818E-01
         0.55923E-01
         0.61487E-01
         0.65912E-01
         0.68405E-01
         0.74679E-01
         0.71731E-01
         0.73672E-01
         0.66319E-01
         0.62982E-01
         0.67075E-01
         0.65468E-01
         0.67402E-01
         0.66844E-01
         0.12014E-01
         0.71950E-02
         0.68019E-02
         0.46889E-02
         0.12388E-01
         0.85592E-02
         0.38593E-02
         0.11828E-01
         0.74457E-02
         0.11272E-01
         0.54068E-02
         0.23287E-01
         0.17729E-01
         0.87213E-02
         0.24544E-01
         0.87388E-02
         0.44814E-02
         0.27661E-02
         0.58745E-02
         0.31257E-02
         0.18330E-01
         0.17179E-01
         0.16736E-01
         0.43520E-02
         0.73303E-02
         0.22671E-02
         0.83591E-02
         0.12851E-02
         0.31374E-02
         0.78298E-02
         0.74692E-02
         0.39418E-02
         0.47600E-02
         0.41828E-02
         0.16101E-01
         0.95943E-02
         0.12422E-01
         0.20080E-01
         0.15514E-01
         0.14370E-01
         0.20317E-01
         0.18399E-01
         0.18481E-01
         0.14302E-01
         0.12756E-01
         0.17460E-01
         0.11451E-01
         0.97305E-02
         0.79593E-02
         0.93988E-02
         0.15444E-01
         0.10540E-01
         0.67887E-01
         0.69563E-01
         0.72817E-01
         0.72294E-01
         0.76987E-01
         0.82576E-01
         0.79199E-01
         0.70485E-01
         0.68693E-01
         0.73497E-01
         0.72091E-01
         0.71202E-01
         0.58816E-01
         0.55922E-01
         0.61497E-01
         0.65934E-01
         0.68429E-01
         0.74696E-01
         0.71726E-01
         0.73668E-01
         0.66312E-01
         0.62979E-01
         0.67051E-01
         0.65425E-01
         0.67364E-01
         0.66808E-01
         0.12021E-01
         0.71950E-02
         0.68054E-02
         0.46956E-02
         0.12383E-01
         0.85543E-02
         0.38698E-02
         0.11836E-01
         0.74588E-02
         0.11300E-01
         0.54086E-02
         0.23287E-01
         0.17737E-01
         0.87010E-02
         0.24570E-01
         0.87475E-02
         0.44947E-02
         0.27588E-02
         0.58784E-02
         0.31190E-02
         0.18333E-01
         0.17179E-01
         0.16738E-01
         0.43514E-02
         0.73575E-02
         0.22650E-02
         0.83614E-02
         0.12759E-02
         0.31507E-02
         0.78402E-02
         0.74761E-02
         0.39394E-02
         0.47517E-02
         0.41864E-02
         0.16109E-01
         0.95929E-02
         0.12420E-01
         0.20112E-01
         0.15550E-01
         0.14393E-01
         0.20333E-01
         0.18410E-01
         0.18485E-01
         0.14306E-01
         0.12757E-01
         0.17463E-01
         0.11454E-01
         0.97319E-02
         0.79508E-02
         0.93868E-02
         0.15436E-01
         0.10525E-01
         0.67862E-01
         0.69547E-01
         0.72816E-01
         0.72294E-01
         0.76974E-01
         0.82548E-01
         0.79166E-01
         0.70466E-01
         0.68676E-01
         0.73475E-01
         0.72079E-01
         0.71207E-01
         0.58814E-01
         0.55921E-01
         0.61506E-01
         0.65956E-01
         0.68452E-01
         0.74714E-01
         0.71721E-01
         0.73663E-01
         0.66307E-01
         0.62976E-01
         0.67028E-01
         0.65383E-01
         0.67326E-01
         0.66772E-01
         0.12029E-01
         0.71950E-02
         0.68088E-02
         0.47024E-02
         0.12378E-01
         0.85494E-02
         0.38803E-02
         0.11845E-01
         0.74720E-02
         0.11328E-01
         0.54103E-02
         0.23287E-01
         0.17745E-01
         0.86808E-02
         0.24596E-01
         0.87561E-02
         0.45079E-02
         0.27515E-02
         0.58823E-02
         0.31121E-02
         0.18336E-01
         0.17179E-01
         0.16740E-01
         0.43510E-02
         0.73847E-02
         0.22628E-02
         0.83638E-02
         0.12670E-02
         0.31641E-02
         0.78506E-02
         0.74829E-02
         0.39371E-02
         0.47435E-02
         0.41900E-02
         0.16117E-01
         0.95911E-02
         0.12418E-01
         0.20144E-01
         0.15587E-01
         0.14415E-01
         0.20349E-01
         0.18421E-01
         0.18490E-01
         0.14310E-01
         0.12758E-01
         0.17466E-01
         0.11456E-01
         0.97334E-02
         0.79424E-02
         0.93750E-02
         0.15429E-01
         0.10509E-01
         0.67838E-01
         0.69530E-01
         0.72815E-01
         0.72294E-01
         0.76962E-01
         0.82520E-01
         0.79132E-01
         0.70447E-01
         0.68659E-01
         0.73452E-01
         0.72067E-01
         0.71211E-01
         0.58812E-01
         0.55919E-01
         0.61515E-01
         0.65978E-01
         0.68476E-01
         0.74731E-01
         0.71717E-01
         0.73659E-01
         0.66301E-01
         0.62973E-01
         0.67005E-01
         0.65340E-01
         0.67288E-01
         0.66737E-01
         0.12036E-01
         0.71949E-02
         0.68122E-02
         0.47092E-02
         0.12372E-01
         0.85445E-02
         0.38909E-02
         0.11853E-01
         0.74851E-02
         0.11357E-01
         0.54124E-02
         0.23287E-01
         0.17753E-01
         0.86605E-02
         0.24621E-01
         0.87648E-02
         0.45212E-02
         0.27443E-02
         0.58861E-02
         0.31053E-02
         0.18339E-01
         0.17179E-01
         0.16742E-01
         0.43506E-02
         0.74119E-02
         0.22607E-02
         0.83662E-02
         0.12584E-02
         0.31776E-02
         0.78610E-02
         0.74897E-02
         0.39347E-02
         0.47353E-02
         0.41937E-02
         0.16124E-01
         0.95898E-02
         0.12417E-01
         0.20176E-01
         0.15624E-01
         0.14438E-01
         0.20365E-01
         0.18432E-01
         0.18495E-01
         0.14314E-01
         0.12760E-01
         0.17468E-01
         0.11459E-01
         0.97351E-02
         0.79339E-02
         0.93630E-02
         0.15422E-01
         0.10493E-01
         0.67813E-01
         0.69514E-01
         0.72814E-01
         0.72295E-01
         0.76949E-01
         0.82492E-01
         0.79098E-01
         0.70428E-01
         0.68642E-01
         0.73429E-01
         0.72055E-01
         0.71216E-01
         0.58809E-01
         0.55918E-01
         0.61525E-01
         0.66000E-01
         0.68500E-01
         0.74748E-01
         0.71712E-01
         0.73654E-01
         0.66295E-01
         0.62970E-01
         0.66982E-01
         0.65297E-01
         0.67251E-01
         0.66702E-01
         0.12044E-01
         0.71948E-02
         0.68157E-02
         0.47160E-02
         0.12367E-01
         0.85398E-02
         0.39016E-02
         0.11861E-01
         0.74983E-02
         0.11385E-01
         0.54144E-02
         0.23287E-01
         0.17761E-01
         0.86404E-02
         0.24647E-01
         0.87734E-02
         0.45345E-02
         0.27370E-02
         0.58900E-02
         0.30983E-02
         0.18342E-01
         0.17179E-01
         0.16743E-01
         0.43502E-02
         0.74390E-02
         0.22586E-02
         0.83687E-02
         0.12500E-02
         0.31912E-02
         0.78714E-02
         0.74966E-02
         0.39324E-02
         0.47272E-02
         0.41973E-02
         0.16132E-01
         0.95882E-02
         0.12415E-01
         0.20208E-01
         0.15660E-01
         0.14460E-01
         0.20381E-01
         0.18444E-01
         0.18500E-01
         0.14318E-01
         0.12761E-01
         0.17471E-01
         0.11462E-01
         0.97366E-02
         0.79255E-02
         0.93511E-02
         0.15415E-01
         0.10477E-01
         0.67788E-01
         0.69497E-01
         0.72813E-01
         0.72295E-01
         0.76936E-01
         0.82464E-01
         0.79065E-01
         0.70409E-01
         0.68625E-01
         0.73406E-01
         0.72043E-01
         0.71221E-01
         0.58807E-01
         0.55917E-01
         0.61534E-01
         0.66022E-01
         0.68523E-01
         0.74766E-01
         0.71707E-01
         0.73649E-01
         0.66289E-01
         0.62967E-01
         0.66958E-01
         0.65255E-01
         0.67213E-01
         0.66666E-01
         0.12051E-01
         0.71947E-02
         0.68191E-02
         0.47228E-02
         0.12362E-01
         0.85349E-02
         0.39122E-02
         0.11869E-01
         0.75115E-02
         0.11413E-01
         0.54166E-02
         0.23287E-01
         0.17769E-01
         0.86203E-02
         0.24672E-01
         0.87821E-02
         0.45478E-02
         0.27297E-02
         0.58939E-02
         0.30915E-02
         0.18345E-01
         0.17179E-01
         0.16745E-01
         0.43499E-02
         0.74660E-02
         0.22566E-02
         0.83711E-02
         0.12420E-02
         0.32047E-02
         0.78818E-02
         0.75034E-02
         0.39301E-02
         0.47191E-02
         0.42010E-02
         0.16140E-01
         0.95867E-02
         0.12413E-01
         0.20240E-01
         0.15697E-01
         0.14483E-01
         0.20398E-01
         0.18455E-01
         0.18505E-01
         0.14322E-01
         0.12762E-01
         0.17474E-01
         0.11465E-01
         0.97384E-02
         0.79172E-02
         0.93393E-02
         0.15407E-01
         0.10461E-01
         0.67763E-01
         0.69481E-01
         0.72812E-01
         0.72295E-01
         0.76924E-01
         0.82436E-01
         0.79031E-01
         0.70390E-01
         0.68607E-01
         0.73383E-01
         0.72032E-01
         0.71225E-01
         0.58805E-01
         0.55916E-01
         0.61543E-01
         0.66043E-01
         0.68547E-01
         0.74783E-01
         0.71702E-01
         0.73645E-01
         0.66283E-01
         0.62964E-01
         0.66935E-01
         0.65212E-01
         0.67176E-01
         0.66631E-01
         0.12058E-01
         0.71947E-02
         0.68226E-02
         0.47297E-02
         0.12357E-01
         0.85300E-02
         0.39228E-02
         0.11877E-01
         0.75247E-02
         0.11441E-01
         0.54188E-02
         0.23287E-01
         0.17777E-01
         0.86001E-02
         0.24698E-01
         0.87907E-02
         0.45611E-02
         0.27224E-02
         0.58978E-02
         0.30846E-02
         0.18348E-01
         0.17179E-01
         0.16747E-01
         0.43495E-02
         0.74930E-02
         0.22545E-02
         0.83735E-02
         0.12342E-02
         0.32186E-02
         0.78920E-02
         0.75103E-02
         0.39277E-02
         0.47110E-02
         0.42046E-02
         0.16148E-01
         0.95854E-02
         0.12412E-01
         0.20272E-01
         0.15734E-01
         0.14505E-01
         0.20414E-01
         0.18466E-01
         0.18509E-01
         0.14326E-01
         0.12764E-01
         0.17477E-01
         0.11468E-01
         0.97399E-02
         0.79088E-02
         0.93275E-02
         0.15400E-01
         0.10446E-01
         0.67739E-01
         0.69465E-01
         0.72811E-01
         0.72295E-01
         0.76911E-01
         0.82407E-01
         0.78997E-01
         0.70371E-01
         0.68590E-01
         0.73360E-01
         0.72020E-01
         0.71230E-01
         0.58802E-01
         0.55915E-01
         0.61553E-01
         0.66065E-01
         0.68570E-01
         0.74800E-01
         0.71697E-01
         0.73640E-01
         0.66277E-01
         0.62961E-01
         0.66912E-01
         0.65169E-01
         0.67139E-01
         0.66595E-01
         0.12066E-01
         0.71947E-02
         0.68260E-02
         0.47365E-02
         0.12352E-01
         0.85251E-02
         0.39336E-02
         0.11885E-01
         0.75379E-02
         0.11469E-01
         0.54212E-02
         0.23287E-01
         0.17785E-01
         0.85800E-02
         0.24724E-01
         0.87993E-02
         0.45745E-02
         0.27152E-02
         0.59017E-02
         0.30779E-02
         0.18352E-01
         0.17179E-01
         0.16749E-01
         0.43492E-02
         0.75200E-02
         0.22524E-02
         0.83757E-02
         0.12267E-02
         0.32326E-02
         0.79023E-02
         0.75170E-02
         0.39254E-02
         0.47030E-02
         0.42082E-02
         0.16156E-01
         0.95839E-02
         0.12410E-01
         0.20304E-01
         0.15771E-01
         0.14528E-01
         0.20430E-01
         0.18477E-01
         0.18514E-01
         0.14330E-01
         0.12765E-01
         0.17480E-01
         0.11470E-01
         0.97415E-02
         0.79003E-02
         0.93156E-02
         0.15393E-01
         0.10430E-01
         0.67714E-01
         0.69448E-01
         0.72810E-01
         0.72296E-01
         0.76898E-01
         0.82379E-01
         0.78963E-01
         0.70352E-01
         0.68573E-01
         0.73337E-01
         0.72008E-01
         0.71235E-01
         0.58800E-01
         0.55914E-01
         0.61562E-01
         0.66087E-01
         0.68594E-01
         0.74818E-01
         0.71693E-01
         0.73636E-01
         0.66271E-01
         0.62958E-01
         0.66888E-01
         0.65127E-01
         0.67101E-01
         0.66560E-01
         0.12073E-01
         0.71946E-02
         0.68294E-02
         0.47434E-02
         0.12346E-01
         0.85202E-02
         0.39442E-02
         0.11893E-01
         0.75512E-02
         0.11497E-01
         0.54236E-02
         0.23288E-01
         0.17793E-01
         0.85599E-02
         0.24750E-01
         0.88080E-02
         0.45879E-02
         0.27080E-02
         0.59055E-02
         0.30709E-02
         0.18355E-01
         0.17179E-01
         0.16751E-01
         0.43488E-02
         0.75470E-02
         0.22504E-02
         0.83781E-02
         0.12194E-02
         0.32467E-02
         0.79126E-02
         0.75239E-02
         0.39230E-02
         0.46949E-02
         0.42119E-02
         0.16164E-01
         0.95826E-02
         0.12409E-01
         0.20336E-01
         0.15808E-01
         0.14550E-01
         0.20446E-01
         0.18488E-01
         0.18519E-01
         0.14334E-01
         0.12766E-01
         0.17482E-01
         0.11473E-01
         0.97432E-02
         0.78919E-02
         0.93036E-02
         0.15385E-01
         0.10414E-01
         0.67689E-01
         0.69432E-01
         0.72809E-01
         0.72296E-01
         0.76886E-01
         0.82351E-01
         0.78929E-01
         0.70333E-01
         0.68556E-01
         0.73314E-01
         0.71996E-01
         0.71239E-01
         0.58798E-01
         0.55913E-01
         0.61572E-01
         0.66109E-01
         0.68618E-01
         0.74835E-01
         0.71688E-01
         0.73631E-01
         0.66265E-01
         0.62955E-01
         0.66865E-01
         0.65084E-01
         0.67064E-01
         0.66524E-01
         0.12080E-01
         0.71944E-02
         0.68328E-02
         0.47503E-02
         0.12341E-01
         0.85156E-02
         0.39549E-02
         0.11901E-01
         0.75645E-02
         0.11525E-01
         0.54260E-02
         0.23288E-01
         0.17801E-01
         0.85398E-02
         0.24775E-01
         0.88166E-02
         0.46013E-02
         0.27008E-02
         0.59094E-02
         0.30642E-02
         0.18358E-01
         0.17179E-01
         0.16752E-01
         0.43485E-02
         0.75740E-02
         0.22484E-02
         0.83805E-02
         0.12124E-02
         0.32609E-02
         0.79229E-02
         0.75307E-02
         0.39207E-02
         0.46870E-02
         0.42156E-02
         0.16172E-01
         0.95811E-02
         0.12407E-01
         0.20368E-01
         0.15845E-01
         0.14572E-01
         0.20462E-01
         0.18499E-01
         0.18524E-01
         0.14338E-01
         0.12768E-01
         0.17485E-01
         0.11476E-01
         0.97447E-02
         0.78836E-02
         0.92918E-02
         0.15378E-01
         0.10398E-01
         0.67664E-01
         0.69416E-01
         0.72808E-01
         0.72296E-01
         0.76873E-01
         0.82323E-01
         0.78894E-01
         0.70313E-01
         0.68539E-01
         0.73290E-01
         0.71985E-01
         0.71244E-01
         0.58796E-01
         0.55912E-01
         0.61581E-01
         0.66131E-01
         0.68641E-01
         0.74852E-01
         0.71683E-01
         0.73627E-01
         0.66259E-01
         0.62952E-01
         0.66842E-01
         0.65041E-01
         0.67027E-01
         0.66489E-01
         0.12088E-01
         0.71944E-02
         0.68363E-02
         0.47572E-02
         0.12336E-01
         0.85107E-02
         0.39657E-02
         0.11909E-01
         0.75778E-02
         0.11553E-01
         0.54286E-02
         0.23288E-01
         0.17809E-01
         0.85197E-02
         0.24801E-01
         0.88253E-02
         0.46148E-02
         0.26936E-02
         0.59133E-02
         0.30573E-02
         0.18361E-01
         0.17179E-01
         0.16754E-01
         0.43483E-02
         0.76008E-02
         0.22463E-02
         0.83826E-02
         0.12055E-02
         0.32751E-02
         0.79329E-02
         0.75375E-02
         0.39185E-02
         0.46791E-02
         0.42193E-02
         0.16180E-01
         0.95796E-02
         0.12405E-01
         0.20401E-01
         0.15881E-01
         0.14595E-01
         0.20478E-01
         0.18510E-01
         0.18528E-01
         0.14342E-01
         0.12769E-01
         0.17488E-01
         0.11479E-01
         0.97465E-02
         0.78753E-02
         0.92799E-02
         0.15370E-01
         0.10383E-01
         0.67639E-01
         0.69400E-01
         0.72806E-01
         0.72297E-01
         0.76860E-01
         0.82294E-01
         0.78860E-01
         0.70294E-01
         0.68522E-01
         0.73266E-01
         0.71973E-01
         0.71250E-01
         0.58794E-01
         0.55911E-01
         0.61590E-01
         0.66153E-01
         0.68665E-01
         0.74869E-01
         0.71678E-01
         0.73622E-01
         0.66253E-01
         0.62949E-01
         0.66818E-01
         0.64998E-01
         0.66989E-01
         0.66453E-01
         0.12095E-01
         0.71943E-02
         0.68397E-02
         0.47642E-02
         0.12331E-01
         0.85058E-02
         0.39765E-02
         0.11917E-01
         0.75911E-02
         0.11581E-01
         0.54311E-02
         0.23288E-01
         0.17817E-01
         0.84995E-02
         0.24827E-01
         0.88339E-02
         0.46283E-02
         0.26863E-02
         0.59172E-02
         0.30508E-02
         0.18364E-01
         0.17179E-01
         0.16756E-01
         0.43479E-02
         0.76276E-02
         0.22445E-02
         0.83841E-02
         0.11986E-02
         0.32895E-02
         0.79426E-02
         0.75443E-02
         0.39161E-02
         0.46712E-02
         0.42230E-02
         0.16188E-01
         0.95784E-02
         0.12404E-01
         0.20433E-01
         0.15918E-01
         0.14616E-01
         0.20493E-01
         0.18520E-01
         0.18532E-01
         0.14346E-01
         0.12770E-01
         0.17491E-01
         0.11482E-01
         0.97481E-02
         0.78669E-02
         0.92680E-02
         0.15363E-01
         0.10367E-01
         0.67615E-01
         0.69383E-01
         0.72805E-01
         0.72297E-01
         0.76848E-01
         0.82266E-01
         0.78826E-01
         0.70275E-01
         0.68505E-01
         0.73242E-01
         0.71962E-01
         0.71257E-01
         0.58793E-01
         0.55910E-01
         0.61599E-01
         0.66175E-01
         0.68688E-01
         0.74886E-01
         0.71674E-01
         0.73617E-01
         0.66247E-01
         0.62947E-01
         0.66794E-01
         0.64956E-01
         0.66952E-01
         0.66418E-01
         0.12102E-01
         0.71943E-02
         0.68431E-02
         0.47711E-02
         0.12326E-01
         0.85009E-02
         0.39872E-02
         0.11925E-01
         0.76045E-02
         0.11608E-01
         0.54338E-02
         0.23288E-01
         0.17825E-01
         0.84792E-02
         0.24852E-01
         0.88425E-02
         0.46418E-02
         0.26790E-02
         0.59211E-02
         0.30442E-02
         0.18368E-01
         0.17178E-01
         0.16758E-01
         0.43477E-02
         0.76543E-02
         0.22424E-02
         0.83850E-02
         0.11917E-02
         0.33040E-02
         0.79517E-02
         0.75511E-02
         0.39138E-02
         0.46634E-02
         0.42267E-02
         0.16196E-01
         0.95769E-02
         0.12402E-01
         0.20465E-01
         0.15955E-01
         0.14637E-01
         0.20507E-01
         0.18529E-01
         0.18536E-01
         0.14350E-01
         0.12772E-01
         0.17494E-01
         0.11484E-01
         0.97497E-02
         0.78586E-02
         0.92560E-02
         0.15356E-01
         0.10351E-01
         0.67590E-01
         0.69367E-01
         0.72804E-01
         0.72297E-01
         0.76835E-01
         0.82237E-01
         0.78791E-01
         0.70256E-01
         0.68487E-01
         0.73216E-01
         0.71950E-01
         0.71266E-01
         0.58793E-01
         0.55910E-01
         0.61609E-01
         0.66197E-01
         0.68712E-01
         0.74903E-01
         0.71669E-01
         0.73613E-01
         0.66242E-01
         0.62944E-01
         0.66771E-01
         0.64913E-01
         0.66915E-01
         0.66383E-01
         0.12110E-01
         0.71943E-02
         0.68467E-02
         0.47781E-02
         0.12321E-01
         0.84963E-02
         0.39981E-02
         0.11933E-01
         0.76180E-02
         0.11636E-01
         0.54366E-02
         0.23289E-01
         0.17833E-01
         0.84588E-02
         0.24878E-01
         0.88511E-02
         0.46553E-02
         0.26719E-02
         0.59251E-02
         0.30378E-02
         0.18371E-01
         0.17178E-01
         0.16760E-01
         0.43474E-02
         0.76809E-02
         0.22406E-02
         0.83858E-02
         0.11847E-02
         0.33186E-02
         0.79606E-02
         0.75580E-02
         0.39116E-02
         0.46557E-02
         0.42305E-02
         0.16204E-01
         0.95756E-02
         0.12400E-01
         0.20498E-01
         0.15991E-01
         0.14657E-01
         0.20521E-01
         0.18537E-01
         0.18540E-01
         0.14354E-01
         0.12773E-01
         0.17497E-01
         0.11487E-01
         0.97515E-02
         0.78504E-02
         0.92442E-02
         0.15349E-01
         0.10336E-01
         0.67565E-01
         0.69351E-01
         0.72803E-01
         0.72298E-01
         0.76823E-01
         0.82209E-01
         0.78757E-01
         0.70237E-01
         0.68470E-01
         0.73189E-01
         0.71939E-01
         0.71275E-01
         0.58794E-01
         0.55909E-01
         0.61618E-01
         0.66218E-01
         0.68736E-01
         0.74921E-01
         0.71665E-01
         0.73608E-01
         0.66236E-01
         0.62940E-01
         0.66747E-01
         0.64871E-01
         0.66878E-01
         0.66347E-01
         0.12355E-01
         0.75617E-02
         0.72278E-02
         0.52142E-02
         0.12630E-01
         0.88571E-02
         0.46889E-02
         0.12235E-01
         0.79476E-02
         0.11962E-01
         0.60807E-02
         0.23590E-01
         0.18129E-01
         0.89107E-02
         0.25211E-01
         0.91296E-02
         0.51830E-02
         0.33033E-02
         0.63818E-02
         0.38793E-02
         0.18622E-01
         0.17439E-01
         0.17004E-01
         0.48862E-02
         0.81151E-02
         0.30796E-02
         0.88490E-02
         0.28865E-02
         0.42677E-02
         0.83938E-02
         0.78743E-02
         0.44892E-02
         0.50932E-02
         0.47563E-02
         0.16525E-01
         0.99449E-02
         0.12707E-01
         0.20836E-01
         0.16355E-01
         0.15015E-01
         0.20831E-01
         0.18832E-01
         0.18807E-01
         0.14607E-01
         0.13062E-01
         0.17798E-01
         0.11822E-01
         0.10085E-01
         0.82188E-02
         0.95896E-02
         0.15643E-01
         0.10655E-01
         0.68020E-01
         0.69805E-01
         0.73288E-01
         0.72768E-01
         0.77306E-01
         0.82717E-01
         0.79259E-01
         0.70731E-01
         0.68966E-01
         0.73701E-01
         0.72445E-01
         0.71765E-01
         0.59199E-01
         0.56285E-01
         0.62013E-01
         0.66636E-01
         0.69164E-01
         0.75394E-01
         0.72149E-01
         0.74099E-01
         0.66670E-01
         0.63355E-01
         0.67165E-01
         0.65266E-01
         0.67276E-01
         0.66745E-01
         0.29282E-01
         0.26378E-01
         0.25841E-01
         0.22887E-01
         0.31924E-01
         0.27869E-01
         0.26649E-01
         0.31620E-01
         0.25238E-01
         0.31360E-01
         0.29520E-01
         0.45764E-01
         0.38591E-01
         0.31717E-01
         0.48321E-01
         0.25759E-01
         0.24684E-01
         0.21157E-01
         0.25945E-01
         0.26039E-01
         0.37385E-01
         0.36820E-01
         0.35076E-01
         0.24399E-01
         0.28854E-01
         0.22982E-01
         0.31634E-01
         0.28685E-01
         0.29191E-01
         0.29829E-01
         0.25025E-01
         0.24144E-01
         0.22981E-01
         0.23728E-01
         0.36943E-01
         0.30070E-01
         0.32247E-01
         0.43638E-01
         0.38999E-01
         0.37570E-01
         0.43265E-01
         0.40295E-01
         0.39143E-01
         0.32436E-01
         0.31782E-01
         0.37975E-01
         0.31538E-01
         0.29026E-01
         0.27350E-01
         0.29013E-01
         0.35370E-01
         0.29797E-01
         0.96449E-01
         0.97793E-01
         0.10216E+00
         0.10121E+00
         0.10687E+00
         0.11426E+00
         0.11162E+00
         0.10250E+00
         0.10050E+00
         0.10590E+00
         0.10393E+00
         0.10173E+00
         0.86081E-01
         0.81938E-01
         0.87689E-01
         0.92367E-01
         0.95187E-01
         0.10322E+00
         0.10077E+00
         0.10314E+00
         0.94072E-01
         0.90060E-01
         0.94712E-01
         0.92673E-01
         0.94520E-01
         0.93589E-01
  
SCALARS                     nodal_mass  double 1
LOOKUP_TABLE default
         0.24608E-05
         0.19551E-05
         0.20945E-05
         0.35953E-05
         0.12304E-05
         0.97770E-06
         0.10472E-05
         0.17973E-05
         0.19315E-05
         0.24627E-05
         0.96570E-06
         0.12312E-05
         0.13823E-05
         0.16614E-05
         0.69133E-06
         0.83095E-06
         0.27274E-05
         0.20125E-05
         0.13635E-05
         0.10066E-05
         0.81737E-06
         0.15393E-05
         0.16929E-05
         0.40889E-06
         0.76975E-06
         0.84649E-06
         0.13859E-05
         0.17532E-05
         0.69345E-06
         0.87672E-06
         0.32470E-05
         0.25355E-05
         0.32225E-05
         0.16233E-05
         0.12675E-05
         0.16109E-05
         0.18980E-05
         0.21673E-05
         0.94902E-06
         0.10836E-05
         0.20482E-05
         0.22683E-05
         0.10242E-05
         0.11342E-05
         0.17426E-05
         0.10823E-05
         0.87140E-06
         0.54121E-06
         0.20598E-05
         0.10301E-05
         0.17103E-05
         0.85523E-06
         0.17977E-05
         0.89958E-06
         0.18362E-05
         0.91859E-06
         0.15911E-05
         0.19369E-05
         0.79575E-06
         0.96860E-06
         0.24553E-05
         0.17361E-05
         0.12277E-05
         0.86816E-06
         0.27409E-05
         0.13702E-05
         0.23792E-05
         0.11891E-05
         0.10821E-05
         0.16705E-05
         0.54106E-06
         0.83538E-06
         0.18955E-05
         0.94787E-06
         0.20026E-05
         0.10014E-05
         0.19316E-05
         0.96578E-06
         0.15181E-05
         0.75906E-06
         0.95443E-06
         0.15782E-05
         0.47723E-06
         0.78918E-06
         0.20886E-05
         0.10443E-05
         0.16867E-05
         0.84342E-06
         0.14838E-05
         0.74203E-06
         0.97224E-06
         0.16569E-05
         0.48620E-06
         0.82849E-06
         0.22482E-05
         0.11241E-05
         0.23568E-05
         0.11783E-05
         0.19018E-05
         0.95085E-06
         0.11709E-05
         0.20091E-05
         0.58544E-06
         0.10044E-05
         0.74681E-06
         0.94889E-06
         0.37348E-06
         0.47447E-06
         0.88885E-06
         0.44455E-06
         0.10466E-05
         0.52333E-06
         0.10205E-05
         0.51021E-06
         0.99108E-06
         0.49550E-06
         0.10560E-05
         0.52791E-06
         0.11142E-05
         0.55694E-06
         0.10497E-05
         0.52469E-06
         0.82085E-06
         0.41039E-06
         0.66950E-06
         0.33475E-06
         0.86397E-06
         0.43199E-06
         0.11504E-05
         0.57519E-06
         0.12637E-05
         0.63182E-06
         0.12132E-05
         0.60658E-06
         0.10948E-05
         0.54745E-06
         0.99429E-06
         0.49718E-06
         0.80759E-06
         0.40382E-06
         0.67982E-06
         0.33995E-06
         0.88797E-06
         0.44401E-06
         0.11753E-05
         0.58766E-06
         0.12140E-05
         0.60702E-06
         0.98236E-06
         0.49125E-06
         0.79766E-06
         0.39889E-06
         0.97540E-06
         0.48769E-06
         0.11548E-05
         0.57743E-06
         0.24609E-05
         0.19547E-05
         0.20946E-05
         0.35969E-05
         0.19318E-05
         0.24634E-05
         0.13815E-05
         0.16603E-05
         0.27283E-05
         0.20111E-05
         0.81658E-06
         0.15390E-05
         0.16927E-05
         0.13839E-05
         0.17528E-05
         0.32479E-05
         0.25367E-05
         0.32241E-05
         0.18980E-05
         0.21675E-05
         0.20481E-05
         0.22684E-05
         0.17424E-05
         0.10822E-05
         0.20589E-05
         0.17102E-05
         0.17950E-05
         0.18344E-05
         0.15904E-05
         0.19365E-05
         0.24555E-05
         0.17359E-05
         0.27423E-05
         0.23814E-05
         0.10820E-05
         0.16702E-05
         0.18953E-05
         0.20025E-05
         0.19317E-05
         0.15181E-05
         0.95442E-06
         0.15780E-05
         0.20884E-05
         0.16864E-05
         0.14835E-05
         0.97197E-06
         0.16567E-05
         0.22482E-05
         0.23571E-05
         0.19022E-05
         0.11709E-05
         0.20101E-05
         0.74658E-06
         0.94886E-06
         0.88841E-06
         0.10467E-05
         0.10207E-05
         0.99128E-06
         0.10565E-05
         0.11150E-05
         0.10503E-05
         0.82102E-06
         0.66954E-06
         0.86398E-06
         0.11506E-05
         0.12640E-05
         0.12133E-05
         0.10948E-05
         0.99421E-06
         0.80751E-06
         0.67970E-06
         0.88789E-06
         0.11752E-05
         0.12140E-05
         0.98215E-06
         0.79747E-06
         0.97551E-06
         0.11548E-05
         0.24611E-05
         0.19543E-05
         0.20949E-05
         0.35987E-05
         0.19321E-05
         0.24642E-05
         0.13808E-05
         0.16594E-05
         0.27293E-05
         0.20098E-05
         0.81582E-06
         0.15388E-05
         0.16927E-05
         0.13821E-05
         0.17525E-05
         0.32489E-05
         0.25379E-05
         0.32257E-05
         0.18982E-05
         0.21678E-05
         0.20480E-05
         0.22685E-05
         0.17423E-05
         0.10821E-05
         0.20580E-05
         0.17101E-05
         0.17924E-05
         0.18326E-05
         0.15898E-05
         0.19361E-05
         0.24558E-05
         0.17357E-05
         0.27438E-05
         0.23836E-05
         0.10821E-05
         0.16699E-05
         0.18951E-05
         0.20024E-05
         0.19318E-05
         0.15183E-05
         0.95445E-06
         0.15778E-05
         0.20884E-05
         0.16862E-05
         0.14831E-05
         0.97174E-06
         0.16566E-05
         0.22483E-05
         0.23575E-05
         0.19026E-05
         0.11709E-05
         0.20112E-05
         0.74636E-06
         0.94886E-06
         0.88800E-06
         0.10467E-05
         0.10210E-05
         0.99152E-06
         0.10570E-05
         0.11159E-05
         0.10509E-05
         0.82122E-06
         0.66961E-06
         0.86402E-06
         0.11507E-05
         0.12643E-05
         0.12135E-05
         0.10948E-05
         0.99417E-06
         0.80747E-06
         0.67961E-06
         0.88784E-06
         0.11752E-05
         0.12140E-05
         0.98197E-06
         0.79731E-06
         0.97565E-06
         0.11548E-05
         0.24612E-05
         0.19539E-05
         0.20950E-05
         0.36004E-05
         0.19324E-05
         0.24650E-05
         0.13801E-05
         0.16584E-05
         0.27303E-05
         0.20085E-05
         0.81504E-06
         0.15385E-05
         0.16925E-05
         0.13801E-05
         0.17521E-05
         0.32498E-05
         0.25390E-05
         0.32274E-05
         0.18982E-05
         0.21681E-05
         0.20479E-05
         0.22686E-05
         0.17421E-05
         0.10820E-05
         0.20571E-05
         0.17099E-05
         0.17897E-05
         0.18308E-05
         0.15891E-05
         0.19356E-05
         0.24561E-05
         0.17355E-05
         0.27453E-05
         0.23857E-05
         0.10820E-05
         0.16696E-05
         0.18948E-05
         0.20022E-05
         0.19320E-05
         0.15183E-05
         0.95445E-06
         0.15776E-05
         0.20883E-05
         0.16859E-05
         0.14828E-05
         0.97149E-06
         0.16564E-05
         0.22483E-05
         0.23578E-05
         0.19030E-05
         0.11710E-05
         0.20122E-05
         0.74613E-06
         0.94884E-06
         0.88756E-06
         0.10467E-05
         0.10212E-05
         0.99173E-06
         0.10574E-05
         0.11167E-05
         0.10515E-05
         0.82140E-06
         0.66966E-06
         0.86404E-06
         0.11509E-05
         0.12646E-05
         0.12136E-05
         0.10947E-05
         0.99410E-06
         0.80740E-06
         0.67950E-06
         0.88777E-06
         0.11752E-05
         0.12140E-05
         0.98177E-06
         0.79713E-06
         0.97576E-06
         0.11547E-05
         0.24613E-05
         0.19535E-05
         0.20952E-05
         0.36022E-05
         0.19327E-05
         0.24657E-05
         0.13794E-05
         0.16574E-05
         0.27313E-05
         0.20072E-05
         0.81426E-06
         0.15382E-05
         0.16924E-05
         0.13782E-05
         0.17517E-05
         0.32508E-05
         0.25402E-05
         0.32290E-05
         0.18983E-05
         0.21684E-05
         0.20479E-05
         0.22687E-05
         0.17420E-05
         0.10819E-05
         0.20563E-05
         0.17098E-05
         0.17870E-05
         0.18290E-05
         0.15884E-05
         0.19352E-05
         0.24563E-05
         0.17353E-05
         0.27467E-05
         0.23879E-05
         0.10820E-05
         0.16693E-05
         0.18946E-05
         0.20021E-05
         0.19321E-05
         0.15184E-05
         0.95445E-06
         0.15773E-05
         0.20882E-05
         0.16857E-05
         0.14824E-05
         0.97124E-06
         0.16563E-05
         0.22484E-05
         0.23582E-05
         0.19034E-05
         0.11710E-05
         0.20132E-05
         0.74590E-06
         0.94883E-06
         0.88713E-06
         0.10468E-05
         0.10215E-05
         0.99194E-06
         0.10579E-05
         0.11175E-05
         0.10521E-05
         0.82159E-06
         0.66972E-06
         0.86406E-06
         0.11510E-05
         0.12649E-05
         0.12138E-05
         0.10947E-05
         0.99404E-06
         0.80734E-06
         0.67940E-06
         0.88771E-06
         0.11752E-05
         0.12140E-05
         0.98157E-06
         0.79696E-06
         0.97588E-06
         0.11547E-05
         0.24615E-05
         0.19531E-05
         0.20954E-05
         0.36039E-05
         0.19331E-05
         0.24665E-05
         0.13787E-05
         0.16564E-05
         0.27322E-05
         0.20059E-05
         0.81349E-06
         0.15380E-05
         0.16923E-05
         0.13763E-05
         0.17514E-05
         0.32518E-05
         0.25414E-05
         0.32306E-05
         0.18984E-05
         0.21687E-05
         0.20478E-05
         0.22688E-05
         0.17418E-05
         0.10818E-05
         0.20554E-05
         0.17096E-05
         0.17843E-05
         0.18272E-05
         0.15878E-05
         0.19347E-05
         0.24566E-05
         0.17351E-05
         0.27482E-05
         0.23901E-05
         0.10820E-05
         0.16690E-05
         0.18943E-05
         0.20019E-05
         0.19322E-05
         0.15185E-05
         0.95446E-06
         0.15771E-05
         0.20881E-05
         0.16855E-05
         0.14821E-05
         0.97100E-06
         0.16562E-05
         0.22484E-05
         0.23586E-05
         0.19038E-05
         0.11710E-05
         0.20142E-05
         0.74568E-06
         0.94882E-06
         0.88671E-06
         0.10468E-05
         0.10217E-05
         0.99216E-06
         0.10583E-05
         0.11183E-05
         0.10528E-05
         0.82178E-06
         0.66977E-06
         0.86408E-06
         0.11512E-05
         0.12652E-05
         0.12139E-05
         0.10947E-05
         0.99398E-06
         0.80728E-06
         0.67930E-06
         0.88766E-06
         0.11752E-05
         0.12140E-05
         0.98138E-06
         0.79679E-06
         0.97601E-06
         0.11547E-05
         0.24616E-05
         0.19527E-05
         0.20956E-05
         0.36056E-05
         0.19334E-05
         0.24672E-05
         0.13779E-05
         0.16554E-05
         0.27332E-05
         0.20046E-05
         0.81271E-06
         0.15377E-05
         0.16922E-05
         0.13744E-05
         0.17510E-05
         0.32527E-05
         0.25425E-05
         0.32322E-05
         0.18984E-05
         0.21689E-05
         0.20477E-05
         0.22689E-05
         0.17416E-05
         0.10816E-05
         0.20545E-05
         0.17095E-05
         0.17817E-05
         0.18254E-05
         0.15871E-05
         0.19343E-05
         0.24568E-05
         0.17349E-05
         0.27496E-05
         0.23922E-05
         0.10820E-05
         0.16686E-05
         0.18941E-05
         0.20018E-05
         0.19324E-05
         0.15186E-05
         0.95446E-06
         0.15769E-05
         0.20880E-05
         0.16852E-05
         0.14817E-05
         0.97074E-06
         0.16560E-05
         0.22484E-05
         0.23589E-05
         0.19042E-05
         0.11710E-05
         0.20152E-05
         0.74544E-06
         0.94880E-06
         0.88627E-06
         0.10469E-05
         0.10219E-05
         0.99237E-06
         0.10588E-05
         0.11191E-05
         0.10534E-05
         0.82196E-06
         0.66982E-06
         0.86410E-06
         0.11513E-05
         0.12654E-05
         0.12140E-05
         0.10947E-05
         0.99391E-06
         0.80721E-06
         0.67919E-06
         0.88759E-06
         0.11751E-05
         0.12140E-05
         0.98118E-06
         0.79661E-06
         0.97612E-06
         0.11546E-05
         0.24618E-05
         0.19523E-05
         0.20957E-05
         0.36073E-05
         0.19337E-05
         0.24680E-05
         0.13772E-05
         0.16545E-05
         0.27341E-05
         0.20033E-05
         0.81194E-06
         0.15374E-05
         0.16921E-05
         0.13725E-05
         0.17506E-05
         0.32537E-05
         0.25437E-05
         0.32339E-05
         0.18985E-05
         0.21692E-05
         0.20476E-05
         0.22690E-05
         0.17414E-05
         0.10815E-05
         0.20536E-05
         0.17093E-05
         0.17790E-05
         0.18236E-05
         0.15864E-05
         0.19339E-05
         0.24571E-05
         0.17347E-05
         0.27511E-05
         0.23944E-05
         0.10820E-05
         0.16683E-05
         0.18938E-05
         0.20016E-05
         0.19325E-05
         0.15186E-05
         0.95446E-06
         0.15767E-05
         0.20878E-05
         0.16850E-05
         0.14814E-05
         0.97050E-06
         0.16559E-05
         0.22484E-05
         0.23593E-05
         0.19046E-05
         0.11711E-05
         0.20162E-05
         0.74522E-06
         0.94878E-06
         0.88584E-06
         0.10469E-05
         0.10222E-05
         0.99258E-06
         0.10593E-05
         0.11199E-05
         0.10540E-05
         0.82215E-06
         0.66988E-06
         0.86413E-06
         0.11515E-05
         0.12657E-05
         0.12142E-05
         0.10946E-05
         0.99385E-06
         0.80715E-06
         0.67909E-06
         0.88752E-06
         0.11751E-05
         0.12140E-05
         0.98098E-06
         0.79643E-06
         0.97624E-06
         0.11546E-05
         0.24619E-05
         0.19519E-05
         0.20959E-05
         0.36091E-05
         0.19340E-05
         0.24688E-05
         0.13765E-05
         0.16535E-05
         0.27351E-05
         0.20020E-05
         0.81117E-06
         0.15372E-05
         0.16920E-05
         0.13706E-05
         0.17503E-05
         0.32546E-05
         0.25448E-05
         0.32355E-05
         0.18986E-05
         0.21695E-05
         0.20475E-05
         0.22691E-05
         0.17413E-05
         0.10814E-05
         0.20527E-05
         0.17092E-05
         0.17763E-05
         0.18219E-05
         0.15858E-05
         0.19334E-05
         0.24573E-05
         0.17345E-05
         0.27525E-05
         0.23966E-05
         0.10820E-05
         0.16680E-05
         0.18936E-05
         0.20015E-05
         0.19326E-05
         0.15187E-05
         0.95447E-06
         0.15765E-05
         0.20878E-05
         0.16848E-05
         0.14810E-05
         0.97025E-06
         0.16557E-05
         0.22485E-05
         0.23597E-05
         0.19050E-05
         0.11711E-05
         0.20172E-05
         0.74499E-06
         0.94877E-06
         0.88541E-06
         0.10469E-05
         0.10224E-05
         0.99280E-06
         0.10597E-05
         0.11207E-05
         0.10546E-05
         0.82234E-06
         0.66994E-06
         0.86415E-06
         0.11517E-05
         0.12660E-05
         0.12143E-05
         0.10946E-05
         0.99379E-06
         0.80709E-06
         0.67898E-06
         0.88746E-06
         0.11751E-05
         0.12140E-05
         0.98079E-06
         0.79626E-06
         0.97636E-06
         0.11546E-05
         0.24621E-05
         0.19515E-05
         0.20961E-05
         0.36108E-05
         0.19343E-05
         0.24695E-05
         0.13758E-05
         0.16525E-05
         0.27361E-05
         0.20006E-05
         0.81039E-06
         0.15369E-05
         0.16919E-05
         0.13686E-05
         0.17499E-05
         0.32556E-05
         0.25460E-05
         0.32371E-05
         0.18986E-05
         0.21697E-05
         0.20474E-05
         0.22692E-05
         0.17411E-05
         0.10813E-05
         0.20519E-05
         0.17091E-05
         0.17736E-05
         0.18201E-05
         0.15851E-05
         0.19330E-05
         0.24575E-05
         0.17342E-05
         0.27540E-05
         0.23987E-05
         0.10820E-05
         0.16677E-05
         0.18933E-05
         0.20014E-05
         0.19328E-05
         0.15188E-05
         0.95448E-06
         0.15763E-05
         0.20876E-05
         0.16845E-05
         0.14807E-05
         0.97000E-06
         0.16556E-05
         0.22485E-05
         0.23600E-05
         0.19053E-05
         0.11711E-05
         0.20182E-05
         0.74476E-06
         0.94875E-06
         0.88498E-06
         0.10470E-05
         0.10227E-05
         0.99301E-06
         0.10602E-05
         0.11215E-05
         0.10553E-05
         0.82252E-06
         0.66999E-06
         0.86417E-06
         0.11518E-05
         0.12663E-05
         0.12145E-05
         0.10946E-05
         0.99373E-06
         0.80702E-06
         0.67888E-06
         0.88740E-06
         0.11751E-05
         0.12140E-05
         0.98058E-06
         0.79608E-06
         0.97648E-06
         0.11546E-05
         0.24622E-05
         0.19511E-05
         0.20963E-05
         0.36125E-05
         0.19346E-05
         0.24703E-05
         0.13751E-05
         0.16515E-05
         0.27370E-05
         0.19993E-05
         0.80962E-06
         0.15366E-05
         0.16917E-05
         0.13667E-05
         0.17495E-05
         0.32565E-05
         0.25471E-05
         0.32388E-05
         0.18987E-05
         0.21700E-05
         0.20473E-05
         0.22693E-05
         0.17409E-05
         0.10812E-05
         0.20510E-05
         0.17089E-05
         0.17710E-05
         0.18183E-05
         0.15844E-05
         0.19325E-05
         0.24578E-05
         0.17340E-05
         0.27554E-05
         0.24009E-05
         0.10820E-05
         0.16674E-05
         0.18931E-05
         0.20012E-05
         0.19329E-05
         0.15189E-05
         0.95448E-06
         0.15760E-05
         0.20875E-05
         0.16843E-05
         0.14803E-05
         0.96975E-06
         0.16555E-05
         0.22485E-05
         0.23604E-05
         0.19057E-05
         0.11712E-05
         0.20192E-05
         0.74453E-06
         0.94874E-06
         0.88455E-06
         0.10470E-05
         0.10229E-05
         0.99322E-06
         0.10606E-05
         0.11223E-05
         0.10559E-05
         0.82270E-06
         0.67004E-06
         0.86419E-06
         0.11520E-05
         0.12666E-05
         0.12146E-05
         0.10945E-05
         0.99366E-06
         0.80696E-06
         0.67877E-06
         0.88733E-06
         0.11751E-05
         0.12140E-05
         0.98038E-06
         0.79590E-06
         0.97660E-06
         0.11545E-05
         0.24623E-05
         0.19507E-05
         0.20964E-05
         0.36142E-05
         0.19349E-05
         0.24710E-05
         0.13743E-05
         0.16505E-05
         0.27380E-05
         0.19980E-05
         0.80885E-06
         0.15364E-05
         0.16916E-05
         0.13648E-05
         0.17492E-05
         0.32575E-05
         0.25483E-05
         0.32404E-05
         0.18988E-05
         0.21703E-05
         0.20473E-05
         0.22694E-05
         0.17407E-05
         0.10811E-05
         0.20501E-05
         0.17088E-05
         0.17683E-05
         0.18165E-05
         0.15837E-05
         0.19321E-05
         0.24580E-05
         0.17338E-05
         0.27569E-05
         0.24031E-05
         0.10820E-05
         0.16670E-05
         0.18928E-05
         0.20011E-05
         0.19330E-05
         0.15189E-05
         0.95448E-06
         0.15758E-05
         0.20874E-05
         0.16840E-05
         0.14800E-05
         0.96950E-06
         0.16553E-05
         0.22485E-05
         0.23608E-05
         0.19061E-05
         0.11712E-05
         0.20202E-05
         0.74430E-06
         0.94872E-06
         0.88412E-06
         0.10470E-05
         0.10231E-05
         0.99344E-06
         0.10611E-05
         0.11231E-05
         0.10565E-05
         0.82289E-06
         0.67009E-06
         0.86422E-06
         0.11521E-05
         0.12669E-05
         0.12147E-05
         0.10945E-05
         0.99360E-06
         0.80690E-06
         0.67867E-06
         0.88727E-06
         0.11750E-05
         0.12140E-05
         0.98019E-06
         0.79573E-06
         0.97672E-06
         0.11545E-05
         0.24625E-05
         0.19503E-05
         0.20966E-05
         0.36160E-05
         0.19352E-05
         0.24718E-05
         0.13736E-05
         0.16496E-05
         0.27389E-05
         0.19967E-05
         0.80807E-06
         0.15361E-05
         0.16915E-05
         0.13629E-05
         0.17488E-05
         0.32584E-05
         0.25495E-05
         0.32420E-05
         0.18988E-05
         0.21705E-05
         0.20472E-05
         0.22695E-05
         0.17406E-05
         0.10810E-05
         0.20492E-05
         0.17086E-05
         0.17656E-05
         0.18147E-05
         0.15831E-05
         0.19317E-05
         0.24583E-05
         0.17336E-05
         0.27583E-05
         0.24053E-05
         0.10820E-05
         0.16667E-05
         0.18926E-05
         0.20009E-05
         0.19331E-05
         0.15190E-05
         0.95449E-06
         0.15756E-05
         0.20873E-05
         0.16838E-05
         0.14796E-05
         0.96925E-06
         0.16552E-05
         0.22486E-05
         0.23611E-05
         0.19065E-05
         0.11712E-05
         0.20212E-05
         0.74407E-06
         0.94870E-06
         0.88368E-06
         0.10471E-05
         0.10234E-05
         0.99365E-06
         0.10616E-05
         0.11239E-05
         0.10571E-05
         0.82307E-06
         0.67014E-06
         0.86424E-06
         0.11523E-05
         0.12672E-05
         0.12149E-05
         0.10945E-05
         0.99354E-06
         0.80683E-06
         0.67856E-06
         0.88721E-06
         0.11750E-05
         0.12140E-05
         0.97999E-06
         0.79555E-06
         0.97684E-06
         0.11545E-05
         0.24626E-05
         0.19499E-05
         0.20968E-05
         0.36177E-05
         0.19355E-05
         0.24725E-05
         0.13729E-05
         0.16486E-05
         0.27399E-05
         0.19954E-05
         0.80730E-06
         0.15358E-05
         0.16914E-05
         0.13610E-05
         0.17484E-05
         0.32594E-05
         0.25506E-05
         0.32437E-05
         0.18989E-05
         0.21708E-05
         0.20471E-05
         0.22696E-05
         0.17404E-05
         0.10808E-05
         0.20483E-05
         0.17085E-05
         0.17629E-05
         0.18129E-05
         0.15824E-05
         0.19312E-05
         0.24585E-05
         0.17334E-05
         0.27598E-05
         0.24074E-05
         0.10820E-05
         0.16664E-05
         0.18923E-05
         0.20008E-05
         0.19333E-05
         0.15191E-05
         0.95449E-06
         0.15754E-05
         0.20872E-05
         0.16835E-05
         0.14793E-05
         0.96901E-06
         0.16550E-05
         0.22486E-05
         0.23615E-05
         0.19069E-05
         0.11713E-05
         0.20222E-05
         0.74384E-06
         0.94869E-06
         0.88325E-06
         0.10471E-05
         0.10236E-05
         0.99386E-06
         0.10620E-05
         0.11247E-05
         0.10577E-05
         0.82326E-06
         0.67020E-06
         0.86426E-06
         0.11524E-05
         0.12674E-05
         0.12150E-05
         0.10944E-05
         0.99348E-06
         0.80677E-06
         0.67846E-06
         0.88714E-06
         0.11750E-05
         0.12140E-05
         0.97979E-06
         0.79538E-06
         0.97696E-06
         0.11544E-05
         0.24628E-05
         0.19495E-05
         0.20970E-05
         0.36194E-05
         0.19358E-05
         0.24733E-05
         0.13722E-05
         0.16476E-05
         0.27409E-05
         0.19941E-05
         0.80652E-06
         0.15355E-05
         0.16913E-05
         0.13591E-05
         0.17481E-05
         0.32604E-05
         0.25518E-05
         0.32453E-05
         0.18990E-05
         0.21711E-05
         0.20470E-05
         0.22697E-05
         0.17402E-05
         0.10807E-05
         0.20474E-05
         0.17084E-05
         0.17603E-05
         0.18111E-05
         0.15817E-05
         0.19308E-05
         0.24588E-05
         0.17332E-05
         0.27613E-05
         0.24096E-05
         0.10819E-05
         0.16661E-05
         0.18921E-05
         0.20006E-05
         0.19334E-05
         0.15192E-05
         0.95450E-06
         0.15752E-05
         0.20871E-05
         0.16833E-05
         0.14789E-05
         0.96876E-06
         0.16549E-05
         0.22486E-05
         0.23619E-05
         0.19073E-05
         0.11713E-05
         0.20232E-05
         0.74362E-06
         0.94868E-06
         0.88282E-06
         0.10472E-05
         0.10238E-05
         0.99408E-06
         0.10625E-05
         0.11255E-05
         0.10584E-05
         0.82345E-06
         0.67025E-06
         0.86428E-06
         0.11526E-05
         0.12677E-05
         0.12152E-05
         0.10944E-05
         0.99342E-06
         0.80671E-06
         0.67836E-06
         0.88709E-06
         0.11750E-05
         0.12140E-05
         0.97959E-06
         0.79521E-06
         0.97708E-06
         0.11544E-05
         0.24629E-05
         0.19491E-05
         0.20972E-05
         0.36212E-05
         0.19361E-05
         0.24741E-05
         0.13715E-05
         0.16466E-05
         0.27418E-05
         0.19928E-05
         0.80575E-06
         0.15353E-05
         0.16912E-05
         0.13572E-05
         0.17477E-05
         0.32613E-05
         0.25529E-05
         0.32469E-05
         0.18990E-05
         0.21714E-05
         0.20469E-05
         0.22698E-05
         0.17400E-05
         0.10806E-05
         0.20466E-05
         0.17082E-05
         0.17576E-05
         0.18093E-05
         0.15810E-05
         0.19303E-05
         0.24590E-05
         0.17330E-05
         0.27627E-05
         0.24118E-05
         0.10819E-05
         0.16658E-05
         0.18919E-05
         0.20005E-05
         0.19335E-05
         0.15192E-05
         0.95450E-06
         0.15750E-05
         0.20870E-05
         0.16831E-05
         0.14786E-05
         0.96851E-06
         0.16548E-05
         0.22487E-05
         0.23622E-05
         0.19077E-05
         0.11713E-05
         0.20242E-05
         0.74339E-06
         0.94866E-06
         0.88239E-06
         0.10472E-05
         0.10241E-05
         0.99429E-06
         0.10630E-05
         0.11263E-05
         0.10590E-05
         0.82363E-06
         0.67030E-06
         0.86430E-06
         0.11527E-05
         0.12680E-05
         0.12153E-05
         0.10944E-05
         0.99335E-06
         0.80665E-06
         0.67825E-06
         0.88702E-06
         0.11749E-05
         0.12140E-05
         0.97939E-06
         0.79503E-06
         0.97720E-06
         0.11544E-05
         0.24631E-05
         0.19487E-05
         0.20973E-05
         0.36229E-05
         0.19364E-05
         0.24748E-05
         0.13707E-05
         0.16456E-05
         0.27428E-05
         0.19915E-05
         0.80498E-06
         0.15350E-05
         0.16911E-05
         0.13553E-05
         0.17473E-05
         0.32623E-05
         0.25541E-05
         0.32486E-05
         0.18991E-05
         0.21716E-05
         0.20468E-05
         0.22699E-05
         0.17399E-05
         0.10805E-05
         0.20457E-05
         0.17081E-05
         0.17549E-05
         0.18075E-05
         0.15804E-05
         0.19299E-05
         0.24592E-05
         0.17328E-05
         0.27642E-05
         0.24140E-05
         0.10819E-05
         0.16654E-05
         0.18916E-05
         0.20003E-05
         0.19337E-05
         0.15193E-05
         0.95450E-06
         0.15748E-05
         0.20869E-05
         0.16828E-05
         0.14782E-05
         0.96826E-06
         0.16546E-05
         0.22487E-05
         0.23626E-05
         0.19081E-05
         0.11714E-05
         0.20253E-05
         0.74316E-06
         0.94864E-06
         0.88196E-06
         0.10472E-05
         0.10243E-05
         0.99450E-06
         0.10634E-05
         0.11271E-05
         0.10596E-05
         0.82381E-06
         0.67036E-06
         0.86432E-06
         0.11529E-05
         0.12683E-05
         0.12154E-05
         0.10943E-05
         0.99329E-06
         0.80658E-06
         0.67815E-06
         0.88696E-06
         0.11749E-05
         0.12140E-05
         0.97919E-06
         0.79485E-06
         0.97732E-06
         0.11544E-05
         0.24632E-05
         0.19483E-05
         0.20975E-05
         0.36246E-05
         0.19368E-05
         0.24756E-05
         0.13700E-05
         0.16447E-05
         0.27437E-05
         0.19902E-05
         0.80421E-06
         0.15347E-05
         0.16910E-05
         0.13534E-05
         0.17470E-05
         0.32632E-05
         0.25552E-05
         0.32502E-05
         0.18992E-05
         0.21719E-05
         0.20467E-05
         0.22700E-05
         0.17397E-05
         0.10804E-05
         0.20448E-05
         0.17079E-05
         0.17523E-05
         0.18057E-05
         0.15797E-05
         0.19295E-05
         0.24595E-05
         0.17326E-05
         0.27656E-05
         0.24161E-05
         0.10819E-05
         0.16651E-05
         0.18914E-05
         0.20002E-05
         0.19338E-05
         0.15194E-05
         0.95451E-06
         0.15745E-05
         0.20868E-05
         0.16826E-05
         0.14779E-05
         0.96801E-06
         0.16545E-05
         0.22487E-05
         0.23630E-05
         0.19085E-05
         0.11714E-05
         0.20263E-05
         0.74293E-06
         0.94863E-06
         0.88153E-06
         0.10473E-05
         0.10245E-05
         0.99472E-06
         0.10639E-05
         0.11279E-05
         0.10602E-05
         0.82400E-06
         0.67041E-06
         0.86435E-06
         0.11530E-05
         0.12686E-05
         0.12156E-05
         0.10943E-05
         0.99323E-06
         0.80652E-06
         0.67804E-06
         0.88690E-06
         0.11749E-05
         0.12140E-05
         0.97900E-06
         0.79468E-06
         0.97744E-06
         0.11543E-05
         0.24633E-05
         0.19479E-05
         0.20977E-05
         0.36264E-05
         0.19371E-05
         0.24763E-05
         0.13693E-05
         0.16437E-05
         0.27447E-05
         0.19888E-05
         0.80343E-06
         0.15345E-05
         0.16908E-05
         0.13515E-05
         0.17466E-05
         0.32642E-05
         0.25564E-05
         0.32518E-05
         0.18992E-05
         0.21722E-05
         0.20466E-05
         0.22701E-05
         0.17395E-05
         0.10803E-05
         0.20439E-05
         0.17078E-05
         0.17496E-05
         0.18039E-05
         0.15790E-05
         0.19290E-05
         0.24597E-05
         0.17323E-05
         0.27671E-05
         0.24183E-05
         0.10819E-05
         0.16648E-05
         0.18911E-05
         0.20001E-05
         0.19339E-05
         0.15195E-05
         0.95452E-06
         0.15743E-05
         0.20867E-05
         0.16823E-05
         0.14775E-05
         0.96776E-06
         0.16543E-05
         0.22487E-05
         0.23633E-05
         0.19089E-05
         0.11714E-05
         0.20273E-05
         0.74270E-06
         0.94861E-06
         0.88109E-06
         0.10473E-05
         0.10248E-05
         0.99493E-06
         0.10643E-05
         0.11287E-05
         0.10609E-05
         0.82418E-06
         0.67046E-06
         0.86437E-06
         0.11532E-05
         0.12689E-05
         0.12157E-05
         0.10943E-05
         0.99316E-06
         0.80646E-06
         0.67794E-06
         0.88683E-06
         0.11749E-05
         0.12140E-05
         0.97879E-06
         0.79450E-06
         0.97755E-06
         0.11543E-05
         0.24635E-05
         0.19475E-05
         0.20979E-05
         0.36281E-05
         0.19374E-05
         0.24771E-05
         0.13686E-05
         0.16427E-05
         0.27456E-05
         0.19875E-05
         0.80266E-06
         0.15342E-05
         0.16907E-05
         0.13496E-05
         0.17463E-05
         0.32651E-05
         0.25575E-05
         0.32534E-05
         0.18993E-05
         0.21724E-05
         0.20466E-05
         0.22702E-05
         0.17393E-05
         0.10802E-05
         0.20430E-05
         0.17076E-05
         0.17469E-05
         0.18021E-05
         0.15784E-05
         0.19286E-05
         0.24600E-05
         0.17321E-05
         0.27685E-05
         0.24205E-05
         0.10819E-05
         0.16645E-05
         0.18909E-05
         0.19999E-05
         0.19341E-05
         0.15195E-05
         0.95452E-06
         0.15741E-05
         0.20866E-05
         0.16821E-05
         0.14772E-05
         0.96751E-06
         0.16542E-05
         0.22488E-05
         0.23637E-05
         0.19092E-05
         0.11715E-05
         0.20283E-05
         0.74247E-06
         0.94860E-06
         0.88066E-06
         0.10473E-05
         0.10250E-05
         0.99514E-06
         0.10648E-05
         0.11295E-05
         0.10615E-05
         0.82437E-06
         0.67052E-06
         0.86439E-06
         0.11533E-05
         0.12691E-05
         0.12159E-05
         0.10942E-05
         0.99310E-06
         0.80639E-06
         0.67783E-06
         0.88676E-06
         0.11748E-05
         0.12140E-05
         0.97859E-06
         0.79433E-06
         0.97767E-06
         0.11543E-05
         0.24636E-05
         0.19471E-05
         0.20980E-05
         0.36298E-05
         0.19377E-05
         0.24779E-05
         0.13679E-05
         0.16417E-05
         0.27466E-05
         0.19862E-05
         0.80189E-06
         0.15339E-05
         0.16906E-05
         0.13477E-05
         0.17459E-05
         0.32661E-05
         0.25587E-05
         0.32551E-05
         0.18994E-05
         0.21727E-05
         0.20465E-05
         0.22703E-05
         0.17392E-05
         0.10800E-05
         0.20421E-05
         0.17075E-05
         0.17443E-05
         0.18003E-05
         0.15777E-05
         0.19281E-05
         0.24602E-05
         0.17319E-05
         0.27700E-05
         0.24227E-05
         0.10819E-05
         0.16642E-05
         0.18906E-05
         0.19998E-05
         0.19342E-05
         0.15196E-05
         0.95453E-06
         0.15739E-05
         0.20865E-05
         0.16819E-05
         0.14768E-05
         0.96727E-06
         0.16541E-05
         0.22488E-05
         0.23640E-05
         0.19096E-05
         0.11715E-05
         0.20293E-05
         0.74225E-06
         0.94859E-06
         0.88023E-06
         0.10474E-05
         0.10253E-05
         0.99535E-06
         0.10653E-05
         0.11303E-05
         0.10621E-05
         0.82456E-06
         0.67057E-06
         0.86441E-06
         0.11535E-05
         0.12694E-05
         0.12160E-05
         0.10942E-05
         0.99304E-06
         0.80633E-06
         0.67773E-06
         0.88671E-06
         0.11748E-05
         0.12140E-05
         0.97840E-06
         0.79415E-06
         0.97780E-06
         0.11542E-05
         0.24637E-05
         0.19466E-05
         0.20982E-05
         0.36315E-05
         0.19380E-05
         0.24786E-05
         0.13671E-05
         0.16407E-05
         0.27475E-05
         0.19849E-05
         0.80110E-06
         0.15336E-05
         0.16905E-05
         0.13457E-05
         0.17455E-05
         0.32669E-05
         0.25598E-05
         0.32567E-05
         0.18994E-05
         0.21729E-05
         0.20464E-05
         0.22703E-05
         0.17390E-05
         0.10799E-05
         0.20412E-05
         0.17073E-05
         0.17416E-05
         0.17985E-05
         0.15770E-05
         0.19277E-05
         0.24604E-05
         0.17317E-05
         0.27714E-05
         0.24248E-05
         0.10819E-05
         0.16638E-05
         0.18903E-05
         0.19996E-05
         0.19343E-05
         0.15196E-05
         0.95451E-06
         0.15737E-05
         0.20864E-05
         0.16816E-05
         0.14765E-05
         0.96700E-06
         0.16539E-05
         0.22488E-05
         0.23644E-05
         0.19100E-05
         0.11715E-05
         0.20303E-05
         0.74200E-06
         0.94855E-06
         0.87978E-06
         0.10474E-05
         0.10255E-05
         0.99555E-06
         0.10657E-05
         0.11311E-05
         0.10627E-05
         0.82472E-06
         0.67061E-06
         0.86442E-06
         0.11536E-05
         0.12697E-05
         0.12161E-05
         0.10941E-05
         0.99295E-06
         0.80625E-06
         0.67761E-06
         0.88662E-06
         0.11748E-05
         0.12140E-05
         0.97818E-06
         0.79396E-06
         0.97790E-06
         0.11542E-05
         0.24639E-05
         0.19463E-05
         0.20984E-05
         0.36333E-05
         0.19383E-05
         0.24794E-05
         0.13664E-05
         0.16398E-05
         0.27485E-05
         0.19836E-05
         0.80034E-06
         0.15334E-05
         0.16904E-05
         0.13439E-05
         0.17452E-05
         0.32679E-05
         0.25610E-05
         0.32583E-05
         0.18995E-05
         0.21732E-05
         0.20463E-05
         0.22704E-05
         0.17388E-05
         0.10798E-05
         0.20404E-05
         0.17072E-05
         0.17389E-05
         0.17967E-05
         0.15763E-05
         0.19272E-05
         0.24607E-05
         0.17315E-05
         0.27729E-05
         0.24270E-05
         0.10819E-05
         0.16635E-05
         0.18901E-05
         0.19995E-05
         0.19345E-05
         0.15197E-05
         0.95453E-06
         0.15735E-05
         0.20863E-05
         0.16814E-05
         0.14761E-05
         0.96677E-06
         0.16538E-05
         0.22488E-05
         0.23647E-05
         0.19104E-05
         0.11716E-05
         0.20313E-05
         0.74179E-06
         0.94855E-06
         0.87936E-06
         0.10475E-05
         0.10257E-05
         0.99577E-06
         0.10662E-05
         0.11319E-05
         0.10633E-05
         0.82492E-06
         0.67068E-06
         0.86446E-06
         0.11538E-05
         0.12700E-05
         0.12163E-05
         0.10941E-05
         0.99291E-06
         0.80620E-06
         0.67752E-06
         0.88657E-06
         0.11748E-05
         0.12140E-05
         0.97800E-06
         0.79380E-06
         0.97803E-06
         0.11542E-05
         0.12320E-05
         0.97306E-06
         0.10493E-05
         0.18171E-05
         0.96926E-06
         0.12399E-05
         0.68306E-06
         0.81967E-06
         0.13745E-05
         0.99152E-06
         0.39999E-06
         0.76665E-06
         0.84519E-06
         0.67148E-06
         0.87252E-06
         0.16343E-05
         0.12808E-05
         0.16296E-05
         0.94981E-06
         0.10867E-05
         0.10232E-05
         0.11353E-05
         0.86940E-06
         0.53990E-06
         0.10200E-05
         0.85360E-06
         0.86884E-06
         0.89793E-06
         0.78802E-06
         0.96354E-06
         0.12305E-05
         0.86572E-06
         0.13869E-05
         0.12141E-05
         0.54095E-06
         0.83170E-06
         0.94503E-06
         0.99975E-06
         0.96729E-06
         0.75992E-06
         0.47728E-06
         0.78670E-06
         0.10432E-05
         0.84065E-06
         0.73800E-06
         0.48334E-06
         0.82688E-06
         0.11245E-05
         0.11825E-05
         0.95534E-06
         0.58581E-06
         0.10159E-05
         0.37085E-06
         0.47429E-06
         0.43959E-06
         0.52375E-06
         0.51294E-06
         0.49796E-06
         0.53322E-06
         0.56619E-06
         0.53185E-06
         0.41252E-06
         0.33536E-06
         0.43225E-06
         0.57696E-06
         0.63509E-06
         0.60820E-06
         0.54708E-06
         0.49646E-06
         0.40310E-06
         0.33875E-06
         0.44329E-06
         0.58740E-06
         0.60700E-06
         0.48897E-06
         0.39687E-06
         0.48906E-06
         0.57710E-06
  
SCALARS                 Poissons_ratio  double 1
LOOKUP_TABLE default
         0.30000E+00
         0.30000E+00
         0.30000E+00
         0.30000E+00
         0.30000E+00
         0.30000E+00
         0.30000E+00
         0.30000E+00
         0.30000E+00
         0.30000E+00
         0.30000E+00
         0.30000E+00
         0.30000E+00
         0.30000E+00
         0.30000E+00
         0.30000E+00
         0.30000E+00
         0.30000E+00
         0.30000E+00
         0.30000E+00
         0.30000E+00
         0.30000E+00
         0.30000E+00
         0.30000E+00
         0.30000E+00
         0.30000E+00
         0.30000E+00
         0.30000E+00
         0.30000E+00
         0.30000E+00
         0.30000E+00
         0.30000E+00
         0.30000E+00
         0.30000E+00
         0.30000E+00
         0.30000E+00
         0.30000E+00
         0.30000E+00
         0.30000E+00
         0.30000E+00
         0.30000E+00
         0.30000E+00
         0.30000E+00
         0.30000E+00
         0.30000E+00
         0.30000E+00
         0.30000E+00
         0.30000E+00
         0.30000E+00
         0.30000E+00
         0.30000E+00
         0.30000E+00
         0.30000E+00
         0.30000E+00
         0.30000E+00
         0.30000E+00
         0.30000E+00
         0.30000E+00
         0.30000E+00
         0.30000E+00
         0.30000E+00
         0.30000E+00
         0.30000E+00
         0.30000E+00
         0.30000E+00
         0.30000E+00
         0.30000E+00
         0.30000E+00
         0.30000E+00
         0.30000E+00
         0.30000E+00
         0.30000E+00
         0.30000E+00
         0.30000E+00
         0.30000E+00
         0.30000E+00
         0.30000E+00
         0.30000E+00
         0.30000E+00
         0.30000E+00
         0.30000E+00
         0.30000E+00
         0.30000E+00
         0.30000E+00
         0.30000E+00
         0.30000E+00
         0.30000E+00
         0.30000E+00
         0.30000E+00
         0.30000E+00
         0.30000E+00
         0.30000E+00
         0.30000E+00
         0.30000E+00
         0.30000E+00
         0.30000E+00
         0.30000E+00
         0.30000E+00
         0.30000E+00
         0.30000E+00
         0.30000E+00
         0.30000E+00
         0.30000E+00
         0.30000E+00
         0.30000E+00
         0.30000E+00
         0.30000E+00
         0.30000E+00
         0.30000E+00
         0.30000E+00
         0.30000E+00
         0.30000E+00
         0.30000E+00
         0.30000E+00
         0.30000E+00
         0.30000E+00
         0.30000E+00
         0.30000E+00
         0.30000E+00
         0.30000E+00
         0.30000E+00
         0.30000E+00
         0.30000E+00
         0.30000E+00
         0.30000E+00
         0.30000E+00
         0.30000E+00
         0.30000E+00
         0.30000E+00
         0.30000E+00
         0.30000E+00
         0.30000E+00
         0.30000E+00
         0.30000E+00
         0.30000E+00
         0.30000E+00
         0.30000E+00
         0.30000E+00
         0.30000E+00
         0.30000E+00
         0.30000E+00
         0.30000E+00
         0.30000E+00
         0.30000E+00
         0.30000E+00
         0.30000E+00
         0.30000E+00
         0.30000E+00
         0.30000E+00
         0.30000E+00
         0.30000E+00
         0.30000E+00
         0.30000E+00
         0.30000E+00
         0.30000E+00
         0.30000E+00
         0.30000E+00
         0.30000E+00
         0.30000E+00
         0.30000E+00
         0.30000E+00
         0.30000E+00
         0.30000E+00
         0.30000E+00
         0.30000E+00
         0.30000E+00
         0.30000E+00
         0.30000E+00
         0.30000E+00
         0.30000E+00
         0.30000E+00
         0.30000E+00
         0.30000E+00
         0.30000E+00
         0.30000E+00
         0.30000E+00
         0.30000E+00
         0.30000E+00
         0.30000E+00
         0.30000E+00
         0.30000E+00
         0.30000E+00
         0.30000E+00
         0.30000E+00
         0.30000E+00
         0.30000E+00
         0.30000E+00
         0.30000E+00
         0.30000E+00
         0.30000E+00
         0.30000E+00
         0.30000E+00
         0.30000E+00
         0.30000E+00
         0.30000E+00
         0.30000E+00
         0.30000E+00
         0.30000E+00
         0.30000E+00
         0.30000E+00
         0.30000E+00
         0.30000E+00
         0.30000E+00
         0.30000E+00
         0.30000E+00
         0.30000E+00
         0.30000E+00
         0.30000E+00
         0.30000E+00
         0.30000E+00
         0.30000E+00
         0.30000E+00
         0.30000E+00
         0.30000E+00
         0.30000E+00
         0.30000E+00
         0.30000E+00
         0.30000E+00
         0.30000E+00
         0.30000E+00
         0.30000E+00
         0.30000E+00
         0.30000E+00
         0.30000E+00
         0.30000E+00
         0.30000E+00
         0.30000E+00
         0.30000E+00
         0.30000E+00
         0.30000E+00
         0.30000E+00
         0.30000E+00
         0.30000E+00
         0.30000E+00
         0.30000E+00
         0.30000E+00
         0.30000E+00
         0.30000E+00
         0.30000E+00
         0.30000E+00
         0.30000E+00
         0.30000E+00
         0.30000E+00
         0.30000E+00
         0.30000E+00
         0.30000E+00
         0.30000E+00
         0.30000E+00
         0.30000E+00
         0.30000E+00
         0.30000E+00
         0.30000E+00
         0.30000E+00
         0.30000E+00
         0.30000E+00
         0.30000E+00
         0.30000E+00
         0.30000E+00
         0.30000E+00
         0.30000E+00
         0.30000E+00
         0.30000E+00
         0.30000E+00
         0.30000E+00
         0.30000E+00
         0.30000E+00
         0.30000E+00
         0.30000E+00
         0.30000E+00
         0.30000E+00
         0.30000E+00
         0.30000E+00
         0.30000E+00
         0.30000E+00
         0.30000E+00
         0.30000E+00
         0.30000E+00
         0.30000E+00
         0.30000E+00
         0.30000E+00
         0.30000E+00
         0.30000E+00
         0.30000E+00
         0.30000E+00
         0.30000E+00
         0.30000E+00
         0.30000E+00
         0.30000E+00
         0.30000E+00
         0.30000E+00
         0.30000E+00
         0.30000E+00
         0.30000E+00
         0.30000E+00
         0.30000E+00
         0.30000E+00
         0.30000E+00
         0.30000E+00
         0.30000E+00
         0.30000E+00
         0.30000E+00
         0.30000E+00
         0.30000E+00
         0.30000E+00
         0.30000E+00
         0.30000E+00
         0.30000E+00
         0.30000E+00
         0.30000E+00
         0.30000E+00
         0.30000E+00
         0.30000E+00
         0.30000E+00
         0.30000E+00
         0.30000E+00
         0.30000E+00
         0.30000E+00
         0.30000E+00
         0.30000E+00
         0.30000E+00
         0.30000E+00
         0.30000E+00
         0.30000E+00
         0.30000E+00
         0.30000E+00
         0.30000E+00
         0.30000E+00
         0.30000E+00
         0.30000E+00
         0.30000E+00
         0.30000E+00
         0.30000E+00
         0.30000E+00
         0.30000E+00
         0.30000E+00
         0.30000E+00
         0.30000E+00
         0.30000E+00
         0.30000E+00
         0.30000E+00
         0.30000E+00
         0.30000E+00
         0.30000E+00
         0.30000E+00
         0.30000E+00
         0.30000E+00
         0.30000E+00
         0.30000E+00
         0.30000E+00
         0.30000E+00
         0.30000E+00
         0.30000E+00
         0.30000E+00
         0.30000E+00
         0.30000E+00
         0.30000E+00
         0.30000E+00
         0.30000E+00
         0.30000E+00
         0.30000E+00
         0.30000E+00
         0.30000E+00
         0.30000E+00
         0.30000E+00
         0.30000E+00
         0.30000E+00
         0.30000E+00
         0.30000E+00
         0.30000E+00
         0.30000E+00
         0.30000E+00
         0.30000E+00
         0.30000E+00
         0.30000E+00
         0.30000E+00
         0.30000E+00
         0.30000E+00
         0.30000E+00
         0.30000E+00
         0.30000E+00
         0.30000E+00
         0.30000E+00
         0.30000E+00
         0.30000E+00
         0.30000E+00
         0.30000E+00
         0.30000E+00
         0.30000E+00
         0.30000E+00
         0.30000E+00
         0.30000E+00
         0.30000E+00
         0.30000E+00
         0.30000E+00
         0.30000E+00
         0.30000E+00
         0.30000E+00
         0.30000E+00
         0.30000E+00
         0.30000E+00
         0.30000E+00
         0.30000E+00
         0.30000E+00
         0.30000E+00
         0.30000E+00
         0.30000E+00
         0.30000E+00
         0.30000E+00
         0.30000E+00
         0.30000E+00
         0.30000E+00
         0.30000E+00
         0.30000E+00
         0.30000E+00
         0.30000E+00
         0.30000E+00
         0.30000E+00
         0.30000E+00
         0.30000E+00
         0.30000E+00
         0.30000E+00
         0.30000E+00
         0.30000E+00
         0.30000E+00
         0.30000E+00
         0.30000E+00
         0.30000E+00
         0.30000E+00
         0.30000E+00
         0.30000E+00
         0.30000E+00
         0.30000E+00
         0.30000E+00
         0.30000E+00
         0.30000E+00
         0.30000E+00
         0.30000E+00
         0.30000E+00
         0.30000E+00
         0.30000E+00
         0.30000E+00
         0.30000E+00
         0.30000E+00
         0.30000E+00
         0.30000E+00
         0.30000E+00
         0.30000E+00
         0.30000E+00
         0.30000E+00
         0.30000E+00
         0.30000E+00
         0.30000E+00
         0.30000E+00
         0.30000E+00
         0.30000E+00
         0.30000E+00
         0.30000E+00
         0.30000E+00
         0.30000E+00
         0.30000E+00
         0.30000E+00
         0.30000E+00
         0.30000E+00
         0.30000E+00
         0.30000E+00
         0.30000E+00
         0.30000E+00
         0.30000E+00
         0.30000E+00
         0.30000E+00
         0.30000E+00
         0.30000E+00
         0.30000E+00
         0.30000E+00
         0.30000E+00
         0.30000E+00
         0.30000E+00
         0.30000E+00
         0.30000E+00
         0.30000E+00
         0.30000E+00
         0.30000E+00
         0.30000E+00
         0.30000E+00
         0.30000E+00
         0.30000E+00
         0.30000E+00
         0.30000E+00
         0.30000E+00
         0.30000E+00
         0.30000E+00
         0.30000E+00
         0.30000E+00
         0.30000E+00
         0.30000E+00
         0.30000E+00
         0.30000E+00
         0.30000E+00
         0.30000E+00
         0.30000E+00
         0.30000E+00
         0.30000E+00
         0.30000E+00
         0.30000E+00
         0.30000E+00
         0.30000E+00
         0.30000E+00
         0.30000E+00
         0.30000E+00
         0.30000E+00
         0.30000E+00
         0.30000E+00
         0.30000E+00
         0.30000E+00
         0.30000E+00
         0.30000E+00
         0.30000E+00
         0.30000E+00
         0.30000E+00
         0.30000E+00
         0.30000E+00
         0.30000E+00
         0.30000E+00
         0.30000E+00
         0.30000E+00
         0.30000E+00
         0.30000E+00
         0.30000E+00
         0.30000E+00
         0.30000E+00
         0.30000E+00
         0.30000E+00
         0.30000E+00
         0.30000E+00
         0.30000E+00
         0.30000E+00
         0.30000E+00
         0.30000E+00
         0.30000E+00
         0.30000E+00
         0.30000E+00
         0.30000E+00
         0.30000E+00
         0.30000E+00
         0.30000E+00
         0.30000E+00
         0.30000E+00
         0.30000E+00
         0.30000E+00
         0.30000E+00
         0.30000E+00
         0.30000E+00
         0.30000E+00
         0.30000E+00
         0.30000E+00
         0.30000E+00
         0.30000E+00
         0.30000E+00
         0.30000E+00
         0.30000E+00
         0.30000E+00
         0.30000E+00
         0.30000E+00
         0.30000E+00
         0.30000E+00
         0.30000E+00
         0.30000E+00
         0.30000E+00
         0.30000E+00
         0.30000E+00
         0.30000E+00
         0.30000E+00
         0.30000E+00
         0.30000E+00
         0.30000E+00
         0.30000E+00
         0.30000E+00
         0.30000E+00
         0.30000E+00
         0.30000E+00
         0.30000E+00
         0.30000E+00
         0.30000E+00
         0.30000E+00
         0.30000E+00
         0.30000E+00
         0.30000E+00
         0.30000E+00
         0.30000E+00
         0.30000E+00
         0.30000E+00
         0.30000E+00
         0.30000E+00
         0.30000E+00
         0.30000E+00
         0.30000E+00
         0.30000E+00
         0.30000E+00
         0.30000E+00
         0.30000E+00
         0.30000E+00
         0.30000E+00
         0.30000E+00
         0.30000E+00
         0.30000E+00
         0.30000E+00
         0.30000E+00
         0.30000E+00
         0.30000E+00
         0.30000E+00
         0.30000E+00
         0.30000E+00
         0.30000E+00
         0.30000E+00
         0.30000E+00
         0.30000E+00
         0.30000E+00
         0.30000E+00
         0.30000E+00
         0.30000E+00
         0.30000E+00
         0.30000E+00
         0.30000E+00
         0.30000E+00
         0.30000E+00
         0.30000E+00
         0.30000E+00
         0.30000E+00
         0.30000E+00
         0.30000E+00
         0.30000E+00
         0.30000E+00
         0.30000E+00
         0.30000E+00
         0.30000E+00
         0.30000E+00
         0.30000E+00
         0.30000E+00
         0.30000E+00
         0.30000E+00
         0.30000E+00
         0.30000E+00
         0.30000E+00
         0.30000E+00
         0.30000E+00
         0.30000E+00
         0.30000E+00
         0.30000E+00
         0.30000E+00
         0.30000E+00
         0.30000E+00
         0.30000E+00
         0.30000E+00
         0.30000E+00
         0.30000E+00
         0.30000E+00
         0.30000E+00
         0.30000E+00
         0.30000E+00
         0.30000E+00
         0.30000E+00
         0.30000E+00
         0.30000E+00
         0.30000E+00
         0.30000E+00
         0.30000E+00
         0.30000E+00
         0.30000E+00
         0.30000E+00
         0.30000E+00
         0.30000E+00
         0.30000E+00
         0.30000E+00
         0.30000E+00
         0.30000E+00
         0.30000E+00
         0.30000E+00
         0.30000E+00
         0.30000E+00
         0.30000E+00
         0.30000E+00
         0.30000E+00
         0.30000E+00
         0.30000E+00
         0.30000E+00
         0.30000E+00
         0.30000E+00
         0.30000E+00
         0.30000E+00
         0.30000E+00
         0.30000E+00
         0.30000E+00
         0.30000E+00
         0.30000E+00
         0.30000E+00
         0.30000E+00
         0.30000E+00
         0.30000E+00
         0.30000E+00
         0.30000E+00
         0.30000E+00
         0.30000E+00
         0.30000E+00
         0.30000E+00
         0.30000E+00
         0.30000E+00
         0.30000E+00
         0.30000E+00
         0.30000E+00
         0.30000E+00
         0.30000E+00
         0.30000E+00
         0.30000E+00
         0.30000E+00
         0.30000E+00
         0.30000E+00
         0.30000E+00
         0.30000E+00
         0.30000E+00
         0.30000E+00
         0.30000E+00
         0.30000E+00
         0.30000E+00
         0.30000E+00
         0.30000E+00
         0.30000E+00
         0.30000E+00
         0.30000E+00
         0.30000E+00
         0.30000E+00
         0.30000E+00
         0.30000E+00
         0.30000E+00
         0.30000E+00
         0.30000E+00
         0.30000E+00
         0.30000E+00
         0.30000E+00
         0.30000E+00
         0.30000E+00
         0.30000E+00
         0.30000E+00
         0.30000E+00
         0.30000E+00
         0.30000E+00
         0.30000E+00
         0.30000E+00
         0.30000E+00
         0.30000E+00
         0.30000E+00
         0.30000E+00
         0.30000E+00
         0.30000E+00
         0.30000E+00
         0.30000E+00
         0.30000E+00
         0.30000E+00
         0.30000E+00
         0.30000E+00
         0.30000E+00
         0.30000E+00
         0.30000E+00
         0.30000E+00
         0.30000E+00
         0.30000E+00
         0.30000E+00
         0.30000E+00
         0.30000E+00
         0.30000E+00
         0.30000E+00
         0.30000E+00
         0.30000E+00
         0.30000E+00
         0.30000E+00
         0.30000E+00
         0.30000E+00
         0.30000E+00
         0.30000E+00
         0.30000E+00
         0.30000E+00
         0.30000E+00
         0.30000E+00
         0.30000E+00
         0.30000E+00
         0.30000E+00
         0.30000E+00
         0.30000E+00
         0.30000E+00
         0.30000E+00
         0.30000E+00
         0.30000E+00
         0.30000E+00
         0.30000E+00
         0.30000E+00
         0.30000E+00
         0.30000E+00
         0.30000E+00
         0.30000E+00
         0.30000E+00
         0.30000E+00
         0.30000E+00
         0.30000E+00
         0.30000E+00
         0.30000E+00
         0.30000E+00
         0.30000E+00
         0.30000E+00
         0.30000E+00
         0.30000E+00
         0.30000E+00
         0.30000E+00
         0.30000E+00
         0.30000E+00
         0.30000E+00
         0.30000E+00
         0.30000E+00
         0.30000E+00
         0.30000E+00
         0.30000E+00
         0.30000E+00
         0.30000E+00
         0.30000E+00
         0.30000E+00
         0.30000E+00
         0.30000E+00
         0.30000E+00
         0.30000E+00
         0.30000E+00
         0.30000E+00
         0.30000E+00
         0.30000E+00
         0.30000E+00
         0.30000E+00
         0.30000E+00
         0.30000E+00
         0.30000E+00
         0.30000E+00
         0.30000E+00
         0.30000E+00
         0.30000E+00
         0.30000E+00
         0.30000E+00
         0.30000E+00
         0.30000E+00
         0.30000E+00
         0.30000E+00
         0.30000E+00
         0.30000E+00
         0.30000E+00
         0.30000E+00
         0.30000E+00
         0.30000E+00
         0.30000E+00
         0.30000E+00
         0.30000E+00
         0.30000E+00
         0.30000E+00
         0.30000E+00
         0.30000E+00
         0.30000E+00
         0.30000E+00
         0.30000E+00
         0.30000E+00
         0.30000E+00
         0.30000E+00
         0.30000E+00
         0.30000E+00
         0.30000E+00
         0.30000E+00
         0.30000E+00
         0.30000E+00
         0.30000E+00
         0.30000E+00
         0.30000E+00
         0.30000E+00
         0.30000E+00
         0.30000E+00
         0.30000E+00
         0.30000E+00
         0.30000E+00
         0.30000E+00
         0.30000E+00
         0.30000E+00
         0.30000E+00
         0.30000E+00
         0.30000E+00
         0.30000E+00
         0.30000E+00
         0.30000E+00
         0.30000E+00
         0.30000E+00
         0.30000E+00
         0.30000E+00
         0.30000E+00
         0.30000E+00
         0.30000E+00
         0.30000E+00
         0.30000E+00
         0.30000E+00
         0.30000E+00
         0.30000E+00
         0.30000E+00
         0.30000E+00
         0.30000E+00
         0.30000E+00
         0.30000E+00
         0.30000E+00
         0.30000E+00
         0.30000E+00
         0.30000E+00
         0.30000E+00
         0.30000E+00
         0.30000E+00
         0.30000E+00
         0.30000E+00
         0.30000E+00
         0.30000E+00
         0.30000E+00
         0.30000E+00
         0.30000E+00
         0.30000E+00
         0.30000E+00
         0.30000E+00
         0.30000E+00
         0.30000E+00
         0.30000E+00
         0.30000E+00
         0.30000E+00
         0.30000E+00
         0.30000E+00
         0.30000E+00
         0.30000E+00
         0.30000E+00
         0.30000E+00
         0.30000E+00
         0.30000E+00
         0.30000E+00
         0.30000E+00
         0.30000E+00
         0.30000E+00
         0.30000E+00
         0.30000E+00
         0.30000E+00
         0.30000E+00
         0.30000E+00
         0.30000E+00
         0.30000E+00
         0.30000E+00
         0.30000E+00
         0.30000E+00
         0.30000E+00
         0.30000E+00
         0.30000E+00
         0.30000E+00
         0.30000E+00
         0.30000E+00
         0.30000E+00
         0.30000E+00
         0.30000E+00
         0.30000E+00
         0.30000E+00
         0.30000E+00
         0.30000E+00
         0.30000E+00
         0.30000E+00
         0.30000E+00
         0.30000E+00
         0.30000E+00
         0.30000E+00
         0.30000E+00
         0.30000E+00
         0.30000E+00
         0.30000E+00
         0.30000E+00
         0.30000E+00
         0.30000E+00
         0.30000E+00
         0.30000E+00
         0.30000E+00
         0.30000E+00
         0.30000E+00
         0.30000E+00
         0.30000E+00
         0.30000E+00
         0.30000E+00
         0.30000E+00
         0.30000E+00
         0.30000E+00
         0.30000E+00
         0.30000E+00
         0.30000E+00
         0.30000E+00
         0.30000E+00
         0.30000E+00
         0.30000E+00
         0.30000E+00
         0.30000E+00
         0.30000E+00
         0.30000E+00
         0.30000E+00
         0.30000E+00
         0.30000E+00
         0.30000E+00
         0.30000E+00
         0.30000E+00
         0.30000E+00
         0.30000E+00
         0.30000E+00
         0.30000E+00
         0.30000E+00
         0.30000E+00
         0.30000E+00
         0.30000E+00
         0.30000E+00
         0.30000E+00
         0.30000E+00
         0.30000E+00
         0.30000E+00
         0.30000E+00
         0.30000E+00
         0.30000E+00
         0.30000E+00
         0.30000E+00
         0.30000E+00
         0.30000E+00
         0.30000E+00
         0.30000E+00
         0.30000E+00
         0.30000E+00
         0.30000E+00
         0.30000E+00
         0.30000E+00
         0.30000E+00
         0.30000E+00
         0.30000E+00
         0.30000E+00
         0.30000E+00
         0.30000E+00
         0.30000E+00
         0.30000E+00
         0.30000E+00
         0.30000E+00
         0.30000E+00
         0.30000E+00
         0.30000E+00
         0.30000E+00
         0.30000E+00
         0.30000E+00
         0.30000E+00
         0.30000E+00
         0.30000E+00
         0.30000E+00
         0.30000E+00
         0.30000E+00
         0.30000E+00
         0.30000E+00
         0.30000E+00
         0.30000E+00
         0.30000E+00
         0.30000E+00
         0.30000E+00
         0.30000E+00
         0.30000E+00
         0.30000E+00
         0.30000E+00
         0.30000E+00
         0.30000E+00
         0.30000E+00
         0.30000E+00
         0.30000E+00
         0.30000E+00
         0.30000E+00
         0.30000E+00
         0.30000E+00
         0.30000E+00
         0.30000E+00
         0.30000E+00
         0.30000E+00
         0.30000E+00
         0.30000E+00
         0.30000E+00
         0.30000E+00
         0.30000E+00
         0.30000E+00
         0.30000E+00
         0.30000E+00
         0.30000E+00
         0.30000E+00
         0.30000E+00
         0.30000E+00
         0.30000E+00
         0.30000E+00
         0.30000E+00
         0.30000E+00
         0.30000E+00
         0.30000E+00
         0.30000E+00
         0.30000E+00
         0.30000E+00
         0.30000E+00
         0.30000E+00
         0.30000E+00
         0.30000E+00
         0.30000E+00
         0.30000E+00
         0.30000E+00
         0.30000E+00
         0.30000E+00
         0.30000E+00
         0.30000E+00
         0.30000E+00
         0.30000E+00
         0.30000E+00
         0.30000E+00
         0.30000E+00
         0.30000E+00
         0.30000E+00
         0.30000E+00
         0.30000E+00
         0.30000E+00
         0.30000E+00
         0.30000E+00
         0.30000E+00
         0.30000E+00
         0.30000E+00
         0.30000E+00
         0.30000E+00
         0.30000E+00
         0.30000E+00
         0.30000E+00
         0.30000E+00
         0.30000E+00
         0.30000E+00
         0.30000E+00
         0.30000E+00
         0.30000E+00
         0.30000E+00
         0.30000E+00
         0.30000E+00
         0.30000E+00
         0.30000E+00
         0.30000E+00
         0.30000E+00
         0.30000E+00
         0.30000E+00
         0.30000E+00
         0.30000E+00
         0.30000E+00
         0.30000E+00
         0.30000E+00
         0.30000E+00
         0.30000E+00
         0.30000E+00
         0.30000E+00
         0.30000E+00
         0.30000E+00
         0.30000E+00
         0.30000E+00
         0.30000E+00
         0.30000E+00
         0.30000E+00
         0.30000E+00
         0.30000E+00
         0.30000E+00
         0.30000E+00
         0.30000E+00
         0.30000E+00
         0.30000E+00
         0.30000E+00
         0.30000E+00
         0.30000E+00
         0.30000E+00
         0.30000E+00
         0.30000E+00
         0.30000E+00
         0.30000E+00
         0.30000E+00
         0.30000E+00
         0.30000E+00
         0.30000E+00
         0.30000E+00
         0.30000E+00
         0.30000E+00
         0.30000E+00
         0.30000E+00
         0.30000E+00
         0.30000E+00
         0.30000E+00
         0.30000E+00
         0.30000E+00
         0.30000E+00
         0.30000E+00
         0.30000E+00
         0.30000E+00
         0.30000E+00
         0.30000E+00
         0.30000E+00
         0.30000E+00
         0.30000E+00
         0.30000E+00
         0.30000E+00
         0.30000E+00
         0.30000E+00
         0.30000E+00
         0.30000E+00
         0.30000E+00
         0.30000E+00
         0.30000E+00
         0.30000E+00
         0.30000E+00
         0.30000E+00
         0.30000E+00
         0.30000E+00
         0.30000E+00
         0.30000E+00
         0.30000E+00
         0.30000E+00
         0.30000E+00
         0.30000E+00
         0.30000E+00
         0.30000E+00
         0.30000E+00
         0.30000E+00
         0.30000E+00
         0.30000E+00
         0.30000E+00
         0.30000E+00
         0.30000E+00
         0.30000E+00
         0.30000E+00
         0.30000E+00
         0.30000E+00
         0.30000E+00
         0.30000E+00
         0.30000E+00
         0.30000E+00
         0.30000E+00
         0.30000E+00
         0.30000E+00
         0.30000E+00
         0.30000E+00
         0.30000E+00
         0.30000E+00
         0.30000E+00
         0.30000E+00
         0.30000E+00
         0.30000E+00
         0.30000E+00
         0.30000E+00
         0.30000E+00
         0.30000E+00
         0.30000E+00
         0.30000E+00
         0.30000E+00
         0.30000E+00
         0.30000E+00
         0.30000E+00
         0.30000E+00
         0.30000E+00
         0.30000E+00
         0.30000E+00
         0.30000E+00
         0.30000E+00
         0.30000E+00
         0.30000E+00
         0.30000E+00
         0.30000E+00
         0.30000E+00
         0.30000E+00
         0.30000E+00
         0.30000E+00
         0.30000E+00
         0.30000E+00
         0.30000E+00
         0.30000E+00
         0.30000E+00
         0.30000E+00
         0.30000E+00
         0.30000E+00
         0.30000E+00
         0.30000E+00
         0.30000E+00
         0.30000E+00
         0.30000E+00
         0.30000E+00
         0.30000E+00
         0.30000E+00
         0.30000E+00
         0.30000E+00
         0.30000E+00
         0.30000E+00
         0.30000E+00
         0.30000E+00
         0.30000E+00
         0.30000E+00
         0.30000E+00
         0.30000E+00
         0.30000E+00
         0.30000E+00
         0.30000E+00
         0.30000E+00
         0.30000E+00
         0.30000E+00
         0.30000E+00
         0.30000E+00
         0.30000E+00
         0.30000E+00
         0.30000E+00
         0.30000E+00
         0.30000E+00
         0.30000E+00
         0.30000E+00
         0.30000E+00
         0.30000E+00
         0.30000E+00
         0.30000E+00
         0.30000E+00
         0.30000E+00
         0.30000E+00
         0.30000E+00
         0.30000E+00
         0.30000E+00
         0.30000E+00
         0.30000E+00
         0.30000E+00
         0.30000E+00
         0.30000E+00
         0.30000E+00
         0.30000E+00
         0.30000E+00
         0.30000E+00
         0.30000E+00
         0.30000E+00
         0.30000E+00
         0.30000E+00
         0.30000E+00
         0.30000E+00
         0.30000E+00
         0.30000E+00
         0.30000E+00
         0.30000E+00
         0.30000E+00
         0.30000E+00
         0.30000E+00
         0.30000E+00
         0.30000E+00
         0.30000E+00
         0.30000E+00
         0.30000E+00
         0.30000E+00
         0.30000E+00
         0.30000E+00
         0.30000E+00
         0.30000E+00
         0.30000E+00
         0.30000E+00
         0.30000E+00
         0.30000E+00
         0.30000E+00
         0.30000E+00
         0.30000E+00
         0.30000E+00
         0.30000E+00
         0.30000E+00
         0.30000E+00
         0.30000E+00
         0.30000E+00
         0.30000E+00
         0.30000E+00
         0.30000E+00
         0.30000E+00
         0.30000E+00
         0.30000E+00
         0.30000E+00
         0.30000E+00
         0.30000E+00
         0.30000E+00
         0.30000E+00
         0.30000E+00
         0.30000E+00
         0.30000E+00
         0.30000E+00
         0.30000E+00
         0.30000E+00
         0.30000E+00
         0.30000E+00
         0.30000E+00
         0.30000E+00
         0.30000E+00
         0.30000E+00
         0.30000E+00
         0.30000E+00
         0.30000E+00
         0.30000E+00
         0.30000E+00
         0.30000E+00
         0.30000E+00
         0.30000E+00
         0.30000E+00
         0.30000E+00
         0.30000E+00
         0.30000E+00
         0.30000E+00
         0.30000E+00
         0.30000E+00
         0.30000E+00
         0.30000E+00
         0.30000E+00
         0.30000E+00
         0.30000E+00
         0.30000E+00
         0.30000E+00
         0.30000E+00
         0.30000E+00
         0.30000E+00
         0.30000E+00
         0.30000E+00
         0.30000E+00
         0.30000E+00
         0.30000E+00
         0.30000E+00
         0.30000E+00
         0.30000E+00
         0.30000E+00
         0.30000E+00
         0.30000E+00
         0.30000E+00
         0.30000E+00
         0.30000E+00
         0.30000E+00
         0.30000E+00
         0.30000E+00
         0.30000E+00
         0.30000E+00
         0.30000E+00
         0.30000E+00
         0.30000E+00
         0.30000E+00
         0.30000E+00
         0.30000E+00
         0.30000E+00
         0.30000E+00
         0.30000E+00
         0.30000E+00
         0.30000E+00
         0.30000E+00
         0.30000E+00
         0.30000E+00
         0.30000E+00
         0.30000E+00
         0.30000E+00
         0.30000E+00
         0.30000E+00
         0.30000E+00
         0.30000E+00
         0.30000E+00
         0.30000E+00
         0.30000E+00
         0.30000E+00
         0.30000E+00
         0.30000E+00
         0.30000E+00
         0.30000E+00
         0.30000E+00
         0.30000E+00
         0.30000E+00
         0.30000E+00
         0.30000E+00
         0.30000E+00
         0.30000E+00
         0.30000E+00
         0.30000E+00
         0.30000E+00
         0.30000E+00
         0.30000E+00
         0.30000E+00
         0.30000E+00
         0.30000E+00
         0.30000E+00
         0.30000E+00
         0.30000E+00
         0.30000E+00
         0.30000E+00
         0.30000E+00
         0.30000E+00
         0.30000E+00
         0.30000E+00
         0.30000E+00
         0.30000E+00
         0.30000E+00
         0.30000E+00
         0.30000E+00
         0.30000E+00
         0.30000E+00
         0.30000E+00
         0.30000E+00
         0.30000E+00
         0.30000E+00
         0.30000E+00
         0.30000E+00
         0.30000E+00
         0.30000E+00
         0.30000E+00
         0.30000E+00
         0.30000E+00
         0.30000E+00
         0.30000E+00
         0.30000E+00
         0.30000E+00
         0.30000E+00
         0.30000E+00
         0.30000E+00
         0.30000E+00
         0.30000E+00
         0.30000E+00
         0.30000E+00
         0.30000E+00
         0.30000E+00
         0.30000E+00
         0.30000E+00
         0.30000E+00
         0.30000E+00
         0.30000E+00
         0.30000E+00
         0.30000E+00
         0.30000E+00
         0.30000E+00
         0.30000E+00
         0.30000E+00
         0.30000E+00
         0.30000E+00
         0.30000E+00
         0.30000E+00
         0.30000E+00
         0.30000E+00
         0.30000E+00
         0.30000E+00
         0.30000E+00
         0.30000E+00
         0.30000E+00
         0.30000E+00
         0.30000E+00
         0.30000E+00
         0.30000E+00
         0.30000E+00
         0.30000E+00
         0.30000E+00
         0.30000E+00
         0.30000E+00
         0.30000E+00
         0.30000E+00
         0.30000E+00
         0.30000E+00
         0.30000E+00
         0.30000E+00
         0.30000E+00
         0.30000E+00
         0.30000E+00
         0.30000E+00
         0.30000E+00
         0.30000E+00
         0.30000E+00
         0.30000E+00
         0.30000E+00
         0.30000E+00
         0.30000E+00
         0.30000E+00
         0.30000E+00
         0.30000E+00
         0.30000E+00
         0.30000E+00
         0.30000E+00
         0.30000E+00
         0.30000E+00
         0.30000E+00
         0.30000E+00
         0.30000E+00
         0.30000E+00
         0.30000E+00
         0.30000E+00
         0.30000E+00
         0.30000E+00
         0.30000E+00
         0.30000E+00
         0.30000E+00
         0.30000E+00
         0.30000E+00
         0.30000E+00
         0.30000E+00
         0.30000E+00
         0.30000E+00
         0.30000E+00
         0.30000E+00
         0.30000E+00
         0.30000E+00
         0.30000E+00
         0.30000E+00
         0.30000E+00
         0.30000E+00
         0.30000E+00
         0.30000E+00
         0.30000E+00
         0.30000E+00
         0.30000E+00
         0.30000E+00
         0.30000E+00
         0.30000E+00
         0.30000E+00
         0.30000E+00
         0.30000E+00
         0.30000E+00
         0.30000E+00
         0.30000E+00
         0.30000E+00
         0.30000E+00
         0.30000E+00
         0.30000E+00
         0.30000E+00
         0.30000E+00
         0.30000E+00
         0.30000E+00
         0.30000E+00
         0.30000E+00
         0.30000E+00
         0.30000E+00
         0.30000E+00
         0.30000E+00
         0.30000E+00
         0.30000E+00
         0.30000E+00
         0.30000E+00
         0.30000E+00
         0.30000E+00
         0.30000E+00
         0.30000E+00
         0.30000E+00
         0.30000E+00
         0.30000E+00
         0.30000E+00
         0.30000E+00
         0.30000E+00
         0.30000E+00
         0.30000E+00
         0.30000E+00
         0.30000E+00
         0.30000E+00
         0.30000E+00
         0.30000E+00
         0.30000E+00
         0.30000E+00
         0.30000E+00
         0.30000E+00
         0.30000E+00
         0.30000E+00
         0.30000E+00
         0.30000E+00
         0.30000E+00
         0.30000E+00
         0.30000E+00
         0.30000E+00
         0.30000E+00
         0.30000E+00
         0.30000E+00
         0.30000E+00
         0.30000E+00
         0.30000E+00
         0.30000E+00
         0.30000E+00
         0.30000E+00
         0.30000E+00
         0.30000E+00
         0.30000E+00
         0.30000E+00
         0.30000E+00
         0.30000E+00
         0.30000E+00
         0.30000E+00
         0.30000E+00
         0.30000E+00
         0.30000E+00
         0.30000E+00
         0.30000E+00
         0.30000E+00
         0.30000E+00
         0.30000E+00
         0.30000E+00
         0.30000E+00
         0.30000E+00
         0.30000E+00
         0.30000E+00
         0.30000E+00
         0.30000E+00
         0.30000E+00
         0.30000E+00
         0.30000E+00
         0.30000E+00
         0.30000E+00
         0.30000E+00
         0.30000E+00
         0.30000E+00
         0.30000E+00
         0.30000E+00
         0.30000E+00
         0.30000E+00
         0.30000E+00
         0.30000E+00
         0.30000E+00
         0.30000E+00
         0.30000E+00
         0.30000E+00
         0.30000E+00
         0.30000E+00
         0.30000E+00
         0.30000E+00
         0.30000E+00
         0.30000E+00
         0.30000E+00
         0.30000E+00
         0.30000E+00
         0.30000E+00
         0.30000E+00
         0.30000E+00
         0.30000E+00
         0.30000E+00
         0.30000E+00
         0.30000E+00
         0.30000E+00
         0.30000E+00
         0.30000E+00
         0.30000E+00
         0.30000E+00
         0.30000E+00
         0.30000E+00
         0.30000E+00
         0.30000E+00
         0.30000E+00
         0.30000E+00
         0.30000E+00
         0.30000E+00
         0.30000E+00
         0.30000E+00
         0.30000E+00
         0.30000E+00
         0.30000E+00
         0.30000E+00
         0.30000E+00
         0.30000E+00
         0.30000E+00
         0.30000E+00
         0.30000E+00
         0.30000E+00
         0.30000E+00
         0.30000E+00
         0.30000E+00
         0.30000E+00
         0.30000E+00
         0.30000E+00
         0.30000E+00
         0.30000E+00
         0.30000E+00
         0.30000E+00
         0.30000E+00
         0.30000E+00
         0.30000E+00
         0.30000E+00
         0.30000E+00
         0.30000E+00
         0.30000E+00
         0.30000E+00
         0.30000E+00
         0.30000E+00
         0.30000E+00
         0.30000E+00
         0.30000E+00
         0.30000E+00
         0.30000E+00
         0.30000E+00
         0.30000E+00
         0.30000E+00
         0.30000E+00
         0.30000E+00
         0.30000E+00
         0.30000E+00
         0.30000E+00
         0.30000E+00
         0.30000E+00
         0.30000E+00
         0.30000E+00
         0.30000E+00
         0.30000E+00
         0.30000E+00
         0.30000E+00
         0.30000E+00
         0.30000E+00
         0.30000E+00
         0.30000E+00
         0.30000E+00
         0.30000E+00
         0.30000E+00
         0.30000E+00
         0.30000E+00
         0.30000E+00
         0.30000E+00
         0.30000E+00
         0.30000E+00
         0.30000E+00
         0.30000E+00
         0.30000E+00
         0.30000E+00
         0.30000E+00
         0.30000E+00
         0.30000E+00
         0.30000E+00
         0.30000E+00
         0.30000E+00
         0.30000E+00
         0.30000E+00
         0.30000E+00
         0.30000E+00
         0.30000E+00
         0.30000E+00
         0.30000E+00
         0.30000E+00
         0.30000E+00
         0.30000E+00
         0.30000E+00
         0.30000E+00
         0.30000E+00
         0.30000E+00
         0.30000E+00
         0.30000E+00
         0.30000E+00
         0.30000E+00
         0.30000E+00
         0.30000E+00
         0.30000E+00
         0.30000E+00
         0.30000E+00
         0.30000E+00
         0.30000E+00
         0.30000E+00
         0.30000E+00
         0.30000E+00
         0.30000E+00
         0.30000E+00
         0.30000E+00
         0.30000E+00
         0.30000E+00
         0.30000E+00
         0.30000E+00
         0.30000E+00
         0.30000E+00
         0.30000E+00
         0.30000E+00
         0.30000E+00
         0.30000E+00
         0.30000E+00
         0.30000E+00
         0.30000E+00
         0.30000E+00
         0.30000E+00
         0.30000E+00
         0.30000E+00
         0.30000E+00
         0.30000E+00
         0.30000E+00
         0.30000E+00
         0.30000E+00
         0.30000E+00
         0.30000E+00
         0.30000E+00
         0.30000E+00
         0.30000E+00
         0.30000E+00
         0.30000E+00
         0.30000E+00
         0.30000E+00
         0.30000E+00
         0.30000E+00
         0.30000E+00
         0.30000E+00
         0.30000E+00
         0.30000E+00
         0.30000E+00
         0.30000E+00
         0.30000E+00
         0.30000E+00
         0.30000E+00
         0.30000E+00
         0.30000E+00
         0.30000E+00
         0.30000E+00
         0.30000E+00
         0.30000E+00
         0.30000E+00
         0.30000E+00
         0.30000E+00
         0.30000E+00
         0.30000E+00
         0.30000E+00
         0.30000E+00
         0.30000E+00
         0.30000E+00
         0.30000E+00
         0.30000E+00
         0.30000E+00
         0.30000E+00
         0.30000E+00
         0.30000E+00
         0.30000E+00
         0.30000E+00
         0.30000E+00
         0.30000E+00
         0.30000E+00
         0.30000E+00
         0.30000E+00
         0.30000E+00
         0.30000E+00
         0.30000E+00
         0.30000E+00
         0.30000E+00
         0.30000E+00
         0.30000E+00
         0.30000E+00
         0.30000E+00
         0.30000E+00
         0.30000E+00
         0.30000E+00
         0.30000E+00
         0.30000E+00
         0.30000E+00
         0.30000E+00
         0.30000E+00
         0.30000E+00
         0.30000E+00
         0.30000E+00
         0.30000E+00
         0.30000E+00
         0.30000E+00
         0.30000E+00
         0.30000E+00
         0.30000E+00
         0.30000E+00
         0.30000E+00
         0.30000E+00
         0.30000E+00
         0.30000E+00
         0.30000E+00
         0.30000E+00
         0.30000E+00
  
SCALARS                 Youngs_modulus  double 1
LOOKUP_TABLE default
         0.78200E+11
         0.78200E+11
         0.78200E+11
         0.78200E+11
         0.78200E+11
         0.78200E+11
         0.78200E+11
         0.78200E+11
         0.78200E+11
         0.78200E+11
         0.78200E+11
         0.78200E+11
         0.78200E+11
         0.78200E+11
         0.78200E+11
         0.78200E+11
         0.78200E+11
         0.78200E+11
         0.78200E+11
         0.78200E+11
         0.78200E+11
         0.78200E+11
         0.78200E+11
         0.78200E+11
         0.78200E+11
         0.78200E+11
         0.78200E+11
         0.78200E+11
         0.78200E+11
         0.78200E+11
         0.78200E+11
         0.78200E+11
         0.78200E+11
         0.78200E+11
         0.78200E+11
         0.78200E+11
         0.78200E+11
         0.78200E+11
         0.78200E+11
         0.78200E+11
         0.78200E+11
         0.78200E+11
         0.78200E+11
         0.78200E+11
         0.78200E+11
         0.78200E+11
         0.78200E+11
         0.78200E+11
         0.78200E+11
         0.78200E+11
         0.78200E+11
         0.78200E+11
         0.78200E+11
         0.78200E+11
         0.78200E+11
         0.78200E+11
         0.78200E+11
         0.78200E+11
         0.78200E+11
         0.78200E+11
         0.78200E+11
         0.78200E+11
         0.78200E+11
         0.78200E+11
         0.78200E+11
         0.78200E+11
         0.78200E+11
         0.78200E+11
         0.78200E+11
         0.78200E+11
         0.78200E+11
         0.78200E+11
         0.78200E+11
         0.78200E+11
         0.78200E+11
         0.78200E+11
         0.78200E+11
         0.78200E+11
         0.78200E+11
         0.78200E+11
         0.78200E+11
         0.78200E+11
         0.78200E+11
         0.78200E+11
         0.78200E+11
         0.78200E+11
         0.78200E+11
         0.78200E+11
         0.78200E+11
         0.78200E+11
         0.78200E+11
         0.78200E+11
         0.78200E+11
         0.78200E+11
         0.78200E+11
         0.78200E+11
         0.78200E+11
         0.78200E+11
         0.78200E+11
         0.78200E+11
         0.78200E+11
         0.78200E+11
         0.78200E+11
         0.78200E+11
         0.78200E+11
         0.78200E+11
         0.78200E+11
         0.78200E+11
         0.78200E+11
         0.78200E+11
         0.78200E+11
         0.78200E+11
         0.78200E+11
         0.78200E+11
         0.78200E+11
         0.78200E+11
         0.78200E+11
         0.78200E+11
         0.78200E+11
         0.78200E+11
         0.78200E+11
         0.78200E+11
         0.78200E+11
         0.78200E+11
         0.78200E+11
         0.78200E+11
         0.78200E+11
         0.78200E+11
         0.78200E+11
         0.78200E+11
         0.78200E+11
         0.78200E+11
         0.78200E+11
         0.78200E+11
         0.78200E+11
         0.78200E+11
         0.78200E+11
         0.78200E+11
         0.78200E+11
         0.78200E+11
         0.78200E+11
         0.78200E+11
         0.78200E+11
         0.78200E+11
         0.78200E+11
         0.78200E+11
         0.78200E+11
         0.78200E+11
         0.78200E+11
         0.78200E+11
         0.78200E+11
         0.78200E+11
         0.78200E+11
         0.78200E+11
         0.78200E+11
         0.78200E+11
         0.78200E+11
         0.78200E+11
         0.78200E+11
         0.78200E+11
         0.78200E+11
         0.78200E+11
         0.78200E+11
         0.78200E+11
         0.78200E+11
         0.78200E+11
         0.78200E+11
         0.78200E+11
         0.78200E+11
         0.78200E+11
         0.78200E+11
         0.78200E+11
         0.78200E+11
         0.78200E+11
         0.78200E+11
         0.78200E+11
         0.78200E+11
         0.78200E+11
         0.78200E+11
         0.78200E+11
         0.78200E+11
         0.78200E+11
         0.78200E+11
         0.78200E+11
         0.78200E+11
         0.78200E+11
         0.78200E+11
         0.78200E+11
         0.78200E+11
         0.78200E+11
         0.78200E+11
         0.78200E+11
         0.78200E+11
         0.78200E+11
         0.78200E+11
         0.78200E+11
         0.78200E+11
         0.78200E+11
         0.78200E+11
         0.78200E+11
         0.78200E+11
         0.78200E+11
         0.78200E+11
         0.78200E+11
         0.78200E+11
         0.78200E+11
         0.78200E+11
         0.78200E+11
         0.78200E+11
         0.78200E+11
         0.78200E+11
         0.78200E+11
         0.78200E+11
         0.78200E+11
         0.78200E+11
         0.78200E+11
         0.78200E+11
         0.78200E+11
         0.78200E+11
         0.78200E+11
         0.78200E+11
         0.78200E+11
         0.78200E+11
         0.78200E+11
         0.78200E+11
         0.78200E+11
         0.78200E+11
         0.78200E+11
         0.78200E+11
         0.78200E+11
         0.78200E+11
         0.78200E+11
         0.78200E+11
         0.78200E+11
         0.78200E+11
         0.78200E+11
         0.78200E+11
         0.78200E+11
         0.78200E+11
         0.78200E+11
         0.78200E+11
         0.78200E+11
         0.78200E+11
         0.78200E+11
         0.78200E+11
         0.78200E+11
         0.78200E+11
         0.78200E+11
         0.78200E+11
         0.78200E+11
         0.78200E+11
         0.78200E+11
         0.78200E+11
         0.78200E+11
         0.78200E+11
         0.78200E+11
         0.78200E+11
         0.78200E+11
         0.78200E+11
         0.78200E+11
         0.78200E+11
         0.78200E+11
         0.78200E+11
         0.78200E+11
         0.78200E+11
         0.78200E+11
         0.78200E+11
         0.78200E+11
         0.78200E+11
         0.78200E+11
         0.78200E+11
         0.78200E+11
         0.78200E+11
         0.78200E+11
         0.78200E+11
         0.78200E+11
         0.78200E+11
         0.78200E+11
         0.78200E+11
         0.78200E+11
         0.78200E+11
         0.78200E+11
         0.78200E+11
         0.78200E+11
         0.78200E+11
         0.78200E+11
         0.78200E+11
         0.78200E+11
         0.78200E+11
         0.78200E+11
         0.78200E+11
         0.78200E+11
         0.78200E+11
         0.78200E+11
         0.78200E+11
         0.78200E+11
         0.78200E+11
         0.78200E+11
         0.78200E+11
         0.78200E+11
         0.78200E+11
         0.78200E+11
         0.78200E+11
         0.78200E+11
         0.78200E+11
         0.78200E+11
         0.78200E+11
         0.78200E+11
         0.78200E+11
         0.78200E+11
         0.78200E+11
         0.78200E+11
         0.78200E+11
         0.78200E+11
         0.78200E+11
         0.78200E+11
         0.78200E+11
         0.78200E+11
         0.78200E+11
         0.78200E+11
         0.78200E+11
         0.78200E+11
         0.78200E+11
         0.78200E+11
         0.78200E+11
         0.78200E+11
         0.78200E+11
         0.78200E+11
         0.78200E+11
         0.78200E+11
         0.78200E+11
         0.78200E+11
         0.78200E+11
         0.78200E+11
         0.78200E+11
         0.78200E+11
         0.78200E+11
         0.78200E+11
         0.78200E+11
         0.78200E+11
         0.78200E+11
         0.78200E+11
         0.78200E+11
         0.78200E+11
         0.78200E+11
         0.78200E+11
         0.78200E+11
         0.78200E+11
         0.78200E+11
         0.78200E+11
         0.78200E+11
         0.78200E+11
         0.78200E+11
         0.78200E+11
         0.78200E+11
         0.78200E+11
         0.78200E+11
         0.78200E+11
         0.78200E+11
         0.78200E+11
         0.78200E+11
         0.78200E+11
         0.78200E+11
         0.78200E+11
         0.78200E+11
         0.78200E+11
         0.78200E+11
         0.78200E+11
         0.78200E+11
         0.78200E+11
         0.78200E+11
         0.78200E+11
         0.78200E+11
         0.78200E+11
         0.78200E+11
         0.78200E+11
         0.78200E+11
         0.78200E+11
         0.78200E+11
         0.78200E+11
         0.78200E+11
         0.78200E+11
         0.78200E+11
         0.78200E+11
         0.78200E+11
         0.78200E+11
         0.78200E+11
         0.78200E+11
         0.78200E+11
         0.78200E+11
         0.78200E+11
         0.78200E+11
         0.78200E+11
         0.78200E+11
         0.78200E+11
         0.78200E+11
         0.78200E+11
         0.78200E+11
         0.78200E+11
         0.78200E+11
         0.78200E+11
         0.78200E+11
         0.78200E+11
         0.78200E+11
         0.78200E+11
         0.78200E+11
         0.78200E+11
         0.78200E+11
         0.78200E+11
         0.78200E+11
         0.78200E+11
         0.78200E+11
         0.78200E+11
         0.78200E+11
         0.78200E+11
         0.78200E+11
         0.78200E+11
         0.78200E+11
         0.78200E+11
         0.78200E+11
         0.78200E+11
         0.78200E+11
         0.78200E+11
         0.78200E+11
         0.78200E+11
         0.78200E+11
         0.78200E+11
         0.78200E+11
         0.78200E+11
         0.78200E+11
         0.78200E+11
         0.78200E+11
         0.78200E+11
         0.78200E+11
         0.78200E+11
         0.78200E+11
         0.78200E+11
         0.78200E+11
         0.78200E+11
         0.78200E+11
         0.78200E+11
         0.78200E+11
         0.78200E+11
         0.78200E+11
         0.78200E+11
         0.78200E+11
         0.78200E+11
         0.78200E+11
         0.78200E+11
         0.78200E+11
         0.78200E+11
         0.78200E+11
         0.78200E+11
         0.78200E+11
         0.78200E+11
         0.78200E+11
         0.78200E+11
         0.78200E+11
         0.78200E+11
         0.78200E+11
         0.78200E+11
         0.78200E+11
         0.78200E+11
         0.78200E+11
         0.78200E+11
         0.78200E+11
         0.78200E+11
         0.78200E+11
         0.78200E+11
         0.78200E+11
         0.78200E+11
         0.78200E+11
         0.78200E+11
         0.78200E+11
         0.78200E+11
         0.78200E+11
         0.78200E+11
         0.78200E+11
         0.78200E+11
         0.78200E+11
         0.78200E+11
         0.78200E+11
         0.78200E+11
         0.78200E+11
         0.78200E+11
         0.78200E+11
         0.78200E+11
         0.78200E+11
         0.78200E+11
         0.78200E+11
         0.78200E+11
         0.78200E+11
         0.78200E+11
         0.78200E+11
         0.78200E+11
         0.78200E+11
         0.78200E+11
         0.78200E+11
         0.78200E+11
         0.78200E+11
         0.78200E+11
         0.78200E+11
         0.78200E+11
         0.78200E+11
         0.78200E+11
         0.78200E+11
         0.78200E+11
         0.78200E+11
         0.78200E+11
         0.78200E+11
         0.78200E+11
         0.78200E+11
         0.78200E+11
         0.78200E+11
         0.78200E+11
         0.78200E+11
         0.78200E+11
         0.78200E+11
         0.78200E+11
         0.78200E+11
         0.78200E+11
         0.78200E+11
         0.78200E+11
         0.78200E+11
         0.78200E+11
         0.78200E+11
         0.78200E+11
         0.78200E+11
         0.78200E+11
         0.78200E+11
         0.78200E+11
         0.78200E+11
         0.78200E+11
         0.78200E+11
         0.78200E+11
         0.78200E+11
         0.78200E+11
         0.78200E+11
         0.78200E+11
         0.78200E+11
         0.78200E+11
         0.78200E+11
         0.78200E+11
         0.78200E+11
         0.78200E+11
         0.78200E+11
         0.78200E+11
         0.78200E+11
         0.78200E+11
         0.78200E+11
         0.78200E+11
         0.78200E+11
         0.78200E+11
         0.78200E+11
         0.78200E+11
         0.78200E+11
         0.78200E+11
         0.78200E+11
         0.78200E+11
         0.78200E+11
         0.78200E+11
         0.78200E+11
         0.78200E+11
         0.78200E+11
         0.78200E+11
         0.78200E+11
         0.78200E+11
         0.78200E+11
         0.78200E+11
         0.78200E+11
         0.78200E+11
         0.78200E+11
         0.78200E+11
         0.78200E+11
         0.78200E+11
         0.78200E+11
         0.78200E+11
         0.78200E+11
         0.78200E+11
         0.78200E+11
         0.78200E+11
         0.78200E+11
         0.78200E+11
         0.78200E+11
         0.78200E+11
         0.78200E+11
         0.78200E+11
         0.78200E+11
         0.78200E+11
         0.78200E+11
         0.78200E+11
         0.78200E+11
         0.78200E+11
         0.78200E+11
         0.78200E+11
         0.78200E+11
         0.78200E+11
         0.78200E+11
         0.78200E+11
         0.78200E+11
         0.78200E+11
         0.78200E+11
         0.78200E+11
         0.78200E+11
         0.78200E+11
         0.78200E+11
         0.78200E+11
         0.78200E+11
         0.78200E+11
         0.78200E+11
         0.78200E+11
         0.78200E+11
         0.78200E+11
         0.78200E+11
         0.78200E+11
         0.78200E+11
         0.78200E+11
         0.78200E+11
         0.78200E+11
         0.78200E+11
         0.78200E+11
         0.78200E+11
         0.78200E+11
         0.78200E+11
         0.78200E+11
         0.78200E+11
         0.78200E+11
         0.78200E+11
         0.78200E+11
         0.78200E+11
         0.78200E+11
         0.78200E+11
         0.78200E+11
         0.78200E+11
         0.78200E+11
         0.78200E+11
         0.78200E+11
         0.78200E+11
         0.78200E+11
         0.78200E+11
         0.78200E+11
         0.78200E+11
         0.78200E+11
         0.78200E+11
         0.78200E+11
         0.78200E+11
         0.78200E+11
         0.78200E+11
         0.78200E+11
         0.78200E+11
         0.78200E+11
         0.78200E+11
         0.78200E+11
         0.78200E+11
         0.78200E+11
         0.78200E+11
         0.78200E+11
         0.78200E+11
         0.78200E+11
         0.78200E+11
         0.78200E+11
         0.78200E+11
         0.78200E+11
         0.78200E+11
         0.78200E+11
         0.78200E+11
         0.78200E+11
         0.78200E+11
         0.78200E+11
         0.78200E+11
         0.78200E+11
         0.78200E+11
         0.78200E+11
         0.78200E+11
         0.78200E+11
         0.78200E+11
         0.78200E+11
         0.78200E+11
         0.78200E+11
         0.78200E+11
         0.78200E+11
         0.78200E+11
         0.78200E+11
         0.78200E+11
         0.78200E+11
         0.78200E+11
         0.78200E+11
         0.78200E+11
         0.78200E+11
         0.78200E+11
         0.78200E+11
         0.78200E+11
         0.78200E+11
         0.78200E+11
         0.78200E+11
         0.78200E+11
         0.78200E+11
         0.78200E+11
         0.78200E+11
         0.78200E+11
         0.78200E+11
         0.78200E+11
         0.78200E+11
         0.78200E+11
         0.78200E+11
         0.78200E+11
         0.78200E+11
         0.78200E+11
         0.78200E+11
         0.78200E+11
         0.78200E+11
         0.78200E+11
         0.78200E+11
         0.78200E+11
         0.78200E+11
         0.78200E+11
         0.78200E+11
         0.78200E+11
         0.78200E+11
         0.78200E+11
         0.78200E+11
         0.78200E+11
         0.78200E+11
         0.78200E+11
         0.78200E+11
         0.78200E+11
         0.78200E+11
         0.78200E+11
         0.78200E+11
         0.78200E+11
         0.78200E+11
         0.78200E+11
         0.78200E+11
         0.78200E+11
         0.78200E+11
         0.78200E+11
         0.78200E+11
         0.78200E+11
         0.78200E+11
         0.78200E+11
         0.78200E+11
         0.78200E+11
         0.78200E+11
         0.78200E+11
         0.78200E+11
         0.78200E+11
         0.78200E+11
         0.78200E+11
         0.78200E+11
         0.78200E+11
         0.78200E+11
         0.78200E+11
         0.78200E+11
         0.78200E+11
         0.78200E+11
         0.78200E+11
         0.78200E+11
         0.78200E+11
         0.78200E+11
         0.78200E+11
         0.78200E+11
         0.78200E+11
         0.78200E+11
         0.78200E+11
         0.78200E+11
         0.78200E+11
         0.78200E+11
         0.78200E+11
         0.78200E+11
         0.78200E+11
         0.78200E+11
         0.78200E+11
         0.78200E+11
         0.78200E+11
         0.78200E+11
         0.78200E+11
         0.78200E+11
         0.78200E+11
         0.78200E+11
         0.78200E+11
         0.78200E+11
         0.78200E+11
         0.78200E+11
         0.78200E+11
         0.78200E+11
         0.78200E+11
         0.78200E+11
         0.78200E+11
         0.78200E+11
         0.78200E+11
         0.78200E+11
         0.78200E+11
         0.78200E+11
         0.78200E+11
         0.78200E+11
         0.78200E+11
         0.78200E+11
         0.78200E+11
         0.78200E+11
         0.78200E+11
         0.78200E+11
         0.78200E+11
         0.78200E+11
         0.78200E+11
         0.78200E+11
         0.78200E+11
         0.78200E+11
         0.78200E+11
         0.78200E+11
         0.78200E+11
         0.78200E+11
         0.78200E+11
         0.78200E+11
         0.78200E+11
         0.78200E+11
         0.78200E+11
         0.78200E+11
         0.78200E+11
         0.78200E+11
         0.78200E+11
         0.78200E+11
         0.78200E+11
         0.78200E+11
         0.78200E+11
         0.78200E+11
         0.78200E+11
         0.78200E+11
         0.78200E+11
         0.78200E+11
         0.78200E+11
         0.78200E+11
         0.78200E+11
         0.78200E+11
         0.78200E+11
         0.78200E+11
         0.78200E+11
         0.78200E+11
         0.78200E+11
         0.78200E+11
         0.78200E+11
         0.78200E+11
         0.78200E+11
         0.78200E+11
         0.78200E+11
         0.78200E+11
         0.78200E+11
         0.78200E+11
         0.78200E+11
         0.78200E+11
         0.78200E+11
         0.78200E+11
         0.78200E+11
         0.78200E+11
         0.78200E+11
         0.78200E+11
         0.78200E+11
         0.78200E+11
         0.78200E+11
         0.78200E+11
         0.78200E+11
         0.78200E+11
         0.78200E+11
         0.78200E+11
         0.78200E+11
         0.78200E+11
         0.78200E+11
         0.78200E+11
         0.78200E+11
         0.78200E+11
         0.78200E+11
         0.78200E+11
         0.78200E+11
         0.78200E+11
         0.78200E+11
         0.78200E+11
         0.78200E+11
         0.78200E+11
         0.78200E+11
         0.78200E+11
         0.78200E+11
         0.78200E+11
         0.78200E+11
         0.78200E+11
         0.78200E+11
         0.78200E+11
         0.78200E+11
         0.78200E+11
         0.78200E+11
         0.78200E+11
         0.78200E+11
         0.78200E+11
         0.78200E+11
         0.78200E+11
         0.78200E+11
         0.78200E+11
         0.78200E+11
         0.78200E+11
         0.78200E+11
         0.78200E+11
         0.78200E+11
         0.78200E+11
         0.78200E+11
         0.78200E+11
         0.78200E+11
         0.78200E+11
         0.78200E+11
         0.78200E+11
         0.78200E+11
         0.78200E+11
         0.78200E+11
         0.78200E+11
         0.78200E+11
         0.78200E+11
         0.78200E+11
         0.78200E+11
         0.78200E+11
         0.78200E+11
         0.78200E+11
         0.78200E+11
         0.78200E+11
         0.78200E+11
         0.78200E+11
         0.78200E+11
         0.78200E+11
         0.78200E+11
         0.78200E+11
         0.78200E+11
         0.78200E+11
         0.78200E+11
         0.78200E+11
         0.78200E+11
         0.78200E+11
         0.78200E+11
         0.78200E+11
         0.78200E+11
         0.78200E+11
         0.78200E+11
         0.78200E+11
         0.78200E+11
         0.78200E+11
         0.78200E+11
         0.78200E+11
         0.78200E+11
         0.78200E+11
         0.78200E+11
         0.78200E+11
         0.78200E+11
         0.78200E+11
         0.78200E+11
         0.78200E+11
         0.78200E+11
         0.78200E+11
         0.78200E+11
         0.78200E+11
         0.78200E+11
         0.78200E+11
         0.78200E+11
         0.78200E+11
         0.78200E+11
         0.78200E+11
         0.78200E+11
         0.78200E+11
         0.78200E+11
         0.78200E+11
         0.78200E+11
         0.78200E+11
         0.78200E+11
         0.78200E+11
         0.78200E+11
         0.78200E+11
         0.78200E+11
         0.78200E+11
         0.78200E+11
         0.78200E+11
         0.78200E+11
         0.78200E+11
         0.78200E+11
         0.78200E+11
         0.78200E+11
         0.78200E+11
         0.78200E+11
         0.78200E+11
         0.78200E+11
         0.78200E+11
         0.78200E+11
         0.78200E+11
         0.78200E+11
         0.78200E+11
         0.78200E+11
         0.78200E+11
         0.78200E+11
         0.78200E+11
         0.78200E+11
         0.78200E+11
         0.78200E+11
         0.78200E+11
         0.78200E+11
         0.78200E+11
         0.78200E+11
         0.78200E+11
         0.78200E+11
         0.78200E+11
         0.78200E+11
         0.78200E+11
         0.78200E+11
         0.78200E+11
         0.78200E+11
         0.78200E+11
         0.78200E+11
         0.78200E+11
         0.78200E+11
         0.78200E+11
         0.78200E+11
         0.78200E+11
         0.78200E+11
         0.78200E+11
         0.78200E+11
         0.78200E+11
         0.78200E+11
         0.78200E+11
         0.78200E+11
         0.78200E+11
         0.78200E+11
         0.78200E+11
         0.78200E+11
         0.78200E+11
         0.78200E+11
         0.78200E+11
         0.78200E+11
         0.78200E+11
         0.78200E+11
         0.78200E+11
         0.78200E+11
         0.78200E+11
         0.78200E+11
         0.78200E+11
         0.78200E+11
         0.78200E+11
         0.78200E+11
         0.78200E+11
         0.78200E+11
         0.78200E+11
         0.78200E+11
         0.78200E+11
         0.78200E+11
         0.78200E+11
         0.78200E+11
         0.78200E+11
         0.78200E+11
         0.78200E+11
         0.78200E+11
         0.78200E+11
         0.78200E+11
         0.78200E+11
         0.78200E+11
         0.78200E+11
         0.78200E+11
         0.78200E+11
         0.78200E+11
         0.78200E+11
         0.78200E+11
         0.78200E+11
         0.78200E+11
         0.78200E+11
         0.78200E+11
         0.78200E+11
         0.78200E+11
         0.78200E+11
         0.78200E+11
         0.78200E+11
         0.78200E+11
         0.78200E+11
         0.78200E+11
         0.78200E+11
         0.78200E+11
         0.78200E+11
         0.78200E+11
         0.78200E+11
         0.78200E+11
         0.78200E+11
         0.78200E+11
         0.78200E+11
         0.78200E+11
         0.78200E+11
         0.78200E+11
         0.78200E+11
         0.78200E+11
         0.78200E+11
         0.78200E+11
         0.78200E+11
         0.78200E+11
         0.78200E+11
         0.78200E+11
         0.78200E+11
         0.78200E+11
         0.78200E+11
         0.78200E+11
         0.78200E+11
         0.78200E+11
         0.78200E+11
         0.78200E+11
         0.78200E+11
         0.78200E+11
         0.78200E+11
         0.78200E+11
         0.78200E+11
         0.78200E+11
         0.78200E+11
         0.78200E+11
         0.78200E+11
         0.78200E+11
         0.78200E+11
         0.78200E+11
         0.78200E+11
         0.78200E+11
         0.78200E+11
         0.78200E+11
         0.78200E+11
         0.78200E+11
         0.78200E+11
         0.78200E+11
         0.78200E+11
         0.78200E+11
         0.78200E+11
         0.78200E+11
         0.78200E+11
         0.78200E+11
         0.78200E+11
         0.78200E+11
         0.78200E+11
         0.78200E+11
         0.78200E+11
         0.78200E+11
         0.78200E+11
         0.78200E+11
         0.78200E+11
         0.78200E+11
         0.78200E+11
         0.78200E+11
         0.78200E+11
         0.78200E+11
         0.78200E+11
         0.78200E+11
         0.78200E+11
         0.78200E+11
         0.78200E+11
         0.78200E+11
         0.78200E+11
         0.78200E+11
         0.78200E+11
         0.78200E+11
         0.78200E+11
         0.78200E+11
         0.78200E+11
         0.78200E+11
         0.78200E+11
         0.78200E+11
         0.78200E+11
         0.78200E+11
         0.78200E+11
         0.78200E+11
         0.78200E+11
         0.78200E+11
         0.78200E+11
         0.78200E+11
         0.78200E+11
         0.78200E+11
         0.78200E+11
         0.78200E+11
         0.78200E+11
         0.78200E+11
         0.78200E+11
         0.78200E+11
         0.78200E+11
         0.78200E+11
         0.78200E+11
         0.78200E+11
         0.78200E+11
         0.78200E+11
         0.78200E+11
         0.78200E+11
         0.78200E+11
         0.78200E+11
         0.78200E+11
         0.78200E+11
         0.78200E+11
         0.78200E+11
         0.78200E+11
         0.78200E+11
         0.78200E+11
         0.78200E+11
         0.78200E+11
         0.78200E+11
         0.78200E+11
         0.78200E+11
         0.78200E+11
         0.78200E+11
         0.78200E+11
         0.78200E+11
         0.78200E+11
         0.78200E+11
         0.78200E+11
         0.78200E+11
         0.78200E+11
         0.78200E+11
         0.78200E+11
         0.78200E+11
         0.78200E+11
         0.78200E+11
         0.78200E+11
         0.78200E+11
         0.78200E+11
         0.78200E+11
         0.78200E+11
         0.78200E+11
         0.78200E+11
         0.78200E+11
         0.78200E+11
         0.78200E+11
         0.78200E+11
         0.78200E+11
         0.78200E+11
         0.78200E+11
         0.78200E+11
         0.78200E+11
         0.78200E+11
         0.78200E+11
         0.78200E+11
         0.78200E+11
         0.78200E+11
         0.78200E+11
         0.78200E+11
         0.78200E+11
         0.78200E+11
         0.78200E+11
         0.78200E+11
         0.78200E+11
         0.78200E+11
         0.78200E+11
         0.78200E+11
         0.78200E+11
         0.78200E+11
         0.78200E+11
         0.78200E+11
         0.78200E+11
         0.78200E+11
         0.78200E+11
         0.78200E+11
         0.78200E+11
         0.78200E+11
         0.78200E+11
         0.78200E+11
         0.78200E+11
         0.78200E+11
         0.78200E+11
         0.78200E+11
         0.78200E+11
         0.78200E+11
         0.78200E+11
         0.78200E+11
         0.78200E+11
         0.78200E+11
         0.78200E+11
         0.78200E+11
         0.78200E+11
         0.78200E+11
         0.78200E+11
         0.78200E+11
         0.78200E+11
         0.78200E+11
         0.78200E+11
         0.78200E+11
         0.78200E+11
         0.78200E+11
         0.78200E+11
         0.78200E+11
         0.78200E+11
         0.78200E+11
         0.78200E+11
         0.78200E+11
         0.78200E+11
         0.78200E+11
         0.78200E+11
         0.78200E+11
         0.78200E+11
         0.78200E+11
         0.78200E+11
         0.78200E+11
         0.78200E+11
         0.78200E+11
         0.78200E+11
         0.78200E+11
         0.78200E+11
         0.78200E+11
         0.78200E+11
         0.78200E+11
         0.78200E+11
         0.78200E+11
         0.78200E+11
         0.78200E+11
         0.78200E+11
         0.78200E+11
         0.78200E+11
         0.78200E+11
         0.78200E+11
         0.78200E+11
         0.78200E+11
         0.78200E+11
         0.78200E+11
         0.78200E+11
         0.78200E+11
         0.78200E+11
         0.78200E+11
         0.78200E+11
         0.78200E+11
         0.78200E+11
         0.78200E+11
         0.78200E+11
         0.78200E+11
         0.78200E+11
         0.78200E+11
         0.78200E+11
         0.78200E+11
         0.78200E+11
         0.78200E+11
         0.78200E+11
         0.78200E+11
         0.78200E+11
         0.78200E+11
         0.78200E+11
         0.78200E+11
         0.78200E+11
         0.78200E+11
         0.78200E+11
         0.78200E+11
         0.78200E+11
         0.78200E+11
         0.78200E+11
         0.78200E+11
         0.78200E+11
         0.78200E+11
         0.78200E+11
         0.78200E+11
         0.78200E+11
         0.78200E+11
         0.78200E+11
         0.78200E+11
         0.78200E+11
         0.78200E+11
         0.78200E+11
         0.78200E+11
         0.78200E+11
         0.78200E+11
         0.78200E+11
         0.78200E+11
         0.78200E+11
         0.78200E+11
         0.78200E+11
         0.78200E+11
         0.78200E+11
         0.78200E+11
         0.78200E+11
         0.78200E+11
         0.78200E+11
         0.78200E+11
         0.78200E+11
         0.78200E+11
         0.78200E+11
         0.78200E+11
         0.78200E+11
         0.78200E+11
         0.78200E+11
         0.78200E+11
         0.78200E+11
         0.78200E+11
         0.78200E+11
         0.78200E+11
         0.78200E+11
         0.78200E+11
         0.78200E+11
         0.78200E+11
         0.78200E+11
         0.78200E+11
         0.78200E+11
         0.78200E+11
         0.78200E+11
         0.78200E+11
         0.78200E+11
         0.78200E+11
         0.78200E+11
         0.78200E+11
         0.78200E+11
         0.78200E+11
         0.78200E+11
         0.78200E+11
         0.78200E+11
         0.78200E+11
         0.78200E+11
         0.78200E+11
         0.78200E+11
         0.78200E+11
         0.78200E+11
         0.78200E+11
         0.78200E+11
         0.78200E+11
         0.78200E+11
         0.78200E+11
         0.78200E+11
         0.78200E+11
         0.78200E+11
         0.78200E+11
         0.78200E+11
         0.78200E+11
         0.78200E+11
         0.78200E+11
         0.78200E+11
         0.78200E+11
         0.78200E+11
         0.78200E+11
         0.78200E+11
         0.78200E+11
         0.78200E+11
         0.78200E+11
         0.78200E+11
         0.78200E+11
         0.78200E+11
         0.78200E+11
         0.78200E+11
         0.78200E+11
         0.78200E+11
         0.78200E+11
         0.78200E+11
         0.78200E+11
         0.78200E+11
         0.78200E+11
         0.78200E+11
         0.78200E+11
         0.78200E+11
         0.78200E+11
         0.78200E+11
         0.78200E+11
         0.78200E+11
         0.78200E+11
         0.78200E+11
         0.78200E+11
         0.78200E+11
         0.78200E+11
         0.78200E+11
         0.78200E+11
         0.78200E+11
         0.78200E+11
         0.78200E+11
         0.78200E+11
         0.78200E+11
         0.78200E+11
         0.78200E+11
         0.78200E+11
         0.78200E+11
         0.78200E+11
         0.78200E+11
         0.78200E+11
         0.78200E+11
         0.78200E+11
         0.78200E+11
         0.78200E+11
         0.78200E+11
         0.78200E+11
         0.78200E+11
         0.78200E+11
         0.78200E+11
         0.78200E+11
         0.78200E+11
         0.78200E+11
         0.78200E+11
         0.78200E+11
         0.78200E+11
         0.78200E+11
         0.78200E+11
         0.78200E+11
         0.78200E+11
         0.78200E+11
         0.78200E+11
         0.78200E+11
         0.78200E+11
         0.78200E+11
         0.78200E+11
         0.78200E+11
         0.78200E+11
         0.78200E+11
         0.78200E+11
         0.78200E+11
         0.78200E+11
         0.78200E+11
         0.78200E+11
         0.78200E+11
         0.78200E+11
         0.78200E+11
         0.78200E+11
         0.78200E+11
         0.78200E+11
         0.78200E+11
         0.78200E+11
         0.78200E+11
         0.78200E+11
         0.78200E+11
         0.78200E+11
         0.78200E+11
         0.78200E+11
         0.78200E+11
         0.78200E+11
         0.78200E+11
         0.78200E+11
         0.78200E+11
         0.78200E+11
         0.78200E+11
         0.78200E+11
         0.78200E+11
         0.78200E+11
         0.78200E+11
         0.78200E+11
         0.78200E+11
         0.78200E+11
         0.78200E+11
         0.78200E+11
         0.78200E+11
         0.78200E+11
         0.78200E+11
         0.78200E+11
         0.78200E+11
         0.78200E+11
         0.78200E+11
         0.78200E+11
         0.78200E+11
         0.78200E+11
         0.78200E+11
         0.78200E+11
         0.78200E+11
         0.78200E+11
         0.78200E+11
         0.78200E+11
         0.78200E+11
         0.78200E+11
         0.78200E+11
         0.78200E+11
         0.78200E+11
         0.78200E+11
         0.78200E+11
         0.78200E+11
         0.78200E+11
         0.78200E+11
         0.78200E+11
         0.78200E+11
         0.78200E+11
         0.78200E+11
         0.78200E+11
         0.78200E+11
         0.78200E+11
         0.78200E+11
         0.78200E+11
         0.78200E+11
         0.78200E+11
         0.78200E+11
         0.78200E+11
         0.78200E+11
         0.78200E+11
         0.78200E+11
         0.78200E+11
         0.78200E+11
         0.78200E+11
         0.78200E+11
         0.78200E+11
         0.78200E+11
         0.78200E+11
         0.78200E+11
         0.78200E+11
         0.78200E+11
         0.78200E+11
         0.78200E+11
         0.78200E+11
         0.78200E+11
         0.78200E+11
         0.78200E+11
         0.78200E+11
         0.78200E+11
         0.78200E+11
         0.78200E+11
         0.78200E+11
         0.78200E+11
         0.78200E+11
         0.78200E+11
         0.78200E+11
         0.78200E+11
         0.78200E+11
         0.78200E+11
         0.78200E+11
         0.78200E+11
         0.78200E+11
         0.78200E+11
         0.78200E+11
         0.78200E+11
         0.78200E+11
         0.78200E+11
         0.78200E+11
         0.78200E+11
         0.78200E+11
         0.78200E+11
         0.78200E+11
         0.78200E+11
         0.78200E+11
         0.78200E+11
         0.78200E+11
         0.78200E+11
         0.78200E+11
         0.78200E+11
         0.78200E+11
         0.78200E+11
         0.78200E+11
         0.78200E+11
         0.78200E+11
         0.78200E+11
         0.78200E+11
         0.78200E+11
         0.78200E+11
         0.78200E+11
         0.78200E+11
         0.78200E+11
         0.78200E+11
         0.78200E+11
         0.78200E+11
         0.78200E+11
         0.78200E+11
         0.78200E+11
         0.78200E+11
         0.78200E+11
         0.78200E+11
         0.78200E+11
         0.78200E+11
         0.78200E+11
         0.78200E+11
         0.78200E+11
         0.78200E+11
         0.78200E+11
         0.78200E+11
         0.78200E+11
         0.78200E+11
         0.78200E+11
         0.78200E+11
         0.78200E+11
         0.78200E+11
         0.78200E+11
         0.78200E+11
         0.78200E+11
         0.78200E+11
         0.78200E+11
         0.78200E+11
         0.78200E+11
         0.78200E+11
         0.78200E+11
         0.78200E+11
         0.78200E+11
         0.78200E+11
         0.78200E+11
         0.78200E+11
         0.78200E+11
         0.78200E+11
         0.78200E+11
         0.78200E+11
         0.78200E+11
         0.78200E+11
         0.78200E+11
         0.78200E+11
         0.78200E+11
         0.78200E+11
         0.78200E+11
         0.78200E+11
         0.78200E+11
         0.78200E+11
         0.78200E+11
         0.78200E+11
         0.78200E+11
         0.78200E+11
         0.78200E+11
         0.78200E+11
         0.78200E+11
         0.78200E+11
         0.78200E+11
         0.78200E+11
         0.78200E+11
         0.78200E+11
         0.78200E+11
         0.78200E+11
         0.78200E+11
         0.78200E+11
         0.78200E+11
         0.78200E+11
         0.78200E+11
         0.78200E+11
         0.78200E+11
         0.78200E+11
         0.78200E+11
         0.78200E+11
         0.78200E+11
         0.78200E+11
         0.78200E+11
         0.78200E+11
         0.78200E+11
         0.78200E+11
         0.78200E+11
         0.78200E+11
         0.78200E+11
         0.78200E+11
         0.78200E+11
         0.78200E+11
         0.78200E+11
         0.78200E+11
         0.78200E+11
         0.78200E+11
         0.78200E+11
         0.78200E+11
         0.78200E+11
         0.78200E+11
         0.78200E+11
         0.78200E+11
         0.78200E+11
         0.78200E+11
         0.78200E+11
         0.78200E+11
         0.78200E+11
         0.78200E+11
         0.78200E+11
         0.78200E+11
         0.78200E+11
         0.78200E+11
         0.78200E+11
         0.78200E+11
         0.78200E+11
         0.78200E+11
         0.78200E+11
         0.78200E+11
         0.78200E+11
         0.78200E+11
         0.78200E+11
         0.78200E+11
         0.78200E+11
         0.78200E+11
         0.78200E+11
         0.78200E+11
         0.78200E+11
         0.78200E+11
         0.78200E+11
         0.78200E+11
         0.78200E+11
         0.78200E+11
         0.78200E+11
         0.78200E+11
         0.78200E+11
         0.78200E+11
         0.78200E+11
         0.78200E+11
         0.78200E+11
         0.78200E+11
         0.78200E+11
         0.78200E+11
         0.78200E+11
         0.78200E+11
         0.78200E+11
         0.78200E+11
         0.78200E+11
         0.78200E+11
         0.78200E+11
         0.78200E+11
         0.78200E+11
         0.78200E+11
         0.78200E+11
         0.78200E+11
         0.78200E+11
         0.78200E+11
         0.78200E+11
         0.78200E+11
         0.78200E+11
         0.78200E+11
         0.78200E+11
         0.78200E+11
         0.78200E+11
         0.78200E+11
         0.78200E+11
         0.78200E+11
         0.78200E+11
         0.78200E+11
         0.78200E+11
         0.78200E+11
         0.78200E+11
         0.78200E+11
         0.78200E+11
         0.78200E+11
         0.78200E+11
         0.78200E+11
         0.78200E+11
         0.78200E+11
         0.78200E+11
         0.78200E+11
         0.78200E+11
         0.78200E+11
         0.78200E+11
         0.78200E+11
         0.78200E+11
         0.78200E+11
         0.78200E+11
         0.78200E+11
         0.78200E+11
         0.78200E+11
         0.78200E+11
         0.78200E+11
         0.78200E+11
         0.78200E+11
         0.78200E+11
         0.78200E+11
         0.78200E+11
         0.78200E+11
         0.78200E+11
         0.78200E+11
         0.78200E+11
         0.78200E+11
         0.78200E+11
         0.78200E+11
         0.78200E+11
         0.78200E+11
         0.78200E+11
         0.78200E+11
         0.78200E+11
         0.78200E+11
         0.78200E+11
         0.78200E+11
         0.78200E+11
         0.78200E+11
         0.78200E+11
         0.78200E+11
         0.78200E+11
         0.78200E+11
         0.78200E+11
         0.78200E+11
         0.78200E+11
         0.78200E+11
         0.78200E+11
         0.78200E+11
         0.78200E+11
         0.78200E+11
         0.78200E+11
         0.78200E+11
         0.78200E+11
         0.78200E+11
         0.78200E+11
         0.78200E+11
         0.78200E+11
         0.78200E+11
         0.78200E+11
         0.78200E+11
         0.78200E+11
         0.78200E+11
         0.78200E+11
         0.78200E+11
         0.78200E+11
         0.78200E+11
         0.78200E+11
         0.78200E+11
         0.78200E+11
         0.78200E+11
         0.78200E+11
         0.78200E+11
         0.78200E+11
         0.78200E+11
         0.78200E+11
         0.78200E+11
         0.78200E+11
         0.78200E+11
         0.78200E+11
         0.78200E+11
         0.78200E+11
         0.78200E+11
         0.78200E+11
         0.78200E+11
         0.78200E+11
         0.78200E+11
         0.78200E+11
         0.78200E+11
         0.78200E+11
         0.78200E+11
         0.78200E+11
         0.78200E+11
         0.78200E+11
         0.78200E+11
         0.78200E+11
         0.78200E+11
         0.78200E+11
         0.78200E+11
         0.78200E+11
         0.78200E+11
         0.78200E+11
         0.78200E+11
         0.78200E+11
         0.78200E+11
         0.78200E+11
         0.78200E+11
         0.78200E+11
         0.78200E+11
         0.78200E+11
         0.78200E+11
         0.78200E+11
         0.78200E+11
         0.78200E+11
         0.78200E+11
         0.78200E+11
         0.78200E+11
         0.78200E+11
         0.78200E+11
         0.78200E+11
         0.78200E+11
         0.78200E+11
         0.78200E+11
         0.78200E+11
         0.78200E+11
         0.78200E+11
         0.78200E+11
         0.78200E+11
         0.78200E+11
         0.78200E+11
         0.78200E+11
         0.78200E+11
         0.78200E+11
         0.78200E+11
         0.78200E+11
         0.78200E+11
         0.78200E+11
         0.78200E+11
         0.78200E+11
         0.78200E+11
         0.78200E+11
         0.78200E+11
         0.78200E+11
         0.78200E+11
         0.78200E+11
         0.78200E+11
         0.78200E+11
         0.78200E+11
         0.78200E+11
         0.78200E+11
         0.78200E+11
         0.78200E+11
         0.78200E+11
         0.78200E+11
  
SCALARS                        density  double 1
LOOKUP_TABLE default
         0.27000E+04
         0.27000E+04
         0.27000E+04
         0.27000E+04
         0.27000E+04
         0.27000E+04
         0.27000E+04
         0.27000E+04
         0.27000E+04
         0.27000E+04
         0.27000E+04
         0.27000E+04
         0.27000E+04
         0.27000E+04
         0.27000E+04
         0.27000E+04
         0.27000E+04
         0.27000E+04
         0.27000E+04
         0.27000E+04
         0.27000E+04
         0.27000E+04
         0.27000E+04
         0.27000E+04
         0.27000E+04
         0.27000E+04
         0.27000E+04
         0.27000E+04
         0.27000E+04
         0.27000E+04
         0.27000E+04
         0.27000E+04
         0.27000E+04
         0.27000E+04
         0.27000E+04
         0.27000E+04
         0.27000E+04
         0.27000E+04
         0.27000E+04
         0.27000E+04
         0.27000E+04
         0.27000E+04
         0.27000E+04
         0.27000E+04
         0.27000E+04
         0.27000E+04
         0.27000E+04
         0.27000E+04
         0.27000E+04
         0.27000E+04
         0.27000E+04
         0.27000E+04
         0.27000E+04
         0.27000E+04
         0.27000E+04
         0.27000E+04
         0.27000E+04
         0.27000E+04
         0.27000E+04
         0.27000E+04
         0.27000E+04
         0.27000E+04
         0.27000E+04
         0.27000E+04
         0.27000E+04
         0.27000E+04
         0.27000E+04
         0.27000E+04
         0.27000E+04
         0.27000E+04
         0.27000E+04
         0.27000E+04
         0.27000E+04
         0.27000E+04
         0.27000E+04
         0.27000E+04
         0.27000E+04
         0.27000E+04
         0.27000E+04
         0.27000E+04
         0.27000E+04
         0.27000E+04
         0.27000E+04
         0.27000E+04
         0.27000E+04
         0.27000E+04
         0.27000E+04
         0.27000E+04
         0.27000E+04
         0.27000E+04
         0.27000E+04
         0.27000E+04
         0.27000E+04
         0.27000E+04
         0.27000E+04
         0.27000E+04
         0.27000E+04
         0.27000E+04
         0.27000E+04
         0.27000E+04
         0.27000E+04
         0.27000E+04
         0.27000E+04
         0.27000E+04
         0.27000E+04
         0.27000E+04
         0.27000E+04
         0.27000E+04
         0.27000E+04
         0.27000E+04
         0.27000E+04
         0.27000E+04
         0.27000E+04
         0.27000E+04
         0.27000E+04
         0.27000E+04
         0.27000E+04
         0.27000E+04
         0.27000E+04
         0.27000E+04
         0.27000E+04
         0.27000E+04
         0.27000E+04
         0.27000E+04
         0.27000E+04
         0.27000E+04
         0.27000E+04
         0.27000E+04
         0.27000E+04
         0.27000E+04
         0.27000E+04
         0.27000E+04
         0.27000E+04
         0.27000E+04
         0.27000E+04
         0.27000E+04
         0.27000E+04
         0.27000E+04
         0.27000E+04
         0.27000E+04
         0.27000E+04
         0.27000E+04
         0.27000E+04
         0.27000E+04
         0.27000E+04
         0.27000E+04
         0.27000E+04
         0.27000E+04
         0.27000E+04
         0.27000E+04
         0.27000E+04
         0.27000E+04
         0.27000E+04
         0.27000E+04
         0.27000E+04
         0.27000E+04
         0.27000E+04
         0.27000E+04
         0.27000E+04
         0.27000E+04
         0.27000E+04
         0.27000E+04
         0.27000E+04
         0.27000E+04
         0.27000E+04
         0.27000E+04
         0.27000E+04
         0.27000E+04
         0.27000E+04
         0.27000E+04
         0.27000E+04
         0.27000E+04
         0.27000E+04
         0.27000E+04
         0.27000E+04
         0.27000E+04
         0.27000E+04
         0.27000E+04
         0.27000E+04
         0.27000E+04
         0.27000E+04
         0.27000E+04
         0.27000E+04
         0.27000E+04
         0.27000E+04
         0.27000E+04
         0.27000E+04
         0.27000E+04
         0.27000E+04
         0.27000E+04
         0.27000E+04
         0.27000E+04
         0.27000E+04
         0.27000E+04
         0.27000E+04
         0.27000E+04
         0.27000E+04
         0.27000E+04
         0.27000E+04
         0.27000E+04
         0.27000E+04
         0.27000E+04
         0.27000E+04
         0.27000E+04
         0.27000E+04
         0.27000E+04
         0.27000E+04
         0.27000E+04
         0.27000E+04
         0.27000E+04
         0.27000E+04
         0.27000E+04
         0.27000E+04
         0.27000E+04
         0.27000E+04
         0.27000E+04
         0.27000E+04
         0.27000E+04
         0.27000E+04
         0.27000E+04
         0.27000E+04
         0.27000E+04
         0.27000E+04
         0.27000E+04
         0.27000E+04
         0.27000E+04
         0.27000E+04
         0.27000E+04
         0.27000E+04
         0.27000E+04
         0.27000E+04
         0.27000E+04
         0.27000E+04
         0.27000E+04
         0.27000E+04
         0.27000E+04
         0.27000E+04
         0.27000E+04
         0.27000E+04
         0.27000E+04
         0.27000E+04
         0.27000E+04
         0.27000E+04
         0.27000E+04
         0.27000E+04
         0.27000E+04
         0.27000E+04
         0.27000E+04
         0.27000E+04
         0.27000E+04
         0.27000E+04
         0.27000E+04
         0.27000E+04
         0.27000E+04
         0.27000E+04
         0.27000E+04
         0.27000E+04
         0.27000E+04
         0.27000E+04
         0.27000E+04
         0.27000E+04
         0.27000E+04
         0.27000E+04
         0.27000E+04
         0.27000E+04
         0.27000E+04
         0.27000E+04
         0.27000E+04
         0.27000E+04
         0.27000E+04
         0.27000E+04
         0.27000E+04
         0.27000E+04
         0.27000E+04
         0.27000E+04
         0.27000E+04
         0.27000E+04
         0.27000E+04
         0.27000E+04
         0.27000E+04
         0.27000E+04
         0.27000E+04
         0.27000E+04
         0.27000E+04
         0.27000E+04
         0.27000E+04
         0.27000E+04
         0.27000E+04
         0.27000E+04
         0.27000E+04
         0.27000E+04
         0.27000E+04
         0.27000E+04
         0.27000E+04
         0.27000E+04
         0.27000E+04
         0.27000E+04
         0.27000E+04
         0.27000E+04
         0.27000E+04
         0.27000E+04
         0.27000E+04
         0.27000E+04
         0.27000E+04
         0.27000E+04
         0.27000E+04
         0.27000E+04
         0.27000E+04
         0.27000E+04
         0.27000E+04
         0.27000E+04
         0.27000E+04
         0.27000E+04
         0.27000E+04
         0.27000E+04
         0.27000E+04
         0.27000E+04
         0.27000E+04
         0.27000E+04
         0.27000E+04
         0.27000E+04
         0.27000E+04
         0.27000E+04
         0.27000E+04
         0.27000E+04
         0.27000E+04
         0.27000E+04
         0.27000E+04
         0.27000E+04
         0.27000E+04
         0.27000E+04
         0.27000E+04
         0.27000E+04
         0.27000E+04
         0.27000E+04
         0.27000E+04
         0.27000E+04
         0.27000E+04
         0.27000E+04
         0.27000E+04
         0.27000E+04
         0.27000E+04
         0.27000E+04
         0.27000E+04
         0.27000E+04
         0.27000E+04
         0.27000E+04
         0.27000E+04
         0.27000E+04
         0.27000E+04
         0.27000E+04
         0.27000E+04
         0.27000E+04
         0.27000E+04
         0.27000E+04
         0.27000E+04
         0.27000E+04
         0.27000E+04
         0.27000E+04
         0.27000E+04
         0.27000E+04
         0.27000E+04
         0.27000E+04
         0.27000E+04
         0.27000E+04
         0.27000E+04
         0.27000E+04
         0.27000E+04
         0.27000E+04
         0.27000E+04
         0.27000E+04
         0.27000E+04
         0.27000E+04
         0.27000E+04
         0.27000E+04
         0.27000E+04
         0.27000E+04
         0.27000E+04
         0.27000E+04
         0.27000E+04
         0.27000E+04
         0.27000E+04
         0.27000E+04
         0.27000E+04
         0.27000E+04
         0.27000E+04
         0.27000E+04
         0.27000E+04
         0.27000E+04
         0.27000E+04
         0.27000E+04
         0.27000E+04
         0.27000E+04
         0.27000E+04
         0.27000E+04
         0.27000E+04
         0.27000E+04
         0.27000E+04
         0.27000E+04
         0.27000E+04
         0.27000E+04
         0.27000E+04
         0.27000E+04
         0.27000E+04
         0.27000E+04
         0.27000E+04
         0.27000E+04
         0.27000E+04
         0.27000E+04
         0.27000E+04
         0.27000E+04
         0.27000E+04
         0.27000E+04
         0.27000E+04
         0.27000E+04
         0.27000E+04
         0.27000E+04
         0.27000E+04
         0.27000E+04
         0.27000E+04
         0.27000E+04
         0.27000E+04
         0.27000E+04
         0.27000E+04
         0.27000E+04
         0.27000E+04
         0.27000E+04
         0.27000E+04
         0.27000E+04
         0.27000E+04
         0.27000E+04
         0.27000E+04
         0.27000E+04
         0.27000E+04
         0.27000E+04
         0.27000E+04
         0.27000E+04
         0.27000E+04
         0.27000E+04
         0.27000E+04
         0.27000E+04
         0.27000E+04
         0.27000E+04
         0.27000E+04
         0.27000E+04
         0.27000E+04
         0.27000E+04
         0.27000E+04
         0.27000E+04
         0.27000E+04
         0.27000E+04
         0.27000E+04
         0.27000E+04
         0.27000E+04
         0.27000E+04
         0.27000E+04
         0.27000E+04
         0.27000E+04
         0.27000E+04
         0.27000E+04
         0.27000E+04
         0.27000E+04
         0.27000E+04
         0.27000E+04
         0.27000E+04
         0.27000E+04
         0.27000E+04
         0.27000E+04
         0.27000E+04
         0.27000E+04
         0.27000E+04
         0.27000E+04
         0.27000E+04
         0.27000E+04
         0.27000E+04
         0.27000E+04
         0.27000E+04
         0.27000E+04
         0.27000E+04
         0.27000E+04
         0.27000E+04
         0.27000E+04
         0.27000E+04
         0.27000E+04
         0.27000E+04
         0.27000E+04
         0.27000E+04
         0.27000E+04
         0.27000E+04
         0.27000E+04
         0.27000E+04
         0.27000E+04
         0.27000E+04
         0.27000E+04
         0.27000E+04
         0.27000E+04
         0.27000E+04
         0.27000E+04
         0.27000E+04
         0.27000E+04
         0.27000E+04
         0.27000E+04
         0.27000E+04
         0.27000E+04
         0.27000E+04
         0.27000E+04
         0.27000E+04
         0.27000E+04
         0.27000E+04
         0.27000E+04
         0.27000E+04
         0.27000E+04
         0.27000E+04
         0.27000E+04
         0.27000E+04
         0.27000E+04
         0.27000E+04
         0.27000E+04
         0.27000E+04
         0.27000E+04
         0.27000E+04
         0.27000E+04
         0.27000E+04
         0.27000E+04
         0.27000E+04
         0.27000E+04
         0.27000E+04
         0.27000E+04
         0.27000E+04
         0.27000E+04
         0.27000E+04
         0.27000E+04
         0.27000E+04
         0.27000E+04
         0.27000E+04
         0.27000E+04
         0.27000E+04
         0.27000E+04
         0.27000E+04
         0.27000E+04
         0.27000E+04
         0.27000E+04
         0.27000E+04
         0.27000E+04
         0.27000E+04
         0.27000E+04
         0.27000E+04
         0.27000E+04
         0.27000E+04
         0.27000E+04
         0.27000E+04
         0.27000E+04
         0.27000E+04
         0.27000E+04
         0.27000E+04
         0.27000E+04
         0.27000E+04
         0.27000E+04
         0.27000E+04
         0.27000E+04
         0.27000E+04
         0.27000E+04
         0.27000E+04
         0.27000E+04
         0.27000E+04
         0.27000E+04
         0.27000E+04
         0.27000E+04
         0.27000E+04
         0.27000E+04
         0.27000E+04
         0.27000E+04
         0.27000E+04
         0.27000E+04
         0.27000E+04
         0.27000E+04
         0.27000E+04
         0.27000E+04
         0.27000E+04
         0.27000E+04
         0.27000E+04
         0.27000E+04
         0.27000E+04
         0.27000E+04
         0.27000E+04
         0.27000E+04
         0.27000E+04
         0.27000E+04
         0.27000E+04
         0.27000E+04
         0.27000E+04
         0.27000E+04
         0.27000E+04
         0.27000E+04
         0.27000E+04
         0.27000E+04
         0.27000E+04
         0.27000E+04
         0.27000E+04
         0.27000E+04
         0.27000E+04
         0.27000E+04
         0.27000E+04
         0.27000E+04
         0.27000E+04
         0.27000E+04
         0.27000E+04
         0.27000E+04
         0.27000E+04
         0.27000E+04
         0.27000E+04
         0.27000E+04
         0.27000E+04
         0.27000E+04
         0.27000E+04
         0.27000E+04
         0.27000E+04
         0.27000E+04
         0.27000E+04
         0.27000E+04
         0.27000E+04
         0.27000E+04
         0.27000E+04
         0.27000E+04
         0.27000E+04
         0.27000E+04
         0.27000E+04
         0.27000E+04
         0.27000E+04
         0.27000E+04
         0.27000E+04
         0.27000E+04
         0.27000E+04
         0.27000E+04
         0.27000E+04
         0.27000E+04
         0.27000E+04
         0.27000E+04
         0.27000E+04
         0.27000E+04
         0.27000E+04
         0.27000E+04
         0.27000E+04
         0.27000E+04
         0.27000E+04
         0.27000E+04
         0.27000E+04
         0.27000E+04
         0.27000E+04
         0.27000E+04
         0.27000E+04
         0.27000E+04
         0.27000E+04
         0.27000E+04
         0.27000E+04
         0.27000E+04
         0.27000E+04
         0.27000E+04
         0.27000E+04
         0.27000E+04
         0.27000E+04
         0.27000E+04
         0.27000E+04
         0.27000E+04
         0.27000E+04
         0.27000E+04
         0.27000E+04
         0.27000E+04
         0.27000E+04
         0.27000E+04
         0.27000E+04
         0.27000E+04
         0.27000E+04
         0.27000E+04
         0.27000E+04
         0.27000E+04
         0.27000E+04
         0.27000E+04
         0.27000E+04
         0.27000E+04
         0.27000E+04
         0.27000E+04
         0.27000E+04
         0.27000E+04
         0.27000E+04
         0.27000E+04
         0.27000E+04
         0.27000E+04
         0.27000E+04
         0.27000E+04
         0.27000E+04
         0.27000E+04
         0.27000E+04
         0.27000E+04
         0.27000E+04
         0.27000E+04
         0.27000E+04
         0.27000E+04
         0.27000E+04
         0.27000E+04
         0.27000E+04
         0.27000E+04
         0.27000E+04
         0.27000E+04
         0.27000E+04
         0.27000E+04
         0.27000E+04
         0.27000E+04
         0.27000E+04
         0.27000E+04
         0.27000E+04
         0.27000E+04
         0.27000E+04
         0.27000E+04
         0.27000E+04
         0.27000E+04
         0.27000E+04
         0.27000E+04
         0.27000E+04
         0.27000E+04
         0.27000E+04
         0.27000E+04
         0.27000E+04
         0.27000E+04
         0.27000E+04
         0.27000E+04
         0.27000E+04
         0.27000E+04
         0.27000E+04
         0.27000E+04
         0.27000E+04
         0.27000E+04
         0.27000E+04
         0.27000E+04
         0.27000E+04
         0.27000E+04
         0.27000E+04
         0.27000E+04
         0.27000E+04
         0.27000E+04
         0.27000E+04
         0.27000E+04
         0.27000E+04
         0.27000E+04
         0.27000E+04
         0.27000E+04
         0.27000E+04
         0.27000E+04
         0.27000E+04
         0.27000E+04
         0.27000E+04
         0.27000E+04
         0.27000E+04
         0.27000E+04
         0.27000E+04
         0.27000E+04
         0.27000E+04
         0.27000E+04
         0.27000E+04
         0.27000E+04
         0.27000E+04
         0.27000E+04
         0.27000E+04
         0.27000E+04
         0.27000E+04
         0.27000E+04
         0.27000E+04
         0.27000E+04
         0.27000E+04
         0.27000E+04
         0.27000E+04
         0.27000E+04
         0.27000E+04
         0.27000E+04
         0.27000E+04
         0.27000E+04
         0.27000E+04
         0.27000E+04
         0.27000E+04
         0.27000E+04
         0.27000E+04
         0.27000E+04
         0.27000E+04
         0.27000E+04
         0.27000E+04
         0.27000E+04
         0.27000E+04
         0.27000E+04
         0.27000E+04
         0.27000E+04
         0.27000E+04
         0.27000E+04
         0.27000E+04
         0.27000E+04
         0.27000E+04
         0.27000E+04
         0.27000E+04
         0.27000E+04
         0.27000E+04
         0.27000E+04
         0.27000E+04
         0.27000E+04
         0.27000E+04
         0.27000E+04
         0.27000E+04
         0.27000E+04
         0.27000E+04
         0.27000E+04
         0.27000E+04
         0.27000E+04
         0.27000E+04
         0.27000E+04
         0.27000E+04
         0.27000E+04
         0.27000E+04
         0.27000E+04
         0.27000E+04
         0.27000E+04
         0.27000E+04
         0.27000E+04
         0.27000E+04
         0.27000E+04
         0.27000E+04
         0.27000E+04
         0.27000E+04
         0.27000E+04
         0.27000E+04
         0.27000E+04
         0.27000E+04
         0.27000E+04
         0.27000E+04
         0.27000E+04
         0.27000E+04
         0.27000E+04
         0.27000E+04
         0.27000E+04
         0.27000E+04
         0.27000E+04
         0.27000E+04
         0.27000E+04
         0.27000E+04
         0.27000E+04
         0.27000E+04
         0.27000E+04
         0.27000E+04
         0.27000E+04
         0.27000E+04
         0.27000E+04
         0.27000E+04
         0.27000E+04
         0.27000E+04
         0.27000E+04
         0.27000E+04
         0.27000E+04
         0.27000E+04
         0.27000E+04
         0.27000E+04
         0.27000E+04
         0.27000E+04
         0.27000E+04
         0.27000E+04
         0.27000E+04
         0.27000E+04
         0.27000E+04
         0.27000E+04
         0.27000E+04
         0.27000E+04
         0.27000E+04
         0.27000E+04
         0.27000E+04
         0.27000E+04
         0.27000E+04
         0.27000E+04
         0.27000E+04
         0.27000E+04
         0.27000E+04
         0.27000E+04
         0.27000E+04
         0.27000E+04
         0.27000E+04
         0.27000E+04
         0.27000E+04
         0.27000E+04
         0.27000E+04
         0.27000E+04
         0.27000E+04
         0.27000E+04
         0.27000E+04
         0.27000E+04
         0.27000E+04
         0.27000E+04
         0.27000E+04
         0.27000E+04
         0.27000E+04
         0.27000E+04
         0.27000E+04
         0.27000E+04
         0.27000E+04
         0.27000E+04
         0.27000E+04
         0.27000E+04
         0.27000E+04
         0.27000E+04
         0.27000E+04
         0.27000E+04
         0.27000E+04
         0.27000E+04
         0.27000E+04
         0.27000E+04
         0.27000E+04
         0.27000E+04
         0.27000E+04
         0.27000E+04
         0.27000E+04
         0.27000E+04
         0.27000E+04
         0.27000E+04
         0.27000E+04
         0.27000E+04
         0.27000E+04
         0.27000E+04
         0.27000E+04
         0.27000E+04
         0.27000E+04
         0.27000E+04
         0.27000E+04
         0.27000E+04
         0.27000E+04
         0.27000E+04
         0.27000E+04
         0.27000E+04
         0.27000E+04
         0.27000E+04
         0.27000E+04
         0.27000E+04
         0.27000E+04
         0.27000E+04
         0.27000E+04
         0.27000E+04
         0.27000E+04
         0.27000E+04
         0.27000E+04
         0.27000E+04
         0.27000E+04
         0.27000E+04
         0.27000E+04
         0.27000E+04
         0.27000E+04
         0.27000E+04
         0.27000E+04
         0.27000E+04
         0.27000E+04
         0.27000E+04
         0.27000E+04
         0.27000E+04
         0.27000E+04
         0.27000E+04
         0.27000E+04
         0.27000E+04
         0.27000E+04
         0.27000E+04
         0.27000E+04
         0.27000E+04
         0.27000E+04
         0.27000E+04
         0.27000E+04
         0.27000E+04
         0.27000E+04
         0.27000E+04
         0.27000E+04
         0.27000E+04
         0.27000E+04
         0.27000E+04
         0.27000E+04
         0.27000E+04
         0.27000E+04
         0.27000E+04
         0.27000E+04
         0.27000E+04
         0.27000E+04
         0.27000E+04
         0.27000E+04
         0.27000E+04
         0.27000E+04
         0.27000E+04
         0.27000E+04
         0.27000E+04
         0.27000E+04
         0.27000E+04
         0.27000E+04
         0.27000E+04
         0.27000E+04
         0.27000E+04
         0.27000E+04
         0.27000E+04
         0.27000E+04
         0.27000E+04
         0.27000E+04
         0.27000E+04
         0.27000E+04
         0.27000E+04
         0.27000E+04
         0.27000E+04
         0.27000E+04
         0.27000E+04
         0.27000E+04
         0.27000E+04
         0.27000E+04
         0.27000E+04
         0.27000E+04
         0.27000E+04
         0.27000E+04
         0.27000E+04
         0.27000E+04
         0.27000E+04
         0.27000E+04
         0.27000E+04
         0.27000E+04
         0.27000E+04
         0.27000E+04
         0.27000E+04
         0.27000E+04
         0.27000E+04
         0.27000E+04
         0.27000E+04
         0.27000E+04
         0.27000E+04
         0.27000E+04
         0.27000E+04
         0.27000E+04
         0.27000E+04
         0.27000E+04
         0.27000E+04
         0.27000E+04
         0.27000E+04
         0.27000E+04
         0.27000E+04
         0.27000E+04
         0.27000E+04
         0.27000E+04
         0.27000E+04
         0.27000E+04
         0.27000E+04
         0.27000E+04
         0.27000E+04
         0.27000E+04
         0.27000E+04
         0.27000E+04
         0.27000E+04
         0.27000E+04
         0.27000E+04
         0.27000E+04
         0.27000E+04
         0.27000E+04
         0.27000E+04
         0.27000E+04
         0.27000E+04
         0.27000E+04
         0.27000E+04
         0.27000E+04
         0.27000E+04
         0.27000E+04
         0.27000E+04
         0.27000E+04
         0.27000E+04
         0.27000E+04
         0.27000E+04
         0.27000E+04
         0.27000E+04
         0.27000E+04
         0.27000E+04
         0.27000E+04
         0.27000E+04
         0.27000E+04
         0.27000E+04
         0.27000E+04
         0.27000E+04
         0.27000E+04
         0.27000E+04
         0.27000E+04
         0.27000E+04
         0.27000E+04
         0.27000E+04
         0.27000E+04
         0.27000E+04
         0.27000E+04
         0.27000E+04
         0.27000E+04
         0.27000E+04
         0.27000E+04
         0.27000E+04
         0.27000E+04
         0.27000E+04
         0.27000E+04
         0.27000E+04
         0.27000E+04
         0.27000E+04
         0.27000E+04
         0.27000E+04
         0.27000E+04
         0.27000E+04
         0.27000E+04
         0.27000E+04
         0.27000E+04
         0.27000E+04
         0.27000E+04
         0.27000E+04
         0.27000E+04
         0.27000E+04
         0.27000E+04
         0.27000E+04
         0.27000E+04
         0.27000E+04
         0.27000E+04
         0.27000E+04
         0.27000E+04
         0.27000E+04
         0.27000E+04
         0.27000E+04
         0.27000E+04
         0.27000E+04
         0.27000E+04
         0.27000E+04
         0.27000E+04
         0.27000E+04
         0.27000E+04
         0.27000E+04
         0.27000E+04
         0.27000E+04
         0.27000E+04
         0.27000E+04
         0.27000E+04
         0.27000E+04
         0.27000E+04
         0.27000E+04
         0.27000E+04
         0.27000E+04
         0.27000E+04
         0.27000E+04
         0.27000E+04
         0.27000E+04
         0.27000E+04
         0.27000E+04
         0.27000E+04
         0.27000E+04
         0.27000E+04
         0.27000E+04
         0.27000E+04
         0.27000E+04
         0.27000E+04
         0.27000E+04
         0.27000E+04
         0.27000E+04
         0.27000E+04
         0.27000E+04
         0.27000E+04
         0.27000E+04
         0.27000E+04
         0.27000E+04
         0.27000E+04
         0.27000E+04
         0.27000E+04
         0.27000E+04
         0.27000E+04
         0.27000E+04
         0.27000E+04
         0.27000E+04
         0.27000E+04
         0.27000E+04
         0.27000E+04
         0.27000E+04
         0.27000E+04
         0.27000E+04
         0.27000E+04
         0.27000E+04
         0.27000E+04
         0.27000E+04
         0.27000E+04
         0.27000E+04
         0.27000E+04
         0.27000E+04
         0.27000E+04
         0.27000E+04
         0.27000E+04
         0.27000E+04
         0.27000E+04
         0.27000E+04
         0.27000E+04
         0.27000E+04
         0.27000E+04
         0.27000E+04
         0.27000E+04
         0.27000E+04
         0.27000E+04
         0.27000E+04
         0.27000E+04
         0.27000E+04
         0.27000E+04
         0.27000E+04
         0.27000E+04
         0.27000E+04
         0.27000E+04
         0.27000E+04
         0.27000E+04
         0.27000E+04
         0.27000E+04
         0.27000E+04
         0.27000E+04
         0.27000E+04
         0.27000E+04
         0.27000E+04
         0.27000E+04
         0.27000E+04
         0.27000E+04
         0.27000E+04
         0.27000E+04
         0.27000E+04
         0.27000E+04
         0.27000E+04
         0.27000E+04
         0.27000E+04
         0.27000E+04
         0.27000E+04
         0.27000E+04
         0.27000E+04
         0.27000E+04
         0.27000E+04
         0.27000E+04
         0.27000E+04
         0.27000E+04
         0.27000E+04
         0.27000E+04
         0.27000E+04
         0.27000E+04
         0.27000E+04
         0.27000E+04
         0.27000E+04
         0.27000E+04
         0.27000E+04
         0.27000E+04
         0.27000E+04
         0.27000E+04
         0.27000E+04
         0.27000E+04
         0.27000E+04
         0.27000E+04
         0.27000E+04
         0.27000E+04
         0.27000E+04
         0.27000E+04
         0.27000E+04
         0.27000E+04
         0.27000E+04
         0.27000E+04
         0.27000E+04
         0.27000E+04
         0.27000E+04
         0.27000E+04
         0.27000E+04
         0.27000E+04
         0.27000E+04
         0.27000E+04
         0.27000E+04
         0.27000E+04
         0.27000E+04
         0.27000E+04
         0.27000E+04
         0.27000E+04
         0.27000E+04
         0.27000E+04
         0.27000E+04
         0.27000E+04
         0.27000E+04
         0.27000E+04
         0.27000E+04
         0.27000E+04
         0.27000E+04
         0.27000E+04
         0.27000E+04
         0.27000E+04
         0.27000E+04
         0.27000E+04
         0.27000E+04
         0.27000E+04
         0.27000E+04
         0.27000E+04
         0.27000E+04
         0.27000E+04
         0.27000E+04
         0.27000E+04
         0.27000E+04
         0.27000E+04
         0.27000E+04
         0.27000E+04
         0.27000E+04
         0.27000E+04
         0.27000E+04
         0.27000E+04
         0.27000E+04
         0.27000E+04
         0.27000E+04
         0.27000E+04
         0.27000E+04
         0.27000E+04
         0.27000E+04
         0.27000E+04
         0.27000E+04
         0.27000E+04
         0.27000E+04
         0.27000E+04
         0.27000E+04
         0.27000E+04
         0.27000E+04
         0.27000E+04
         0.27000E+04
         0.27000E+04
         0.27000E+04
         0.27000E+04
         0.27000E+04
         0.27000E+04
         0.27000E+04
         0.27000E+04
         0.27000E+04
         0.27000E+04
         0.27000E+04
         0.27000E+04
         0.27000E+04
         0.27000E+04
         0.27000E+04
         0.27000E+04
         0.27000E+04
         0.27000E+04
         0.27000E+04
         0.27000E+04
         0.27000E+04
         0.27000E+04
         0.27000E+04
         0.27000E+04
         0.27000E+04
         0.27000E+04
         0.27000E+04
         0.27000E+04
         0.27000E+04
         0.27000E+04
         0.27000E+04
         0.27000E+04
         0.27000E+04
         0.27000E+04
         0.27000E+04
         0.27000E+04
         0.27000E+04
         0.27000E+04
         0.27000E+04
         0.27000E+04
         0.27000E+04
         0.27000E+04
         0.27000E+04
         0.27000E+04
         0.27000E+04
         0.27000E+04
         0.27000E+04
         0.27000E+04
         0.27000E+04
         0.27000E+04
         0.27000E+04
         0.27000E+04
         0.27000E+04
         0.27000E+04
         0.27000E+04
         0.27000E+04
         0.27000E+04
         0.27000E+04
         0.27000E+04
         0.27000E+04
         0.27000E+04
         0.27000E+04
         0.27000E+04
         0.27000E+04
         0.27000E+04
         0.27000E+04
         0.27000E+04
         0.27000E+04
         0.27000E+04
         0.27000E+04
         0.27000E+04
         0.27000E+04
         0.27000E+04
         0.27000E+04
         0.27000E+04
         0.27000E+04
         0.27000E+04
         0.27000E+04
         0.27000E+04
         0.27000E+04
         0.27000E+04
         0.27000E+04
         0.27000E+04
         0.27000E+04
         0.27000E+04
         0.27000E+04
         0.27000E+04
         0.27000E+04
         0.27000E+04
         0.27000E+04
         0.27000E+04
         0.27000E+04
         0.27000E+04
         0.27000E+04
         0.27000E+04
         0.27000E+04
         0.27000E+04
         0.27000E+04
         0.27000E+04
         0.27000E+04
         0.27000E+04
         0.27000E+04
         0.27000E+04
         0.27000E+04
         0.27000E+04
         0.27000E+04
         0.27000E+04
         0.27000E+04
         0.27000E+04
         0.27000E+04
         0.27000E+04
         0.27000E+04
         0.27000E+04
         0.27000E+04
         0.27000E+04
         0.27000E+04
         0.27000E+04
         0.27000E+04
         0.27000E+04
         0.27000E+04
         0.27000E+04
         0.27000E+04
         0.27000E+04
         0.27000E+04
         0.27000E+04
         0.27000E+04
         0.27000E+04
         0.27000E+04
         0.27000E+04
         0.27000E+04
         0.27000E+04
         0.27000E+04
         0.27000E+04
         0.27000E+04
         0.27000E+04
         0.27000E+04
         0.27000E+04
         0.27000E+04
         0.27000E+04
         0.27000E+04
         0.27000E+04
         0.27000E+04
         0.27000E+04
         0.27000E+04
         0.27000E+04
         0.27000E+04
         0.27000E+04
         0.27000E+04
         0.27000E+04
         0.27000E+04
         0.27000E+04
         0.27000E+04
         0.27000E+04
         0.27000E+04
         0.27000E+04
         0.27000E+04
         0.27000E+04
         0.27000E+04
         0.27000E+04
         0.27000E+04
         0.27000E+04
         0.27000E+04
         0.27000E+04
         0.27000E+04
         0.27000E+04
         0.27000E+04
         0.27000E+04
         0.27000E+04
         0.27000E+04
         0.27000E+04
         0.27000E+04
         0.27000E+04
         0.27000E+04
         0.27000E+04
         0.27000E+04
         0.27000E+04
         0.27000E+04
         0.27000E+04
         0.27000E+04
         0.27000E+04
         0.27000E+04
         0.27000E+04
         0.27000E+04
         0.27000E+04
         0.27000E+04
         0.27000E+04
         0.27000E+04
         0.27000E+04
         0.27000E+04
         0.27000E+04
         0.27000E+04
         0.27000E+04
         0.27000E+04
         0.27000E+04
         0.27000E+04
         0.27000E+04
         0.27000E+04
         0.27000E+04
         0.27000E+04
         0.27000E+04
         0.27000E+04
         0.27000E+04
         0.27000E+04
         0.27000E+04
         0.27000E+04
         0.27000E+04
         0.27000E+04
         0.27000E+04
         0.27000E+04
         0.27000E+04
         0.27000E+04
         0.27000E+04
         0.27000E+04
         0.27000E+04
         0.27000E+04
         0.27000E+04
         0.27000E+04
         0.27000E+04
         0.27000E+04
         0.27000E+04
         0.27000E+04
         0.27000E+04
         0.27000E+04
         0.27000E+04
         0.27000E+04
         0.27000E+04
         0.27000E+04
         0.27000E+04
         0.27000E+04
         0.27000E+04
         0.27000E+04
         0.27000E+04
         0.27000E+04
         0.27000E+04
         0.27000E+04
         0.27000E+04
         0.27000E+04
         0.27000E+04
         0.27000E+04
         0.27000E+04
         0.27000E+04
         0.27000E+04
         0.27000E+04
         0.27000E+04
         0.27000E+04
         0.27000E+04
         0.27000E+04
         0.27000E+04
         0.27000E+04
         0.27000E+04
         0.27000E+04
         0.27000E+04
         0.27000E+04
         0.27000E+04
         0.27000E+04
         0.27000E+04
         0.27000E+04
         0.27000E+04
         0.27000E+04
         0.27000E+04
         0.27000E+04
         0.27000E+04
         0.27000E+04
         0.27000E+04
         0.27000E+04
         0.27000E+04
         0.27000E+04
         0.27000E+04
         0.27000E+04
         0.27000E+04
         0.27000E+04
         0.27000E+04
         0.27000E+04
         0.27000E+04
         0.27000E+04
         0.27000E+04
         0.27000E+04
         0.27000E+04
         0.27000E+04
         0.27000E+04
         0.27000E+04
         0.27000E+04
         0.27000E+04
         0.27000E+04
         0.27000E+04
         0.27000E+04
         0.27000E+04
         0.27000E+04
         0.27000E+04
         0.27000E+04
         0.27000E+04
         0.27000E+04
         0.27000E+04
         0.27000E+04
         0.27000E+04
         0.27000E+04
         0.27000E+04
         0.27000E+04
         0.27000E+04
         0.27000E+04
         0.27000E+04
         0.27000E+04
         0.27000E+04
         0.27000E+04
         0.27000E+04
         0.27000E+04
         0.27000E+04
         0.27000E+04
         0.27000E+04
         0.27000E+04
         0.27000E+04
         0.27000E+04
         0.27000E+04
         0.27000E+04
         0.27000E+04
         0.27000E+04
         0.27000E+04
         0.27000E+04
         0.27000E+04
         0.27000E+04
         0.27000E+04
         0.27000E+04
         0.27000E+04
         0.27000E+04
         0.27000E+04
         0.27000E+04
         0.27000E+04
         0.27000E+04
         0.27000E+04
         0.27000E+04
         0.27000E+04
         0.27000E+04
         0.27000E+04
         0.27000E+04
         0.27000E+04
         0.27000E+04
         0.27000E+04
         0.27000E+04
         0.27000E+04
         0.27000E+04
         0.27000E+04
         0.27000E+04
         0.27000E+04
         0.27000E+04
         0.27000E+04
         0.27000E+04
         0.27000E+04
         0.27000E+04
         0.27000E+04
         0.27000E+04
         0.27000E+04
         0.27000E+04
         0.27000E+04
         0.27000E+04
         0.27000E+04
         0.27000E+04
         0.27000E+04
         0.27000E+04
         0.27000E+04
         0.27000E+04
         0.27000E+04
         0.27000E+04
         0.27000E+04
         0.27000E+04
         0.27000E+04
         0.27000E+04
         0.27000E+04
         0.27000E+04
         0.27000E+04
         0.27000E+04
         0.27000E+04
         0.27000E+04
         0.27000E+04
         0.27000E+04
         0.27000E+04
         0.27000E+04
         0.27000E+04
         0.27000E+04
         0.27000E+04
         0.27000E+04
         0.27000E+04
         0.27000E+04
         0.27000E+04
         0.27000E+04
         0.27000E+04
         0.27000E+04
         0.27000E+04
         0.27000E+04
         0.27000E+04
         0.27000E+04
         0.27000E+04
         0.27000E+04
         0.27000E+04
         0.27000E+04
         0.27000E+04
         0.27000E+04
         0.27000E+04
         0.27000E+04
         0.27000E+04
         0.27000E+04
         0.27000E+04
         0.27000E+04
         0.27000E+04
         0.27000E+04
         0.27000E+04
         0.27000E+04
         0.27000E+04
         0.27000E+04
         0.27000E+04
         0.27000E+04
         0.27000E+04
         0.27000E+04
         0.27000E+04
         0.27000E+04
         0.27000E+04
         0.27000E+04
         0.27000E+04
         0.27000E+04
         0.27000E+04
         0.27000E+04
         0.27000E+04
         0.27000E+04
         0.27000E+04
         0.27000E+04
         0.27000E+04
         0.27000E+04
         0.27000E+04
         0.27000E+04
         0.27000E+04
         0.27000E+04
         0.27000E+04
         0.27000E+04
         0.27000E+04
         0.27000E+04
         0.27000E+04
         0.27000E+04
         0.27000E+04
         0.27000E+04
         0.27000E+04
         0.27000E+04
         0.27000E+04
         0.27000E+04
         0.27000E+04
         0.27000E+04
         0.27000E+04
         0.27000E+04
         0.27000E+04
         0.27000E+04
         0.27000E+04
         0.27000E+04
         0.27000E+04
         0.27000E+04
         0.27000E+04
         0.27000E+04
         0.27000E+04
         0.27000E+04
         0.27000E+04
         0.27000E+04
         0.27000E+04
         0.27000E+04
         0.27000E+04
         0.27000E+04
         0.27000E+04
         0.27000E+04
         0.27000E+04
         0.27000E+04
         0.27000E+04
         0.27000E+04
         0.27000E+04
         0.27000E+04
         0.27000E+04
         0.27000E+04
         0.27000E+04
         0.27000E+04
         0.27000E+04
         0.27000E+04
         0.27000E+04
         0.27000E+04
         0.27000E+04
         0.27000E+04
         0.27000E+04
         0.27000E+04
         0.27000E+04
         0.27000E+04
         0.27000E+04
         0.27000E+04
         0.27000E+04
         0.27000E+04
         0.27000E+04
         0.27000E+04
         0.27000E+04
         0.27000E+04
         0.27000E+04
         0.27000E+04
         0.27000E+04
         0.27000E+04
         0.27000E+04
         0.27000E+04
         0.27000E+04
         0.27000E+04
         0.27000E+04
         0.27000E+04
         0.27000E+04
         0.27000E+04
         0.27000E+04
         0.27000E+04
         0.27000E+04
         0.27000E+04
         0.27000E+04
         0.27000E+04
         0.27000E+04
         0.27000E+04
         0.27000E+04
         0.27000E+04
         0.27000E+04
         0.27000E+04
         0.27000E+04
         0.27000E+04
         0.27000E+04
         0.27000E+04
         0.27000E+04
         0.27000E+04
         0.27000E+04
         0.27000E+04
         0.27000E+04
         0.27000E+04
         0.27000E+04
         0.27000E+04
         0.27000E+04
         0.27000E+04
         0.27000E+04
         0.27000E+04
         0.27000E+04
         0.27000E+04
         0.27000E+04
         0.27000E+04
         0.27000E+04
         0.27000E+04
         0.27000E+04
         0.27000E+04
         0.27000E+04
         0.27000E+04
         0.27000E+04
         0.27000E+04
         0.27000E+04
         0.27000E+04
         0.27000E+04
         0.27000E+04
         0.27000E+04
         0.27000E+04
         0.27000E+04
         0.27000E+04
         0.27000E+04
         0.27000E+04
         0.27000E+04
         0.27000E+04
         0.27000E+04
         0.27000E+04
         0.27000E+04
         0.27000E+04
         0.27000E+04
         0.27000E+04
         0.27000E+04
         0.27000E+04
         0.27000E+04
         0.27000E+04
         0.27000E+04
         0.27000E+04
         0.27000E+04
         0.27000E+04
         0.27000E+04
         0.27000E+04
         0.27000E+04
         0.27000E+04
         0.27000E+04
         0.27000E+04
         0.27000E+04
         0.27000E+04
         0.27000E+04
         0.27000E+04
         0.27000E+04
         0.27000E+04
         0.27000E+04
         0.27000E+04
         0.27000E+04
         0.27000E+04
         0.27000E+04
         0.27000E+04
         0.27000E+04
         0.27000E+04
         0.27000E+04
         0.27000E+04
         0.27000E+04
         0.27000E+04
         0.27000E+04
         0.27000E+04
         0.27000E+04
         0.27000E+04
         0.27000E+04
         0.27000E+04
         0.27000E+04
         0.27000E+04
         0.27000E+04
         0.27000E+04
         0.27000E+04
         0.27000E+04
         0.27000E+04
         0.27000E+04
         0.27000E+04
         0.27000E+04
         0.27000E+04
         0.27000E+04
         0.27000E+04
         0.27000E+04
         0.27000E+04
         0.27000E+04
         0.27000E+04
         0.27000E+04
         0.27000E+04
         0.27000E+04
         0.27000E+04
         0.27000E+04
         0.27000E+04
         0.27000E+04
         0.27000E+04
         0.27000E+04
         0.27000E+04
         0.27000E+04
         0.27000E+04
         0.27000E+04
         0.27000E+04
         0.27000E+04
         0.27000E+04
         0.27000E+04
         0.27000E+04
         0.27000E+04
