# vtk DataFile Version 2.0
               (MEGA VTK FILE)
ASCII
DATASET UNSTRUCTURED_GRID
POINTS       1950    double
  0.10378E-02  0.67292E-03 -0.11115E-01
  0.17452E-02  0.12308E-02 -0.11115E-01
  0.23177E-02  0.59151E-03 -0.11115E-01
  0.16698E-02 -0.33775E-03 -0.11116E-01
  0.10379E-02  0.67237E-03 -0.11750E-01
  0.17453E-02  0.12301E-02 -0.11750E-01
  0.23178E-02  0.59098E-03 -0.11750E-01
  0.16700E-02 -0.33851E-03 -0.11750E-01
  0.30377E-02  0.14882E-03 -0.11113E-01
  0.27791E-02 -0.67643E-03 -0.11115E-01
  0.30377E-02  0.14846E-03 -0.11750E-01
  0.27788E-02 -0.67692E-03 -0.11750E-01
  0.12850E-02  0.18412E-02 -0.11114E-01
  0.65139E-03  0.14576E-02 -0.11115E-01
  0.12851E-02  0.18410E-02 -0.11750E-01
  0.65164E-03  0.14566E-02 -0.11750E-01
  0.12757E-03  0.29933E-03 -0.11115E-01
 -0.12822E-03  0.11672E-02 -0.11115E-01
  0.12783E-03  0.29819E-03 -0.11750E-01
 -0.12804E-03  0.11655E-02 -0.11750E-01
  0.94500E-03  0.22748E-02 -0.11114E-01
  0.11327E-02  0.28286E-02 -0.11113E-01
  0.17490E-02  0.24238E-02 -0.11113E-01
  0.94533E-03  0.22746E-02 -0.11750E-01
  0.11330E-02  0.28291E-02 -0.11750E-01
  0.17494E-02  0.24236E-02 -0.11750E-01
  0.40588E-03  0.21685E-02 -0.11115E-01
  0.39779E-03  0.29366E-02 -0.11114E-01
  0.40594E-03  0.21684E-02 -0.11750E-01
  0.39781E-03  0.29369E-02 -0.11750E-01
 -0.76303E-03 -0.10033E-02 -0.11116E-01
 -0.86604E-03  0.78969E-04 -0.11116E-01
  0.46119E-03 -0.70318E-03 -0.11115E-01
 -0.76268E-03 -0.10032E-02 -0.11750E-01
 -0.86593E-03  0.78160E-04 -0.11750E-01
  0.46164E-03 -0.70391E-03 -0.11750E-01
 -0.18300E-02 -0.71196E-03 -0.11115E-01
 -0.18440E-02  0.82749E-04 -0.11116E-01
 -0.18297E-02 -0.71210E-03 -0.11750E-01
 -0.18441E-02  0.82626E-04 -0.11750E-01
 -0.27238E-02 -0.77865E-03 -0.11114E-01
 -0.28028E-02  0.40713E-04 -0.11115E-01
 -0.27238E-02 -0.77882E-03 -0.11750E-01
 -0.28031E-02  0.40439E-04 -0.11750E-01
 -0.25365E-02 -0.15195E-02 -0.11113E-01
 -0.19287E-02 -0.13230E-02 -0.11114E-01
 -0.25363E-02 -0.15195E-02 -0.11750E-01
 -0.19283E-02 -0.13231E-02 -0.11750E-01
 -0.99363E-03  0.98847E-03 -0.11116E-01
 -0.99377E-03  0.98712E-03 -0.11750E-01
 -0.14380E-02 -0.17325E-02 -0.11114E-01
 -0.14377E-02 -0.17325E-02 -0.11750E-01
 -0.31574E-03  0.20220E-02 -0.11116E-01
 -0.31594E-03  0.20217E-02 -0.11750E-01
 -0.11068E-02  0.18615E-02 -0.11116E-01
 -0.11071E-02  0.18616E-02 -0.11750E-01
 -0.18845E-02  0.17175E-02 -0.11115E-01
 -0.18713E-02  0.90940E-03 -0.11116E-01
 -0.18846E-02  0.17175E-02 -0.11750E-01
 -0.18714E-02  0.90916E-03 -0.11750E-01
 -0.15871E-03 -0.19800E-02 -0.11115E-01
 -0.94089E-03 -0.23489E-02 -0.11114E-01
 -0.15844E-03 -0.19800E-02 -0.11750E-01
 -0.94029E-03 -0.23489E-02 -0.11750E-01
  0.78856E-03 -0.17074E-02 -0.11115E-01
  0.78922E-03 -0.17074E-02 -0.11750E-01
  0.17211E-02 -0.14894E-02 -0.11115E-01
  0.17211E-02 -0.14892E-02 -0.11750E-01
  0.32050E-02  0.76036E-03 -0.11112E-01
  0.28046E-02  0.12477E-02 -0.11113E-01
  0.32047E-02  0.75936E-03 -0.11750E-01
  0.28047E-02  0.12473E-02 -0.11750E-01
  0.23059E-02  0.18665E-02 -0.11114E-01
  0.23060E-02  0.18664E-02 -0.11750E-01
 -0.40614E-03  0.29038E-02 -0.11115E-01
 -0.40627E-03  0.29049E-02 -0.11750E-01
 -0.12092E-02  0.27207E-02 -0.11115E-01
 -0.12092E-02  0.27212E-02 -0.11750E-01
 -0.19448E-02  0.24642E-02 -0.11114E-01
 -0.19448E-02  0.24645E-02 -0.11750E-01
 -0.25029E-02  0.22359E-02 -0.11112E-01
 -0.26371E-02  0.16503E-02 -0.11114E-01
 -0.25029E-02  0.22359E-02 -0.11750E-01
 -0.26372E-02  0.16503E-02 -0.11750E-01
 -0.27671E-02  0.87493E-03 -0.11115E-01
 -0.27674E-02  0.87466E-03 -0.11750E-01
 -0.21123E-02 -0.21373E-02 -0.11113E-01
 -0.21122E-02 -0.21373E-02 -0.11750E-01
 -0.16087E-02 -0.26931E-02 -0.11113E-01
 -0.16087E-02 -0.26931E-02 -0.11750E-01
 -0.11939E-02 -0.31291E-02 -0.11112E-01
 -0.58641E-03 -0.30382E-02 -0.11113E-01
 -0.11937E-02 -0.31291E-02 -0.11750E-01
 -0.58606E-03 -0.30382E-02 -0.11750E-01
  0.20912E-03 -0.28748E-02 -0.11114E-01
  0.20952E-03 -0.28748E-02 -0.11750E-01
  0.10586E-02 -0.26423E-02 -0.11114E-01
  0.10589E-02 -0.26420E-02 -0.11750E-01
  0.18413E-02 -0.23707E-02 -0.11113E-01
  0.18413E-02 -0.23705E-02 -0.11750E-01
  0.24544E-02 -0.21445E-02 -0.11112E-01
  0.26022E-02 -0.15105E-02 -0.11114E-01
  0.24543E-02 -0.21439E-02 -0.11750E-01
  0.26021E-02 -0.15106E-02 -0.11750E-01
  0.37964E-02  0.93572E-03 -0.11109E-01
  0.39100E-02  0.00000E+00 -0.11109E-01
  0.37964E-02  0.93572E-03 -0.11750E-01
  0.39100E-02  0.00000E+00 -0.11750E-01
  0.34621E-02  0.18171E-02 -0.11109E-01
  0.34621E-02  0.18171E-02 -0.11750E-01
  0.29267E-02  0.25928E-02 -0.11109E-01
  0.29267E-02  0.25928E-02 -0.11750E-01
  0.22211E-02  0.32179E-02 -0.11109E-01
  0.22211E-02  0.32179E-02 -0.11750E-01
  0.13865E-02  0.36559E-02 -0.11109E-01
  0.13865E-02  0.36559E-02 -0.11750E-01
  0.47130E-03  0.38815E-02 -0.11109E-01
  0.47130E-03  0.38815E-02 -0.11750E-01
 -0.47130E-03  0.38815E-02 -0.11109E-01
 -0.47130E-03  0.38815E-02 -0.11750E-01
 -0.13865E-02  0.36559E-02 -0.11109E-01
 -0.13865E-02  0.36559E-02 -0.11750E-01
 -0.22211E-02  0.32179E-02 -0.11109E-01
 -0.22211E-02  0.32179E-02 -0.11750E-01
 -0.29267E-02  0.25928E-02 -0.11109E-01
 -0.29267E-02  0.25928E-02 -0.11750E-01
 -0.34621E-02  0.18171E-02 -0.11109E-01
 -0.34621E-02  0.18171E-02 -0.11750E-01
 -0.37964E-02  0.93572E-03 -0.11109E-01
 -0.37964E-02  0.93572E-03 -0.11750E-01
 -0.39100E-02  0.22152E-17 -0.11109E-01
 -0.39100E-02 -0.47884E-18 -0.11750E-01
 -0.37964E-02 -0.93572E-03 -0.11109E-01
 -0.37964E-02 -0.93572E-03 -0.11750E-01
 -0.34621E-02 -0.18171E-02 -0.11109E-01
 -0.34621E-02 -0.18171E-02 -0.11750E-01
 -0.29267E-02 -0.25928E-02 -0.11109E-01
 -0.29267E-02 -0.25928E-02 -0.11750E-01
 -0.22211E-02 -0.32179E-02 -0.11109E-01
 -0.22211E-02 -0.32179E-02 -0.11750E-01
 -0.13865E-02 -0.36559E-02 -0.11109E-01
 -0.13865E-02 -0.36559E-02 -0.11750E-01
 -0.47130E-03 -0.38815E-02 -0.11109E-01
 -0.47130E-03 -0.38815E-02 -0.11750E-01
  0.47130E-03 -0.38815E-02 -0.11109E-01
  0.47130E-03 -0.38815E-02 -0.11750E-01
  0.13865E-02 -0.36559E-02 -0.11109E-01
  0.13865E-02 -0.36559E-02 -0.11750E-01
  0.22211E-02 -0.32179E-02 -0.11109E-01
  0.22211E-02 -0.32179E-02 -0.11750E-01
  0.29267E-02 -0.25928E-02 -0.11109E-01
  0.29267E-02 -0.25928E-02 -0.11750E-01
  0.34621E-02 -0.18171E-02 -0.11109E-01
  0.34621E-02 -0.18171E-02 -0.11750E-01
  0.37964E-02 -0.93572E-03 -0.11109E-01
  0.37964E-02 -0.93572E-03 -0.11750E-01
  0.10376E-02  0.67348E-03 -0.10277E-01
  0.17450E-02  0.12314E-02 -0.10277E-01
  0.23175E-02  0.59203E-03 -0.10277E-01
  0.16696E-02 -0.33700E-03 -0.10277E-01
  0.30377E-02  0.14918E-03 -0.10277E-01
  0.27795E-02 -0.67594E-03 -0.10277E-01
  0.12849E-02  0.18414E-02 -0.10277E-01
  0.65115E-03  0.14586E-02 -0.10277E-01
  0.12731E-03  0.30048E-03 -0.10277E-01
 -0.12841E-03  0.11690E-02 -0.10277E-01
  0.94467E-03  0.22749E-02 -0.10277E-01
  0.11323E-02  0.28282E-02 -0.10277E-01
  0.17487E-02  0.24239E-02 -0.10277E-01
  0.40583E-03  0.21685E-02 -0.10277E-01
  0.39777E-03  0.29364E-02 -0.10277E-01
 -0.76338E-03 -0.10035E-02 -0.10277E-01
 -0.86615E-03  0.79778E-04 -0.10277E-01
  0.46074E-03 -0.70245E-03 -0.10277E-01
 -0.18303E-02 -0.71182E-03 -0.10277E-01
 -0.18439E-02  0.82873E-04 -0.10277E-01
 -0.27238E-02 -0.77848E-03 -0.10277E-01
 -0.28025E-02  0.40986E-04 -0.10277E-01
 -0.25366E-02 -0.15194E-02 -0.10277E-01
 -0.19292E-02 -0.13228E-02 -0.10277E-01
 -0.99349E-03  0.98983E-03 -0.10277E-01
 -0.14384E-02 -0.17324E-02 -0.10277E-01
 -0.31554E-03  0.20223E-02 -0.10277E-01
 -0.11064E-02  0.18614E-02 -0.10277E-01
 -0.18845E-02  0.17175E-02 -0.10277E-01
 -0.18712E-02  0.90964E-03 -0.10277E-01
 -0.15899E-03 -0.19800E-02 -0.10277E-01
 -0.94149E-03 -0.23489E-02 -0.10277E-01
  0.78790E-03 -0.17074E-02 -0.10277E-01
  0.17210E-02 -0.14896E-02 -0.10277E-01
  0.32053E-02  0.76137E-03 -0.10277E-01
  0.28046E-02  0.12481E-02 -0.10277E-01
  0.23058E-02  0.18665E-02 -0.10277E-01
 -0.40600E-03  0.29027E-02 -0.10277E-01
 -0.12092E-02  0.27202E-02 -0.10277E-01
 -0.19447E-02  0.24640E-02 -0.10277E-01
 -0.25028E-02  0.22359E-02 -0.10277E-01
 -0.26370E-02  0.16503E-02 -0.10277E-01
 -0.27668E-02  0.87519E-03 -0.10277E-01
 -0.21125E-02 -0.21373E-02 -0.10277E-01
 -0.16088E-02 -0.26932E-02 -0.10277E-01
 -0.11940E-02 -0.31291E-02 -0.10277E-01
 -0.58676E-03 -0.30382E-02 -0.10277E-01
  0.20871E-03 -0.28748E-02 -0.10277E-01
  0.10583E-02 -0.26426E-02 -0.10277E-01
  0.18413E-02 -0.23709E-02 -0.10277E-01
  0.24545E-02 -0.21450E-02 -0.10277E-01
  0.26022E-02 -0.15104E-02 -0.10277E-01
  0.37964E-02  0.93572E-03 -0.10276E-01
  0.39100E-02  0.00000E+00 -0.10276E-01
  0.34621E-02  0.18171E-02 -0.10276E-01
  0.29267E-02  0.25928E-02 -0.10276E-01
  0.22211E-02  0.32179E-02 -0.10276E-01
  0.13865E-02  0.36559E-02 -0.10276E-01
  0.47130E-03  0.38815E-02 -0.10276E-01
 -0.47130E-03  0.38815E-02 -0.10276E-01
 -0.13865E-02  0.36559E-02 -0.10276E-01
 -0.22211E-02  0.32179E-02 -0.10276E-01
 -0.29267E-02  0.25928E-02 -0.10276E-01
 -0.34621E-02  0.18171E-02 -0.10276E-01
 -0.37964E-02  0.93572E-03 -0.10276E-01
 -0.39100E-02 -0.47884E-18 -0.10276E-01
 -0.37964E-02 -0.93572E-03 -0.10276E-01
 -0.34621E-02 -0.18171E-02 -0.10276E-01
 -0.29267E-02 -0.25928E-02 -0.10276E-01
 -0.22211E-02 -0.32179E-02 -0.10276E-01
 -0.13865E-02 -0.36559E-02 -0.10276E-01
 -0.47130E-03 -0.38815E-02 -0.10276E-01
  0.47130E-03 -0.38815E-02 -0.10276E-01
  0.13865E-02 -0.36559E-02 -0.10276E-01
  0.22211E-02 -0.32179E-02 -0.10276E-01
  0.29267E-02 -0.25928E-02 -0.10276E-01
  0.34621E-02 -0.18171E-02 -0.10276E-01
  0.37964E-02 -0.93572E-03 -0.10276E-01
  0.10375E-02  0.67403E-03 -0.93094E-02
  0.17448E-02  0.12321E-02 -0.93094E-02
  0.23174E-02  0.59255E-03 -0.93094E-02
  0.16694E-02 -0.33624E-03 -0.93094E-02
  0.30377E-02  0.14955E-03 -0.93094E-02
  0.27798E-02 -0.67544E-03 -0.93094E-02
  0.12848E-02  0.18415E-02 -0.93094E-02
  0.65090E-03  0.14596E-02 -0.93094E-02
  0.12705E-03  0.30163E-03 -0.93094E-02
 -0.12859E-03  0.11707E-02 -0.93094E-02
  0.94434E-03  0.22750E-02 -0.93094E-02
  0.11320E-02  0.28277E-02 -0.93094E-02
  0.17483E-02  0.24241E-02 -0.93094E-02
  0.40577E-03  0.21685E-02 -0.93094E-02
  0.39776E-03  0.29361E-02 -0.93094E-02
 -0.76374E-03 -0.10036E-02 -0.93094E-02
 -0.86626E-03  0.80588E-04 -0.93094E-02
  0.46029E-03 -0.70173E-03 -0.93094E-02
 -0.18306E-02 -0.71168E-03 -0.93094E-02
 -0.18438E-02  0.82996E-04 -0.93094E-02
 -0.27238E-02 -0.77831E-03 -0.93094E-02
 -0.28022E-02  0.41259E-04 -0.93094E-02
 -0.25368E-02 -0.15194E-02 -0.93094E-02
 -0.19296E-02 -0.13227E-02 -0.93094E-02
 -0.99334E-03  0.99119E-03 -0.93094E-02
 -0.14387E-02 -0.17324E-02 -0.93094E-02
 -0.31534E-03  0.20226E-02 -0.93094E-02
 -0.11061E-02  0.18613E-02 -0.93094E-02
 -0.18844E-02  0.17175E-02 -0.93094E-02
 -0.18710E-02  0.90988E-03 -0.93094E-02
 -0.15926E-03 -0.19801E-02 -0.93094E-02
 -0.94209E-03 -0.23490E-02 -0.93094E-02
  0.78724E-03 -0.17074E-02 -0.93094E-02
  0.17210E-02 -0.14899E-02 -0.93094E-02
  0.32056E-02  0.76237E-03 -0.93094E-02
  0.28046E-02  0.12485E-02 -0.93094E-02
  0.23057E-02  0.18666E-02 -0.93094E-02
 -0.40586E-03  0.29017E-02 -0.93094E-02
 -0.12092E-02  0.27198E-02 -0.93094E-02
 -0.19447E-02  0.24638E-02 -0.93094E-02
 -0.25028E-02  0.22359E-02 -0.93094E-02
 -0.26369E-02  0.16503E-02 -0.93094E-02
 -0.27665E-02  0.87545E-03 -0.93094E-02
 -0.21126E-02 -0.21374E-02 -0.93094E-02
 -0.16088E-02 -0.26932E-02 -0.93094E-02
 -0.11941E-02 -0.31291E-02 -0.93094E-02
 -0.58711E-03 -0.30382E-02 -0.93094E-02
  0.20830E-03 -0.28748E-02 -0.93094E-02
  0.10580E-02 -0.26428E-02 -0.93094E-02
  0.18414E-02 -0.23711E-02 -0.93094E-02
  0.24546E-02 -0.21456E-02 -0.93094E-02
  0.26023E-02 -0.15103E-02 -0.93094E-02
  0.37964E-02  0.93572E-03 -0.93094E-02
  0.39100E-02  0.00000E+00 -0.93094E-02
  0.34621E-02  0.18171E-02 -0.93094E-02
  0.29267E-02  0.25928E-02 -0.93094E-02
  0.22211E-02  0.32179E-02 -0.93094E-02
  0.13865E-02  0.36559E-02 -0.93094E-02
  0.47130E-03  0.38815E-02 -0.93094E-02
 -0.47130E-03  0.38815E-02 -0.93094E-02
 -0.13865E-02  0.36559E-02 -0.93094E-02
 -0.22211E-02  0.32179E-02 -0.93094E-02
 -0.29267E-02  0.25928E-02 -0.93094E-02
 -0.34621E-02  0.18171E-02 -0.93094E-02
 -0.37964E-02  0.93572E-03 -0.93094E-02
 -0.39100E-02  0.39516E-17 -0.93094E-02
 -0.37964E-02 -0.93572E-03 -0.93094E-02
 -0.34621E-02 -0.18171E-02 -0.93094E-02
 -0.29267E-02 -0.25928E-02 -0.93094E-02
 -0.22211E-02 -0.32179E-02 -0.93094E-02
 -0.13865E-02 -0.36559E-02 -0.93094E-02
 -0.47130E-03 -0.38815E-02 -0.93094E-02
  0.47130E-03 -0.38815E-02 -0.93094E-02
  0.13865E-02 -0.36559E-02 -0.93094E-02
  0.22211E-02 -0.32179E-02 -0.93094E-02
  0.29267E-02 -0.25928E-02 -0.93094E-02
  0.34621E-02 -0.18171E-02 -0.93094E-02
  0.37964E-02 -0.93572E-03 -0.93094E-02
  0.10374E-02  0.67459E-03 -0.83302E-02
  0.17446E-02  0.12328E-02 -0.83302E-02
  0.23173E-02  0.59308E-03 -0.83302E-02
  0.16692E-02 -0.33549E-03 -0.83302E-02
  0.30376E-02  0.14991E-03 -0.83302E-02
  0.27801E-02 -0.67495E-03 -0.83302E-02
  0.12847E-02  0.18417E-02 -0.83302E-02
  0.65065E-03  0.14606E-02 -0.83302E-02
  0.12678E-03  0.30278E-03 -0.83302E-02
 -0.12878E-03  0.11725E-02 -0.83302E-02
  0.94401E-03  0.22752E-02 -0.83302E-02
  0.11316E-02  0.28273E-02 -0.83302E-02
  0.17479E-02  0.24242E-02 -0.83302E-02
  0.40572E-03  0.21686E-02 -0.83302E-02
  0.39774E-03  0.29359E-02 -0.83302E-02
 -0.76409E-03 -0.10038E-02 -0.83302E-02
 -0.86637E-03  0.81397E-04 -0.83302E-02
  0.45985E-03 -0.70100E-03 -0.83302E-02
 -0.18309E-02 -0.71154E-03 -0.83302E-02
 -0.18437E-02  0.83120E-04 -0.83302E-02
 -0.27237E-02 -0.77814E-03 -0.83302E-02
 -0.28020E-02  0.41533E-04 -0.83302E-02
 -0.25369E-02 -0.15193E-02 -0.83302E-02
 -0.19300E-02 -0.13227E-02 -0.83302E-02
 -0.99320E-03  0.99254E-03 -0.83302E-02
 -0.14391E-02 -0.17324E-02 -0.83302E-02
 -0.31514E-03  0.20228E-02 -0.83302E-02
 -0.11057E-02  0.18611E-02 -0.83302E-02
 -0.18844E-02  0.17175E-02 -0.83302E-02
 -0.18709E-02  0.91012E-03 -0.83302E-02
 -0.15954E-03 -0.19801E-02 -0.83302E-02
 -0.94269E-03 -0.23490E-02 -0.83302E-02
  0.78658E-03 -0.17074E-02 -0.83302E-02
  0.17209E-02 -0.14901E-02 -0.83302E-02
  0.32060E-02  0.76338E-03 -0.83302E-02
  0.28046E-02  0.12490E-02 -0.83302E-02
  0.23056E-02  0.18666E-02 -0.83302E-02
 -0.40572E-03  0.29006E-02 -0.83302E-02
 -0.12092E-02  0.27193E-02 -0.83302E-02
 -0.19446E-02  0.24636E-02 -0.83302E-02
 -0.25028E-02  0.22359E-02 -0.83302E-02
 -0.26368E-02  0.16503E-02 -0.83302E-02
 -0.27662E-02  0.87571E-03 -0.83302E-02
 -0.21128E-02 -0.21374E-02 -0.83302E-02
 -0.16088E-02 -0.26932E-02 -0.83302E-02
 -0.11942E-02 -0.31291E-02 -0.83302E-02
 -0.58746E-03 -0.30382E-02 -0.83302E-02
  0.20790E-03 -0.28748E-02 -0.83302E-02
  0.10577E-02 -0.26431E-02 -0.83302E-02
  0.18414E-02 -0.23713E-02 -0.83302E-02
  0.24548E-02 -0.21461E-02 -0.83302E-02
  0.26024E-02 -0.15102E-02 -0.83302E-02
  0.37964E-02  0.93572E-03 -0.83302E-02
  0.39100E-02  0.00000E+00 -0.83302E-02
  0.34621E-02  0.18171E-02 -0.83302E-02
  0.29267E-02  0.25928E-02 -0.83302E-02
  0.22211E-02  0.32179E-02 -0.83302E-02
  0.13865E-02  0.36559E-02 -0.83302E-02
  0.47130E-03  0.38815E-02 -0.83302E-02
 -0.47130E-03  0.38815E-02 -0.83302E-02
 -0.13865E-02  0.36559E-02 -0.83302E-02
 -0.22211E-02  0.32179E-02 -0.83302E-02
 -0.29267E-02  0.25928E-02 -0.83302E-02
 -0.34621E-02  0.18171E-02 -0.83302E-02
 -0.37964E-02  0.93572E-03 -0.83302E-02
 -0.39100E-02 -0.47884E-18 -0.83302E-02
 -0.37964E-02 -0.93572E-03 -0.83302E-02
 -0.34621E-02 -0.18171E-02 -0.83302E-02
 -0.29267E-02 -0.25928E-02 -0.83302E-02
 -0.22211E-02 -0.32179E-02 -0.83302E-02
 -0.13865E-02 -0.36559E-02 -0.83302E-02
 -0.47130E-03 -0.38815E-02 -0.83302E-02
  0.47130E-03 -0.38815E-02 -0.83302E-02
  0.13865E-02 -0.36559E-02 -0.83302E-02
  0.22211E-02 -0.32179E-02 -0.83302E-02
  0.29267E-02 -0.25928E-02 -0.83302E-02
  0.34621E-02 -0.18171E-02 -0.83302E-02
  0.37964E-02 -0.93572E-03 -0.83302E-02
  0.10373E-02  0.67514E-03 -0.73511E-02
  0.17445E-02  0.12334E-02 -0.73511E-02
  0.23172E-02  0.59360E-03 -0.73511E-02
  0.16689E-02 -0.33474E-03 -0.73511E-02
  0.30376E-02  0.15027E-03 -0.73511E-02
  0.27805E-02 -0.67446E-03 -0.73511E-02
  0.12846E-02  0.18419E-02 -0.73511E-02
  0.65041E-03  0.14616E-02 -0.73511E-02
  0.12652E-03  0.30393E-03 -0.73511E-02
 -0.12896E-03  0.11742E-02 -0.73511E-02
  0.94367E-03  0.22753E-02 -0.73511E-02
  0.11313E-02  0.28269E-02 -0.73511E-02
  0.17475E-02  0.24244E-02 -0.73511E-02
  0.40566E-03  0.21686E-02 -0.73511E-02
  0.39772E-03  0.29356E-02 -0.73511E-02
 -0.76444E-03 -0.10039E-02 -0.73511E-02
 -0.86648E-03  0.82206E-04 -0.73511E-02
  0.45940E-03 -0.70028E-03 -0.73511E-02
 -0.18312E-02 -0.71140E-03 -0.73511E-02
 -0.18436E-02  0.83243E-04 -0.73511E-02
 -0.27237E-02 -0.77797E-03 -0.73511E-02
 -0.28017E-02  0.41806E-04 -0.73511E-02
 -0.25371E-02 -0.15193E-02 -0.73511E-02
 -0.19305E-02 -0.13226E-02 -0.73511E-02
 -0.99305E-03  0.99390E-03 -0.73511E-02
 -0.14394E-02 -0.17323E-02 -0.73511E-02
 -0.31494E-03  0.20231E-02 -0.73511E-02
 -0.11054E-02  0.18610E-02 -0.73511E-02
 -0.18843E-02  0.17175E-02 -0.73511E-02
 -0.18708E-02  0.91036E-03 -0.73511E-02
 -0.15981E-03 -0.19801E-02 -0.73511E-02
 -0.94328E-03 -0.23490E-02 -0.73511E-02
  0.78592E-03 -0.17074E-02 -0.73511E-02
  0.17209E-02 -0.14904E-02 -0.73511E-02
  0.32063E-02  0.76439E-03 -0.73511E-02
  0.28045E-02  0.12494E-02 -0.73511E-02
  0.23055E-02  0.18666E-02 -0.73511E-02
 -0.40558E-03  0.28995E-02 -0.73511E-02
 -0.12092E-02  0.27188E-02 -0.73511E-02
 -0.19446E-02  0.24633E-02 -0.73511E-02
 -0.25027E-02  0.22359E-02 -0.73511E-02
 -0.26367E-02  0.16503E-02 -0.73511E-02
 -0.27658E-02  0.87597E-03 -0.73511E-02
 -0.21129E-02 -0.21374E-02 -0.73511E-02
 -0.16089E-02 -0.26932E-02 -0.73511E-02
 -0.11943E-02 -0.31291E-02 -0.73511E-02
 -0.58781E-03 -0.30382E-02 -0.73511E-02
  0.20749E-03 -0.28748E-02 -0.73511E-02
  0.10574E-02 -0.26434E-02 -0.73511E-02
  0.18415E-02 -0.23715E-02 -0.73511E-02
  0.24549E-02 -0.21467E-02 -0.73511E-02
  0.26025E-02 -0.15101E-02 -0.73511E-02
  0.37964E-02  0.93572E-03 -0.73511E-02
  0.39100E-02  0.00000E+00 -0.73511E-02
  0.34621E-02  0.18171E-02 -0.73511E-02
  0.29267E-02  0.25928E-02 -0.73511E-02
  0.22211E-02  0.32179E-02 -0.73511E-02
  0.13865E-02  0.36559E-02 -0.73511E-02
  0.47130E-03  0.38815E-02 -0.73511E-02
 -0.47130E-03  0.38815E-02 -0.73511E-02
 -0.13865E-02  0.36559E-02 -0.73511E-02
 -0.22211E-02  0.32179E-02 -0.73511E-02
 -0.29267E-02  0.25928E-02 -0.73511E-02
 -0.34621E-02  0.18171E-02 -0.73511E-02
 -0.37964E-02  0.93572E-03 -0.73511E-02
 -0.39100E-02 -0.47884E-18 -0.73511E-02
 -0.37964E-02 -0.93572E-03 -0.73511E-02
 -0.34621E-02 -0.18171E-02 -0.73511E-02
 -0.29267E-02 -0.25928E-02 -0.73511E-02
 -0.22211E-02 -0.32179E-02 -0.73511E-02
 -0.13865E-02 -0.36559E-02 -0.73511E-02
 -0.47130E-03 -0.38815E-02 -0.73511E-02
  0.47130E-03 -0.38815E-02 -0.73511E-02
  0.13865E-02 -0.36559E-02 -0.73511E-02
  0.22211E-02 -0.32179E-02 -0.73511E-02
  0.29267E-02 -0.25928E-02 -0.73511E-02
  0.34621E-02 -0.18171E-02 -0.73511E-02
  0.37964E-02 -0.93572E-03 -0.73511E-02
  0.10372E-02  0.67570E-03 -0.63719E-02
  0.17443E-02  0.12341E-02 -0.63719E-02
  0.23171E-02  0.59412E-03 -0.63719E-02
  0.16687E-02 -0.33398E-03 -0.63719E-02
  0.30376E-02  0.15064E-03 -0.63719E-02
  0.27808E-02 -0.67396E-03 -0.63719E-02
  0.12845E-02  0.18421E-02 -0.63719E-02
  0.65016E-03  0.14626E-02 -0.63719E-02
  0.12626E-03  0.30507E-03 -0.63719E-02
 -0.12915E-03  0.11760E-02 -0.63719E-02
  0.94334E-03  0.22754E-02 -0.63719E-02
  0.11310E-02  0.28264E-02 -0.63719E-02
  0.17471E-02  0.24245E-02 -0.63719E-02
  0.40561E-03  0.21686E-02 -0.63719E-02
  0.39770E-03  0.29353E-02 -0.63719E-02
 -0.76480E-03 -0.10040E-02 -0.63719E-02
 -0.86659E-03  0.83015E-04 -0.63719E-02
  0.45895E-03 -0.69955E-03 -0.63719E-02
 -0.18315E-02 -0.71126E-03 -0.63719E-02
 -0.18435E-02  0.83367E-04 -0.63719E-02
 -0.27237E-02 -0.77780E-03 -0.63719E-02
 -0.28014E-02  0.42080E-04 -0.63719E-02
 -0.25372E-02 -0.15192E-02 -0.63719E-02
 -0.19309E-02 -0.13224E-02 -0.63719E-02
 -0.99291E-03  0.99526E-03 -0.63719E-02
 -0.14398E-02 -0.17323E-02 -0.63719E-02
 -0.31474E-03  0.20234E-02 -0.63719E-02
 -0.11051E-02  0.18609E-02 -0.63719E-02
 -0.18843E-02  0.17175E-02 -0.63719E-02
 -0.18706E-02  0.91060E-03 -0.63719E-02
 -0.16009E-03 -0.19801E-02 -0.63719E-02
 -0.94388E-03 -0.23490E-02 -0.63719E-02
  0.78526E-03 -0.17074E-02 -0.63719E-02
  0.17208E-02 -0.14906E-02 -0.63719E-02
  0.32066E-02  0.76539E-03 -0.63719E-02
  0.28045E-02  0.12498E-02 -0.63719E-02
  0.23053E-02  0.18667E-02 -0.63719E-02
 -0.40545E-03  0.28984E-02 -0.63719E-02
 -0.12092E-02  0.27184E-02 -0.63719E-02
 -0.19446E-02  0.24631E-02 -0.63719E-02
 -0.25027E-02  0.22359E-02 -0.63719E-02
 -0.26366E-02  0.16503E-02 -0.63719E-02
 -0.27655E-02  0.87623E-03 -0.63719E-02
 -0.21130E-02 -0.21374E-02 -0.63719E-02
 -0.16089E-02 -0.26932E-02 -0.63719E-02
 -0.11944E-02 -0.31291E-02 -0.63719E-02
 -0.58816E-03 -0.30382E-02 -0.63719E-02
  0.20709E-03 -0.28748E-02 -0.63719E-02
  0.10571E-02 -0.26436E-02 -0.63719E-02
  0.18415E-02 -0.23717E-02 -0.63719E-02
  0.24550E-02 -0.21472E-02 -0.63719E-02
  0.26025E-02 -0.15100E-02 -0.63719E-02
  0.37964E-02  0.93572E-03 -0.63719E-02
  0.39100E-02  0.00000E+00 -0.63719E-02
  0.34621E-02  0.18171E-02 -0.63719E-02
  0.29267E-02  0.25928E-02 -0.63719E-02
  0.22211E-02  0.32179E-02 -0.63719E-02
  0.13865E-02  0.36559E-02 -0.63719E-02
  0.47130E-03  0.38815E-02 -0.63719E-02
 -0.47130E-03  0.38815E-02 -0.63719E-02
 -0.13865E-02  0.36559E-02 -0.63719E-02
 -0.22211E-02  0.32179E-02 -0.63719E-02
 -0.29267E-02  0.25928E-02 -0.63719E-02
 -0.34621E-02  0.18171E-02 -0.63719E-02
 -0.37964E-02  0.93572E-03 -0.63719E-02
 -0.39100E-02 -0.47884E-18 -0.63719E-02
 -0.37964E-02 -0.93572E-03 -0.63719E-02
 -0.34621E-02 -0.18171E-02 -0.63719E-02
 -0.29267E-02 -0.25928E-02 -0.63719E-02
 -0.22211E-02 -0.32179E-02 -0.63719E-02
 -0.13865E-02 -0.36559E-02 -0.63719E-02
 -0.47130E-03 -0.38815E-02 -0.63719E-02
  0.47130E-03 -0.38815E-02 -0.63719E-02
  0.13865E-02 -0.36559E-02 -0.63719E-02
  0.22211E-02 -0.32179E-02 -0.63719E-02
  0.29267E-02 -0.25928E-02 -0.63719E-02
  0.34621E-02 -0.18171E-02 -0.63719E-02
  0.37964E-02 -0.93572E-03 -0.63719E-02
  0.10371E-02  0.67625E-03 -0.53927E-02
  0.17441E-02  0.12348E-02 -0.53927E-02
  0.23169E-02  0.59465E-03 -0.53927E-02
  0.16685E-02 -0.33323E-03 -0.53927E-02
  0.30376E-02  0.15100E-03 -0.53927E-02
  0.27812E-02 -0.67347E-03 -0.53927E-02
  0.12844E-02  0.18423E-02 -0.53927E-02
  0.64992E-03  0.14636E-02 -0.53927E-02
  0.12600E-03  0.30622E-03 -0.53927E-02
 -0.12933E-03  0.11777E-02 -0.53927E-02
  0.94301E-03  0.22755E-02 -0.53927E-02
  0.11306E-02  0.28260E-02 -0.53927E-02
  0.17467E-02  0.24247E-02 -0.53927E-02
  0.40556E-03  0.21687E-02 -0.53927E-02
  0.39769E-03  0.29351E-02 -0.53927E-02
 -0.76515E-03 -0.10042E-02 -0.53927E-02
 -0.86670E-03  0.83825E-04 -0.53927E-02
  0.45850E-03 -0.69882E-03 -0.53927E-02
 -0.18318E-02 -0.71112E-03 -0.53927E-02
 -0.18434E-02  0.83490E-04 -0.53927E-02
 -0.27236E-02 -0.77763E-03 -0.53927E-02
 -0.28011E-02  0.42353E-04 -0.53927E-02
 -0.25374E-02 -0.15192E-02 -0.53927E-02
 -0.19313E-02 -0.13223E-02 -0.53927E-02
 -0.99277E-03  0.99661E-03 -0.53927E-02
 -0.14401E-02 -0.17322E-02 -0.53927E-02
 -0.31454E-03  0.20237E-02 -0.53927E-02
 -0.11047E-02  0.18607E-02 -0.53927E-02
 -0.18842E-02  0.17175E-02 -0.53927E-02
 -0.18705E-02  0.91084E-03 -0.53927E-02
 -0.16036E-03 -0.19801E-02 -0.53927E-02
 -0.94448E-03 -0.23491E-02 -0.53927E-02
  0.78460E-03 -0.17074E-02 -0.53927E-02
  0.17208E-02 -0.14909E-02 -0.53927E-02
  0.32070E-02  0.76640E-03 -0.53927E-02
  0.28045E-02  0.12503E-02 -0.53927E-02
  0.23052E-02  0.18667E-02 -0.53927E-02
 -0.40531E-03  0.28974E-02 -0.53927E-02
 -0.12092E-02  0.27179E-02 -0.53927E-02
 -0.19445E-02  0.24629E-02 -0.53927E-02
 -0.25027E-02  0.22359E-02 -0.53927E-02
 -0.26366E-02  0.16503E-02 -0.53927E-02
 -0.27652E-02  0.87650E-03 -0.53927E-02
 -0.21132E-02 -0.21374E-02 -0.53927E-02
 -0.16090E-02 -0.26933E-02 -0.53927E-02
 -0.11946E-02 -0.31291E-02 -0.53927E-02
 -0.58851E-03 -0.30382E-02 -0.53927E-02
  0.20668E-03 -0.28749E-02 -0.53927E-02
  0.10567E-02 -0.26439E-02 -0.53927E-02
  0.18416E-02 -0.23719E-02 -0.53927E-02
  0.24551E-02 -0.21478E-02 -0.53927E-02
  0.26026E-02 -0.15099E-02 -0.53927E-02
  0.37964E-02  0.93572E-03 -0.53927E-02
  0.39100E-02  0.00000E+00 -0.53927E-02
  0.34621E-02  0.18171E-02 -0.53927E-02
  0.29267E-02  0.25928E-02 -0.53927E-02
  0.22211E-02  0.32179E-02 -0.53927E-02
  0.13865E-02  0.36559E-02 -0.53927E-02
  0.47130E-03  0.38815E-02 -0.53927E-02
 -0.47130E-03  0.38815E-02 -0.53927E-02
 -0.13865E-02  0.36559E-02 -0.53927E-02
 -0.22211E-02  0.32179E-02 -0.53927E-02
 -0.29267E-02  0.25928E-02 -0.53927E-02
 -0.34621E-02  0.18171E-02 -0.53927E-02
 -0.37964E-02  0.93572E-03 -0.53927E-02
 -0.39100E-02 -0.47884E-18 -0.53927E-02
 -0.37964E-02 -0.93572E-03 -0.53927E-02
 -0.34621E-02 -0.18171E-02 -0.53927E-02
 -0.29267E-02 -0.25928E-02 -0.53927E-02
 -0.22211E-02 -0.32179E-02 -0.53927E-02
 -0.13865E-02 -0.36559E-02 -0.53927E-02
 -0.47130E-03 -0.38815E-02 -0.53927E-02
  0.47130E-03 -0.38815E-02 -0.53927E-02
  0.13865E-02 -0.36559E-02 -0.53927E-02
  0.22211E-02 -0.32179E-02 -0.53927E-02
  0.29267E-02 -0.25928E-02 -0.53927E-02
  0.34621E-02 -0.18171E-02 -0.53927E-02
  0.37964E-02 -0.93572E-03 -0.53927E-02
  0.10370E-02  0.67680E-03 -0.44136E-02
  0.17439E-02  0.12354E-02 -0.44136E-02
  0.23168E-02  0.59517E-03 -0.44136E-02
  0.16683E-02 -0.33247E-03 -0.44136E-02
  0.30375E-02  0.15136E-03 -0.44136E-02
  0.27815E-02 -0.67298E-03 -0.44136E-02
  0.12843E-02  0.18425E-02 -0.44136E-02
  0.64967E-03  0.14646E-02 -0.44136E-02
  0.12573E-03  0.30737E-03 -0.44136E-02
 -0.12952E-03  0.11795E-02 -0.44136E-02
  0.94268E-03  0.22757E-02 -0.44136E-02
  0.11303E-02  0.28255E-02 -0.44136E-02
  0.17463E-02  0.24248E-02 -0.44136E-02
  0.40550E-03  0.21687E-02 -0.44136E-02
  0.39767E-03  0.29348E-02 -0.44136E-02
 -0.76551E-03 -0.10043E-02 -0.44136E-02
 -0.86680E-03  0.84634E-04 -0.44136E-02
  0.45806E-03 -0.69810E-03 -0.44136E-02
 -0.18321E-02 -0.71098E-03 -0.44136E-02
 -0.18433E-02  0.83614E-04 -0.44136E-02
 -0.27236E-02 -0.77746E-03 -0.44136E-02
 -0.28009E-02  0.42626E-04 -0.44136E-02
 -0.25375E-02 -0.15191E-02 -0.44136E-02
 -0.19317E-02 -0.13223E-02 -0.44136E-02
 -0.99262E-03  0.99797E-03 -0.44136E-02
 -0.14405E-02 -0.17322E-02 -0.44136E-02
 -0.31434E-03  0.20240E-02 -0.44136E-02
 -0.11044E-02  0.18606E-02 -0.44136E-02
 -0.18842E-02  0.17175E-02 -0.44136E-02
 -0.18704E-02  0.91108E-03 -0.44136E-02
 -0.16064E-03 -0.19802E-02 -0.44136E-02
 -0.94508E-03 -0.23491E-02 -0.44136E-02
  0.78394E-03 -0.17074E-02 -0.44136E-02
  0.17208E-02 -0.14911E-02 -0.44136E-02
  0.32073E-02  0.76740E-03 -0.44136E-02
  0.28045E-02  0.12507E-02 -0.44136E-02
  0.23051E-02  0.18668E-02 -0.44136E-02
 -0.40517E-03  0.28963E-02 -0.44136E-02
 -0.12092E-02  0.27174E-02 -0.44136E-02
 -0.19445E-02  0.24627E-02 -0.44136E-02
 -0.25026E-02  0.22358E-02 -0.44136E-02
 -0.26365E-02  0.16503E-02 -0.44136E-02
 -0.27649E-02  0.87676E-03 -0.44136E-02
 -0.21133E-02 -0.21374E-02 -0.44136E-02
 -0.16090E-02 -0.26933E-02 -0.44136E-02
 -0.11947E-02 -0.31291E-02 -0.44136E-02
 -0.58886E-03 -0.30382E-02 -0.44136E-02
  0.20627E-03 -0.28749E-02 -0.44136E-02
  0.10564E-02 -0.26442E-02 -0.44136E-02
  0.18416E-02 -0.23721E-02 -0.44136E-02
  0.24553E-02 -0.21483E-02 -0.44136E-02
  0.26027E-02 -0.15097E-02 -0.44136E-02
  0.37964E-02  0.93572E-03 -0.44136E-02
  0.39100E-02  0.00000E+00 -0.44136E-02
  0.34621E-02  0.18171E-02 -0.44136E-02
  0.29267E-02  0.25928E-02 -0.44136E-02
  0.22211E-02  0.32179E-02 -0.44136E-02
  0.13865E-02  0.36559E-02 -0.44136E-02
  0.47130E-03  0.38815E-02 -0.44136E-02
 -0.47130E-03  0.38815E-02 -0.44136E-02
 -0.13865E-02  0.36559E-02 -0.44136E-02
 -0.22211E-02  0.32179E-02 -0.44136E-02
 -0.29267E-02  0.25928E-02 -0.44136E-02
 -0.34621E-02  0.18171E-02 -0.44136E-02
 -0.37964E-02  0.93572E-03 -0.44136E-02
 -0.39100E-02 -0.47884E-18 -0.44136E-02
 -0.37964E-02 -0.93572E-03 -0.44136E-02
 -0.34621E-02 -0.18171E-02 -0.44136E-02
 -0.29267E-02 -0.25928E-02 -0.44136E-02
 -0.22211E-02 -0.32179E-02 -0.44136E-02
 -0.13865E-02 -0.36559E-02 -0.44136E-02
 -0.47130E-03 -0.38815E-02 -0.44136E-02
  0.47130E-03 -0.38815E-02 -0.44136E-02
  0.13865E-02 -0.36559E-02 -0.44136E-02
  0.22211E-02 -0.32179E-02 -0.44136E-02
  0.29267E-02 -0.25928E-02 -0.44136E-02
  0.34621E-02 -0.18171E-02 -0.44136E-02
  0.37964E-02 -0.93572E-03 -0.44136E-02
  0.10368E-02  0.67736E-03 -0.34344E-02
  0.17438E-02  0.12361E-02 -0.34344E-02
  0.23167E-02  0.59570E-03 -0.34344E-02
  0.16681E-02 -0.33172E-03 -0.34344E-02
  0.30375E-02  0.15173E-03 -0.34344E-02
  0.27819E-02 -0.67248E-03 -0.34344E-02
  0.12842E-02  0.18427E-02 -0.34344E-02
  0.64943E-03  0.14656E-02 -0.34344E-02
  0.12547E-03  0.30852E-03 -0.34344E-02
 -0.12970E-03  0.11812E-02 -0.34344E-02
  0.94235E-03  0.22758E-02 -0.34344E-02
  0.11300E-02  0.28251E-02 -0.34344E-02
  0.17459E-02  0.24249E-02 -0.34344E-02
  0.40545E-03  0.21688E-02 -0.34344E-02
  0.39766E-03  0.29345E-02 -0.34344E-02
 -0.76586E-03 -0.10044E-02 -0.34344E-02
 -0.86691E-03  0.85443E-04 -0.34344E-02
  0.45761E-03 -0.69737E-03 -0.34344E-02
 -0.18324E-02 -0.71084E-03 -0.34344E-02
 -0.18432E-02  0.83737E-04 -0.34344E-02
 -0.27236E-02 -0.77729E-03 -0.34344E-02
 -0.28006E-02  0.42899E-04 -0.34344E-02
 -0.25377E-02 -0.15191E-02 -0.34344E-02
 -0.19322E-02 -0.13222E-02 -0.34344E-02
 -0.99248E-03  0.99932E-03 -0.34344E-02
 -0.14408E-02 -0.17322E-02 -0.34344E-02
 -0.31414E-03  0.20243E-02 -0.34344E-02
 -0.11040E-02  0.18605E-02 -0.34344E-02
 -0.18841E-02  0.17175E-02 -0.34344E-02
 -0.18703E-02  0.91132E-03 -0.34344E-02
 -0.16091E-03 -0.19802E-02 -0.34344E-02
 -0.94568E-03 -0.23491E-02 -0.34344E-02
  0.78328E-03 -0.17074E-02 -0.34344E-02
  0.17207E-02 -0.14914E-02 -0.34344E-02
  0.32076E-02  0.76841E-03 -0.34344E-02
  0.28044E-02  0.12511E-02 -0.34344E-02
  0.23050E-02  0.18668E-02 -0.34344E-02
 -0.40503E-03  0.28952E-02 -0.34344E-02
 -0.12092E-02  0.27170E-02 -0.34344E-02
 -0.19445E-02  0.24624E-02 -0.34344E-02
 -0.25026E-02  0.22358E-02 -0.34344E-02
 -0.26364E-02  0.16503E-02 -0.34344E-02
 -0.27646E-02  0.87702E-03 -0.34344E-02
 -0.21134E-02 -0.21374E-02 -0.34344E-02
 -0.16091E-02 -0.26933E-02 -0.34344E-02
 -0.11948E-02 -0.31291E-02 -0.34344E-02
 -0.58921E-03 -0.30382E-02 -0.34344E-02
  0.20587E-03 -0.28749E-02 -0.34344E-02
  0.10561E-02 -0.26444E-02 -0.34344E-02
  0.18416E-02 -0.23723E-02 -0.34344E-02
  0.24554E-02 -0.21489E-02 -0.34344E-02
  0.26027E-02 -0.15096E-02 -0.34344E-02
  0.37964E-02  0.93572E-03 -0.34344E-02
  0.39100E-02  0.00000E+00 -0.34344E-02
  0.34621E-02  0.18171E-02 -0.34344E-02
  0.29267E-02  0.25928E-02 -0.34344E-02
  0.22211E-02  0.32179E-02 -0.34344E-02
  0.13865E-02  0.36559E-02 -0.34344E-02
  0.47130E-03  0.38815E-02 -0.34344E-02
 -0.47130E-03  0.38815E-02 -0.34344E-02
 -0.13865E-02  0.36559E-02 -0.34344E-02
 -0.22211E-02  0.32179E-02 -0.34344E-02
 -0.29267E-02  0.25928E-02 -0.34344E-02
 -0.34621E-02  0.18171E-02 -0.34344E-02
 -0.37964E-02  0.93572E-03 -0.34344E-02
 -0.39100E-02 -0.47884E-18 -0.34344E-02
 -0.37964E-02 -0.93572E-03 -0.34344E-02
 -0.34621E-02 -0.18171E-02 -0.34344E-02
 -0.29267E-02 -0.25928E-02 -0.34344E-02
 -0.22211E-02 -0.32179E-02 -0.34344E-02
 -0.13865E-02 -0.36559E-02 -0.34344E-02
 -0.47130E-03 -0.38815E-02 -0.34344E-02
  0.47130E-03 -0.38815E-02 -0.34344E-02
  0.13865E-02 -0.36559E-02 -0.34344E-02
  0.22211E-02 -0.32179E-02 -0.34344E-02
  0.29267E-02 -0.25928E-02 -0.34344E-02
  0.34621E-02 -0.18171E-02 -0.34344E-02
  0.37964E-02 -0.93572E-03 -0.34344E-02
  0.10367E-02  0.67791E-03 -0.24552E-02
  0.17436E-02  0.12368E-02 -0.24552E-02
  0.23166E-02  0.59622E-03 -0.24552E-02
  0.16679E-02 -0.33096E-03 -0.24552E-02
  0.30375E-02  0.15209E-03 -0.24552E-02
  0.27822E-02 -0.67199E-03 -0.24552E-02
  0.12841E-02  0.18429E-02 -0.24552E-02
  0.64918E-03  0.14666E-02 -0.24552E-02
  0.12521E-03  0.30967E-03 -0.24552E-02
 -0.12989E-03  0.11830E-02 -0.24552E-02
  0.94202E-03  0.22759E-02 -0.24552E-02
  0.11296E-02  0.28247E-02 -0.24552E-02
  0.17455E-02  0.24251E-02 -0.24552E-02
  0.40539E-03  0.21688E-02 -0.24552E-02
  0.39764E-03  0.29343E-02 -0.24552E-02
 -0.76621E-03 -0.10046E-02 -0.24552E-02
 -0.86702E-03  0.86253E-04 -0.24552E-02
  0.45716E-03 -0.69665E-03 -0.24552E-02
 -0.18326E-02 -0.71070E-03 -0.24552E-02
 -0.18431E-02  0.83861E-04 -0.24552E-02
 -0.27235E-02 -0.77712E-03 -0.24552E-02
 -0.28003E-02  0.43173E-04 -0.24552E-02
 -0.25379E-02 -0.15190E-02 -0.24552E-02
 -0.19326E-02 -0.13220E-02 -0.24552E-02
 -0.99233E-03  0.10007E-02 -0.24552E-02
 -0.14412E-02 -0.17321E-02 -0.24552E-02
 -0.31394E-03  0.20245E-02 -0.24552E-02
 -0.11037E-02  0.18603E-02 -0.24552E-02
 -0.18841E-02  0.17175E-02 -0.24552E-02
 -0.18701E-02  0.91156E-03 -0.24552E-02
 -0.16119E-03 -0.19802E-02 -0.24552E-02
 -0.94628E-03 -0.23491E-02 -0.24552E-02
  0.78262E-03 -0.17074E-02 -0.24552E-02
  0.17207E-02 -0.14916E-02 -0.24552E-02
  0.32079E-02  0.76941E-03 -0.24552E-02
  0.28044E-02  0.12515E-02 -0.24552E-02
  0.23049E-02  0.18668E-02 -0.24552E-02
 -0.40490E-03  0.28942E-02 -0.24552E-02
 -0.12093E-02  0.27165E-02 -0.24552E-02
 -0.19444E-02  0.24622E-02 -0.24552E-02
 -0.25026E-02  0.22358E-02 -0.24552E-02
 -0.26363E-02  0.16503E-02 -0.24552E-02
 -0.27643E-02  0.87728E-03 -0.24552E-02
 -0.21136E-02 -0.21374E-02 -0.24552E-02
 -0.16091E-02 -0.26933E-02 -0.24552E-02
 -0.11949E-02 -0.31291E-02 -0.24552E-02
 -0.58956E-03 -0.30382E-02 -0.24552E-02
  0.20546E-03 -0.28749E-02 -0.24552E-02
  0.10558E-02 -0.26447E-02 -0.24552E-02
  0.18417E-02 -0.23725E-02 -0.24552E-02
  0.24555E-02 -0.21494E-02 -0.24552E-02
  0.26028E-02 -0.15095E-02 -0.24552E-02
  0.37964E-02  0.93572E-03 -0.24552E-02
  0.39100E-02  0.00000E+00 -0.24552E-02
  0.34621E-02  0.18171E-02 -0.24552E-02
  0.29267E-02  0.25928E-02 -0.24552E-02
  0.22211E-02  0.32179E-02 -0.24552E-02
  0.13865E-02  0.36559E-02 -0.24552E-02
  0.47130E-03  0.38815E-02 -0.24552E-02
 -0.47130E-03  0.38815E-02 -0.24552E-02
 -0.13865E-02  0.36559E-02 -0.24552E-02
 -0.22211E-02  0.32179E-02 -0.24552E-02
 -0.29267E-02  0.25928E-02 -0.24552E-02
 -0.34621E-02  0.18171E-02 -0.24552E-02
 -0.37964E-02  0.93572E-03 -0.24552E-02
 -0.39100E-02 -0.47884E-18 -0.24552E-02
 -0.37964E-02 -0.93572E-03 -0.24552E-02
 -0.34621E-02 -0.18171E-02 -0.24552E-02
 -0.29267E-02 -0.25928E-02 -0.24552E-02
 -0.22211E-02 -0.32179E-02 -0.24552E-02
 -0.13865E-02 -0.36559E-02 -0.24552E-02
 -0.47130E-03 -0.38815E-02 -0.24552E-02
  0.47130E-03 -0.38815E-02 -0.24552E-02
  0.13865E-02 -0.36559E-02 -0.24552E-02
  0.22211E-02 -0.32179E-02 -0.24552E-02
  0.29267E-02 -0.25928E-02 -0.24552E-02
  0.34621E-02 -0.18171E-02 -0.24552E-02
  0.37964E-02 -0.93572E-03 -0.24552E-02
  0.10366E-02  0.67847E-03 -0.14761E-02
  0.17434E-02  0.12374E-02 -0.14761E-02
  0.23164E-02  0.59674E-03 -0.14761E-02
  0.16677E-02 -0.33021E-03 -0.14761E-02
  0.30375E-02  0.15245E-03 -0.14761E-02
  0.27825E-02 -0.67150E-03 -0.14761E-02
  0.12840E-02  0.18430E-02 -0.14761E-02
  0.64894E-03  0.14676E-02 -0.14761E-02
  0.12495E-03  0.31081E-03 -0.14761E-02
 -0.13007E-03  0.11847E-02 -0.14761E-02
  0.94169E-03  0.22761E-02 -0.14761E-02
  0.11293E-02  0.28242E-02 -0.14761E-02
  0.17451E-02  0.24252E-02 -0.14761E-02
  0.40534E-03  0.21688E-02 -0.14761E-02
  0.39762E-03  0.29340E-02 -0.14761E-02
 -0.76657E-03 -0.10047E-02 -0.14761E-02
 -0.86713E-03  0.87062E-04 -0.14761E-02
  0.45671E-03 -0.69592E-03 -0.14761E-02
 -0.18329E-02 -0.71056E-03 -0.14761E-02
 -0.18430E-02  0.83985E-04 -0.14761E-02
 -0.27235E-02 -0.77695E-03 -0.14761E-02
 -0.28001E-02  0.43446E-04 -0.14761E-02
 -0.25380E-02 -0.15190E-02 -0.14761E-02
 -0.19330E-02 -0.13219E-02 -0.14761E-02
 -0.99219E-03  0.10020E-02 -0.14761E-02
 -0.14415E-02 -0.17321E-02 -0.14761E-02
 -0.31374E-03  0.20248E-02 -0.14761E-02
 -0.11033E-02  0.18602E-02 -0.14761E-02
 -0.18840E-02  0.17175E-02 -0.14761E-02
 -0.18700E-02  0.91180E-03 -0.14761E-02
 -0.16146E-03 -0.19803E-02 -0.14761E-02
 -0.94687E-03 -0.23491E-02 -0.14761E-02
  0.78195E-03 -0.17073E-02 -0.14761E-02
  0.17207E-02 -0.14919E-02 -0.14761E-02
  0.32083E-02  0.77042E-03 -0.14761E-02
  0.28044E-02  0.12520E-02 -0.14761E-02
  0.23048E-02  0.18669E-02 -0.14761E-02
 -0.40476E-03  0.28931E-02 -0.14761E-02
 -0.12093E-02  0.27160E-02 -0.14761E-02
 -0.19444E-02  0.24620E-02 -0.14761E-02
 -0.25026E-02  0.22358E-02 -0.14761E-02
 -0.26362E-02  0.16503E-02 -0.14761E-02
 -0.27640E-02  0.87754E-03 -0.14761E-02
 -0.21137E-02 -0.21374E-02 -0.14761E-02
 -0.16091E-02 -0.26933E-02 -0.14761E-02
 -0.11950E-02 -0.31291E-02 -0.14761E-02
 -0.58991E-03 -0.30382E-02 -0.14761E-02
  0.20505E-03 -0.28749E-02 -0.14761E-02
  0.10555E-02 -0.26450E-02 -0.14761E-02
  0.18417E-02 -0.23727E-02 -0.14761E-02
  0.24556E-02 -0.21500E-02 -0.14761E-02
  0.26029E-02 -0.15094E-02 -0.14761E-02
  0.37964E-02  0.93572E-03 -0.14761E-02
  0.39100E-02  0.00000E+00 -0.14761E-02
  0.34621E-02  0.18171E-02 -0.14761E-02
  0.29267E-02  0.25928E-02 -0.14761E-02
  0.22211E-02  0.32179E-02 -0.14761E-02
  0.13865E-02  0.36559E-02 -0.14761E-02
  0.47130E-03  0.38815E-02 -0.14761E-02
 -0.47130E-03  0.38815E-02 -0.14761E-02
 -0.13865E-02  0.36559E-02 -0.14761E-02
 -0.22211E-02  0.32179E-02 -0.14761E-02
 -0.29267E-02  0.25928E-02 -0.14761E-02
 -0.34621E-02  0.18171E-02 -0.14761E-02
 -0.37964E-02  0.93572E-03 -0.14761E-02
 -0.39100E-02  0.39516E-17 -0.14761E-02
 -0.37964E-02 -0.93572E-03 -0.14761E-02
 -0.34621E-02 -0.18171E-02 -0.14761E-02
 -0.29267E-02 -0.25928E-02 -0.14761E-02
 -0.22211E-02 -0.32179E-02 -0.14761E-02
 -0.13865E-02 -0.36559E-02 -0.14761E-02
 -0.47130E-03 -0.38815E-02 -0.14761E-02
  0.47130E-03 -0.38815E-02 -0.14761E-02
  0.13865E-02 -0.36559E-02 -0.14761E-02
  0.22211E-02 -0.32179E-02 -0.14761E-02
  0.29267E-02 -0.25928E-02 -0.14761E-02
  0.34621E-02 -0.18171E-02 -0.14761E-02
  0.37964E-02 -0.93572E-03 -0.14761E-02
  0.10365E-02  0.67902E-03 -0.49690E-03
  0.17432E-02  0.12381E-02 -0.49690E-03
  0.23163E-02  0.59727E-03 -0.49690E-03
  0.16675E-02 -0.32945E-03 -0.49690E-03
  0.30374E-02  0.15282E-03 -0.49690E-03
  0.27829E-02 -0.67100E-03 -0.49690E-03
  0.12839E-02  0.18432E-02 -0.49690E-03
  0.64869E-03  0.14686E-02 -0.49690E-03
  0.12468E-03  0.31196E-03 -0.49690E-03
 -0.13026E-03  0.11865E-02 -0.49690E-03
  0.94135E-03  0.22762E-02 -0.49690E-03
  0.11289E-02  0.28238E-02 -0.49690E-03
  0.17447E-02  0.24254E-02 -0.49690E-03
  0.40528E-03  0.21688E-02 -0.49690E-03
  0.39760E-03  0.29337E-02 -0.49690E-03
 -0.76692E-03 -0.10049E-02 -0.49690E-03
 -0.86724E-03  0.87871E-04 -0.49690E-03
  0.45626E-03 -0.69519E-03 -0.49690E-03
 -0.18332E-02 -0.71042E-03 -0.49690E-03
 -0.18430E-02  0.84108E-04 -0.49690E-03
 -0.27235E-02 -0.77678E-03 -0.49690E-03
 -0.27998E-02  0.43720E-04 -0.49690E-03
 -0.25382E-02 -0.15189E-02 -0.49690E-03
 -0.19334E-02 -0.13219E-02 -0.49690E-03
 -0.99205E-03  0.10034E-02 -0.49690E-03
 -0.14419E-02 -0.17320E-02 -0.49690E-03
 -0.31354E-03  0.20251E-02 -0.49690E-03
 -0.11030E-02  0.18601E-02 -0.49690E-03
 -0.18840E-02  0.17175E-02 -0.49690E-03
 -0.18699E-02  0.91204E-03 -0.49690E-03
 -0.16174E-03 -0.19803E-02 -0.49690E-03
 -0.94747E-03 -0.23492E-02 -0.49690E-03
  0.78129E-03 -0.17073E-02 -0.49690E-03
  0.17206E-02 -0.14921E-02 -0.49690E-03
  0.32086E-02  0.77142E-03 -0.49690E-03
  0.28044E-02  0.12524E-02 -0.49690E-03
  0.23047E-02  0.18669E-02 -0.49690E-03
 -0.40462E-03  0.28920E-02 -0.49690E-03
 -0.12093E-02  0.27155E-02 -0.49690E-03
 -0.19444E-02  0.24618E-02 -0.49690E-03
 -0.25025E-02  0.22358E-02 -0.49690E-03
 -0.26361E-02  0.16503E-02 -0.49690E-03
 -0.27637E-02  0.87781E-03 -0.49690E-03
 -0.21139E-02 -0.21374E-02 -0.49690E-03
 -0.16092E-02 -0.26934E-02 -0.49690E-03
 -0.11951E-02 -0.31291E-02 -0.49690E-03
 -0.59025E-03 -0.30382E-02 -0.49690E-03
  0.20465E-03 -0.28749E-02 -0.49690E-03
  0.10552E-02 -0.26452E-02 -0.49690E-03
  0.18418E-02 -0.23729E-02 -0.49690E-03
  0.24558E-02 -0.21505E-02 -0.49690E-03
  0.26030E-02 -0.15093E-02 -0.49690E-03
  0.37964E-02  0.93572E-03 -0.49690E-03
  0.39100E-02  0.00000E+00 -0.49690E-03
  0.34621E-02  0.18171E-02 -0.49690E-03
  0.29267E-02  0.25928E-02 -0.49690E-03
  0.22211E-02  0.32179E-02 -0.49690E-03
  0.13865E-02  0.36559E-02 -0.49690E-03
  0.47130E-03  0.38815E-02 -0.49690E-03
 -0.47130E-03  0.38815E-02 -0.49690E-03
 -0.13865E-02  0.36559E-02 -0.49690E-03
 -0.22211E-02  0.32179E-02 -0.49690E-03
 -0.29267E-02  0.25928E-02 -0.49690E-03
 -0.34621E-02  0.18171E-02 -0.49690E-03
 -0.37964E-02  0.93572E-03 -0.49690E-03
 -0.39100E-02 -0.47884E-18 -0.49690E-03
 -0.37964E-02 -0.93572E-03 -0.49690E-03
 -0.34621E-02 -0.18171E-02 -0.49690E-03
 -0.29267E-02 -0.25928E-02 -0.49690E-03
 -0.22211E-02 -0.32179E-02 -0.49690E-03
 -0.13865E-02 -0.36559E-02 -0.49690E-03
 -0.47130E-03 -0.38815E-02 -0.49690E-03
  0.47130E-03 -0.38815E-02 -0.49690E-03
  0.13865E-02 -0.36559E-02 -0.49690E-03
  0.22211E-02 -0.32179E-02 -0.49690E-03
  0.29267E-02 -0.25928E-02 -0.49690E-03
  0.34621E-02 -0.18171E-02 -0.49690E-03
  0.37964E-02 -0.93572E-03 -0.49690E-03
  0.10364E-02  0.67958E-03  0.48227E-03
  0.17430E-02  0.12387E-02  0.48227E-03
  0.23162E-02  0.59779E-03  0.48227E-03
  0.16672E-02 -0.32870E-03  0.48227E-03
  0.30374E-02  0.15318E-03  0.48227E-03
  0.27832E-02 -0.67051E-03  0.48227E-03
  0.12838E-02  0.18434E-02  0.48227E-03
  0.64845E-03  0.14696E-02  0.48227E-03
  0.12442E-03  0.31311E-03  0.48227E-03
 -0.13044E-03  0.11882E-02  0.48227E-03
  0.94102E-03  0.22763E-02  0.48227E-03
  0.11286E-02  0.28233E-02  0.48227E-03
  0.17443E-02  0.24255E-02  0.48227E-03
  0.40523E-03  0.21689E-02  0.48227E-03
  0.39759E-03  0.29335E-02  0.48227E-03
 -0.76727E-03 -0.10050E-02  0.48227E-03
 -0.86735E-03  0.88681E-04  0.48227E-03
  0.45582E-03 -0.69447E-03  0.48227E-03
 -0.18335E-02 -0.71028E-03  0.48227E-03
 -0.18429E-02  0.84232E-04  0.48227E-03
 -0.27235E-02 -0.77661E-03  0.48227E-03
 -0.27995E-02  0.43993E-04  0.48227E-03
 -0.25383E-02 -0.15189E-02  0.48227E-03
 -0.19339E-02 -0.13218E-02  0.48227E-03
 -0.99190E-03  0.10048E-02  0.48227E-03
 -0.14422E-02 -0.17320E-02  0.48227E-03
 -0.31334E-03  0.20254E-02  0.48227E-03
 -0.11026E-02  0.18599E-02  0.48227E-03
 -0.18839E-02  0.17175E-02  0.48227E-03
 -0.18697E-02  0.91228E-03  0.48227E-03
 -0.16201E-03 -0.19803E-02  0.48227E-03
 -0.94807E-03 -0.23492E-02  0.48227E-03
  0.78063E-03 -0.17073E-02  0.48227E-03
  0.17206E-02 -0.14923E-02  0.48227E-03
  0.32089E-02  0.77243E-03  0.48227E-03
  0.28043E-02  0.12528E-02  0.48227E-03
  0.23046E-02  0.18670E-02  0.48227E-03
 -0.40448E-03  0.28910E-02  0.48227E-03
 -0.12093E-02  0.27151E-02  0.48227E-03
 -0.19443E-02  0.24615E-02  0.48227E-03
 -0.25025E-02  0.22358E-02  0.48227E-03
 -0.26360E-02  0.16503E-02  0.48227E-03
 -0.27633E-02  0.87807E-03  0.48227E-03
 -0.21140E-02 -0.21374E-02  0.48227E-03
 -0.16092E-02 -0.26934E-02  0.48227E-03
 -0.11953E-02 -0.31291E-02  0.48227E-03
 -0.59060E-03 -0.30382E-02  0.48227E-03
  0.20424E-03 -0.28749E-02  0.48227E-03
  0.10549E-02 -0.26455E-02  0.48227E-03
  0.18418E-02 -0.23732E-02  0.48227E-03
  0.24559E-02 -0.21511E-02  0.48227E-03
  0.26030E-02 -0.15092E-02  0.48227E-03
  0.37964E-02  0.93572E-03  0.48227E-03
  0.39100E-02  0.00000E+00  0.48227E-03
  0.34621E-02  0.18171E-02  0.48227E-03
  0.29267E-02  0.25928E-02  0.48227E-03
  0.22211E-02  0.32179E-02  0.48227E-03
  0.13865E-02  0.36559E-02  0.48227E-03
  0.47130E-03  0.38815E-02  0.48227E-03
 -0.47130E-03  0.38815E-02  0.48227E-03
 -0.13865E-02  0.36559E-02  0.48227E-03
 -0.22211E-02  0.32179E-02  0.48227E-03
 -0.29267E-02  0.25928E-02  0.48227E-03
 -0.34621E-02  0.18171E-02  0.48227E-03
 -0.37964E-02  0.93572E-03  0.48227E-03
 -0.39100E-02  0.22152E-17  0.48227E-03
 -0.37964E-02 -0.93572E-03  0.48227E-03
 -0.34621E-02 -0.18171E-02  0.48227E-03
 -0.29267E-02 -0.25928E-02  0.48227E-03
 -0.22211E-02 -0.32179E-02  0.48227E-03
 -0.13865E-02 -0.36559E-02  0.48227E-03
 -0.47130E-03 -0.38815E-02  0.48227E-03
  0.47130E-03 -0.38815E-02  0.48227E-03
  0.13865E-02 -0.36559E-02  0.48227E-03
  0.22211E-02 -0.32179E-02  0.48227E-03
  0.29267E-02 -0.25928E-02  0.48227E-03
  0.34621E-02 -0.18171E-02  0.48227E-03
  0.37964E-02 -0.93572E-03  0.48227E-03
  0.10363E-02  0.68013E-03  0.14614E-02
  0.17429E-02  0.12394E-02  0.14614E-02
  0.23161E-02  0.59831E-03  0.14614E-02
  0.16670E-02 -0.32794E-03  0.14614E-02
  0.30374E-02  0.15354E-03  0.14614E-02
  0.27836E-02 -0.67002E-03  0.14614E-02
  0.12837E-02  0.18436E-02  0.14614E-02
  0.64820E-03  0.14706E-02  0.14614E-02
  0.12416E-03  0.31426E-03  0.14614E-02
 -0.13063E-03  0.11900E-02  0.14614E-02
  0.94069E-03  0.22765E-02  0.14614E-02
  0.11282E-02  0.28229E-02  0.14614E-02
  0.17439E-02  0.24257E-02  0.14614E-02
  0.40518E-03  0.21689E-02  0.14614E-02
  0.39757E-03  0.29332E-02  0.14614E-02
 -0.76763E-03 -0.10051E-02  0.14614E-02
 -0.86746E-03  0.89490E-04  0.14614E-02
  0.45537E-03 -0.69374E-03  0.14614E-02
 -0.18338E-02 -0.71013E-03  0.14614E-02
 -0.18428E-02  0.84355E-04  0.14614E-02
 -0.27234E-02 -0.77644E-03  0.14614E-02
 -0.27992E-02  0.44266E-04  0.14614E-02
 -0.25385E-02 -0.15188E-02  0.14614E-02
 -0.19343E-02 -0.13216E-02  0.14614E-02
 -0.99176E-03  0.10061E-02  0.14614E-02
 -0.14425E-02 -0.17320E-02  0.14614E-02
 -0.31314E-03  0.20257E-02  0.14614E-02
 -0.11023E-02  0.18598E-02  0.14614E-02
 -0.18839E-02  0.17175E-02  0.14614E-02
 -0.18696E-02  0.91252E-03  0.14614E-02
 -0.16229E-03 -0.19803E-02  0.14614E-02
 -0.94867E-03 -0.23492E-02  0.14614E-02
  0.77997E-03 -0.17073E-02  0.14614E-02
  0.17205E-02 -0.14926E-02  0.14614E-02
  0.32092E-02  0.77343E-03  0.14614E-02
  0.28043E-02  0.12533E-02  0.14614E-02
  0.23044E-02  0.18670E-02  0.14614E-02
 -0.40434E-03  0.28899E-02  0.14614E-02
 -0.12093E-02  0.27146E-02  0.14614E-02
 -0.19443E-02  0.24613E-02  0.14614E-02
 -0.25025E-02  0.22358E-02  0.14614E-02
 -0.26359E-02  0.16503E-02  0.14614E-02
 -0.27630E-02  0.87833E-03  0.14614E-02
 -0.21141E-02 -0.21374E-02  0.14614E-02
 -0.16093E-02 -0.26934E-02  0.14614E-02
 -0.11954E-02 -0.31291E-02  0.14614E-02
 -0.59095E-03 -0.30382E-02  0.14614E-02
  0.20384E-03 -0.28750E-02  0.14614E-02
  0.10546E-02 -0.26458E-02  0.14614E-02
  0.18419E-02 -0.23734E-02  0.14614E-02
  0.24560E-02 -0.21516E-02  0.14614E-02
  0.26031E-02 -0.15091E-02  0.14614E-02
  0.37964E-02  0.93572E-03  0.14614E-02
  0.39100E-02  0.00000E+00  0.14614E-02
  0.34621E-02  0.18171E-02  0.14614E-02
  0.29267E-02  0.25928E-02  0.14614E-02
  0.22211E-02  0.32179E-02  0.14614E-02
  0.13865E-02  0.36559E-02  0.14614E-02
  0.47130E-03  0.38815E-02  0.14614E-02
 -0.47130E-03  0.38815E-02  0.14614E-02
 -0.13865E-02  0.36559E-02  0.14614E-02
 -0.22211E-02  0.32179E-02  0.14614E-02
 -0.29267E-02  0.25928E-02  0.14614E-02
 -0.34621E-02  0.18171E-02  0.14614E-02
 -0.37964E-02  0.93572E-03  0.14614E-02
 -0.39100E-02 -0.47884E-18  0.14614E-02
 -0.37964E-02 -0.93572E-03  0.14614E-02
 -0.34621E-02 -0.18171E-02  0.14614E-02
 -0.29267E-02 -0.25928E-02  0.14614E-02
 -0.22211E-02 -0.32179E-02  0.14614E-02
 -0.13865E-02 -0.36559E-02  0.14614E-02
 -0.47130E-03 -0.38815E-02  0.14614E-02
  0.47130E-03 -0.38815E-02  0.14614E-02
  0.13865E-02 -0.36559E-02  0.14614E-02
  0.22211E-02 -0.32179E-02  0.14614E-02
  0.29267E-02 -0.25928E-02  0.14614E-02
  0.34621E-02 -0.18171E-02  0.14614E-02
  0.37964E-02 -0.93572E-03  0.14614E-02
  0.10362E-02  0.68068E-03  0.24406E-02
  0.17427E-02  0.12401E-02  0.24406E-02
  0.23160E-02  0.59884E-03  0.24406E-02
  0.16668E-02 -0.32719E-03  0.24406E-02
  0.30373E-02  0.15391E-03  0.24406E-02
  0.27839E-02 -0.66953E-03  0.24406E-02
  0.12836E-02  0.18438E-02  0.24406E-02
  0.64796E-03  0.14716E-02  0.24406E-02
  0.12390E-03  0.31541E-03  0.24406E-02
 -0.13082E-03  0.11917E-02  0.24406E-02
  0.94036E-03  0.22766E-02  0.24406E-02
  0.11279E-02  0.28225E-02  0.24406E-02
  0.17435E-02  0.24258E-02  0.24406E-02
  0.40512E-03  0.21690E-02  0.24406E-02
  0.39755E-03  0.29330E-02  0.24406E-02
 -0.76798E-03 -0.10053E-02  0.24406E-02
 -0.86756E-03  0.90299E-04  0.24406E-02
  0.45492E-03 -0.69302E-03  0.24406E-02
 -0.18341E-02 -0.70999E-03  0.24406E-02
 -0.18427E-02  0.84479E-04  0.24406E-02
 -0.27234E-02 -0.77627E-03  0.24406E-02
 -0.27990E-02  0.44540E-04  0.24406E-02
 -0.25386E-02 -0.15188E-02  0.24406E-02
 -0.19347E-02 -0.13215E-02  0.24406E-02
 -0.99161E-03  0.10075E-02  0.24406E-02
 -0.14429E-02 -0.17319E-02  0.24406E-02
 -0.31294E-03  0.20260E-02  0.24406E-02
 -0.11019E-02  0.18597E-02  0.24406E-02
 -0.18838E-02  0.17175E-02  0.24406E-02
 -0.18695E-02  0.91276E-03  0.24406E-02
 -0.16256E-03 -0.19804E-02  0.24406E-02
 -0.94927E-03 -0.23493E-02  0.24406E-02
  0.77931E-03 -0.17073E-02  0.24406E-02
  0.17205E-02 -0.14928E-02  0.24406E-02
  0.32096E-02  0.77444E-03  0.24406E-02
  0.28043E-02  0.12537E-02  0.24406E-02
  0.23043E-02  0.18670E-02  0.24406E-02
 -0.40420E-03  0.28888E-02  0.24406E-02
 -0.12093E-02  0.27141E-02  0.24406E-02
 -0.19443E-02  0.24611E-02  0.24406E-02
 -0.25024E-02  0.22358E-02  0.24406E-02
 -0.26358E-02  0.16503E-02  0.24406E-02
 -0.27627E-02  0.87859E-03  0.24406E-02
 -0.21143E-02 -0.21374E-02  0.24406E-02
 -0.16093E-02 -0.26934E-02  0.24406E-02
 -0.11955E-02 -0.31291E-02  0.24406E-02
 -0.59130E-03 -0.30382E-02  0.24406E-02
  0.20343E-03 -0.28750E-02  0.24406E-02
  0.10543E-02 -0.26460E-02  0.24406E-02
  0.18419E-02 -0.23736E-02  0.24406E-02
  0.24561E-02 -0.21521E-02  0.24406E-02
  0.26032E-02 -0.15090E-02  0.24406E-02
  0.37964E-02  0.93572E-03  0.24406E-02
  0.39100E-02  0.00000E+00  0.24406E-02
  0.34621E-02  0.18171E-02  0.24406E-02
  0.29267E-02  0.25928E-02  0.24406E-02
  0.22211E-02  0.32179E-02  0.24406E-02
  0.13865E-02  0.36559E-02  0.24406E-02
  0.47130E-03  0.38815E-02  0.24406E-02
 -0.47130E-03  0.38815E-02  0.24406E-02
 -0.13865E-02  0.36559E-02  0.24406E-02
 -0.22211E-02  0.32179E-02  0.24406E-02
 -0.29267E-02  0.25928E-02  0.24406E-02
 -0.34621E-02  0.18171E-02  0.24406E-02
 -0.37964E-02  0.93572E-03  0.24406E-02
 -0.39100E-02  0.22152E-17  0.24406E-02
 -0.37964E-02 -0.93572E-03  0.24406E-02
 -0.34621E-02 -0.18171E-02  0.24406E-02
 -0.29267E-02 -0.25928E-02  0.24406E-02
 -0.22211E-02 -0.32179E-02  0.24406E-02
 -0.13865E-02 -0.36559E-02  0.24406E-02
 -0.47130E-03 -0.38815E-02  0.24406E-02
  0.47130E-03 -0.38815E-02  0.24406E-02
  0.13865E-02 -0.36559E-02  0.24406E-02
  0.22211E-02 -0.32179E-02  0.24406E-02
  0.29267E-02 -0.25928E-02  0.24406E-02
  0.34621E-02 -0.18171E-02  0.24406E-02
  0.37964E-02 -0.93572E-03  0.24406E-02
  0.10360E-02  0.68124E-03  0.34198E-02
  0.17425E-02  0.12407E-02  0.34198E-02
  0.23158E-02  0.59936E-03  0.34198E-02
  0.16666E-02 -0.32643E-03  0.34198E-02
  0.30373E-02  0.15427E-03  0.34198E-02
  0.27842E-02 -0.66903E-03  0.34198E-02
  0.12835E-02  0.18440E-02  0.34198E-02
  0.64771E-03  0.14727E-02  0.34198E-02
  0.12363E-03  0.31656E-03  0.34198E-02
 -0.13100E-03  0.11935E-02  0.34198E-02
  0.94003E-03  0.22767E-02  0.34198E-02
  0.11276E-02  0.28220E-02  0.34198E-02
  0.17432E-02  0.24260E-02  0.34198E-02
  0.40507E-03  0.21690E-02  0.34198E-02
  0.39754E-03  0.29327E-02  0.34198E-02
 -0.76834E-03 -0.10054E-02  0.34198E-02
 -0.86767E-03  0.91108E-04  0.34198E-02
  0.45447E-03 -0.69229E-03  0.34198E-02
 -0.18344E-02 -0.70985E-03  0.34198E-02
 -0.18426E-02  0.84602E-04  0.34198E-02
 -0.27234E-02 -0.77610E-03  0.34198E-02
 -0.27987E-02  0.44813E-04  0.34198E-02
 -0.25388E-02 -0.15187E-02  0.34198E-02
 -0.19352E-02 -0.13215E-02  0.34198E-02
 -0.99147E-03  0.10088E-02  0.34198E-02
 -0.14433E-02 -0.17319E-02  0.34198E-02
 -0.31274E-03  0.20262E-02  0.34198E-02
 -0.11016E-02  0.18595E-02  0.34198E-02
 -0.18838E-02  0.17175E-02  0.34198E-02
 -0.18694E-02  0.91300E-03  0.34198E-02
 -0.16284E-03 -0.19804E-02  0.34198E-02
 -0.94986E-03 -0.23493E-02  0.34198E-02
  0.77865E-03 -0.17073E-02  0.34198E-02
  0.17205E-02 -0.14931E-02  0.34198E-02
  0.32099E-02  0.77544E-03  0.34198E-02
  0.28042E-02  0.12541E-02  0.34198E-02
  0.23042E-02  0.18671E-02  0.34198E-02
 -0.40407E-03  0.28877E-02  0.34198E-02
 -0.12093E-02  0.27137E-02  0.34198E-02
 -0.19442E-02  0.24609E-02  0.34198E-02
 -0.25024E-02  0.22358E-02  0.34198E-02
 -0.26358E-02  0.16503E-02  0.34198E-02
 -0.27624E-02  0.87885E-03  0.34198E-02
 -0.21144E-02 -0.21374E-02  0.34198E-02
 -0.16094E-02 -0.26934E-02  0.34198E-02
 -0.11956E-02 -0.31291E-02  0.34198E-02
 -0.59165E-03 -0.30382E-02  0.34198E-02
  0.20302E-03 -0.28750E-02  0.34198E-02
  0.10540E-02 -0.26463E-02  0.34198E-02
  0.18419E-02 -0.23738E-02  0.34198E-02
  0.24563E-02 -0.21527E-02  0.34198E-02
  0.26033E-02 -0.15088E-02  0.34198E-02
  0.37964E-02  0.93572E-03  0.34198E-02
  0.39100E-02  0.00000E+00  0.34198E-02
  0.34621E-02  0.18171E-02  0.34198E-02
  0.29267E-02  0.25928E-02  0.34198E-02
  0.22211E-02  0.32179E-02  0.34198E-02
  0.13865E-02  0.36559E-02  0.34198E-02
  0.47130E-03  0.38815E-02  0.34198E-02
 -0.47130E-03  0.38815E-02  0.34198E-02
 -0.13865E-02  0.36559E-02  0.34198E-02
 -0.22211E-02  0.32179E-02  0.34198E-02
 -0.29267E-02  0.25928E-02  0.34198E-02
 -0.34621E-02  0.18171E-02  0.34198E-02
 -0.37964E-02  0.93572E-03  0.34198E-02
 -0.39100E-02 -0.47884E-18  0.34198E-02
 -0.37964E-02 -0.93572E-03  0.34198E-02
 -0.34621E-02 -0.18171E-02  0.34198E-02
 -0.29267E-02 -0.25928E-02  0.34198E-02
 -0.22211E-02 -0.32179E-02  0.34198E-02
 -0.13865E-02 -0.36559E-02  0.34198E-02
 -0.47130E-03 -0.38815E-02  0.34198E-02
  0.47130E-03 -0.38815E-02  0.34198E-02
  0.13865E-02 -0.36559E-02  0.34198E-02
  0.22211E-02 -0.32179E-02  0.34198E-02
  0.29267E-02 -0.25928E-02  0.34198E-02
  0.34621E-02 -0.18171E-02  0.34198E-02
  0.37964E-02 -0.93572E-03  0.34198E-02
  0.10359E-02  0.68179E-03  0.43989E-02
  0.17423E-02  0.12414E-02  0.43989E-02
  0.23157E-02  0.59988E-03  0.43989E-02
  0.16664E-02 -0.32568E-03  0.43989E-02
  0.30373E-02  0.15463E-03  0.43989E-02
  0.27846E-02 -0.66854E-03  0.43989E-02
  0.12834E-02  0.18442E-02  0.43989E-02
  0.64747E-03  0.14736E-02  0.43989E-02
  0.12337E-03  0.31770E-03  0.43989E-02
 -0.13118E-03  0.11952E-02  0.43989E-02
  0.93970E-03  0.22768E-02  0.43989E-02
  0.11272E-02  0.28216E-02  0.43989E-02
  0.17428E-02  0.24261E-02  0.43989E-02
  0.40501E-03  0.21690E-02  0.43989E-02
  0.39752E-03  0.29324E-02  0.43989E-02
 -0.76869E-03 -0.10056E-02  0.43989E-02
 -0.86778E-03  0.91918E-04  0.43989E-02
  0.45402E-03 -0.69156E-03  0.43989E-02
 -0.18347E-02 -0.70971E-03  0.43989E-02
 -0.18425E-02  0.84726E-04  0.43989E-02
 -0.27234E-02 -0.77593E-03  0.43989E-02
 -0.27984E-02  0.45086E-04  0.43989E-02
 -0.25389E-02 -0.15187E-02  0.43989E-02
 -0.19356E-02 -0.13213E-02  0.43989E-02
 -0.99133E-03  0.10102E-02  0.43989E-02
 -0.14436E-02 -0.17318E-02  0.43989E-02
 -0.31254E-03  0.20265E-02  0.43989E-02
 -0.11013E-02  0.18594E-02  0.43989E-02
 -0.18837E-02  0.17175E-02  0.43989E-02
 -0.18692E-02  0.91324E-03  0.43989E-02
 -0.16311E-03 -0.19804E-02  0.43989E-02
 -0.95046E-03 -0.23493E-02  0.43989E-02
  0.77799E-03 -0.17073E-02  0.43989E-02
  0.17204E-02 -0.14933E-02  0.43989E-02
  0.32102E-02  0.77645E-03  0.43989E-02
  0.28042E-02  0.12545E-02  0.43989E-02
  0.23041E-02  0.18671E-02  0.43989E-02
 -0.40393E-03  0.28867E-02  0.43989E-02
 -0.12093E-02  0.27132E-02  0.43989E-02
 -0.19442E-02  0.24606E-02  0.43989E-02
 -0.25024E-02  0.22358E-02  0.43989E-02
 -0.26357E-02  0.16503E-02  0.43989E-02
 -0.27621E-02  0.87912E-03  0.43989E-02
 -0.21146E-02 -0.21374E-02  0.43989E-02
 -0.16094E-02 -0.26935E-02  0.43989E-02
 -0.11957E-02 -0.31291E-02  0.43989E-02
 -0.59200E-03 -0.30381E-02  0.43989E-02
  0.20262E-03 -0.28750E-02  0.43989E-02
  0.10536E-02 -0.26466E-02  0.43989E-02
  0.18420E-02 -0.23740E-02  0.43989E-02
  0.24564E-02 -0.21533E-02  0.43989E-02
  0.26033E-02 -0.15087E-02  0.43989E-02
  0.37964E-02  0.93572E-03  0.43989E-02
  0.39100E-02  0.00000E+00  0.43989E-02
  0.34621E-02  0.18171E-02  0.43989E-02
  0.29267E-02  0.25928E-02  0.43989E-02
  0.22211E-02  0.32179E-02  0.43989E-02
  0.13865E-02  0.36559E-02  0.43989E-02
  0.47130E-03  0.38815E-02  0.43989E-02
 -0.47130E-03  0.38815E-02  0.43989E-02
 -0.13865E-02  0.36559E-02  0.43989E-02
 -0.22211E-02  0.32179E-02  0.43989E-02
 -0.29267E-02  0.25928E-02  0.43989E-02
 -0.34621E-02  0.18171E-02  0.43989E-02
 -0.37964E-02  0.93572E-03  0.43989E-02
 -0.39100E-02 -0.47884E-18  0.43989E-02
 -0.37964E-02 -0.93572E-03  0.43989E-02
 -0.34621E-02 -0.18171E-02  0.43989E-02
 -0.29267E-02 -0.25928E-02  0.43989E-02
 -0.22211E-02 -0.32179E-02  0.43989E-02
 -0.13865E-02 -0.36559E-02  0.43989E-02
 -0.47130E-03 -0.38815E-02  0.43989E-02
  0.47130E-03 -0.38815E-02  0.43989E-02
  0.13865E-02 -0.36559E-02  0.43989E-02
  0.22211E-02 -0.32179E-02  0.43989E-02
  0.29267E-02 -0.25928E-02  0.43989E-02
  0.34621E-02 -0.18171E-02  0.43989E-02
  0.37964E-02 -0.93572E-03  0.43989E-02
  0.10358E-02  0.68235E-03  0.53781E-02
  0.17422E-02  0.12421E-02  0.53781E-02
  0.23156E-02  0.60041E-03  0.53781E-02
  0.16662E-02 -0.32493E-03  0.53781E-02
  0.30373E-02  0.15500E-03  0.53781E-02
  0.27849E-02 -0.66805E-03  0.53781E-02
  0.12833E-02  0.18444E-02  0.53781E-02
  0.64722E-03  0.14747E-02  0.53781E-02
  0.12311E-03  0.31885E-03  0.53781E-02
 -0.13137E-03  0.11970E-02  0.53781E-02
  0.93937E-03  0.22770E-02  0.53781E-02
  0.11269E-02  0.28211E-02  0.53781E-02
  0.17424E-02  0.24262E-02  0.53781E-02
  0.40496E-03  0.21691E-02  0.53781E-02
  0.39750E-03  0.29322E-02  0.53781E-02
 -0.76904E-03 -0.10057E-02  0.53781E-02
 -0.86789E-03  0.92727E-04  0.53781E-02
  0.45358E-03 -0.69084E-03  0.53781E-02
 -0.18350E-02 -0.70957E-03  0.53781E-02
 -0.18424E-02  0.84849E-04  0.53781E-02
 -0.27233E-02 -0.77576E-03  0.53781E-02
 -0.27981E-02  0.45359E-04  0.53781E-02
 -0.25391E-02 -0.15186E-02  0.53781E-02
 -0.19360E-02 -0.13212E-02  0.53781E-02
 -0.99118E-03  0.10115E-02  0.53781E-02
 -0.14440E-02 -0.17318E-02  0.53781E-02
 -0.31234E-03  0.20268E-02  0.53781E-02
 -0.11009E-02  0.18593E-02  0.53781E-02
 -0.18836E-02  0.17175E-02  0.53781E-02
 -0.18691E-02  0.91347E-03  0.53781E-02
 -0.16339E-03 -0.19804E-02  0.53781E-02
 -0.95106E-03 -0.23493E-02  0.53781E-02
  0.77733E-03 -0.17073E-02  0.53781E-02
  0.17204E-02 -0.14936E-02  0.53781E-02
  0.32105E-02  0.77745E-03  0.53781E-02
  0.28042E-02  0.12550E-02  0.53781E-02
  0.23040E-02  0.18671E-02  0.53781E-02
 -0.40379E-03  0.28856E-02  0.53781E-02
 -0.12093E-02  0.27127E-02  0.53781E-02
 -0.19441E-02  0.24604E-02  0.53781E-02
 -0.25023E-02  0.22358E-02  0.53781E-02
 -0.26356E-02  0.16503E-02  0.53781E-02
 -0.27618E-02  0.87938E-03  0.53781E-02
 -0.21147E-02 -0.21374E-02  0.53781E-02
 -0.16094E-02 -0.26935E-02  0.53781E-02
 -0.11958E-02 -0.31291E-02  0.53781E-02
 -0.59235E-03 -0.30381E-02  0.53781E-02
  0.20221E-03 -0.28750E-02  0.53781E-02
  0.10533E-02 -0.26468E-02  0.53781E-02
  0.18420E-02 -0.23742E-02  0.53781E-02
  0.24565E-02 -0.21538E-02  0.53781E-02
  0.26034E-02 -0.15086E-02  0.53781E-02
  0.37964E-02  0.93572E-03  0.53781E-02
  0.39100E-02  0.00000E+00  0.53781E-02
  0.34621E-02  0.18171E-02  0.53781E-02
  0.29267E-02  0.25928E-02  0.53781E-02
  0.22211E-02  0.32179E-02  0.53781E-02
  0.13865E-02  0.36559E-02  0.53781E-02
  0.47130E-03  0.38815E-02  0.53781E-02
 -0.47130E-03  0.38815E-02  0.53781E-02
 -0.13865E-02  0.36559E-02  0.53781E-02
 -0.22211E-02  0.32179E-02  0.53781E-02
 -0.29267E-02  0.25928E-02  0.53781E-02
 -0.34621E-02  0.18171E-02  0.53781E-02
 -0.37964E-02  0.93572E-03  0.53781E-02
 -0.39100E-02 -0.47884E-18  0.53781E-02
 -0.37964E-02 -0.93572E-03  0.53781E-02
 -0.34621E-02 -0.18171E-02  0.53781E-02
 -0.29267E-02 -0.25928E-02  0.53781E-02
 -0.22211E-02 -0.32179E-02  0.53781E-02
 -0.13865E-02 -0.36559E-02  0.53781E-02
 -0.47130E-03 -0.38815E-02  0.53781E-02
  0.47130E-03 -0.38815E-02  0.53781E-02
  0.13865E-02 -0.36559E-02  0.53781E-02
  0.22211E-02 -0.32179E-02  0.53781E-02
  0.29267E-02 -0.25928E-02  0.53781E-02
  0.34621E-02 -0.18171E-02  0.53781E-02
  0.37964E-02 -0.93572E-03  0.53781E-02
  0.10357E-02  0.68290E-03  0.63573E-02
  0.17420E-02  0.12427E-02  0.63573E-02
  0.23155E-02  0.60093E-03  0.63573E-02
  0.16660E-02 -0.32417E-03  0.63573E-02
  0.30372E-02  0.15536E-03  0.63573E-02
  0.27853E-02 -0.66755E-03  0.63573E-02
  0.12832E-02  0.18445E-02  0.63573E-02
  0.64698E-03  0.14757E-02  0.63573E-02
  0.12285E-03  0.32000E-03  0.63573E-02
 -0.13155E-03  0.11987E-02  0.63573E-02
  0.93903E-03  0.22771E-02  0.63573E-02
  0.11266E-02  0.28207E-02  0.63573E-02
  0.17420E-02  0.24264E-02  0.63573E-02
  0.40490E-03  0.21691E-02  0.63573E-02
  0.39749E-03  0.29319E-02  0.63573E-02
 -0.76940E-03 -0.10058E-02  0.63573E-02
 -0.86800E-03  0.93536E-04  0.63573E-02
  0.45313E-03 -0.69011E-03  0.63573E-02
 -0.18353E-02 -0.70943E-03  0.63573E-02
 -0.18423E-02  0.84973E-04  0.63573E-02
 -0.27233E-02 -0.77559E-03  0.63573E-02
 -0.27979E-02  0.45633E-04  0.63573E-02
 -0.25393E-02 -0.15186E-02  0.63573E-02
 -0.19365E-02 -0.13212E-02  0.63573E-02
 -0.99104E-03  0.10129E-02  0.63573E-02
 -0.14443E-02 -0.17318E-02  0.63573E-02
 -0.31214E-03  0.20271E-02  0.63573E-02
 -0.11006E-02  0.18592E-02  0.63573E-02
 -0.18836E-02  0.17175E-02  0.63573E-02
 -0.18690E-02  0.91371E-03  0.63573E-02
 -0.16366E-03 -0.19805E-02  0.63573E-02
 -0.95166E-03 -0.23493E-02  0.63573E-02
  0.77667E-03 -0.17073E-02  0.63573E-02
  0.17203E-02 -0.14938E-02  0.63573E-02
  0.32109E-02  0.77846E-03  0.63573E-02
  0.28042E-02  0.12554E-02  0.63573E-02
  0.23039E-02  0.18672E-02  0.63573E-02
 -0.40365E-03  0.28845E-02  0.63573E-02
 -0.12093E-02  0.27122E-02  0.63573E-02
 -0.19441E-02  0.24602E-02  0.63573E-02
 -0.25023E-02  0.22358E-02  0.63573E-02
 -0.26355E-02  0.16502E-02  0.63573E-02
 -0.27615E-02  0.87964E-03  0.63573E-02
 -0.21148E-02 -0.21374E-02  0.63573E-02
 -0.16095E-02 -0.26935E-02  0.63573E-02
 -0.11960E-02 -0.31291E-02  0.63573E-02
 -0.59270E-03 -0.30381E-02  0.63573E-02
  0.20180E-03 -0.28750E-02  0.63573E-02
  0.10530E-02 -0.26471E-02  0.63573E-02
  0.18421E-02 -0.23744E-02  0.63573E-02
  0.24566E-02 -0.21543E-02  0.63573E-02
  0.26035E-02 -0.15085E-02  0.63573E-02
  0.37964E-02  0.93572E-03  0.63573E-02
  0.39100E-02  0.00000E+00  0.63573E-02
  0.34621E-02  0.18171E-02  0.63573E-02
  0.29267E-02  0.25928E-02  0.63573E-02
  0.22211E-02  0.32179E-02  0.63573E-02
  0.13865E-02  0.36559E-02  0.63573E-02
  0.47130E-03  0.38815E-02  0.63573E-02
 -0.47130E-03  0.38815E-02  0.63573E-02
 -0.13865E-02  0.36559E-02  0.63573E-02
 -0.22211E-02  0.32179E-02  0.63573E-02
 -0.29267E-02  0.25928E-02  0.63573E-02
 -0.34621E-02  0.18171E-02  0.63573E-02
 -0.37964E-02  0.93572E-03  0.63573E-02
 -0.39100E-02 -0.47884E-18  0.63573E-02
 -0.37964E-02 -0.93572E-03  0.63573E-02
 -0.34621E-02 -0.18171E-02  0.63573E-02
 -0.29267E-02 -0.25928E-02  0.63573E-02
 -0.22211E-02 -0.32179E-02  0.63573E-02
 -0.13865E-02 -0.36559E-02  0.63573E-02
 -0.47130E-03 -0.38815E-02  0.63573E-02
  0.47130E-03 -0.38815E-02  0.63573E-02
  0.13865E-02 -0.36559E-02  0.63573E-02
  0.22211E-02 -0.32179E-02  0.63573E-02
  0.29267E-02 -0.25928E-02  0.63573E-02
  0.34621E-02 -0.18171E-02  0.63573E-02
  0.37964E-02 -0.93572E-03  0.63573E-02
  0.10356E-02  0.68346E-03  0.73364E-02
  0.17418E-02  0.12434E-02  0.73364E-02
  0.23153E-02  0.60145E-03  0.73364E-02
  0.16657E-02 -0.32342E-03  0.73364E-02
  0.30372E-02  0.15572E-03  0.73364E-02
  0.27856E-02 -0.66706E-03  0.73364E-02
  0.12830E-02  0.18447E-02  0.73364E-02
  0.64673E-03  0.14767E-02  0.73364E-02
  0.12259E-03  0.32115E-03  0.73364E-02
 -0.13174E-03  0.12005E-02  0.73364E-02
  0.93870E-03  0.22772E-02  0.73364E-02
  0.11262E-02  0.28203E-02  0.73364E-02
  0.17416E-02  0.24265E-02  0.73364E-02
  0.40485E-03  0.21691E-02  0.73364E-02
  0.39747E-03  0.29316E-02  0.73364E-02
 -0.76975E-03 -0.10060E-02  0.73364E-02
 -0.86811E-03  0.94345E-04  0.73364E-02
  0.45268E-03 -0.68939E-03  0.73364E-02
 -0.18356E-02 -0.70929E-03  0.73364E-02
 -0.18422E-02  0.85096E-04  0.73364E-02
 -0.27233E-02 -0.77542E-03  0.73364E-02
 -0.27976E-02  0.45906E-04  0.73364E-02
 -0.25394E-02 -0.15185E-02  0.73364E-02
 -0.19369E-02 -0.13211E-02  0.73364E-02
 -0.99090E-03  0.10142E-02  0.73364E-02
 -0.14446E-02 -0.17317E-02  0.73364E-02
 -0.31194E-03  0.20274E-02  0.73364E-02
 -0.11002E-02  0.18590E-02  0.73364E-02
 -0.18835E-02  0.17175E-02  0.73364E-02
 -0.18689E-02  0.91395E-03  0.73364E-02
 -0.16394E-03 -0.19805E-02  0.73364E-02
 -0.95226E-03 -0.23494E-02  0.73364E-02
  0.77601E-03 -0.17073E-02  0.73364E-02
  0.17203E-02 -0.14941E-02  0.73364E-02
  0.32112E-02  0.77946E-03  0.73364E-02
  0.28042E-02  0.12558E-02  0.73364E-02
  0.23038E-02  0.18672E-02  0.73364E-02
 -0.40352E-03  0.28835E-02  0.73364E-02
 -0.12093E-02  0.27118E-02  0.73364E-02
 -0.19441E-02  0.24600E-02  0.73364E-02
 -0.25023E-02  0.22358E-02  0.73364E-02
 -0.26354E-02  0.16502E-02  0.73364E-02
 -0.27612E-02  0.87990E-03  0.73364E-02
 -0.21150E-02 -0.21374E-02  0.73364E-02
 -0.16095E-02 -0.26935E-02  0.73364E-02
 -0.11961E-02 -0.31291E-02  0.73364E-02
 -0.59305E-03 -0.30381E-02  0.73364E-02
  0.20140E-03 -0.28750E-02  0.73364E-02
  0.10527E-02 -0.26474E-02  0.73364E-02
  0.18421E-02 -0.23746E-02  0.73364E-02
  0.24568E-02 -0.21549E-02  0.73364E-02
  0.26036E-02 -0.15084E-02  0.73364E-02
  0.37964E-02  0.93572E-03  0.73364E-02
  0.39100E-02  0.00000E+00  0.73364E-02
  0.34621E-02  0.18171E-02  0.73364E-02
  0.29267E-02  0.25928E-02  0.73364E-02
  0.22211E-02  0.32179E-02  0.73364E-02
  0.13865E-02  0.36559E-02  0.73364E-02
  0.47130E-03  0.38815E-02  0.73364E-02
 -0.47130E-03  0.38815E-02  0.73364E-02
 -0.13865E-02  0.36559E-02  0.73364E-02
 -0.22211E-02  0.32179E-02  0.73364E-02
 -0.29267E-02  0.25928E-02  0.73364E-02
 -0.34621E-02  0.18171E-02  0.73364E-02
 -0.37964E-02  0.93572E-03  0.73364E-02
 -0.39100E-02  0.22152E-17  0.73364E-02
 -0.37964E-02 -0.93572E-03  0.73364E-02
 -0.34621E-02 -0.18171E-02  0.73364E-02
 -0.29267E-02 -0.25928E-02  0.73364E-02
 -0.22211E-02 -0.32179E-02  0.73364E-02
 -0.13865E-02 -0.36559E-02  0.73364E-02
 -0.47130E-03 -0.38815E-02  0.73364E-02
  0.47130E-03 -0.38815E-02  0.73364E-02
  0.13865E-02 -0.36559E-02  0.73364E-02
  0.22211E-02 -0.32179E-02  0.73364E-02
  0.29267E-02 -0.25928E-02  0.73364E-02
  0.34621E-02 -0.18171E-02  0.73364E-02
  0.37964E-02 -0.93572E-03  0.73364E-02
  0.10355E-02  0.68401E-03  0.83156E-02
  0.17416E-02  0.12440E-02  0.83156E-02
  0.23152E-02  0.60198E-03  0.83156E-02
  0.16655E-02 -0.32266E-03  0.83156E-02
  0.30372E-02  0.15609E-03  0.83156E-02
  0.27860E-02 -0.66657E-03  0.83156E-02
  0.12829E-02  0.18449E-02  0.83156E-02
  0.64649E-03  0.14777E-02  0.83156E-02
  0.12232E-03  0.32230E-03  0.83156E-02
 -0.13193E-03  0.12022E-02  0.83156E-02
  0.93837E-03  0.22774E-02  0.83156E-02
  0.11259E-02  0.28198E-02  0.83156E-02
  0.17412E-02  0.24267E-02  0.83156E-02
  0.40480E-03  0.21692E-02  0.83156E-02
  0.39745E-03  0.29314E-02  0.83156E-02
 -0.77011E-03 -0.10061E-02  0.83156E-02
 -0.86822E-03  0.95155E-04  0.83156E-02
  0.45223E-03 -0.68866E-03  0.83156E-02
 -0.18359E-02 -0.70915E-03  0.83156E-02
 -0.18421E-02  0.85220E-04  0.83156E-02
 -0.27232E-02 -0.77525E-03  0.83156E-02
 -0.27973E-02  0.46180E-04  0.83156E-02
 -0.25396E-02 -0.15185E-02  0.83156E-02
 -0.19373E-02 -0.13210E-02  0.83156E-02
 -0.99075E-03  0.10156E-02  0.83156E-02
 -0.14450E-02 -0.17317E-02  0.83156E-02
 -0.31173E-03  0.20277E-02  0.83156E-02
 -0.10999E-02  0.18589E-02  0.83156E-02
 -0.18835E-02  0.17175E-02  0.83156E-02
 -0.18687E-02  0.91419E-03  0.83156E-02
 -0.16421E-03 -0.19805E-02  0.83156E-02
 -0.95285E-03 -0.23494E-02  0.83156E-02
  0.77535E-03 -0.17073E-02  0.83156E-02
  0.17202E-02 -0.14943E-02  0.83156E-02
  0.32115E-02  0.78047E-03  0.83156E-02
  0.28041E-02  0.12563E-02  0.83156E-02
  0.23037E-02  0.18672E-02  0.83156E-02
 -0.40338E-03  0.28824E-02  0.83156E-02
 -0.12093E-02  0.27113E-02  0.83156E-02
 -0.19440E-02  0.24597E-02  0.83156E-02
 -0.25023E-02  0.22358E-02  0.83156E-02
 -0.26353E-02  0.16502E-02  0.83156E-02
 -0.27609E-02  0.88016E-03  0.83156E-02
 -0.21151E-02 -0.21374E-02  0.83156E-02
 -0.16096E-02 -0.26935E-02  0.83156E-02
 -0.11962E-02 -0.31291E-02  0.83156E-02
 -0.59340E-03 -0.30381E-02  0.83156E-02
  0.20099E-03 -0.28751E-02  0.83156E-02
  0.10524E-02 -0.26476E-02  0.83156E-02
  0.18422E-02 -0.23748E-02  0.83156E-02
  0.24569E-02 -0.21554E-02  0.83156E-02
  0.26036E-02 -0.15083E-02  0.83156E-02
  0.37964E-02  0.93572E-03  0.83156E-02
  0.39100E-02  0.00000E+00  0.83156E-02
  0.34621E-02  0.18171E-02  0.83156E-02
  0.29267E-02  0.25928E-02  0.83156E-02
  0.22211E-02  0.32179E-02  0.83156E-02
  0.13865E-02  0.36559E-02  0.83156E-02
  0.47130E-03  0.38815E-02  0.83156E-02
 -0.47130E-03  0.38815E-02  0.83156E-02
 -0.13865E-02  0.36559E-02  0.83156E-02
 -0.22211E-02  0.32179E-02  0.83156E-02
 -0.29267E-02  0.25928E-02  0.83156E-02
 -0.34621E-02  0.18171E-02  0.83156E-02
 -0.37964E-02  0.93572E-03  0.83156E-02
 -0.39100E-02 -0.47884E-18  0.83156E-02
 -0.37964E-02 -0.93572E-03  0.83156E-02
 -0.34621E-02 -0.18171E-02  0.83156E-02
 -0.29267E-02 -0.25928E-02  0.83156E-02
 -0.22211E-02 -0.32179E-02  0.83156E-02
 -0.13865E-02 -0.36559E-02  0.83156E-02
 -0.47130E-03 -0.38815E-02  0.83156E-02
  0.47130E-03 -0.38815E-02  0.83156E-02
  0.13865E-02 -0.36559E-02  0.83156E-02
  0.22211E-02 -0.32179E-02  0.83156E-02
  0.29267E-02 -0.25928E-02  0.83156E-02
  0.34621E-02 -0.18171E-02  0.83156E-02
  0.37964E-02 -0.93572E-03  0.83156E-02
  0.10354E-02  0.68457E-03  0.92948E-02
  0.17414E-02  0.12447E-02  0.92948E-02
  0.23151E-02  0.60250E-03  0.92948E-02
  0.16653E-02 -0.32191E-03  0.92948E-02
  0.30372E-02  0.15645E-03  0.92948E-02
  0.27863E-02 -0.66607E-03  0.92948E-02
  0.12829E-02  0.18451E-02  0.92948E-02
  0.64624E-03  0.14787E-02  0.92948E-02
  0.12206E-03  0.32345E-03  0.92948E-02
 -0.13211E-03  0.12040E-02  0.92948E-02
  0.93804E-03  0.22775E-02  0.92948E-02
  0.11255E-02  0.28194E-02  0.92948E-02
  0.17408E-02  0.24268E-02  0.92948E-02
  0.40474E-03  0.21692E-02  0.92948E-02
  0.39744E-03  0.29311E-02  0.92948E-02
 -0.77046E-03 -0.10062E-02  0.92948E-02
 -0.86832E-03  0.95964E-04  0.92948E-02
  0.45179E-03 -0.68793E-03  0.92948E-02
 -0.18362E-02 -0.70901E-03  0.92948E-02
 -0.18420E-02  0.85343E-04  0.92948E-02
 -0.27232E-02 -0.77507E-03  0.92948E-02
 -0.27970E-02  0.46453E-04  0.92948E-02
 -0.25397E-02 -0.15184E-02  0.92948E-02
 -0.19377E-02 -0.13209E-02  0.92948E-02
 -0.99061E-03  0.10169E-02  0.92948E-02
 -0.14453E-02 -0.17316E-02  0.92948E-02
 -0.31153E-03  0.20280E-02  0.92948E-02
 -0.10995E-02  0.18588E-02  0.92948E-02
 -0.18834E-02  0.17175E-02  0.92948E-02
 -0.18686E-02  0.91443E-03  0.92948E-02
 -0.16449E-03 -0.19806E-02  0.92948E-02
 -0.95345E-03 -0.23494E-02  0.92948E-02
  0.77469E-03 -0.17073E-02  0.92948E-02
  0.17202E-02 -0.14945E-02  0.92948E-02
  0.32119E-02  0.78148E-03  0.92948E-02
  0.28041E-02  0.12567E-02  0.92948E-02
  0.23036E-02  0.18673E-02  0.92948E-02
 -0.40324E-03  0.28813E-02  0.92948E-02
 -0.12093E-02  0.27108E-02  0.92948E-02
 -0.19440E-02  0.24595E-02  0.92948E-02
 -0.25022E-02  0.22358E-02  0.92948E-02
 -0.26352E-02  0.16502E-02  0.92948E-02
 -0.27606E-02  0.88043E-03  0.92948E-02
 -0.21152E-02 -0.21374E-02  0.92948E-02
 -0.16096E-02 -0.26936E-02  0.92948E-02
 -0.11963E-02 -0.31291E-02  0.92948E-02
 -0.59375E-03 -0.30381E-02  0.92948E-02
  0.20059E-03 -0.28751E-02  0.92948E-02
  0.10521E-02 -0.26479E-02  0.92948E-02
  0.18422E-02 -0.23750E-02  0.92948E-02
  0.24570E-02 -0.21560E-02  0.92948E-02
  0.26037E-02 -0.15082E-02  0.92948E-02
  0.37964E-02  0.93572E-03  0.92948E-02
  0.39100E-02  0.00000E+00  0.92948E-02
  0.34621E-02  0.18171E-02  0.92948E-02
  0.29267E-02  0.25928E-02  0.92948E-02
  0.22211E-02  0.32179E-02  0.92948E-02
  0.13865E-02  0.36559E-02  0.92948E-02
  0.47130E-03  0.38815E-02  0.92948E-02
 -0.47130E-03  0.38815E-02  0.92948E-02
 -0.13865E-02  0.36559E-02  0.92948E-02
 -0.22211E-02  0.32179E-02  0.92948E-02
 -0.29267E-02  0.25928E-02  0.92948E-02
 -0.34621E-02  0.18171E-02  0.92948E-02
 -0.37964E-02  0.93572E-03  0.92948E-02
 -0.39100E-02 -0.47884E-18  0.92948E-02
 -0.37964E-02 -0.93572E-03  0.92948E-02
 -0.34621E-02 -0.18171E-02  0.92948E-02
 -0.29267E-02 -0.25928E-02  0.92948E-02
 -0.22211E-02 -0.32179E-02  0.92948E-02
 -0.13865E-02 -0.36559E-02  0.92948E-02
 -0.47130E-03 -0.38815E-02  0.92948E-02
  0.47130E-03 -0.38815E-02  0.92948E-02
  0.13865E-02 -0.36559E-02  0.92948E-02
  0.22211E-02 -0.32179E-02  0.92948E-02
  0.29267E-02 -0.25928E-02  0.92948E-02
  0.34621E-02 -0.18171E-02  0.92948E-02
  0.37964E-02 -0.93572E-03  0.92948E-02
  0.10352E-02  0.68512E-03  0.10274E-01
  0.17413E-02  0.12454E-02  0.10274E-01
  0.23150E-02  0.60302E-03  0.10274E-01
  0.16651E-02 -0.32115E-03  0.10274E-01
  0.30371E-02  0.15681E-03  0.10274E-01
  0.27866E-02 -0.66558E-03  0.10274E-01
  0.12827E-02  0.18453E-02  0.10274E-01
  0.64600E-03  0.14797E-02  0.10274E-01
  0.12180E-03  0.32459E-03  0.10274E-01
 -0.13230E-03  0.12058E-02  0.10274E-01
  0.93771E-03  0.22776E-02  0.10274E-01
  0.11252E-02  0.28189E-02  0.10274E-01
  0.17404E-02  0.24270E-02  0.10274E-01
  0.40469E-03  0.21693E-02  0.10274E-01
  0.39742E-03  0.29308E-02  0.10274E-01
 -0.77081E-03 -0.10064E-02  0.10274E-01
 -0.86843E-03  0.96773E-04  0.10274E-01
  0.45134E-03 -0.68721E-03  0.10274E-01
 -0.18365E-02 -0.70887E-03  0.10274E-01
 -0.18419E-02  0.85467E-04  0.10274E-01
 -0.27232E-02 -0.77490E-03  0.10274E-01
 -0.27968E-02  0.46726E-04  0.10274E-01
 -0.25399E-02 -0.15184E-02  0.10274E-01
 -0.19382E-02 -0.13208E-02  0.10274E-01
 -0.99046E-03  0.10183E-02  0.10274E-01
 -0.14457E-02 -0.17316E-02  0.10274E-01
 -0.31133E-03  0.20283E-02  0.10274E-01
 -0.10992E-02  0.18586E-02  0.10274E-01
 -0.18834E-02  0.17175E-02  0.10274E-01
 -0.18685E-02  0.91467E-03  0.10274E-01
 -0.16476E-03 -0.19806E-02  0.10274E-01
 -0.95405E-03 -0.23494E-02  0.10274E-01
  0.77402E-03 -0.17073E-02  0.10274E-01
  0.17202E-02 -0.14948E-02  0.10274E-01
  0.32122E-02  0.78248E-03  0.10274E-01
  0.28041E-02  0.12571E-02  0.10274E-01
  0.23034E-02  0.18673E-02  0.10274E-01
 -0.40310E-03  0.28802E-02  0.10274E-01
 -0.12093E-02  0.27103E-02  0.10274E-01
 -0.19440E-02  0.24593E-02  0.10274E-01
 -0.25022E-02  0.22358E-02  0.10274E-01
 -0.26351E-02  0.16502E-02  0.10274E-01
 -0.27602E-02  0.88069E-03  0.10274E-01
 -0.21154E-02 -0.21374E-02  0.10274E-01
 -0.16097E-02 -0.26936E-02  0.10274E-01
 -0.11964E-02 -0.31291E-02  0.10274E-01
 -0.59409E-03 -0.30381E-02  0.10274E-01
  0.20018E-03 -0.28751E-02  0.10274E-01
  0.10518E-02 -0.26482E-02  0.10274E-01
  0.18422E-02 -0.23752E-02  0.10274E-01
  0.24571E-02 -0.21565E-02  0.10274E-01
  0.26038E-02 -0.15081E-02  0.10274E-01
  0.37964E-02  0.93572E-03  0.10274E-01
  0.39100E-02  0.00000E+00  0.10274E-01
  0.34621E-02  0.18171E-02  0.10274E-01
  0.29267E-02  0.25928E-02  0.10274E-01
  0.22211E-02  0.32179E-02  0.10274E-01
  0.13865E-02  0.36559E-02  0.10274E-01
  0.47130E-03  0.38815E-02  0.10274E-01
 -0.47130E-03  0.38815E-02  0.10274E-01
 -0.13865E-02  0.36559E-02  0.10274E-01
 -0.22211E-02  0.32179E-02  0.10274E-01
 -0.29267E-02  0.25928E-02  0.10274E-01
 -0.34621E-02  0.18171E-02  0.10274E-01
 -0.37964E-02  0.93572E-03  0.10274E-01
 -0.39100E-02 -0.47884E-18  0.10274E-01
 -0.37964E-02 -0.93572E-03  0.10274E-01
 -0.34621E-02 -0.18171E-02  0.10274E-01
 -0.29267E-02 -0.25928E-02  0.10274E-01
 -0.22211E-02 -0.32179E-02  0.10274E-01
 -0.13865E-02 -0.36559E-02  0.10274E-01
 -0.47130E-03 -0.38815E-02  0.10274E-01
  0.47130E-03 -0.38815E-02  0.10274E-01
  0.13865E-02 -0.36559E-02  0.10274E-01
  0.22211E-02 -0.32179E-02  0.10274E-01
  0.29267E-02 -0.25928E-02  0.10274E-01
  0.34621E-02 -0.18171E-02  0.10274E-01
  0.37964E-02 -0.93572E-03  0.10274E-01
  0.10351E-02  0.68567E-03  0.11253E-01
  0.17411E-02  0.12460E-02  0.11253E-01
  0.23149E-02  0.60355E-03  0.11253E-01
  0.16649E-02 -0.32040E-03  0.11253E-01
  0.30371E-02  0.15718E-03  0.11253E-01
  0.27870E-02 -0.66509E-03  0.11253E-01
  0.12826E-02  0.18455E-02  0.11253E-01
  0.64575E-03  0.14807E-02  0.11253E-01
  0.12154E-03  0.32574E-03  0.11253E-01
 -0.13248E-03  0.12075E-02  0.11253E-01
  0.93738E-03  0.22777E-02  0.11253E-01
  0.11249E-02  0.28185E-02  0.11253E-01
  0.17400E-02  0.24271E-02  0.11253E-01
  0.40463E-03  0.21693E-02  0.11253E-01
  0.39740E-03  0.29306E-02  0.11253E-01
 -0.77117E-03 -0.10065E-02  0.11253E-01
 -0.86854E-03  0.97583E-04  0.11253E-01
  0.45089E-03 -0.68648E-03  0.11253E-01
 -0.18368E-02 -0.70873E-03  0.11253E-01
 -0.18418E-02  0.85591E-04  0.11253E-01
 -0.27232E-02 -0.77474E-03  0.11253E-01
 -0.27965E-02  0.47000E-04  0.11253E-01
 -0.25400E-02 -0.15183E-02  0.11253E-01
 -0.19386E-02 -0.13207E-02  0.11253E-01
 -0.99032E-03  0.10197E-02  0.11253E-01
 -0.14460E-02 -0.17316E-02  0.11253E-01
 -0.31113E-03  0.20285E-02  0.11253E-01
 -0.10988E-02  0.18585E-02  0.11253E-01
 -0.18833E-02  0.17175E-02  0.11253E-01
 -0.18683E-02  0.91491E-03  0.11253E-01
 -0.16504E-03 -0.19806E-02  0.11253E-01
 -0.95465E-03 -0.23495E-02  0.11253E-01
  0.77336E-03 -0.17073E-02  0.11253E-01
  0.17201E-02 -0.14950E-02  0.11253E-01
  0.32125E-02  0.78348E-03  0.11253E-01
  0.28041E-02  0.12576E-02  0.11253E-01
  0.23033E-02  0.18674E-02  0.11253E-01
 -0.40296E-03  0.28792E-02  0.11253E-01
 -0.12093E-02  0.27099E-02  0.11253E-01
 -0.19439E-02  0.24591E-02  0.11253E-01
 -0.25022E-02  0.22358E-02  0.11253E-01
 -0.26350E-02  0.16502E-02  0.11253E-01
 -0.27599E-02  0.88095E-03  0.11253E-01
 -0.21155E-02 -0.21374E-02  0.11253E-01
 -0.16097E-02 -0.26936E-02  0.11253E-01
 -0.11965E-02 -0.31290E-02  0.11253E-01
 -0.59444E-03 -0.30381E-02  0.11253E-01
  0.19977E-03 -0.28751E-02  0.11253E-01
  0.10515E-02 -0.26484E-02  0.11253E-01
  0.18423E-02 -0.23754E-02  0.11253E-01
  0.24573E-02 -0.21571E-02  0.11253E-01
  0.26039E-02 -0.15080E-02  0.11253E-01
  0.37964E-02  0.93572E-03  0.11253E-01
  0.39100E-02  0.00000E+00  0.11253E-01
  0.34621E-02  0.18171E-02  0.11253E-01
  0.29267E-02  0.25928E-02  0.11253E-01
  0.22211E-02  0.32179E-02  0.11253E-01
  0.13865E-02  0.36559E-02  0.11253E-01
  0.47130E-03  0.38815E-02  0.11253E-01
 -0.47130E-03  0.38815E-02  0.11253E-01
 -0.13865E-02  0.36559E-02  0.11253E-01
 -0.22211E-02  0.32179E-02  0.11253E-01
 -0.29267E-02  0.25928E-02  0.11253E-01
 -0.34621E-02  0.18171E-02  0.11253E-01
 -0.37964E-02  0.93572E-03  0.11253E-01
 -0.39100E-02  0.47884E-18  0.11253E-01
 -0.37964E-02 -0.93572E-03  0.11253E-01
 -0.34621E-02 -0.18171E-02  0.11253E-01
 -0.29267E-02 -0.25928E-02  0.11253E-01
 -0.22211E-02 -0.32179E-02  0.11253E-01
 -0.13865E-02 -0.36559E-02  0.11253E-01
 -0.47130E-03 -0.38815E-02  0.11253E-01
  0.47130E-03 -0.38815E-02  0.11253E-01
  0.13865E-02 -0.36559E-02  0.11253E-01
  0.22211E-02 -0.32179E-02  0.11253E-01
  0.29267E-02 -0.25928E-02  0.11253E-01
  0.34621E-02 -0.18171E-02  0.11253E-01
  0.37964E-02 -0.93572E-03  0.11253E-01
  
CELLS       3486               17724
       1       0
       1       1
       1       2
       1       3
       1       4
       1       5
       1       6
       1       7
       1       8
       1       9
       1      10
       1      11
       1      12
       1      13
       1      14
       1      15
       1      16
       1      17
       1      18
       1      19
       1      20
       1      21
       1      22
       1      23
       1      24
       1      25
       1      26
       1      27
       1      28
       1      29
       1      30
       1      31
       1      32
       1      33
       1      34
       1      35
       1      36
       1      37
       1      38
       1      39
       1      40
       1      41
       1      42
       1      43
       1      44
       1      45
       1      46
       1      47
       1      48
       1      49
       1      50
       1      51
       1      52
       1      53
       1      54
       1      55
       1      56
       1      57
       1      58
       1      59
       1      60
       1      61
       1      62
       1      63
       1      64
       1      65
       1      66
       1      67
       1      68
       1      69
       1      70
       1      71
       1      72
       1      73
       1      74
       1      75
       1      76
       1      77
       1      78
       1      79
       1      80
       1      81
       1      82
       1      83
       1      84
       1      85
       1      86
       1      87
       1      88
       1      89
       1      90
       1      91
       1      92
       1      93
       1      94
       1      95
       1      96
       1      97
       1      98
       1      99
       1     100
       1     101
       1     102
       1     103
       1     104
       1     105
       1     106
       1     107
       1     108
       1     109
       1     110
       1     111
       1     112
       1     113
       1     114
       1     115
       1     116
       1     117
       1     118
       1     119
       1     120
       1     121
       1     122
       1     123
       1     124
       1     125
       1     126
       1     127
       1     128
       1     129
       1     130
       1     131
       1     132
       1     133
       1     134
       1     135
       1     136
       1     137
       1     138
       1     139
       1     140
       1     141
       1     142
       1     143
       1     144
       1     145
       1     146
       1     147
       1     148
       1     149
       1     150
       1     151
       1     152
       1     153
       1     154
       1     155
       1     156
       1     157
       1     158
       1     159
       1     160
       1     161
       1     162
       1     163
       1     164
       1     165
       1     166
       1     167
       1     168
       1     169
       1     170
       1     171
       1     172
       1     173
       1     174
       1     175
       1     176
       1     177
       1     178
       1     179
       1     180
       1     181
       1     182
       1     183
       1     184
       1     185
       1     186
       1     187
       1     188
       1     189
       1     190
       1     191
       1     192
       1     193
       1     194
       1     195
       1     196
       1     197
       1     198
       1     199
       1     200
       1     201
       1     202
       1     203
       1     204
       1     205
       1     206
       1     207
       1     208
       1     209
       1     210
       1     211
       1     212
       1     213
       1     214
       1     215
       1     216
       1     217
       1     218
       1     219
       1     220
       1     221
       1     222
       1     223
       1     224
       1     225
       1     226
       1     227
       1     228
       1     229
       1     230
       1     231
       1     232
       1     233
       1     234
       1     235
       1     236
       1     237
       1     238
       1     239
       1     240
       1     241
       1     242
       1     243
       1     244
       1     245
       1     246
       1     247
       1     248
       1     249
       1     250
       1     251
       1     252
       1     253
       1     254
       1     255
       1     256
       1     257
       1     258
       1     259
       1     260
       1     261
       1     262
       1     263
       1     264
       1     265
       1     266
       1     267
       1     268
       1     269
       1     270
       1     271
       1     272
       1     273
       1     274
       1     275
       1     276
       1     277
       1     278
       1     279
       1     280
       1     281
       1     282
       1     283
       1     284
       1     285
       1     286
       1     287
       1     288
       1     289
       1     290
       1     291
       1     292
       1     293
       1     294
       1     295
       1     296
       1     297
       1     298
       1     299
       1     300
       1     301
       1     302
       1     303
       1     304
       1     305
       1     306
       1     307
       1     308
       1     309
       1     310
       1     311
       1     312
       1     313
       1     314
       1     315
       1     316
       1     317
       1     318
       1     319
       1     320
       1     321
       1     322
       1     323
       1     324
       1     325
       1     326
       1     327
       1     328
       1     329
       1     330
       1     331
       1     332
       1     333
       1     334
       1     335
       1     336
       1     337
       1     338
       1     339
       1     340
       1     341
       1     342
       1     343
       1     344
       1     345
       1     346
       1     347
       1     348
       1     349
       1     350
       1     351
       1     352
       1     353
       1     354
       1     355
       1     356
       1     357
       1     358
       1     359
       1     360
       1     361
       1     362
       1     363
       1     364
       1     365
       1     366
       1     367
       1     368
       1     369
       1     370
       1     371
       1     372
       1     373
       1     374
       1     375
       1     376
       1     377
       1     378
       1     379
       1     380
       1     381
       1     382
       1     383
       1     384
       1     385
       1     386
       1     387
       1     388
       1     389
       1     390
       1     391
       1     392
       1     393
       1     394
       1     395
       1     396
       1     397
       1     398
       1     399
       1     400
       1     401
       1     402
       1     403
       1     404
       1     405
       1     406
       1     407
       1     408
       1     409
       1     410
       1     411
       1     412
       1     413
       1     414
       1     415
       1     416
       1     417
       1     418
       1     419
       1     420
       1     421
       1     422
       1     423
       1     424
       1     425
       1     426
       1     427
       1     428
       1     429
       1     430
       1     431
       1     432
       1     433
       1     434
       1     435
       1     436
       1     437
       1     438
       1     439
       1     440
       1     441
       1     442
       1     443
       1     444
       1     445
       1     446
       1     447
       1     448
       1     449
       1     450
       1     451
       1     452
       1     453
       1     454
       1     455
       1     456
       1     457
       1     458
       1     459
       1     460
       1     461
       1     462
       1     463
       1     464
       1     465
       1     466
       1     467
       1     468
       1     469
       1     470
       1     471
       1     472
       1     473
       1     474
       1     475
       1     476
       1     477
       1     478
       1     479
       1     480
       1     481
       1     482
       1     483
       1     484
       1     485
       1     486
       1     487
       1     488
       1     489
       1     490
       1     491
       1     492
       1     493
       1     494
       1     495
       1     496
       1     497
       1     498
       1     499
       1     500
       1     501
       1     502
       1     503
       1     504
       1     505
       1     506
       1     507
       1     508
       1     509
       1     510
       1     511
       1     512
       1     513
       1     514
       1     515
       1     516
       1     517
       1     518
       1     519
       1     520
       1     521
       1     522
       1     523
       1     524
       1     525
       1     526
       1     527
       1     528
       1     529
       1     530
       1     531
       1     532
       1     533
       1     534
       1     535
       1     536
       1     537
       1     538
       1     539
       1     540
       1     541
       1     542
       1     543
       1     544
       1     545
       1     546
       1     547
       1     548
       1     549
       1     550
       1     551
       1     552
       1     553
       1     554
       1     555
       1     556
       1     557
       1     558
       1     559
       1     560
       1     561
       1     562
       1     563
       1     564
       1     565
       1     566
       1     567
       1     568
       1     569
       1     570
       1     571
       1     572
       1     573
       1     574
       1     575
       1     576
       1     577
       1     578
       1     579
       1     580
       1     581
       1     582
       1     583
       1     584
       1     585
       1     586
       1     587
       1     588
       1     589
       1     590
       1     591
       1     592
       1     593
       1     594
       1     595
       1     596
       1     597
       1     598
       1     599
       1     600
       1     601
       1     602
       1     603
       1     604
       1     605
       1     606
       1     607
       1     608
       1     609
       1     610
       1     611
       1     612
       1     613
       1     614
       1     615
       1     616
       1     617
       1     618
       1     619
       1     620
       1     621
       1     622
       1     623
       1     624
       1     625
       1     626
       1     627
       1     628
       1     629
       1     630
       1     631
       1     632
       1     633
       1     634
       1     635
       1     636
       1     637
       1     638
       1     639
       1     640
       1     641
       1     642
       1     643
       1     644
       1     645
       1     646
       1     647
       1     648
       1     649
       1     650
       1     651
       1     652
       1     653
       1     654
       1     655
       1     656
       1     657
       1     658
       1     659
       1     660
       1     661
       1     662
       1     663
       1     664
       1     665
       1     666
       1     667
       1     668
       1     669
       1     670
       1     671
       1     672
       1     673
       1     674
       1     675
       1     676
       1     677
       1     678
       1     679
       1     680
       1     681
       1     682
       1     683
       1     684
       1     685
       1     686
       1     687
       1     688
       1     689
       1     690
       1     691
       1     692
       1     693
       1     694
       1     695
       1     696
       1     697
       1     698
       1     699
       1     700
       1     701
       1     702
       1     703
       1     704
       1     705
       1     706
       1     707
       1     708
       1     709
       1     710
       1     711
       1     712
       1     713
       1     714
       1     715
       1     716
       1     717
       1     718
       1     719
       1     720
       1     721
       1     722
       1     723
       1     724
       1     725
       1     726
       1     727
       1     728
       1     729
       1     730
       1     731
       1     732
       1     733
       1     734
       1     735
       1     736
       1     737
       1     738
       1     739
       1     740
       1     741
       1     742
       1     743
       1     744
       1     745
       1     746
       1     747
       1     748
       1     749
       1     750
       1     751
       1     752
       1     753
       1     754
       1     755
       1     756
       1     757
       1     758
       1     759
       1     760
       1     761
       1     762
       1     763
       1     764
       1     765
       1     766
       1     767
       1     768
       1     769
       1     770
       1     771
       1     772
       1     773
       1     774
       1     775
       1     776
       1     777
       1     778
       1     779
       1     780
       1     781
       1     782
       1     783
       1     784
       1     785
       1     786
       1     787
       1     788
       1     789
       1     790
       1     791
       1     792
       1     793
       1     794
       1     795
       1     796
       1     797
       1     798
       1     799
       1     800
       1     801
       1     802
       1     803
       1     804
       1     805
       1     806
       1     807
       1     808
       1     809
       1     810
       1     811
       1     812
       1     813
       1     814
       1     815
       1     816
       1     817
       1     818
       1     819
       1     820
       1     821
       1     822
       1     823
       1     824
       1     825
       1     826
       1     827
       1     828
       1     829
       1     830
       1     831
       1     832
       1     833
       1     834
       1     835
       1     836
       1     837
       1     838
       1     839
       1     840
       1     841
       1     842
       1     843
       1     844
       1     845
       1     846
       1     847
       1     848
       1     849
       1     850
       1     851
       1     852
       1     853
       1     854
       1     855
       1     856
       1     857
       1     858
       1     859
       1     860
       1     861
       1     862
       1     863
       1     864
       1     865
       1     866
       1     867
       1     868
       1     869
       1     870
       1     871
       1     872
       1     873
       1     874
       1     875
       1     876
       1     877
       1     878
       1     879
       1     880
       1     881
       1     882
       1     883
       1     884
       1     885
       1     886
       1     887
       1     888
       1     889
       1     890
       1     891
       1     892
       1     893
       1     894
       1     895
       1     896
       1     897
       1     898
       1     899
       1     900
       1     901
       1     902
       1     903
       1     904
       1     905
       1     906
       1     907
       1     908
       1     909
       1     910
       1     911
       1     912
       1     913
       1     914
       1     915
       1     916
       1     917
       1     918
       1     919
       1     920
       1     921
       1     922
       1     923
       1     924
       1     925
       1     926
       1     927
       1     928
       1     929
       1     930
       1     931
       1     932
       1     933
       1     934
       1     935
       1     936
       1     937
       1     938
       1     939
       1     940
       1     941
       1     942
       1     943
       1     944
       1     945
       1     946
       1     947
       1     948
       1     949
       1     950
       1     951
       1     952
       1     953
       1     954
       1     955
       1     956
       1     957
       1     958
       1     959
       1     960
       1     961
       1     962
       1     963
       1     964
       1     965
       1     966
       1     967
       1     968
       1     969
       1     970
       1     971
       1     972
       1     973
       1     974
       1     975
       1     976
       1     977
       1     978
       1     979
       1     980
       1     981
       1     982
       1     983
       1     984
       1     985
       1     986
       1     987
       1     988
       1     989
       1     990
       1     991
       1     992
       1     993
       1     994
       1     995
       1     996
       1     997
       1     998
       1     999
       1    1000
       1    1001
       1    1002
       1    1003
       1    1004
       1    1005
       1    1006
       1    1007
       1    1008
       1    1009
       1    1010
       1    1011
       1    1012
       1    1013
       1    1014
       1    1015
       1    1016
       1    1017
       1    1018
       1    1019
       1    1020
       1    1021
       1    1022
       1    1023
       1    1024
       1    1025
       1    1026
       1    1027
       1    1028
       1    1029
       1    1030
       1    1031
       1    1032
       1    1033
       1    1034
       1    1035
       1    1036
       1    1037
       1    1038
       1    1039
       1    1040
       1    1041
       1    1042
       1    1043
       1    1044
       1    1045
       1    1046
       1    1047
       1    1048
       1    1049
       1    1050
       1    1051
       1    1052
       1    1053
       1    1054
       1    1055
       1    1056
       1    1057
       1    1058
       1    1059
       1    1060
       1    1061
       1    1062
       1    1063
       1    1064
       1    1065
       1    1066
       1    1067
       1    1068
       1    1069
       1    1070
       1    1071
       1    1072
       1    1073
       1    1074
       1    1075
       1    1076
       1    1077
       1    1078
       1    1079
       1    1080
       1    1081
       1    1082
       1    1083
       1    1084
       1    1085
       1    1086
       1    1087
       1    1088
       1    1089
       1    1090
       1    1091
       1    1092
       1    1093
       1    1094
       1    1095
       1    1096
       1    1097
       1    1098
       1    1099
       1    1100
       1    1101
       1    1102
       1    1103
       1    1104
       1    1105
       1    1106
       1    1107
       1    1108
       1    1109
       1    1110
       1    1111
       1    1112
       1    1113
       1    1114
       1    1115
       1    1116
       1    1117
       1    1118
       1    1119
       1    1120
       1    1121
       1    1122
       1    1123
       1    1124
       1    1125
       1    1126
       1    1127
       1    1128
       1    1129
       1    1130
       1    1131
       1    1132
       1    1133
       1    1134
       1    1135
       1    1136
       1    1137
       1    1138
       1    1139
       1    1140
       1    1141
       1    1142
       1    1143
       1    1144
       1    1145
       1    1146
       1    1147
       1    1148
       1    1149
       1    1150
       1    1151
       1    1152
       1    1153
       1    1154
       1    1155
       1    1156
       1    1157
       1    1158
       1    1159
       1    1160
       1    1161
       1    1162
       1    1163
       1    1164
       1    1165
       1    1166
       1    1167
       1    1168
       1    1169
       1    1170
       1    1171
       1    1172
       1    1173
       1    1174
       1    1175
       1    1176
       1    1177
       1    1178
       1    1179
       1    1180
       1    1181
       1    1182
       1    1183
       1    1184
       1    1185
       1    1186
       1    1187
       1    1188
       1    1189
       1    1190
       1    1191
       1    1192
       1    1193
       1    1194
       1    1195
       1    1196
       1    1197
       1    1198
       1    1199
       1    1200
       1    1201
       1    1202
       1    1203
       1    1204
       1    1205
       1    1206
       1    1207
       1    1208
       1    1209
       1    1210
       1    1211
       1    1212
       1    1213
       1    1214
       1    1215
       1    1216
       1    1217
       1    1218
       1    1219
       1    1220
       1    1221
       1    1222
       1    1223
       1    1224
       1    1225
       1    1226
       1    1227
       1    1228
       1    1229
       1    1230
       1    1231
       1    1232
       1    1233
       1    1234
       1    1235
       1    1236
       1    1237
       1    1238
       1    1239
       1    1240
       1    1241
       1    1242
       1    1243
       1    1244
       1    1245
       1    1246
       1    1247
       1    1248
       1    1249
       1    1250
       1    1251
       1    1252
       1    1253
       1    1254
       1    1255
       1    1256
       1    1257
       1    1258
       1    1259
       1    1260
       1    1261
       1    1262
       1    1263
       1    1264
       1    1265
       1    1266
       1    1267
       1    1268
       1    1269
       1    1270
       1    1271
       1    1272
       1    1273
       1    1274
       1    1275
       1    1276
       1    1277
       1    1278
       1    1279
       1    1280
       1    1281
       1    1282
       1    1283
       1    1284
       1    1285
       1    1286
       1    1287
       1    1288
       1    1289
       1    1290
       1    1291
       1    1292
       1    1293
       1    1294
       1    1295
       1    1296
       1    1297
       1    1298
       1    1299
       1    1300
       1    1301
       1    1302
       1    1303
       1    1304
       1    1305
       1    1306
       1    1307
       1    1308
       1    1309
       1    1310
       1    1311
       1    1312
       1    1313
       1    1314
       1    1315
       1    1316
       1    1317
       1    1318
       1    1319
       1    1320
       1    1321
       1    1322
       1    1323
       1    1324
       1    1325
       1    1326
       1    1327
       1    1328
       1    1329
       1    1330
       1    1331
       1    1332
       1    1333
       1    1334
       1    1335
       1    1336
       1    1337
       1    1338
       1    1339
       1    1340
       1    1341
       1    1342
       1    1343
       1    1344
       1    1345
       1    1346
       1    1347
       1    1348
       1    1349
       1    1350
       1    1351
       1    1352
       1    1353
       1    1354
       1    1355
       1    1356
       1    1357
       1    1358
       1    1359
       1    1360
       1    1361
       1    1362
       1    1363
       1    1364
       1    1365
       1    1366
       1    1367
       1    1368
       1    1369
       1    1370
       1    1371
       1    1372
       1    1373
       1    1374
       1    1375
       1    1376
       1    1377
       1    1378
       1    1379
       1    1380
       1    1381
       1    1382
       1    1383
       1    1384
       1    1385
       1    1386
       1    1387
       1    1388
       1    1389
       1    1390
       1    1391
       1    1392
       1    1393
       1    1394
       1    1395
       1    1396
       1    1397
       1    1398
       1    1399
       1    1400
       1    1401
       1    1402
       1    1403
       1    1404
       1    1405
       1    1406
       1    1407
       1    1408
       1    1409
       1    1410
       1    1411
       1    1412
       1    1413
       1    1414
       1    1415
       1    1416
       1    1417
       1    1418
       1    1419
       1    1420
       1    1421
       1    1422
       1    1423
       1    1424
       1    1425
       1    1426
       1    1427
       1    1428
       1    1429
       1    1430
       1    1431
       1    1432
       1    1433
       1    1434
       1    1435
       1    1436
       1    1437
       1    1438
       1    1439
       1    1440
       1    1441
       1    1442
       1    1443
       1    1444
       1    1445
       1    1446
       1    1447
       1    1448
       1    1449
       1    1450
       1    1451
       1    1452
       1    1453
       1    1454
       1    1455
       1    1456
       1    1457
       1    1458
       1    1459
       1    1460
       1    1461
       1    1462
       1    1463
       1    1464
       1    1465
       1    1466
       1    1467
       1    1468
       1    1469
       1    1470
       1    1471
       1    1472
       1    1473
       1    1474
       1    1475
       1    1476
       1    1477
       1    1478
       1    1479
       1    1480
       1    1481
       1    1482
       1    1483
       1    1484
       1    1485
       1    1486
       1    1487
       1    1488
       1    1489
       1    1490
       1    1491
       1    1492
       1    1493
       1    1494
       1    1495
       1    1496
       1    1497
       1    1498
       1    1499
       1    1500
       1    1501
       1    1502
       1    1503
       1    1504
       1    1505
       1    1506
       1    1507
       1    1508
       1    1509
       1    1510
       1    1511
       1    1512
       1    1513
       1    1514
       1    1515
       1    1516
       1    1517
       1    1518
       1    1519
       1    1520
       1    1521
       1    1522
       1    1523
       1    1524
       1    1525
       1    1526
       1    1527
       1    1528
       1    1529
       1    1530
       1    1531
       1    1532
       1    1533
       1    1534
       1    1535
       1    1536
       1    1537
       1    1538
       1    1539
       1    1540
       1    1541
       1    1542
       1    1543
       1    1544
       1    1545
       1    1546
       1    1547
       1    1548
       1    1549
       1    1550
       1    1551
       1    1552
       1    1553
       1    1554
       1    1555
       1    1556
       1    1557
       1    1558
       1    1559
       1    1560
       1    1561
       1    1562
       1    1563
       1    1564
       1    1565
       1    1566
       1    1567
       1    1568
       1    1569
       1    1570
       1    1571
       1    1572
       1    1573
       1    1574
       1    1575
       1    1576
       1    1577
       1    1578
       1    1579
       1    1580
       1    1581
       1    1582
       1    1583
       1    1584
       1    1585
       1    1586
       1    1587
       1    1588
       1    1589
       1    1590
       1    1591
       1    1592
       1    1593
       1    1594
       1    1595
       1    1596
       1    1597
       1    1598
       1    1599
       1    1600
       1    1601
       1    1602
       1    1603
       1    1604
       1    1605
       1    1606
       1    1607
       1    1608
       1    1609
       1    1610
       1    1611
       1    1612
       1    1613
       1    1614
       1    1615
       1    1616
       1    1617
       1    1618
       1    1619
       1    1620
       1    1621
       1    1622
       1    1623
       1    1624
       1    1625
       1    1626
       1    1627
       1    1628
       1    1629
       1    1630
       1    1631
       1    1632
       1    1633
       1    1634
       1    1635
       1    1636
       1    1637
       1    1638
       1    1639
       1    1640
       1    1641
       1    1642
       1    1643
       1    1644
       1    1645
       1    1646
       1    1647
       1    1648
       1    1649
       1    1650
       1    1651
       1    1652
       1    1653
       1    1654
       1    1655
       1    1656
       1    1657
       1    1658
       1    1659
       1    1660
       1    1661
       1    1662
       1    1663
       1    1664
       1    1665
       1    1666
       1    1667
       1    1668
       1    1669
       1    1670
       1    1671
       1    1672
       1    1673
       1    1674
       1    1675
       1    1676
       1    1677
       1    1678
       1    1679
       1    1680
       1    1681
       1    1682
       1    1683
       1    1684
       1    1685
       1    1686
       1    1687
       1    1688
       1    1689
       1    1690
       1    1691
       1    1692
       1    1693
       1    1694
       1    1695
       1    1696
       1    1697
       1    1698
       1    1699
       1    1700
       1    1701
       1    1702
       1    1703
       1    1704
       1    1705
       1    1706
       1    1707
       1    1708
       1    1709
       1    1710
       1    1711
       1    1712
       1    1713
       1    1714
       1    1715
       1    1716
       1    1717
       1    1718
       1    1719
       1    1720
       1    1721
       1    1722
       1    1723
       1    1724
       1    1725
       1    1726
       1    1727
       1    1728
       1    1729
       1    1730
       1    1731
       1    1732
       1    1733
       1    1734
       1    1735
       1    1736
       1    1737
       1    1738
       1    1739
       1    1740
       1    1741
       1    1742
       1    1743
       1    1744
       1    1745
       1    1746
       1    1747
       1    1748
       1    1749
       1    1750
       1    1751
       1    1752
       1    1753
       1    1754
       1    1755
       1    1756
       1    1757
       1    1758
       1    1759
       1    1760
       1    1761
       1    1762
       1    1763
       1    1764
       1    1765
       1    1766
       1    1767
       1    1768
       1    1769
       1    1770
       1    1771
       1    1772
       1    1773
       1    1774
       1    1775
       1    1776
       1    1777
       1    1778
       1    1779
       1    1780
       1    1781
       1    1782
       1    1783
       1    1784
       1    1785
       1    1786
       1    1787
       1    1788
       1    1789
       1    1790
       1    1791
       1    1792
       1    1793
       1    1794
       1    1795
       1    1796
       1    1797
       1    1798
       1    1799
       1    1800
       1    1801
       1    1802
       1    1803
       1    1804
       1    1805
       1    1806
       1    1807
       1    1808
       1    1809
       1    1810
       1    1811
       1    1812
       1    1813
       1    1814
       1    1815
       1    1816
       1    1817
       1    1818
       1    1819
       1    1820
       1    1821
       1    1822
       1    1823
       1    1824
       1    1825
       1    1826
       1    1827
       1    1828
       1    1829
       1    1830
       1    1831
       1    1832
       1    1833
       1    1834
       1    1835
       1    1836
       1    1837
       1    1838
       1    1839
       1    1840
       1    1841
       1    1842
       1    1843
       1    1844
       1    1845
       1    1846
       1    1847
       1    1848
       1    1849
       1    1850
       1    1851
       1    1852
       1    1853
       1    1854
       1    1855
       1    1856
       1    1857
       1    1858
       1    1859
       1    1860
       1    1861
       1    1862
       1    1863
       1    1864
       1    1865
       1    1866
       1    1867
       1    1868
       1    1869
       1    1870
       1    1871
       1    1872
       1    1873
       1    1874
       1    1875
       1    1876
       1    1877
       1    1878
       1    1879
       1    1880
       1    1881
       1    1882
       1    1883
       1    1884
       1    1885
       1    1886
       1    1887
       1    1888
       1    1889
       1    1890
       1    1891
       1    1892
       1    1893
       1    1894
       1    1895
       1    1896
       1    1897
       1    1898
       1    1899
       1    1900
       1    1901
       1    1902
       1    1903
       1    1904
       1    1905
       1    1906
       1    1907
       1    1908
       1    1909
       1    1910
       1    1911
       1    1912
       1    1913
       1    1914
       1    1915
       1    1916
       1    1917
       1    1918
       1    1919
       1    1920
       1    1921
       1    1922
       1    1923
       1    1924
       1    1925
       1    1926
       1    1927
       1    1928
       1    1929
       1    1930
       1    1931
       1    1932
       1    1933
       1    1934
       1    1935
       1    1936
       1    1937
       1    1938
       1    1939
       1    1940
       1    1941
       1    1942
       1    1943
       1    1944
       1    1945
       1    1946
       1    1947
       1    1948
       1    1949
       8       0       1       2       3       4       5       6       7
       8       2       8       9       3       6      10      11       7
       8      12       1       0      13      14       5       4      15
       8       0      16      17      13       4      18      19      15
       8      20      21      22      12      23      24      25      14
       8      26      27      21      20      28      29      24      23
       8      13      26      20      12      15      28      23      14
       8      30      31      16      32      33      34      18      35
       8      36      37      31      30      38      39      34      33
       8      40      41      37      36      42      43      39      38
       8      44      40      36      45      46      42      38      47
       8      48      17      16      31      49      19      18      34
       8      30      50      45      36      33      51      47      38
       8       0       3      32      16       4       7      35      18
       8      52      26      13      17      53      28      15      19
       8      54      52      17      48      55      53      19      49
       8      56      54      48      57      58      55      49      59
       8      37      57      48      31      39      59      49      34
       8      60      61      50      30      62      63      51      33
       8      64      60      30      32      65      62      33      35
       8      66      64      32       3      67      65      35       7
       8      68       8       2      69      70      10       6      71
       8      72      69       2       1      73      71       6       5
       8      22      72       1      12      25      73       5      14
       8      74      27      26      52      75      29      28      53
       8      76      74      52      54      77      75      53      55
       8      78      76      54      56      79      77      55      58
       8      80      78      56      81      82      79      58      83
       8      84      81      56      57      85      83      58      59
       8      41      84      57      37      43      85      59      39
       8      86      44      45      50      87      46      47      51
       8      88      86      50      61      89      87      51      63
       8      90      88      61      91      92      89      63      93
       8      94      91      61      60      95      93      63      62
       8      96      94      60      64      97      95      62      65
       8      98      96      64      66      99      97      65      67
       8     100      98      66     101     102      99      67     103
       8       9     101      66       3      11     103      67       7
       8     104     105       8      68     106     107      10      70
       8     108     104      68      69     109     106      70      71
       8     110     108      69      72     111     109      71      73
       8     112     110      72      22     113     111      73      25
       8     114     112      22      21     115     113      25      24
       8     116     114      21      27     117     115      24      29
       8     118     116      27      74     119     117      29      75
       8     120     118      74      76     121     119      75      77
       8     122     120      76      78     123     121      77      79
       8     124     122      78      80     125     123      79      82
       8     126     124      80      81     127     125      82      83
       8     128     126      81      84     129     127      83      85
       8     130     128      84      41     131     129      85      43
       8     132     130      41      40     133     131      43      42
       8     134     132      40      44     135     133      42      46
       8     136     134      44      86     137     135      46      87
       8     138     136      86      88     139     137      87      89
       8     140     138      88      90     141     139      89      92
       8     142     140      90      91     143     141      92      93
       8     144     142      91      94     145     143      93      95
       8     146     144      94      96     147     145      95      97
       8     148     146      96      98     149     147      97      99
       8     150     148      98     100     151     149      99     102
       8     152     150     100     101     153     151     102     103
       8     154     152     101       9     155     153     103      11
       8     105     154       9       8     107     155      11      10
       8     156     157     158     159       0       1       2       3
       8     158     160     161     159       2       8       9       3
       8     162     157     156     163      12       1       0      13
       8     156     164     165     163       0      16      17      13
       8     166     167     168     162      20      21      22      12
       8     169     170     167     166      26      27      21      20
       8     163     169     166     162      13      26      20      12
       8     171     172     164     173      30      31      16      32
       8     174     175     172     171      36      37      31      30
       8     176     177     175     174      40      41      37      36
       8     178     176     174     179      44      40      36      45
       8     180     165     164     172      48      17      16      31
       8     171     181     179     174      30      50      45      36
       8     156     159     173     164       0       3      32      16
       8     182     169     163     165      52      26      13      17
       8     183     182     165     180      54      52      17      48
       8     184     183     180     185      56      54      48      57
       8     175     185     180     172      37      57      48      31
       8     186     187     181     171      60      61      50      30
       8     188     186     171     173      64      60      30      32
       8     189     188     173     159      66      64      32       3
       8     190     160     158     191      68       8       2      69
       8     192     191     158     157      72      69       2       1
       8     168     192     157     162      22      72       1      12
       8     193     170     169     182      74      27      26      52
       8     194     193     182     183      76      74      52      54
       8     195     194     183     184      78      76      54      56
       8     196     195     184     197      80      78      56      81
       8     198     197     184     185      84      81      56      57
       8     177     198     185     175      41      84      57      37
       8     199     178     179     181      86      44      45      50
       8     200     199     181     187      88      86      50      61
       8     201     200     187     202      90      88      61      91
       8     203     202     187     186      94      91      61      60
       8     204     203     186     188      96      94      60      64
       8     205     204     188     189      98      96      64      66
       8     206     205     189     207     100      98      66     101
       8     161     207     189     159       9     101      66       3
       8     208     209     160     190     104     105       8      68
       8     210     208     190     191     108     104      68      69
       8     211     210     191     192     110     108      69      72
       8     212     211     192     168     112     110      72      22
       8     213     212     168     167     114     112      22      21
       8     214     213     167     170     116     114      21      27
       8     215     214     170     193     118     116      27      74
       8     216     215     193     194     120     118      74      76
       8     217     216     194     195     122     120      76      78
       8     218     217     195     196     124     122      78      80
       8     219     218     196     197     126     124      80      81
       8     220     219     197     198     128     126      81      84
       8     221     220     198     177     130     128      84      41
       8     222     221     177     176     132     130      41      40
       8     223     222     176     178     134     132      40      44
       8     224     223     178     199     136     134      44      86
       8     225     224     199     200     138     136      86      88
       8     226     225     200     201     140     138      88      90
       8     227     226     201     202     142     140      90      91
       8     228     227     202     203     144     142      91      94
       8     229     228     203     204     146     144      94      96
       8     230     229     204     205     148     146      96      98
       8     231     230     205     206     150     148      98     100
       8     232     231     206     207     152     150     100     101
       8     233     232     207     161     154     152     101       9
       8     209     233     161     160     105     154       9       8
       8     234     235     236     237     156     157     158     159
       8     236     238     239     237     158     160     161     159
       8     240     235     234     241     162     157     156     163
       8     234     242     243     241     156     164     165     163
       8     244     245     246     240     166     167     168     162
       8     247     248     245     244     169     170     167     166
       8     241     247     244     240     163     169     166     162
       8     249     250     242     251     171     172     164     173
       8     252     253     250     249     174     175     172     171
       8     254     255     253     252     176     177     175     174
       8     256     254     252     257     178     176     174     179
       8     258     243     242     250     180     165     164     172
       8     249     259     257     252     171     181     179     174
       8     234     237     251     242     156     159     173     164
       8     260     247     241     243     182     169     163     165
       8     261     260     243     258     183     182     165     180
       8     262     261     258     263     184     183     180     185
       8     253     263     258     250     175     185     180     172
       8     264     265     259     249     186     187     181     171
       8     266     264     249     251     188     186     171     173
       8     267     266     251     237     189     188     173     159
       8     268     238     236     269     190     160     158     191
       8     270     269     236     235     192     191     158     157
       8     246     270     235     240     168     192     157     162
       8     271     248     247     260     193     170     169     182
       8     272     271     260     261     194     193     182     183
       8     273     272     261     262     195     194     183     184
       8     274     273     262     275     196     195     184     197
       8     276     275     262     263     198     197     184     185
       8     255     276     263     253     177     198     185     175
       8     277     256     257     259     199     178     179     181
       8     278     277     259     265     200     199     181     187
       8     279     278     265     280     201     200     187     202
       8     281     280     265     264     203     202     187     186
       8     282     281     264     266     204     203     186     188
       8     283     282     266     267     205     204     188     189
       8     284     283     267     285     206     205     189     207
       8     239     285     267     237     161     207     189     159
       8     286     287     238     268     208     209     160     190
       8     288     286     268     269     210     208     190     191
       8     289     288     269     270     211     210     191     192
       8     290     289     270     246     212     211     192     168
       8     291     290     246     245     213     212     168     167
       8     292     291     245     248     214     213     167     170
       8     293     292     248     271     215     214     170     193
       8     294     293     271     272     216     215     193     194
       8     295     294     272     273     217     216     194     195
       8     296     295     273     274     218     217     195     196
       8     297     296     274     275     219     218     196     197
       8     298     297     275     276     220     219     197     198
       8     299     298     276     255     221     220     198     177
       8     300     299     255     254     222     221     177     176
       8     301     300     254     256     223     222     176     178
       8     302     301     256     277     224     223     178     199
       8     303     302     277     278     225     224     199     200
       8     304     303     278     279     226     225     200     201
       8     305     304     279     280     227     226     201     202
       8     306     305     280     281     228     227     202     203
       8     307     306     281     282     229     228     203     204
       8     308     307     282     283     230     229     204     205
       8     309     308     283     284     231     230     205     206
       8     310     309     284     285     232     231     206     207
       8     311     310     285     239     233     232     207     161
       8     287     311     239     238     209     233     161     160
       8     312     313     314     315     234     235     236     237
       8     314     316     317     315     236     238     239     237
       8     318     313     312     319     240     235     234     241
       8     312     320     321     319     234     242     243     241
       8     322     323     324     318     244     245     246     240
       8     325     326     323     322     247     248     245     244
       8     319     325     322     318     241     247     244     240
       8     327     328     320     329     249     250     242     251
       8     330     331     328     327     252     253     250     249
       8     332     333     331     330     254     255     253     252
       8     334     332     330     335     256     254     252     257
       8     336     321     320     328     258     243     242     250
       8     327     337     335     330     249     259     257     252
       8     312     315     329     320     234     237     251     242
       8     338     325     319     321     260     247     241     243
       8     339     338     321     336     261     260     243     258
       8     340     339     336     341     262     261     258     263
       8     331     341     336     328     253     263     258     250
       8     342     343     337     327     264     265     259     249
       8     344     342     327     329     266     264     249     251
       8     345     344     329     315     267     266     251     237
       8     346     316     314     347     268     238     236     269
       8     348     347     314     313     270     269     236     235
       8     324     348     313     318     246     270     235     240
       8     349     326     325     338     271     248     247     260
       8     350     349     338     339     272     271     260     261
       8     351     350     339     340     273     272     261     262
       8     352     351     340     353     274     273     262     275
       8     354     353     340     341     276     275     262     263
       8     333     354     341     331     255     276     263     253
       8     355     334     335     337     277     256     257     259
       8     356     355     337     343     278     277     259     265
       8     357     356     343     358     279     278     265     280
       8     359     358     343     342     281     280     265     264
       8     360     359     342     344     282     281     264     266
       8     361     360     344     345     283     282     266     267
       8     362     361     345     363     284     283     267     285
       8     317     363     345     315     239     285     267     237
       8     364     365     316     346     286     287     238     268
       8     366     364     346     347     288     286     268     269
       8     367     366     347     348     289     288     269     270
       8     368     367     348     324     290     289     270     246
       8     369     368     324     323     291     290     246     245
       8     370     369     323     326     292     291     245     248
       8     371     370     326     349     293     292     248     271
       8     372     371     349     350     294     293     271     272
       8     373     372     350     351     295     294     272     273
       8     374     373     351     352     296     295     273     274
       8     375     374     352     353     297     296     274     275
       8     376     375     353     354     298     297     275     276
       8     377     376     354     333     299     298     276     255
       8     378     377     333     332     300     299     255     254
       8     379     378     332     334     301     300     254     256
       8     380     379     334     355     302     301     256     277
       8     381     380     355     356     303     302     277     278
       8     382     381     356     357     304     303     278     279
       8     383     382     357     358     305     304     279     280
       8     384     383     358     359     306     305     280     281
       8     385     384     359     360     307     306     281     282
       8     386     385     360     361     308     307     282     283
       8     387     386     361     362     309     308     283     284
       8     388     387     362     363     310     309     284     285
       8     389     388     363     317     311     310     285     239
       8     365     389     317     316     287     311     239     238
       8     390     391     392     393     312     313     314     315
       8     392     394     395     393     314     316     317     315
       8     396     391     390     397     318     313     312     319
       8     390     398     399     397     312     320     321     319
       8     400     401     402     396     322     323     324     318
       8     403     404     401     400     325     326     323     322
       8     397     403     400     396     319     325     322     318
       8     405     406     398     407     327     328     320     329
       8     408     409     406     405     330     331     328     327
       8     410     411     409     408     332     333     331     330
       8     412     410     408     413     334     332     330     335
       8     414     399     398     406     336     321     320     328
       8     405     415     413     408     327     337     335     330
       8     390     393     407     398     312     315     329     320
       8     416     403     397     399     338     325     319     321
       8     417     416     399     414     339     338     321     336
       8     418     417     414     419     340     339     336     341
       8     409     419     414     406     331     341     336     328
       8     420     421     415     405     342     343     337     327
       8     422     420     405     407     344     342     327     329
       8     423     422     407     393     345     344     329     315
       8     424     394     392     425     346     316     314     347
       8     426     425     392     391     348     347     314     313
       8     402     426     391     396     324     348     313     318
       8     427     404     403     416     349     326     325     338
       8     428     427     416     417     350     349     338     339
       8     429     428     417     418     351     350     339     340
       8     430     429     418     431     352     351     340     353
       8     432     431     418     419     354     353     340     341
       8     411     432     419     409     333     354     341     331
       8     433     412     413     415     355     334     335     337
       8     434     433     415     421     356     355     337     343
       8     435     434     421     436     357     356     343     358
       8     437     436     421     420     359     358     343     342
       8     438     437     420     422     360     359     342     344
       8     439     438     422     423     361     360     344     345
       8     440     439     423     441     362     361     345     363
       8     395     441     423     393     317     363     345     315
       8     442     443     394     424     364     365     316     346
       8     444     442     424     425     366     364     346     347
       8     445     444     425     426     367     366     347     348
       8     446     445     426     402     368     367     348     324
       8     447     446     402     401     369     368     324     323
       8     448     447     401     404     370     369     323     326
       8     449     448     404     427     371     370     326     349
       8     450     449     427     428     372     371     349     350
       8     451     450     428     429     373     372     350     351
       8     452     451     429     430     374     373     351     352
       8     453     452     430     431     375     374     352     353
       8     454     453     431     432     376     375     353     354
       8     455     454     432     411     377     376     354     333
       8     456     455     411     410     378     377     333     332
       8     457     456     410     412     379     378     332     334
       8     458     457     412     433     380     379     334     355
       8     459     458     433     434     381     380     355     356
       8     460     459     434     435     382     381     356     357
       8     461     460     435     436     383     382     357     358
       8     462     461     436     437     384     383     358     359
       8     463     462     437     438     385     384     359     360
       8     464     463     438     439     386     385     360     361
       8     465     464     439     440     387     386     361     362
       8     466     465     440     441     388     387     362     363
       8     467     466     441     395     389     388     363     317
       8     443     467     395     394     365     389     317     316
       8     468     469     470     471     390     391     392     393
       8     470     472     473     471     392     394     395     393
       8     474     469     468     475     396     391     390     397
       8     468     476     477     475     390     398     399     397
       8     478     479     480     474     400     401     402     396
       8     481     482     479     478     403     404     401     400
       8     475     481     478     474     397     403     400     396
       8     483     484     476     485     405     406     398     407
       8     486     487     484     483     408     409     406     405
       8     488     489     487     486     410     411     409     408
       8     490     488     486     491     412     410     408     413
       8     492     477     476     484     414     399     398     406
       8     483     493     491     486     405     415     413     408
       8     468     471     485     476     390     393     407     398
       8     494     481     475     477     416     403     397     399
       8     495     494     477     492     417     416     399     414
       8     496     495     492     497     418     417     414     419
       8     487     497     492     484     409     419     414     406
       8     498     499     493     483     420     421     415     405
       8     500     498     483     485     422     420     405     407
       8     501     500     485     471     423     422     407     393
       8     502     472     470     503     424     394     392     425
       8     504     503     470     469     426     425     392     391
       8     480     504     469     474     402     426     391     396
       8     505     482     481     494     427     404     403     416
       8     506     505     494     495     428     427     416     417
       8     507     506     495     496     429     428     417     418
       8     508     507     496     509     430     429     418     431
       8     510     509     496     497     432     431     418     419
       8     489     510     497     487     411     432     419     409
       8     511     490     491     493     433     412     413     415
       8     512     511     493     499     434     433     415     421
       8     513     512     499     514     435     434     421     436
       8     515     514     499     498     437     436     421     420
       8     516     515     498     500     438     437     420     422
       8     517     516     500     501     439     438     422     423
       8     518     517     501     519     440     439     423     441
       8     473     519     501     471     395     441     423     393
       8     520     521     472     502     442     443     394     424
       8     522     520     502     503     444     442     424     425
       8     523     522     503     504     445     444     425     426
       8     524     523     504     480     446     445     426     402
       8     525     524     480     479     447     446     402     401
       8     526     525     479     482     448     447     401     404
       8     527     526     482     505     449     448     404     427
       8     528     527     505     506     450     449     427     428
       8     529     528     506     507     451     450     428     429
       8     530     529     507     508     452     451     429     430
       8     531     530     508     509     453     452     430     431
       8     532     531     509     510     454     453     431     432
       8     533     532     510     489     455     454     432     411
       8     534     533     489     488     456     455     411     410
       8     535     534     488     490     457     456     410     412
       8     536     535     490     511     458     457     412     433
       8     537     536     511     512     459     458     433     434
       8     538     537     512     513     460     459     434     435
       8     539     538     513     514     461     460     435     436
       8     540     539     514     515     462     461     436     437
       8     541     540     515     516     463     462     437     438
       8     542     541     516     517     464     463     438     439
       8     543     542     517     518     465     464     439     440
       8     544     543     518     519     466     465     440     441
       8     545     544     519     473     467     466     441     395
       8     521     545     473     472     443     467     395     394
       8     546     547     548     549     468     469     470     471
       8     548     550     551     549     470     472     473     471
       8     552     547     546     553     474     469     468     475
       8     546     554     555     553     468     476     477     475
       8     556     557     558     552     478     479     480     474
       8     559     560     557     556     481     482     479     478
       8     553     559     556     552     475     481     478     474
       8     561     562     554     563     483     484     476     485
       8     564     565     562     561     486     487     484     483
       8     566     567     565     564     488     489     487     486
       8     568     566     564     569     490     488     486     491
       8     570     555     554     562     492     477     476     484
       8     561     571     569     564     483     493     491     486
       8     546     549     563     554     468     471     485     476
       8     572     559     553     555     494     481     475     477
       8     573     572     555     570     495     494     477     492
       8     574     573     570     575     496     495     492     497
       8     565     575     570     562     487     497     492     484
       8     576     577     571     561     498     499     493     483
       8     578     576     561     563     500     498     483     485
       8     579     578     563     549     501     500     485     471
       8     580     550     548     581     502     472     470     503
       8     582     581     548     547     504     503     470     469
       8     558     582     547     552     480     504     469     474
       8     583     560     559     572     505     482     481     494
       8     584     583     572     573     506     505     494     495
       8     585     584     573     574     507     506     495     496
       8     586     585     574     587     508     507     496     509
       8     588     587     574     575     510     509     496     497
       8     567     588     575     565     489     510     497     487
       8     589     568     569     571     511     490     491     493
       8     590     589     571     577     512     511     493     499
       8     591     590     577     592     513     512     499     514
       8     593     592     577     576     515     514     499     498
       8     594     593     576     578     516     515     498     500
       8     595     594     578     579     517     516     500     501
       8     596     595     579     597     518     517     501     519
       8     551     597     579     549     473     519     501     471
       8     598     599     550     580     520     521     472     502
       8     600     598     580     581     522     520     502     503
       8     601     600     581     582     523     522     503     504
       8     602     601     582     558     524     523     504     480
       8     603     602     558     557     525     524     480     479
       8     604     603     557     560     526     525     479     482
       8     605     604     560     583     527     526     482     505
       8     606     605     583     584     528     527     505     506
       8     607     606     584     585     529     528     506     507
       8     608     607     585     586     530     529     507     508
       8     609     608     586     587     531     530     508     509
       8     610     609     587     588     532     531     509     510
       8     611     610     588     567     533     532     510     489
       8     612     611     567     566     534     533     489     488
       8     613     612     566     568     535     534     488     490
       8     614     613     568     589     536     535     490     511
       8     615     614     589     590     537     536     511     512
       8     616     615     590     591     538     537     512     513
       8     617     616     591     592     539     538     513     514
       8     618     617     592     593     540     539     514     515
       8     619     618     593     594     541     540     515     516
       8     620     619     594     595     542     541     516     517
       8     621     620     595     596     543     542     517     518
       8     622     621     596     597     544     543     518     519
       8     623     622     597     551     545     544     519     473
       8     599     623     551     550     521     545     473     472
       8     624     625     626     627     546     547     548     549
       8     626     628     629     627     548     550     551     549
       8     630     625     624     631     552     547     546     553
       8     624     632     633     631     546     554     555     553
       8     634     635     636     630     556     557     558     552
       8     637     638     635     634     559     560     557     556
       8     631     637     634     630     553     559     556     552
       8     639     640     632     641     561     562     554     563
       8     642     643     640     639     564     565     562     561
       8     644     645     643     642     566     567     565     564
       8     646     644     642     647     568     566     564     569
       8     648     633     632     640     570     555     554     562
       8     639     649     647     642     561     571     569     564
       8     624     627     641     632     546     549     563     554
       8     650     637     631     633     572     559     553     555
       8     651     650     633     648     573     572     555     570
       8     652     651     648     653     574     573     570     575
       8     643     653     648     640     565     575     570     562
       8     654     655     649     639     576     577     571     561
       8     656     654     639     641     578     576     561     563
       8     657     656     641     627     579     578     563     549
       8     658     628     626     659     580     550     548     581
       8     660     659     626     625     582     581     548     547
       8     636     660     625     630     558     582     547     552
       8     661     638     637     650     583     560     559     572
       8     662     661     650     651     584     583     572     573
       8     663     662     651     652     585     584     573     574
       8     664     663     652     665     586     585     574     587
       8     666     665     652     653     588     587     574     575
       8     645     666     653     643     567     588     575     565
       8     667     646     647     649     589     568     569     571
       8     668     667     649     655     590     589     571     577
       8     669     668     655     670     591     590     577     592
       8     671     670     655     654     593     592     577     576
       8     672     671     654     656     594     593     576     578
       8     673     672     656     657     595     594     578     579
       8     674     673     657     675     596     595     579     597
       8     629     675     657     627     551     597     579     549
       8     676     677     628     658     598     599     550     580
       8     678     676     658     659     600     598     580     581
       8     679     678     659     660     601     600     581     582
       8     680     679     660     636     602     601     582     558
       8     681     680     636     635     603     602     558     557
       8     682     681     635     638     604     603     557     560
       8     683     682     638     661     605     604     560     583
       8     684     683     661     662     606     605     583     584
       8     685     684     662     663     607     606     584     585
       8     686     685     663     664     608     607     585     586
       8     687     686     664     665     609     608     586     587
       8     688     687     665     666     610     609     587     588
       8     689     688     666     645     611     610     588     567
       8     690     689     645     644     612     611     567     566
       8     691     690     644     646     613     612     566     568
       8     692     691     646     667     614     613     568     589
       8     693     692     667     668     615     614     589     590
       8     694     693     668     669     616     615     590     591
       8     695     694     669     670     617     616     591     592
       8     696     695     670     671     618     617     592     593
       8     697     696     671     672     619     618     593     594
       8     698     697     672     673     620     619     594     595
       8     699     698     673     674     621     620     595     596
       8     700     699     674     675     622     621     596     597
       8     701     700     675     629     623     622     597     551
       8     677     701     629     628     599     623     551     550
       8     702     703     704     705     624     625     626     627
       8     704     706     707     705     626     628     629     627
       8     708     703     702     709     630     625     624     631
       8     702     710     711     709     624     632     633     631
       8     712     713     714     708     634     635     636     630
       8     715     716     713     712     637     638     635     634
       8     709     715     712     708     631     637     634     630
       8     717     718     710     719     639     640     632     641
       8     720     721     718     717     642     643     640     639
       8     722     723     721     720     644     645     643     642
       8     724     722     720     725     646     644     642     647
       8     726     711     710     718     648     633     632     640
       8     717     727     725     720     639     649     647     642
       8     702     705     719     710     624     627     641     632
       8     728     715     709     711     650     637     631     633
       8     729     728     711     726     651     650     633     648
       8     730     729     726     731     652     651     648     653
       8     721     731     726     718     643     653     648     640
       8     732     733     727     717     654     655     649     639
       8     734     732     717     719     656     654     639     641
       8     735     734     719     705     657     656     641     627
       8     736     706     704     737     658     628     626     659
       8     738     737     704     703     660     659     626     625
       8     714     738     703     708     636     660     625     630
       8     739     716     715     728     661     638     637     650
       8     740     739     728     729     662     661     650     651
       8     741     740     729     730     663     662     651     652
       8     742     741     730     743     664     663     652     665
       8     744     743     730     731     666     665     652     653
       8     723     744     731     721     645     666     653     643
       8     745     724     725     727     667     646     647     649
       8     746     745     727     733     668     667     649     655
       8     747     746     733     748     669     668     655     670
       8     749     748     733     732     671     670     655     654
       8     750     749     732     734     672     671     654     656
       8     751     750     734     735     673     672     656     657
       8     752     751     735     753     674     673     657     675
       8     707     753     735     705     629     675     657     627
       8     754     755     706     736     676     677     628     658
       8     756     754     736     737     678     676     658     659
       8     757     756     737     738     679     678     659     660
       8     758     757     738     714     680     679     660     636
       8     759     758     714     713     681     680     636     635
       8     760     759     713     716     682     681     635     638
       8     761     760     716     739     683     682     638     661
       8     762     761     739     740     684     683     661     662
       8     763     762     740     741     685     684     662     663
       8     764     763     741     742     686     685     663     664
       8     765     764     742     743     687     686     664     665
       8     766     765     743     744     688     687     665     666
       8     767     766     744     723     689     688     666     645
       8     768     767     723     722     690     689     645     644
       8     769     768     722     724     691     690     644     646
       8     770     769     724     745     692     691     646     667
       8     771     770     745     746     693     692     667     668
       8     772     771     746     747     694     693     668     669
       8     773     772     747     748     695     694     669     670
       8     774     773     748     749     696     695     670     671
       8     775     774     749     750     697     696     671     672
       8     776     775     750     751     698     697     672     673
       8     777     776     751     752     699     698     673     674
       8     778     777     752     753     700     699     674     675
       8     779     778     753     707     701     700     675     629
       8     755     779     707     706     677     701     629     628
       8     780     781     782     783     702     703     704     705
       8     782     784     785     783     704     706     707     705
       8     786     781     780     787     708     703     702     709
       8     780     788     789     787     702     710     711     709
       8     790     791     792     786     712     713     714     708
       8     793     794     791     790     715     716     713     712
       8     787     793     790     786     709     715     712     708
       8     795     796     788     797     717     718     710     719
       8     798     799     796     795     720     721     718     717
       8     800     801     799     798     722     723     721     720
       8     802     800     798     803     724     722     720     725
       8     804     789     788     796     726     711     710     718
       8     795     805     803     798     717     727     725     720
       8     780     783     797     788     702     705     719     710
       8     806     793     787     789     728     715     709     711
       8     807     806     789     804     729     728     711     726
       8     808     807     804     809     730     729     726     731
       8     799     809     804     796     721     731     726     718
       8     810     811     805     795     732     733     727     717
       8     812     810     795     797     734     732     717     719
       8     813     812     797     783     735     734     719     705
       8     814     784     782     815     736     706     704     737
       8     816     815     782     781     738     737     704     703
       8     792     816     781     786     714     738     703     708
       8     817     794     793     806     739     716     715     728
       8     818     817     806     807     740     739     728     729
       8     819     818     807     808     741     740     729     730
       8     820     819     808     821     742     741     730     743
       8     822     821     808     809     744     743     730     731
       8     801     822     809     799     723     744     731     721
       8     823     802     803     805     745     724     725     727
       8     824     823     805     811     746     745     727     733
       8     825     824     811     826     747     746     733     748
       8     827     826     811     810     749     748     733     732
       8     828     827     810     812     750     749     732     734
       8     829     828     812     813     751     750     734     735
       8     830     829     813     831     752     751     735     753
       8     785     831     813     783     707     753     735     705
       8     832     833     784     814     754     755     706     736
       8     834     832     814     815     756     754     736     737
       8     835     834     815     816     757     756     737     738
       8     836     835     816     792     758     757     738     714
       8     837     836     792     791     759     758     714     713
       8     838     837     791     794     760     759     713     716
       8     839     838     794     817     761     760     716     739
       8     840     839     817     818     762     761     739     740
       8     841     840     818     819     763     762     740     741
       8     842     841     819     820     764     763     741     742
       8     843     842     820     821     765     764     742     743
       8     844     843     821     822     766     765     743     744
       8     845     844     822     801     767     766     744     723
       8     846     845     801     800     768     767     723     722
       8     847     846     800     802     769     768     722     724
       8     848     847     802     823     770     769     724     745
       8     849     848     823     824     771     770     745     746
       8     850     849     824     825     772     771     746     747
       8     851     850     825     826     773     772     747     748
       8     852     851     826     827     774     773     748     749
       8     853     852     827     828     775     774     749     750
       8     854     853     828     829     776     775     750     751
       8     855     854     829     830     777     776     751     752
       8     856     855     830     831     778     777     752     753
       8     857     856     831     785     779     778     753     707
       8     833     857     785     784     755     779     707     706
       8     858     859     860     861     780     781     782     783
       8     860     862     863     861     782     784     785     783
       8     864     859     858     865     786     781     780     787
       8     858     866     867     865     780     788     789     787
       8     868     869     870     864     790     791     792     786
       8     871     872     869     868     793     794     791     790
       8     865     871     868     864     787     793     790     786
       8     873     874     866     875     795     796     788     797
       8     876     877     874     873     798     799     796     795
       8     878     879     877     876     800     801     799     798
       8     880     878     876     881     802     800     798     803
       8     882     867     866     874     804     789     788     796
       8     873     883     881     876     795     805     803     798
       8     858     861     875     866     780     783     797     788
       8     884     871     865     867     806     793     787     789
       8     885     884     867     882     807     806     789     804
       8     886     885     882     887     808     807     804     809
       8     877     887     882     874     799     809     804     796
       8     888     889     883     873     810     811     805     795
       8     890     888     873     875     812     810     795     797
       8     891     890     875     861     813     812     797     783
       8     892     862     860     893     814     784     782     815
       8     894     893     860     859     816     815     782     781
       8     870     894     859     864     792     816     781     786
       8     895     872     871     884     817     794     793     806
       8     896     895     884     885     818     817     806     807
       8     897     896     885     886     819     818     807     808
       8     898     897     886     899     820     819     808     821
       8     900     899     886     887     822     821     808     809
       8     879     900     887     877     801     822     809     799
       8     901     880     881     883     823     802     803     805
       8     902     901     883     889     824     823     805     811
       8     903     902     889     904     825     824     811     826
       8     905     904     889     888     827     826     811     810
       8     906     905     888     890     828     827     810     812
       8     907     906     890     891     829     828     812     813
       8     908     907     891     909     830     829     813     831
       8     863     909     891     861     785     831     813     783
       8     910     911     862     892     832     833     784     814
       8     912     910     892     893     834     832     814     815
       8     913     912     893     894     835     834     815     816
       8     914     913     894     870     836     835     816     792
       8     915     914     870     869     837     836     792     791
       8     916     915     869     872     838     837     791     794
       8     917     916     872     895     839     838     794     817
       8     918     917     895     896     840     839     817     818
       8     919     918     896     897     841     840     818     819
       8     920     919     897     898     842     841     819     820
       8     921     920     898     899     843     842     820     821
       8     922     921     899     900     844     843     821     822
       8     923     922     900     879     845     844     822     801
       8     924     923     879     878     846     845     801     800
       8     925     924     878     880     847     846     800     802
       8     926     925     880     901     848     847     802     823
       8     927     926     901     902     849     848     823     824
       8     928     927     902     903     850     849     824     825
       8     929     928     903     904     851     850     825     826
       8     930     929     904     905     852     851     826     827
       8     931     930     905     906     853     852     827     828
       8     932     931     906     907     854     853     828     829
       8     933     932     907     908     855     854     829     830
       8     934     933     908     909     856     855     830     831
       8     935     934     909     863     857     856     831     785
       8     911     935     863     862     833     857     785     784
       8     936     937     938     939     858     859     860     861
       8     938     940     941     939     860     862     863     861
       8     942     937     936     943     864     859     858     865
       8     936     944     945     943     858     866     867     865
       8     946     947     948     942     868     869     870     864
       8     949     950     947     946     871     872     869     868
       8     943     949     946     942     865     871     868     864
       8     951     952     944     953     873     874     866     875
       8     954     955     952     951     876     877     874     873
       8     956     957     955     954     878     879     877     876
       8     958     956     954     959     880     878     876     881
       8     960     945     944     952     882     867     866     874
       8     951     961     959     954     873     883     881     876
       8     936     939     953     944     858     861     875     866
       8     962     949     943     945     884     871     865     867
       8     963     962     945     960     885     884     867     882
       8     964     963     960     965     886     885     882     887
       8     955     965     960     952     877     887     882     874
       8     966     967     961     951     888     889     883     873
       8     968     966     951     953     890     888     873     875
       8     969     968     953     939     891     890     875     861
       8     970     940     938     971     892     862     860     893
       8     972     971     938     937     894     893     860     859
       8     948     972     937     942     870     894     859     864
       8     973     950     949     962     895     872     871     884
       8     974     973     962     963     896     895     884     885
       8     975     974     963     964     897     896     885     886
       8     976     975     964     977     898     897     886     899
       8     978     977     964     965     900     899     886     887
       8     957     978     965     955     879     900     887     877
       8     979     958     959     961     901     880     881     883
       8     980     979     961     967     902     901     883     889
       8     981     980     967     982     903     902     889     904
       8     983     982     967     966     905     904     889     888
       8     984     983     966     968     906     905     888     890
       8     985     984     968     969     907     906     890     891
       8     986     985     969     987     908     907     891     909
       8     941     987     969     939     863     909     891     861
       8     988     989     940     970     910     911     862     892
       8     990     988     970     971     912     910     892     893
       8     991     990     971     972     913     912     893     894
       8     992     991     972     948     914     913     894     870
       8     993     992     948     947     915     914     870     869
       8     994     993     947     950     916     915     869     872
       8     995     994     950     973     917     916     872     895
       8     996     995     973     974     918     917     895     896
       8     997     996     974     975     919     918     896     897
       8     998     997     975     976     920     919     897     898
       8     999     998     976     977     921     920     898     899
       8    1000     999     977     978     922     921     899     900
       8    1001    1000     978     957     923     922     900     879
       8    1002    1001     957     956     924     923     879     878
       8    1003    1002     956     958     925     924     878     880
       8    1004    1003     958     979     926     925     880     901
       8    1005    1004     979     980     927     926     901     902
       8    1006    1005     980     981     928     927     902     903
       8    1007    1006     981     982     929     928     903     904
       8    1008    1007     982     983     930     929     904     905
       8    1009    1008     983     984     931     930     905     906
       8    1010    1009     984     985     932     931     906     907
       8    1011    1010     985     986     933     932     907     908
       8    1012    1011     986     987     934     933     908     909
       8    1013    1012     987     941     935     934     909     863
       8     989    1013     941     940     911     935     863     862
       8    1014    1015    1016    1017     936     937     938     939
       8    1016    1018    1019    1017     938     940     941     939
       8    1020    1015    1014    1021     942     937     936     943
       8    1014    1022    1023    1021     936     944     945     943
       8    1024    1025    1026    1020     946     947     948     942
       8    1027    1028    1025    1024     949     950     947     946
       8    1021    1027    1024    1020     943     949     946     942
       8    1029    1030    1022    1031     951     952     944     953
       8    1032    1033    1030    1029     954     955     952     951
       8    1034    1035    1033    1032     956     957     955     954
       8    1036    1034    1032    1037     958     956     954     959
       8    1038    1023    1022    1030     960     945     944     952
       8    1029    1039    1037    1032     951     961     959     954
       8    1014    1017    1031    1022     936     939     953     944
       8    1040    1027    1021    1023     962     949     943     945
       8    1041    1040    1023    1038     963     962     945     960
       8    1042    1041    1038    1043     964     963     960     965
       8    1033    1043    1038    1030     955     965     960     952
       8    1044    1045    1039    1029     966     967     961     951
       8    1046    1044    1029    1031     968     966     951     953
       8    1047    1046    1031    1017     969     968     953     939
       8    1048    1018    1016    1049     970     940     938     971
       8    1050    1049    1016    1015     972     971     938     937
       8    1026    1050    1015    1020     948     972     937     942
       8    1051    1028    1027    1040     973     950     949     962
       8    1052    1051    1040    1041     974     973     962     963
       8    1053    1052    1041    1042     975     974     963     964
       8    1054    1053    1042    1055     976     975     964     977
       8    1056    1055    1042    1043     978     977     964     965
       8    1035    1056    1043    1033     957     978     965     955
       8    1057    1036    1037    1039     979     958     959     961
       8    1058    1057    1039    1045     980     979     961     967
       8    1059    1058    1045    1060     981     980     967     982
       8    1061    1060    1045    1044     983     982     967     966
       8    1062    1061    1044    1046     984     983     966     968
       8    1063    1062    1046    1047     985     984     968     969
       8    1064    1063    1047    1065     986     985     969     987
       8    1019    1065    1047    1017     941     987     969     939
       8    1066    1067    1018    1048     988     989     940     970
       8    1068    1066    1048    1049     990     988     970     971
       8    1069    1068    1049    1050     991     990     971     972
       8    1070    1069    1050    1026     992     991     972     948
       8    1071    1070    1026    1025     993     992     948     947
       8    1072    1071    1025    1028     994     993     947     950
       8    1073    1072    1028    1051     995     994     950     973
       8    1074    1073    1051    1052     996     995     973     974
       8    1075    1074    1052    1053     997     996     974     975
       8    1076    1075    1053    1054     998     997     975     976
       8    1077    1076    1054    1055     999     998     976     977
       8    1078    1077    1055    1056    1000     999     977     978
       8    1079    1078    1056    1035    1001    1000     978     957
       8    1080    1079    1035    1034    1002    1001     957     956
       8    1081    1080    1034    1036    1003    1002     956     958
       8    1082    1081    1036    1057    1004    1003     958     979
       8    1083    1082    1057    1058    1005    1004     979     980
       8    1084    1083    1058    1059    1006    1005     980     981
       8    1085    1084    1059    1060    1007    1006     981     982
       8    1086    1085    1060    1061    1008    1007     982     983
       8    1087    1086    1061    1062    1009    1008     983     984
       8    1088    1087    1062    1063    1010    1009     984     985
       8    1089    1088    1063    1064    1011    1010     985     986
       8    1090    1089    1064    1065    1012    1011     986     987
       8    1091    1090    1065    1019    1013    1012     987     941
       8    1067    1091    1019    1018     989    1013     941     940
       8    1092    1093    1094    1095    1014    1015    1016    1017
       8    1094    1096    1097    1095    1016    1018    1019    1017
       8    1098    1093    1092    1099    1020    1015    1014    1021
       8    1092    1100    1101    1099    1014    1022    1023    1021
       8    1102    1103    1104    1098    1024    1025    1026    1020
       8    1105    1106    1103    1102    1027    1028    1025    1024
       8    1099    1105    1102    1098    1021    1027    1024    1020
       8    1107    1108    1100    1109    1029    1030    1022    1031
       8    1110    1111    1108    1107    1032    1033    1030    1029
       8    1112    1113    1111    1110    1034    1035    1033    1032
       8    1114    1112    1110    1115    1036    1034    1032    1037
       8    1116    1101    1100    1108    1038    1023    1022    1030
       8    1107    1117    1115    1110    1029    1039    1037    1032
       8    1092    1095    1109    1100    1014    1017    1031    1022
       8    1118    1105    1099    1101    1040    1027    1021    1023
       8    1119    1118    1101    1116    1041    1040    1023    1038
       8    1120    1119    1116    1121    1042    1041    1038    1043
       8    1111    1121    1116    1108    1033    1043    1038    1030
       8    1122    1123    1117    1107    1044    1045    1039    1029
       8    1124    1122    1107    1109    1046    1044    1029    1031
       8    1125    1124    1109    1095    1047    1046    1031    1017
       8    1126    1096    1094    1127    1048    1018    1016    1049
       8    1128    1127    1094    1093    1050    1049    1016    1015
       8    1104    1128    1093    1098    1026    1050    1015    1020
       8    1129    1106    1105    1118    1051    1028    1027    1040
       8    1130    1129    1118    1119    1052    1051    1040    1041
       8    1131    1130    1119    1120    1053    1052    1041    1042
       8    1132    1131    1120    1133    1054    1053    1042    1055
       8    1134    1133    1120    1121    1056    1055    1042    1043
       8    1113    1134    1121    1111    1035    1056    1043    1033
       8    1135    1114    1115    1117    1057    1036    1037    1039
       8    1136    1135    1117    1123    1058    1057    1039    1045
       8    1137    1136    1123    1138    1059    1058    1045    1060
       8    1139    1138    1123    1122    1061    1060    1045    1044
       8    1140    1139    1122    1124    1062    1061    1044    1046
       8    1141    1140    1124    1125    1063    1062    1046    1047
       8    1142    1141    1125    1143    1064    1063    1047    1065
       8    1097    1143    1125    1095    1019    1065    1047    1017
       8    1144    1145    1096    1126    1066    1067    1018    1048
       8    1146    1144    1126    1127    1068    1066    1048    1049
       8    1147    1146    1127    1128    1069    1068    1049    1050
       8    1148    1147    1128    1104    1070    1069    1050    1026
       8    1149    1148    1104    1103    1071    1070    1026    1025
       8    1150    1149    1103    1106    1072    1071    1025    1028
       8    1151    1150    1106    1129    1073    1072    1028    1051
       8    1152    1151    1129    1130    1074    1073    1051    1052
       8    1153    1152    1130    1131    1075    1074    1052    1053
       8    1154    1153    1131    1132    1076    1075    1053    1054
       8    1155    1154    1132    1133    1077    1076    1054    1055
       8    1156    1155    1133    1134    1078    1077    1055    1056
       8    1157    1156    1134    1113    1079    1078    1056    1035
       8    1158    1157    1113    1112    1080    1079    1035    1034
       8    1159    1158    1112    1114    1081    1080    1034    1036
       8    1160    1159    1114    1135    1082    1081    1036    1057
       8    1161    1160    1135    1136    1083    1082    1057    1058
       8    1162    1161    1136    1137    1084    1083    1058    1059
       8    1163    1162    1137    1138    1085    1084    1059    1060
       8    1164    1163    1138    1139    1086    1085    1060    1061
       8    1165    1164    1139    1140    1087    1086    1061    1062
       8    1166    1165    1140    1141    1088    1087    1062    1063
       8    1167    1166    1141    1142    1089    1088    1063    1064
       8    1168    1167    1142    1143    1090    1089    1064    1065
       8    1169    1168    1143    1097    1091    1090    1065    1019
       8    1145    1169    1097    1096    1067    1091    1019    1018
       8    1170    1171    1172    1173    1092    1093    1094    1095
       8    1172    1174    1175    1173    1094    1096    1097    1095
       8    1176    1171    1170    1177    1098    1093    1092    1099
       8    1170    1178    1179    1177    1092    1100    1101    1099
       8    1180    1181    1182    1176    1102    1103    1104    1098
       8    1183    1184    1181    1180    1105    1106    1103    1102
       8    1177    1183    1180    1176    1099    1105    1102    1098
       8    1185    1186    1178    1187    1107    1108    1100    1109
       8    1188    1189    1186    1185    1110    1111    1108    1107
       8    1190    1191    1189    1188    1112    1113    1111    1110
       8    1192    1190    1188    1193    1114    1112    1110    1115
       8    1194    1179    1178    1186    1116    1101    1100    1108
       8    1185    1195    1193    1188    1107    1117    1115    1110
       8    1170    1173    1187    1178    1092    1095    1109    1100
       8    1196    1183    1177    1179    1118    1105    1099    1101
       8    1197    1196    1179    1194    1119    1118    1101    1116
       8    1198    1197    1194    1199    1120    1119    1116    1121
       8    1189    1199    1194    1186    1111    1121    1116    1108
       8    1200    1201    1195    1185    1122    1123    1117    1107
       8    1202    1200    1185    1187    1124    1122    1107    1109
       8    1203    1202    1187    1173    1125    1124    1109    1095
       8    1204    1174    1172    1205    1126    1096    1094    1127
       8    1206    1205    1172    1171    1128    1127    1094    1093
       8    1182    1206    1171    1176    1104    1128    1093    1098
       8    1207    1184    1183    1196    1129    1106    1105    1118
       8    1208    1207    1196    1197    1130    1129    1118    1119
       8    1209    1208    1197    1198    1131    1130    1119    1120
       8    1210    1209    1198    1211    1132    1131    1120    1133
       8    1212    1211    1198    1199    1134    1133    1120    1121
       8    1191    1212    1199    1189    1113    1134    1121    1111
       8    1213    1192    1193    1195    1135    1114    1115    1117
       8    1214    1213    1195    1201    1136    1135    1117    1123
       8    1215    1214    1201    1216    1137    1136    1123    1138
       8    1217    1216    1201    1200    1139    1138    1123    1122
       8    1218    1217    1200    1202    1140    1139    1122    1124
       8    1219    1218    1202    1203    1141    1140    1124    1125
       8    1220    1219    1203    1221    1142    1141    1125    1143
       8    1175    1221    1203    1173    1097    1143    1125    1095
       8    1222    1223    1174    1204    1144    1145    1096    1126
       8    1224    1222    1204    1205    1146    1144    1126    1127
       8    1225    1224    1205    1206    1147    1146    1127    1128
       8    1226    1225    1206    1182    1148    1147    1128    1104
       8    1227    1226    1182    1181    1149    1148    1104    1103
       8    1228    1227    1181    1184    1150    1149    1103    1106
       8    1229    1228    1184    1207    1151    1150    1106    1129
       8    1230    1229    1207    1208    1152    1151    1129    1130
       8    1231    1230    1208    1209    1153    1152    1130    1131
       8    1232    1231    1209    1210    1154    1153    1131    1132
       8    1233    1232    1210    1211    1155    1154    1132    1133
       8    1234    1233    1211    1212    1156    1155    1133    1134
       8    1235    1234    1212    1191    1157    1156    1134    1113
       8    1236    1235    1191    1190    1158    1157    1113    1112
       8    1237    1236    1190    1192    1159    1158    1112    1114
       8    1238    1237    1192    1213    1160    1159    1114    1135
       8    1239    1238    1213    1214    1161    1160    1135    1136
       8    1240    1239    1214    1215    1162    1161    1136    1137
       8    1241    1240    1215    1216    1163    1162    1137    1138
       8    1242    1241    1216    1217    1164    1163    1138    1139
       8    1243    1242    1217    1218    1165    1164    1139    1140
       8    1244    1243    1218    1219    1166    1165    1140    1141
       8    1245    1244    1219    1220    1167    1166    1141    1142
       8    1246    1245    1220    1221    1168    1167    1142    1143
       8    1247    1246    1221    1175    1169    1168    1143    1097
       8    1223    1247    1175    1174    1145    1169    1097    1096
       8    1248    1249    1250    1251    1170    1171    1172    1173
       8    1250    1252    1253    1251    1172    1174    1175    1173
       8    1254    1249    1248    1255    1176    1171    1170    1177
       8    1248    1256    1257    1255    1170    1178    1179    1177
       8    1258    1259    1260    1254    1180    1181    1182    1176
       8    1261    1262    1259    1258    1183    1184    1181    1180
       8    1255    1261    1258    1254    1177    1183    1180    1176
       8    1263    1264    1256    1265    1185    1186    1178    1187
       8    1266    1267    1264    1263    1188    1189    1186    1185
       8    1268    1269    1267    1266    1190    1191    1189    1188
       8    1270    1268    1266    1271    1192    1190    1188    1193
       8    1272    1257    1256    1264    1194    1179    1178    1186
       8    1263    1273    1271    1266    1185    1195    1193    1188
       8    1248    1251    1265    1256    1170    1173    1187    1178
       8    1274    1261    1255    1257    1196    1183    1177    1179
       8    1275    1274    1257    1272    1197    1196    1179    1194
       8    1276    1275    1272    1277    1198    1197    1194    1199
       8    1267    1277    1272    1264    1189    1199    1194    1186
       8    1278    1279    1273    1263    1200    1201    1195    1185
       8    1280    1278    1263    1265    1202    1200    1185    1187
       8    1281    1280    1265    1251    1203    1202    1187    1173
       8    1282    1252    1250    1283    1204    1174    1172    1205
       8    1284    1283    1250    1249    1206    1205    1172    1171
       8    1260    1284    1249    1254    1182    1206    1171    1176
       8    1285    1262    1261    1274    1207    1184    1183    1196
       8    1286    1285    1274    1275    1208    1207    1196    1197
       8    1287    1286    1275    1276    1209    1208    1197    1198
       8    1288    1287    1276    1289    1210    1209    1198    1211
       8    1290    1289    1276    1277    1212    1211    1198    1199
       8    1269    1290    1277    1267    1191    1212    1199    1189
       8    1291    1270    1271    1273    1213    1192    1193    1195
       8    1292    1291    1273    1279    1214    1213    1195    1201
       8    1293    1292    1279    1294    1215    1214    1201    1216
       8    1295    1294    1279    1278    1217    1216    1201    1200
       8    1296    1295    1278    1280    1218    1217    1200    1202
       8    1297    1296    1280    1281    1219    1218    1202    1203
       8    1298    1297    1281    1299    1220    1219    1203    1221
       8    1253    1299    1281    1251    1175    1221    1203    1173
       8    1300    1301    1252    1282    1222    1223    1174    1204
       8    1302    1300    1282    1283    1224    1222    1204    1205
       8    1303    1302    1283    1284    1225    1224    1205    1206
       8    1304    1303    1284    1260    1226    1225    1206    1182
       8    1305    1304    1260    1259    1227    1226    1182    1181
       8    1306    1305    1259    1262    1228    1227    1181    1184
       8    1307    1306    1262    1285    1229    1228    1184    1207
       8    1308    1307    1285    1286    1230    1229    1207    1208
       8    1309    1308    1286    1287    1231    1230    1208    1209
       8    1310    1309    1287    1288    1232    1231    1209    1210
       8    1311    1310    1288    1289    1233    1232    1210    1211
       8    1312    1311    1289    1290    1234    1233    1211    1212
       8    1313    1312    1290    1269    1235    1234    1212    1191
       8    1314    1313    1269    1268    1236    1235    1191    1190
       8    1315    1314    1268    1270    1237    1236    1190    1192
       8    1316    1315    1270    1291    1238    1237    1192    1213
       8    1317    1316    1291    1292    1239    1238    1213    1214
       8    1318    1317    1292    1293    1240    1239    1214    1215
       8    1319    1318    1293    1294    1241    1240    1215    1216
       8    1320    1319    1294    1295    1242    1241    1216    1217
       8    1321    1320    1295    1296    1243    1242    1217    1218
       8    1322    1321    1296    1297    1244    1243    1218    1219
       8    1323    1322    1297    1298    1245    1244    1219    1220
       8    1324    1323    1298    1299    1246    1245    1220    1221
       8    1325    1324    1299    1253    1247    1246    1221    1175
       8    1301    1325    1253    1252    1223    1247    1175    1174
       8    1326    1327    1328    1329    1248    1249    1250    1251
       8    1328    1330    1331    1329    1250    1252    1253    1251
       8    1332    1327    1326    1333    1254    1249    1248    1255
       8    1326    1334    1335    1333    1248    1256    1257    1255
       8    1336    1337    1338    1332    1258    1259    1260    1254
       8    1339    1340    1337    1336    1261    1262    1259    1258
       8    1333    1339    1336    1332    1255    1261    1258    1254
       8    1341    1342    1334    1343    1263    1264    1256    1265
       8    1344    1345    1342    1341    1266    1267    1264    1263
       8    1346    1347    1345    1344    1268    1269    1267    1266
       8    1348    1346    1344    1349    1270    1268    1266    1271
       8    1350    1335    1334    1342    1272    1257    1256    1264
       8    1341    1351    1349    1344    1263    1273    1271    1266
       8    1326    1329    1343    1334    1248    1251    1265    1256
       8    1352    1339    1333    1335    1274    1261    1255    1257
       8    1353    1352    1335    1350    1275    1274    1257    1272
       8    1354    1353    1350    1355    1276    1275    1272    1277
       8    1345    1355    1350    1342    1267    1277    1272    1264
       8    1356    1357    1351    1341    1278    1279    1273    1263
       8    1358    1356    1341    1343    1280    1278    1263    1265
       8    1359    1358    1343    1329    1281    1280    1265    1251
       8    1360    1330    1328    1361    1282    1252    1250    1283
       8    1362    1361    1328    1327    1284    1283    1250    1249
       8    1338    1362    1327    1332    1260    1284    1249    1254
       8    1363    1340    1339    1352    1285    1262    1261    1274
       8    1364    1363    1352    1353    1286    1285    1274    1275
       8    1365    1364    1353    1354    1287    1286    1275    1276
       8    1366    1365    1354    1367    1288    1287    1276    1289
       8    1368    1367    1354    1355    1290    1289    1276    1277
       8    1347    1368    1355    1345    1269    1290    1277    1267
       8    1369    1348    1349    1351    1291    1270    1271    1273
       8    1370    1369    1351    1357    1292    1291    1273    1279
       8    1371    1370    1357    1372    1293    1292    1279    1294
       8    1373    1372    1357    1356    1295    1294    1279    1278
       8    1374    1373    1356    1358    1296    1295    1278    1280
       8    1375    1374    1358    1359    1297    1296    1280    1281
       8    1376    1375    1359    1377    1298    1297    1281    1299
       8    1331    1377    1359    1329    1253    1299    1281    1251
       8    1378    1379    1330    1360    1300    1301    1252    1282
       8    1380    1378    1360    1361    1302    1300    1282    1283
       8    1381    1380    1361    1362    1303    1302    1283    1284
       8    1382    1381    1362    1338    1304    1303    1284    1260
       8    1383    1382    1338    1337    1305    1304    1260    1259
       8    1384    1383    1337    1340    1306    1305    1259    1262
       8    1385    1384    1340    1363    1307    1306    1262    1285
       8    1386    1385    1363    1364    1308    1307    1285    1286
       8    1387    1386    1364    1365    1309    1308    1286    1287
       8    1388    1387    1365    1366    1310    1309    1287    1288
       8    1389    1388    1366    1367    1311    1310    1288    1289
       8    1390    1389    1367    1368    1312    1311    1289    1290
       8    1391    1390    1368    1347    1313    1312    1290    1269
       8    1392    1391    1347    1346    1314    1313    1269    1268
       8    1393    1392    1346    1348    1315    1314    1268    1270
       8    1394    1393    1348    1369    1316    1315    1270    1291
       8    1395    1394    1369    1370    1317    1316    1291    1292
       8    1396    1395    1370    1371    1318    1317    1292    1293
       8    1397    1396    1371    1372    1319    1318    1293    1294
       8    1398    1397    1372    1373    1320    1319    1294    1295
       8    1399    1398    1373    1374    1321    1320    1295    1296
       8    1400    1399    1374    1375    1322    1321    1296    1297
       8    1401    1400    1375    1376    1323    1322    1297    1298
       8    1402    1401    1376    1377    1324    1323    1298    1299
       8    1403    1402    1377    1331    1325    1324    1299    1253
       8    1379    1403    1331    1330    1301    1325    1253    1252
       8    1404    1405    1406    1407    1326    1327    1328    1329
       8    1406    1408    1409    1407    1328    1330    1331    1329
       8    1410    1405    1404    1411    1332    1327    1326    1333
       8    1404    1412    1413    1411    1326    1334    1335    1333
       8    1414    1415    1416    1410    1336    1337    1338    1332
       8    1417    1418    1415    1414    1339    1340    1337    1336
       8    1411    1417    1414    1410    1333    1339    1336    1332
       8    1419    1420    1412    1421    1341    1342    1334    1343
       8    1422    1423    1420    1419    1344    1345    1342    1341
       8    1424    1425    1423    1422    1346    1347    1345    1344
       8    1426    1424    1422    1427    1348    1346    1344    1349
       8    1428    1413    1412    1420    1350    1335    1334    1342
       8    1419    1429    1427    1422    1341    1351    1349    1344
       8    1404    1407    1421    1412    1326    1329    1343    1334
       8    1430    1417    1411    1413    1352    1339    1333    1335
       8    1431    1430    1413    1428    1353    1352    1335    1350
       8    1432    1431    1428    1433    1354    1353    1350    1355
       8    1423    1433    1428    1420    1345    1355    1350    1342
       8    1434    1435    1429    1419    1356    1357    1351    1341
       8    1436    1434    1419    1421    1358    1356    1341    1343
       8    1437    1436    1421    1407    1359    1358    1343    1329
       8    1438    1408    1406    1439    1360    1330    1328    1361
       8    1440    1439    1406    1405    1362    1361    1328    1327
       8    1416    1440    1405    1410    1338    1362    1327    1332
       8    1441    1418    1417    1430    1363    1340    1339    1352
       8    1442    1441    1430    1431    1364    1363    1352    1353
       8    1443    1442    1431    1432    1365    1364    1353    1354
       8    1444    1443    1432    1445    1366    1365    1354    1367
       8    1446    1445    1432    1433    1368    1367    1354    1355
       8    1425    1446    1433    1423    1347    1368    1355    1345
       8    1447    1426    1427    1429    1369    1348    1349    1351
       8    1448    1447    1429    1435    1370    1369    1351    1357
       8    1449    1448    1435    1450    1371    1370    1357    1372
       8    1451    1450    1435    1434    1373    1372    1357    1356
       8    1452    1451    1434    1436    1374    1373    1356    1358
       8    1453    1452    1436    1437    1375    1374    1358    1359
       8    1454    1453    1437    1455    1376    1375    1359    1377
       8    1409    1455    1437    1407    1331    1377    1359    1329
       8    1456    1457    1408    1438    1378    1379    1330    1360
       8    1458    1456    1438    1439    1380    1378    1360    1361
       8    1459    1458    1439    1440    1381    1380    1361    1362
       8    1460    1459    1440    1416    1382    1381    1362    1338
       8    1461    1460    1416    1415    1383    1382    1338    1337
       8    1462    1461    1415    1418    1384    1383    1337    1340
       8    1463    1462    1418    1441    1385    1384    1340    1363
       8    1464    1463    1441    1442    1386    1385    1363    1364
       8    1465    1464    1442    1443    1387    1386    1364    1365
       8    1466    1465    1443    1444    1388    1387    1365    1366
       8    1467    1466    1444    1445    1389    1388    1366    1367
       8    1468    1467    1445    1446    1390    1389    1367    1368
       8    1469    1468    1446    1425    1391    1390    1368    1347
       8    1470    1469    1425    1424    1392    1391    1347    1346
       8    1471    1470    1424    1426    1393    1392    1346    1348
       8    1472    1471    1426    1447    1394    1393    1348    1369
       8    1473    1472    1447    1448    1395    1394    1369    1370
       8    1474    1473    1448    1449    1396    1395    1370    1371
       8    1475    1474    1449    1450    1397    1396    1371    1372
       8    1476    1475    1450    1451    1398    1397    1372    1373
       8    1477    1476    1451    1452    1399    1398    1373    1374
       8    1478    1477    1452    1453    1400    1399    1374    1375
       8    1479    1478    1453    1454    1401    1400    1375    1376
       8    1480    1479    1454    1455    1402    1401    1376    1377
       8    1481    1480    1455    1409    1403    1402    1377    1331
       8    1457    1481    1409    1408    1379    1403    1331    1330
       8    1482    1483    1484    1485    1404    1405    1406    1407
       8    1484    1486    1487    1485    1406    1408    1409    1407
       8    1488    1483    1482    1489    1410    1405    1404    1411
       8    1482    1490    1491    1489    1404    1412    1413    1411
       8    1492    1493    1494    1488    1414    1415    1416    1410
       8    1495    1496    1493    1492    1417    1418    1415    1414
       8    1489    1495    1492    1488    1411    1417    1414    1410
       8    1497    1498    1490    1499    1419    1420    1412    1421
       8    1500    1501    1498    1497    1422    1423    1420    1419
       8    1502    1503    1501    1500    1424    1425    1423    1422
       8    1504    1502    1500    1505    1426    1424    1422    1427
       8    1506    1491    1490    1498    1428    1413    1412    1420
       8    1497    1507    1505    1500    1419    1429    1427    1422
       8    1482    1485    1499    1490    1404    1407    1421    1412
       8    1508    1495    1489    1491    1430    1417    1411    1413
       8    1509    1508    1491    1506    1431    1430    1413    1428
       8    1510    1509    1506    1511    1432    1431    1428    1433
       8    1501    1511    1506    1498    1423    1433    1428    1420
       8    1512    1513    1507    1497    1434    1435    1429    1419
       8    1514    1512    1497    1499    1436    1434    1419    1421
       8    1515    1514    1499    1485    1437    1436    1421    1407
       8    1516    1486    1484    1517    1438    1408    1406    1439
       8    1518    1517    1484    1483    1440    1439    1406    1405
       8    1494    1518    1483    1488    1416    1440    1405    1410
       8    1519    1496    1495    1508    1441    1418    1417    1430
       8    1520    1519    1508    1509    1442    1441    1430    1431
       8    1521    1520    1509    1510    1443    1442    1431    1432
       8    1522    1521    1510    1523    1444    1443    1432    1445
       8    1524    1523    1510    1511    1446    1445    1432    1433
       8    1503    1524    1511    1501    1425    1446    1433    1423
       8    1525    1504    1505    1507    1447    1426    1427    1429
       8    1526    1525    1507    1513    1448    1447    1429    1435
       8    1527    1526    1513    1528    1449    1448    1435    1450
       8    1529    1528    1513    1512    1451    1450    1435    1434
       8    1530    1529    1512    1514    1452    1451    1434    1436
       8    1531    1530    1514    1515    1453    1452    1436    1437
       8    1532    1531    1515    1533    1454    1453    1437    1455
       8    1487    1533    1515    1485    1409    1455    1437    1407
       8    1534    1535    1486    1516    1456    1457    1408    1438
       8    1536    1534    1516    1517    1458    1456    1438    1439
       8    1537    1536    1517    1518    1459    1458    1439    1440
       8    1538    1537    1518    1494    1460    1459    1440    1416
       8    1539    1538    1494    1493    1461    1460    1416    1415
       8    1540    1539    1493    1496    1462    1461    1415    1418
       8    1541    1540    1496    1519    1463    1462    1418    1441
       8    1542    1541    1519    1520    1464    1463    1441    1442
       8    1543    1542    1520    1521    1465    1464    1442    1443
       8    1544    1543    1521    1522    1466    1465    1443    1444
       8    1545    1544    1522    1523    1467    1466    1444    1445
       8    1546    1545    1523    1524    1468    1467    1445    1446
       8    1547    1546    1524    1503    1469    1468    1446    1425
       8    1548    1547    1503    1502    1470    1469    1425    1424
       8    1549    1548    1502    1504    1471    1470    1424    1426
       8    1550    1549    1504    1525    1472    1471    1426    1447
       8    1551    1550    1525    1526    1473    1472    1447    1448
       8    1552    1551    1526    1527    1474    1473    1448    1449
       8    1553    1552    1527    1528    1475    1474    1449    1450
       8    1554    1553    1528    1529    1476    1475    1450    1451
       8    1555    1554    1529    1530    1477    1476    1451    1452
       8    1556    1555    1530    1531    1478    1477    1452    1453
       8    1557    1556    1531    1532    1479    1478    1453    1454
       8    1558    1557    1532    1533    1480    1479    1454    1455
       8    1559    1558    1533    1487    1481    1480    1455    1409
       8    1535    1559    1487    1486    1457    1481    1409    1408
       8    1560    1561    1562    1563    1482    1483    1484    1485
       8    1562    1564    1565    1563    1484    1486    1487    1485
       8    1566    1561    1560    1567    1488    1483    1482    1489
       8    1560    1568    1569    1567    1482    1490    1491    1489
       8    1570    1571    1572    1566    1492    1493    1494    1488
       8    1573    1574    1571    1570    1495    1496    1493    1492
       8    1567    1573    1570    1566    1489    1495    1492    1488
       8    1575    1576    1568    1577    1497    1498    1490    1499
       8    1578    1579    1576    1575    1500    1501    1498    1497
       8    1580    1581    1579    1578    1502    1503    1501    1500
       8    1582    1580    1578    1583    1504    1502    1500    1505
       8    1584    1569    1568    1576    1506    1491    1490    1498
       8    1575    1585    1583    1578    1497    1507    1505    1500
       8    1560    1563    1577    1568    1482    1485    1499    1490
       8    1586    1573    1567    1569    1508    1495    1489    1491
       8    1587    1586    1569    1584    1509    1508    1491    1506
       8    1588    1587    1584    1589    1510    1509    1506    1511
       8    1579    1589    1584    1576    1501    1511    1506    1498
       8    1590    1591    1585    1575    1512    1513    1507    1497
       8    1592    1590    1575    1577    1514    1512    1497    1499
       8    1593    1592    1577    1563    1515    1514    1499    1485
       8    1594    1564    1562    1595    1516    1486    1484    1517
       8    1596    1595    1562    1561    1518    1517    1484    1483
       8    1572    1596    1561    1566    1494    1518    1483    1488
       8    1597    1574    1573    1586    1519    1496    1495    1508
       8    1598    1597    1586    1587    1520    1519    1508    1509
       8    1599    1598    1587    1588    1521    1520    1509    1510
       8    1600    1599    1588    1601    1522    1521    1510    1523
       8    1602    1601    1588    1589    1524    1523    1510    1511
       8    1581    1602    1589    1579    1503    1524    1511    1501
       8    1603    1582    1583    1585    1525    1504    1505    1507
       8    1604    1603    1585    1591    1526    1525    1507    1513
       8    1605    1604    1591    1606    1527    1526    1513    1528
       8    1607    1606    1591    1590    1529    1528    1513    1512
       8    1608    1607    1590    1592    1530    1529    1512    1514
       8    1609    1608    1592    1593    1531    1530    1514    1515
       8    1610    1609    1593    1611    1532    1531    1515    1533
       8    1565    1611    1593    1563    1487    1533    1515    1485
       8    1612    1613    1564    1594    1534    1535    1486    1516
       8    1614    1612    1594    1595    1536    1534    1516    1517
       8    1615    1614    1595    1596    1537    1536    1517    1518
       8    1616    1615    1596    1572    1538    1537    1518    1494
       8    1617    1616    1572    1571    1539    1538    1494    1493
       8    1618    1617    1571    1574    1540    1539    1493    1496
       8    1619    1618    1574    1597    1541    1540    1496    1519
       8    1620    1619    1597    1598    1542    1541    1519    1520
       8    1621    1620    1598    1599    1543    1542    1520    1521
       8    1622    1621    1599    1600    1544    1543    1521    1522
       8    1623    1622    1600    1601    1545    1544    1522    1523
       8    1624    1623    1601    1602    1546    1545    1523    1524
       8    1625    1624    1602    1581    1547    1546    1524    1503
       8    1626    1625    1581    1580    1548    1547    1503    1502
       8    1627    1626    1580    1582    1549    1548    1502    1504
       8    1628    1627    1582    1603    1550    1549    1504    1525
       8    1629    1628    1603    1604    1551    1550    1525    1526
       8    1630    1629    1604    1605    1552    1551    1526    1527
       8    1631    1630    1605    1606    1553    1552    1527    1528
       8    1632    1631    1606    1607    1554    1553    1528    1529
       8    1633    1632    1607    1608    1555    1554    1529    1530
       8    1634    1633    1608    1609    1556    1555    1530    1531
       8    1635    1634    1609    1610    1557    1556    1531    1532
       8    1636    1635    1610    1611    1558    1557    1532    1533
       8    1637    1636    1611    1565    1559    1558    1533    1487
       8    1613    1637    1565    1564    1535    1559    1487    1486
       8    1638    1639    1640    1641    1560    1561    1562    1563
       8    1640    1642    1643    1641    1562    1564    1565    1563
       8    1644    1639    1638    1645    1566    1561    1560    1567
       8    1638    1646    1647    1645    1560    1568    1569    1567
       8    1648    1649    1650    1644    1570    1571    1572    1566
       8    1651    1652    1649    1648    1573    1574    1571    1570
       8    1645    1651    1648    1644    1567    1573    1570    1566
       8    1653    1654    1646    1655    1575    1576    1568    1577
       8    1656    1657    1654    1653    1578    1579    1576    1575
       8    1658    1659    1657    1656    1580    1581    1579    1578
       8    1660    1658    1656    1661    1582    1580    1578    1583
       8    1662    1647    1646    1654    1584    1569    1568    1576
       8    1653    1663    1661    1656    1575    1585    1583    1578
       8    1638    1641    1655    1646    1560    1563    1577    1568
       8    1664    1651    1645    1647    1586    1573    1567    1569
       8    1665    1664    1647    1662    1587    1586    1569    1584
       8    1666    1665    1662    1667    1588    1587    1584    1589
       8    1657    1667    1662    1654    1579    1589    1584    1576
       8    1668    1669    1663    1653    1590    1591    1585    1575
       8    1670    1668    1653    1655    1592    1590    1575    1577
       8    1671    1670    1655    1641    1593    1592    1577    1563
       8    1672    1642    1640    1673    1594    1564    1562    1595
       8    1674    1673    1640    1639    1596    1595    1562    1561
       8    1650    1674    1639    1644    1572    1596    1561    1566
       8    1675    1652    1651    1664    1597    1574    1573    1586
       8    1676    1675    1664    1665    1598    1597    1586    1587
       8    1677    1676    1665    1666    1599    1598    1587    1588
       8    1678    1677    1666    1679    1600    1599    1588    1601
       8    1680    1679    1666    1667    1602    1601    1588    1589
       8    1659    1680    1667    1657    1581    1602    1589    1579
       8    1681    1660    1661    1663    1603    1582    1583    1585
       8    1682    1681    1663    1669    1604    1603    1585    1591
       8    1683    1682    1669    1684    1605    1604    1591    1606
       8    1685    1684    1669    1668    1607    1606    1591    1590
       8    1686    1685    1668    1670    1608    1607    1590    1592
       8    1687    1686    1670    1671    1609    1608    1592    1593
       8    1688    1687    1671    1689    1610    1609    1593    1611
       8    1643    1689    1671    1641    1565    1611    1593    1563
       8    1690    1691    1642    1672    1612    1613    1564    1594
       8    1692    1690    1672    1673    1614    1612    1594    1595
       8    1693    1692    1673    1674    1615    1614    1595    1596
       8    1694    1693    1674    1650    1616    1615    1596    1572
       8    1695    1694    1650    1649    1617    1616    1572    1571
       8    1696    1695    1649    1652    1618    1617    1571    1574
       8    1697    1696    1652    1675    1619    1618    1574    1597
       8    1698    1697    1675    1676    1620    1619    1597    1598
       8    1699    1698    1676    1677    1621    1620    1598    1599
       8    1700    1699    1677    1678    1622    1621    1599    1600
       8    1701    1700    1678    1679    1623    1622    1600    1601
       8    1702    1701    1679    1680    1624    1623    1601    1602
       8    1703    1702    1680    1659    1625    1624    1602    1581
       8    1704    1703    1659    1658    1626    1625    1581    1580
       8    1705    1704    1658    1660    1627    1626    1580    1582
       8    1706    1705    1660    1681    1628    1627    1582    1603
       8    1707    1706    1681    1682    1629    1628    1603    1604
       8    1708    1707    1682    1683    1630    1629    1604    1605
       8    1709    1708    1683    1684    1631    1630    1605    1606
       8    1710    1709    1684    1685    1632    1631    1606    1607
       8    1711    1710    1685    1686    1633    1632    1607    1608
       8    1712    1711    1686    1687    1634    1633    1608    1609
       8    1713    1712    1687    1688    1635    1634    1609    1610
       8    1714    1713    1688    1689    1636    1635    1610    1611
       8    1715    1714    1689    1643    1637    1636    1611    1565
       8    1691    1715    1643    1642    1613    1637    1565    1564
       8    1716    1717    1718    1719    1638    1639    1640    1641
       8    1718    1720    1721    1719    1640    1642    1643    1641
       8    1722    1717    1716    1723    1644    1639    1638    1645
       8    1716    1724    1725    1723    1638    1646    1647    1645
       8    1726    1727    1728    1722    1648    1649    1650    1644
       8    1729    1730    1727    1726    1651    1652    1649    1648
       8    1723    1729    1726    1722    1645    1651    1648    1644
       8    1731    1732    1724    1733    1653    1654    1646    1655
       8    1734    1735    1732    1731    1656    1657    1654    1653
       8    1736    1737    1735    1734    1658    1659    1657    1656
       8    1738    1736    1734    1739    1660    1658    1656    1661
       8    1740    1725    1724    1732    1662    1647    1646    1654
       8    1731    1741    1739    1734    1653    1663    1661    1656
       8    1716    1719    1733    1724    1638    1641    1655    1646
       8    1742    1729    1723    1725    1664    1651    1645    1647
       8    1743    1742    1725    1740    1665    1664    1647    1662
       8    1744    1743    1740    1745    1666    1665    1662    1667
       8    1735    1745    1740    1732    1657    1667    1662    1654
       8    1746    1747    1741    1731    1668    1669    1663    1653
       8    1748    1746    1731    1733    1670    1668    1653    1655
       8    1749    1748    1733    1719    1671    1670    1655    1641
       8    1750    1720    1718    1751    1672    1642    1640    1673
       8    1752    1751    1718    1717    1674    1673    1640    1639
       8    1728    1752    1717    1722    1650    1674    1639    1644
       8    1753    1730    1729    1742    1675    1652    1651    1664
       8    1754    1753    1742    1743    1676    1675    1664    1665
       8    1755    1754    1743    1744    1677    1676    1665    1666
       8    1756    1755    1744    1757    1678    1677    1666    1679
       8    1758    1757    1744    1745    1680    1679    1666    1667
       8    1737    1758    1745    1735    1659    1680    1667    1657
       8    1759    1738    1739    1741    1681    1660    1661    1663
       8    1760    1759    1741    1747    1682    1681    1663    1669
       8    1761    1760    1747    1762    1683    1682    1669    1684
       8    1763    1762    1747    1746    1685    1684    1669    1668
       8    1764    1763    1746    1748    1686    1685    1668    1670
       8    1765    1764    1748    1749    1687    1686    1670    1671
       8    1766    1765    1749    1767    1688    1687    1671    1689
       8    1721    1767    1749    1719    1643    1689    1671    1641
       8    1768    1769    1720    1750    1690    1691    1642    1672
       8    1770    1768    1750    1751    1692    1690    1672    1673
       8    1771    1770    1751    1752    1693    1692    1673    1674
       8    1772    1771    1752    1728    1694    1693    1674    1650
       8    1773    1772    1728    1727    1695    1694    1650    1649
       8    1774    1773    1727    1730    1696    1695    1649    1652
       8    1775    1774    1730    1753    1697    1696    1652    1675
       8    1776    1775    1753    1754    1698    1697    1675    1676
       8    1777    1776    1754    1755    1699    1698    1676    1677
       8    1778    1777    1755    1756    1700    1699    1677    1678
       8    1779    1778    1756    1757    1701    1700    1678    1679
       8    1780    1779    1757    1758    1702    1701    1679    1680
       8    1781    1780    1758    1737    1703    1702    1680    1659
       8    1782    1781    1737    1736    1704    1703    1659    1658
       8    1783    1782    1736    1738    1705    1704    1658    1660
       8    1784    1783    1738    1759    1706    1705    1660    1681
       8    1785    1784    1759    1760    1707    1706    1681    1682
       8    1786    1785    1760    1761    1708    1707    1682    1683
       8    1787    1786    1761    1762    1709    1708    1683    1684
       8    1788    1787    1762    1763    1710    1709    1684    1685
       8    1789    1788    1763    1764    1711    1710    1685    1686
       8    1790    1789    1764    1765    1712    1711    1686    1687
       8    1791    1790    1765    1766    1713    1712    1687    1688
       8    1792    1791    1766    1767    1714    1713    1688    1689
       8    1793    1792    1767    1721    1715    1714    1689    1643
       8    1769    1793    1721    1720    1691    1715    1643    1642
       8    1794    1795    1796    1797    1716    1717    1718    1719
       8    1796    1798    1799    1797    1718    1720    1721    1719
       8    1800    1795    1794    1801    1722    1717    1716    1723
       8    1794    1802    1803    1801    1716    1724    1725    1723
       8    1804    1805    1806    1800    1726    1727    1728    1722
       8    1807    1808    1805    1804    1729    1730    1727    1726
       8    1801    1807    1804    1800    1723    1729    1726    1722
       8    1809    1810    1802    1811    1731    1732    1724    1733
       8    1812    1813    1810    1809    1734    1735    1732    1731
       8    1814    1815    1813    1812    1736    1737    1735    1734
       8    1816    1814    1812    1817    1738    1736    1734    1739
       8    1818    1803    1802    1810    1740    1725    1724    1732
       8    1809    1819    1817    1812    1731    1741    1739    1734
       8    1794    1797    1811    1802    1716    1719    1733    1724
       8    1820    1807    1801    1803    1742    1729    1723    1725
       8    1821    1820    1803    1818    1743    1742    1725    1740
       8    1822    1821    1818    1823    1744    1743    1740    1745
       8    1813    1823    1818    1810    1735    1745    1740    1732
       8    1824    1825    1819    1809    1746    1747    1741    1731
       8    1826    1824    1809    1811    1748    1746    1731    1733
       8    1827    1826    1811    1797    1749    1748    1733    1719
       8    1828    1798    1796    1829    1750    1720    1718    1751
       8    1830    1829    1796    1795    1752    1751    1718    1717
       8    1806    1830    1795    1800    1728    1752    1717    1722
       8    1831    1808    1807    1820    1753    1730    1729    1742
       8    1832    1831    1820    1821    1754    1753    1742    1743
       8    1833    1832    1821    1822    1755    1754    1743    1744
       8    1834    1833    1822    1835    1756    1755    1744    1757
       8    1836    1835    1822    1823    1758    1757    1744    1745
       8    1815    1836    1823    1813    1737    1758    1745    1735
       8    1837    1816    1817    1819    1759    1738    1739    1741
       8    1838    1837    1819    1825    1760    1759    1741    1747
       8    1839    1838    1825    1840    1761    1760    1747    1762
       8    1841    1840    1825    1824    1763    1762    1747    1746
       8    1842    1841    1824    1826    1764    1763    1746    1748
       8    1843    1842    1826    1827    1765    1764    1748    1749
       8    1844    1843    1827    1845    1766    1765    1749    1767
       8    1799    1845    1827    1797    1721    1767    1749    1719
       8    1846    1847    1798    1828    1768    1769    1720    1750
       8    1848    1846    1828    1829    1770    1768    1750    1751
       8    1849    1848    1829    1830    1771    1770    1751    1752
       8    1850    1849    1830    1806    1772    1771    1752    1728
       8    1851    1850    1806    1805    1773    1772    1728    1727
       8    1852    1851    1805    1808    1774    1773    1727    1730
       8    1853    1852    1808    1831    1775    1774    1730    1753
       8    1854    1853    1831    1832    1776    1775    1753    1754
       8    1855    1854    1832    1833    1777    1776    1754    1755
       8    1856    1855    1833    1834    1778    1777    1755    1756
       8    1857    1856    1834    1835    1779    1778    1756    1757
       8    1858    1857    1835    1836    1780    1779    1757    1758
       8    1859    1858    1836    1815    1781    1780    1758    1737
       8    1860    1859    1815    1814    1782    1781    1737    1736
       8    1861    1860    1814    1816    1783    1782    1736    1738
       8    1862    1861    1816    1837    1784    1783    1738    1759
       8    1863    1862    1837    1838    1785    1784    1759    1760
       8    1864    1863    1838    1839    1786    1785    1760    1761
       8    1865    1864    1839    1840    1787    1786    1761    1762
       8    1866    1865    1840    1841    1788    1787    1762    1763
       8    1867    1866    1841    1842    1789    1788    1763    1764
       8    1868    1867    1842    1843    1790    1789    1764    1765
       8    1869    1868    1843    1844    1791    1790    1765    1766
       8    1870    1869    1844    1845    1792    1791    1766    1767
       8    1871    1870    1845    1799    1793    1792    1767    1721
       8    1847    1871    1799    1798    1769    1793    1721    1720
       8    1872    1873    1874    1875    1794    1795    1796    1797
       8    1874    1876    1877    1875    1796    1798    1799    1797
       8    1878    1873    1872    1879    1800    1795    1794    1801
       8    1872    1880    1881    1879    1794    1802    1803    1801
       8    1882    1883    1884    1878    1804    1805    1806    1800
       8    1885    1886    1883    1882    1807    1808    1805    1804
       8    1879    1885    1882    1878    1801    1807    1804    1800
       8    1887    1888    1880    1889    1809    1810    1802    1811
       8    1890    1891    1888    1887    1812    1813    1810    1809
       8    1892    1893    1891    1890    1814    1815    1813    1812
       8    1894    1892    1890    1895    1816    1814    1812    1817
       8    1896    1881    1880    1888    1818    1803    1802    1810
       8    1887    1897    1895    1890    1809    1819    1817    1812
       8    1872    1875    1889    1880    1794    1797    1811    1802
       8    1898    1885    1879    1881    1820    1807    1801    1803
       8    1899    1898    1881    1896    1821    1820    1803    1818
       8    1900    1899    1896    1901    1822    1821    1818    1823
       8    1891    1901    1896    1888    1813    1823    1818    1810
       8    1902    1903    1897    1887    1824    1825    1819    1809
       8    1904    1902    1887    1889    1826    1824    1809    1811
       8    1905    1904    1889    1875    1827    1826    1811    1797
       8    1906    1876    1874    1907    1828    1798    1796    1829
       8    1908    1907    1874    1873    1830    1829    1796    1795
       8    1884    1908    1873    1878    1806    1830    1795    1800
       8    1909    1886    1885    1898    1831    1808    1807    1820
       8    1910    1909    1898    1899    1832    1831    1820    1821
       8    1911    1910    1899    1900    1833    1832    1821    1822
       8    1912    1911    1900    1913    1834    1833    1822    1835
       8    1914    1913    1900    1901    1836    1835    1822    1823
       8    1893    1914    1901    1891    1815    1836    1823    1813
       8    1915    1894    1895    1897    1837    1816    1817    1819
       8    1916    1915    1897    1903    1838    1837    1819    1825
       8    1917    1916    1903    1918    1839    1838    1825    1840
       8    1919    1918    1903    1902    1841    1840    1825    1824
       8    1920    1919    1902    1904    1842    1841    1824    1826
       8    1921    1920    1904    1905    1843    1842    1826    1827
       8    1922    1921    1905    1923    1844    1843    1827    1845
       8    1877    1923    1905    1875    1799    1845    1827    1797
       8    1924    1925    1876    1906    1846    1847    1798    1828
       8    1926    1924    1906    1907    1848    1846    1828    1829
       8    1927    1926    1907    1908    1849    1848    1829    1830
       8    1928    1927    1908    1884    1850    1849    1830    1806
       8    1929    1928    1884    1883    1851    1850    1806    1805
       8    1930    1929    1883    1886    1852    1851    1805    1808
       8    1931    1930    1886    1909    1853    1852    1808    1831
       8    1932    1931    1909    1910    1854    1853    1831    1832
       8    1933    1932    1910    1911    1855    1854    1832    1833
       8    1934    1933    1911    1912    1856    1855    1833    1834
       8    1935    1934    1912    1913    1857    1856    1834    1835
       8    1936    1935    1913    1914    1858    1857    1835    1836
       8    1937    1936    1914    1893    1859    1858    1836    1815
       8    1938    1937    1893    1892    1860    1859    1815    1814
       8    1939    1938    1892    1894    1861    1860    1814    1816
       8    1940    1939    1894    1915    1862    1861    1816    1837
       8    1941    1940    1915    1916    1863    1862    1837    1838
       8    1942    1941    1916    1917    1864    1863    1838    1839
       8    1943    1942    1917    1918    1865    1864    1839    1840
       8    1944    1943    1918    1919    1866    1865    1840    1841
       8    1945    1944    1919    1920    1867    1866    1841    1842
       8    1946    1945    1920    1921    1868    1867    1842    1843
       8    1947    1946    1921    1922    1869    1868    1843    1844
       8    1948    1947    1922    1923    1870    1869    1844    1845
       8    1949    1948    1923    1877    1871    1870    1845    1799
       8    1925    1949    1877    1876    1847    1871    1799    1798
  
CELL_TYPES    3486
       1
       1
       1
       1
       1
       1
       1
       1
       1
       1
       1
       1
       1
       1
       1
       1
       1
       1
       1
       1
       1
       1
       1
       1
       1
       1
       1
       1
       1
       1
       1
       1
       1
       1
       1
       1
       1
       1
       1
       1
       1
       1
       1
       1
       1
       1
       1
       1
       1
       1
       1
       1
       1
       1
       1
       1
       1
       1
       1
       1
       1
       1
       1
       1
       1
       1
       1
       1
       1
       1
       1
       1
       1
       1
       1
       1
       1
       1
       1
       1
       1
       1
       1
       1
       1
       1
       1
       1
       1
       1
       1
       1
       1
       1
       1
       1
       1
       1
       1
       1
       1
       1
       1
       1
       1
       1
       1
       1
       1
       1
       1
       1
       1
       1
       1
       1
       1
       1
       1
       1
       1
       1
       1
       1
       1
       1
       1
       1
       1
       1
       1
       1
       1
       1
       1
       1
       1
       1
       1
       1
       1
       1
       1
       1
       1
       1
       1
       1
       1
       1
       1
       1
       1
       1
       1
       1
       1
       1
       1
       1
       1
       1
       1
       1
       1
       1
       1
       1
       1
       1
       1
       1
       1
       1
       1
       1
       1
       1
       1
       1
       1
       1
       1
       1
       1
       1
       1
       1
       1
       1
       1
       1
       1
       1
       1
       1
       1
       1
       1
       1
       1
       1
       1
       1
       1
       1
       1
       1
       1
       1
       1
       1
       1
       1
       1
       1
       1
       1
       1
       1
       1
       1
       1
       1
       1
       1
       1
       1
       1
       1
       1
       1
       1
       1
       1
       1
       1
       1
       1
       1
       1
       1
       1
       1
       1
       1
       1
       1
       1
       1
       1
       1
       1
       1
       1
       1
       1
       1
       1
       1
       1
       1
       1
       1
       1
       1
       1
       1
       1
       1
       1
       1
       1
       1
       1
       1
       1
       1
       1
       1
       1
       1
       1
       1
       1
       1
       1
       1
       1
       1
       1
       1
       1
       1
       1
       1
       1
       1
       1
       1
       1
       1
       1
       1
       1
       1
       1
       1
       1
       1
       1
       1
       1
       1
       1
       1
       1
       1
       1
       1
       1
       1
       1
       1
       1
       1
       1
       1
       1
       1
       1
       1
       1
       1
       1
       1
       1
       1
       1
       1
       1
       1
       1
       1
       1
       1
       1
       1
       1
       1
       1
       1
       1
       1
       1
       1
       1
       1
       1
       1
       1
       1
       1
       1
       1
       1
       1
       1
       1
       1
       1
       1
       1
       1
       1
       1
       1
       1
       1
       1
       1
       1
       1
       1
       1
       1
       1
       1
       1
       1
       1
       1
       1
       1
       1
       1
       1
       1
       1
       1
       1
       1
       1
       1
       1
       1
       1
       1
       1
       1
       1
       1
       1
       1
       1
       1
       1
       1
       1
       1
       1
       1
       1
       1
       1
       1
       1
       1
       1
       1
       1
       1
       1
       1
       1
       1
       1
       1
       1
       1
       1
       1
       1
       1
       1
       1
       1
       1
       1
       1
       1
       1
       1
       1
       1
       1
       1
       1
       1
       1
       1
       1
       1
       1
       1
       1
       1
       1
       1
       1
       1
       1
       1
       1
       1
       1
       1
       1
       1
       1
       1
       1
       1
       1
       1
       1
       1
       1
       1
       1
       1
       1
       1
       1
       1
       1
       1
       1
       1
       1
       1
       1
       1
       1
       1
       1
       1
       1
       1
       1
       1
       1
       1
       1
       1
       1
       1
       1
       1
       1
       1
       1
       1
       1
       1
       1
       1
       1
       1
       1
       1
       1
       1
       1
       1
       1
       1
       1
       1
       1
       1
       1
       1
       1
       1
       1
       1
       1
       1
       1
       1
       1
       1
       1
       1
       1
       1
       1
       1
       1
       1
       1
       1
       1
       1
       1
       1
       1
       1
       1
       1
       1
       1
       1
       1
       1
       1
       1
       1
       1
       1
       1
       1
       1
       1
       1
       1
       1
       1
       1
       1
       1
       1
       1
       1
       1
       1
       1
       1
       1
       1
       1
       1
       1
       1
       1
       1
       1
       1
       1
       1
       1
       1
       1
       1
       1
       1
       1
       1
       1
       1
       1
       1
       1
       1
       1
       1
       1
       1
       1
       1
       1
       1
       1
       1
       1
       1
       1
       1
       1
       1
       1
       1
       1
       1
       1
       1
       1
       1
       1
       1
       1
       1
       1
       1
       1
       1
       1
       1
       1
       1
       1
       1
       1
       1
       1
       1
       1
       1
       1
       1
       1
       1
       1
       1
       1
       1
       1
       1
       1
       1
       1
       1
       1
       1
       1
       1
       1
       1
       1
       1
       1
       1
       1
       1
       1
       1
       1
       1
       1
       1
       1
       1
       1
       1
       1
       1
       1
       1
       1
       1
       1
       1
       1
       1
       1
       1
       1
       1
       1
       1
       1
       1
       1
       1
       1
       1
       1
       1
       1
       1
       1
       1
       1
       1
       1
       1
       1
       1
       1
       1
       1
       1
       1
       1
       1
       1
       1
       1
       1
       1
       1
       1
       1
       1
       1
       1
       1
       1
       1
       1
       1
       1
       1
       1
       1
       1
       1
       1
       1
       1
       1
       1
       1
       1
       1
       1
       1
       1
       1
       1
       1
       1
       1
       1
       1
       1
       1
       1
       1
       1
       1
       1
       1
       1
       1
       1
       1
       1
       1
       1
       1
       1
       1
       1
       1
       1
       1
       1
       1
       1
       1
       1
       1
       1
       1
       1
       1
       1
       1
       1
       1
       1
       1
       1
       1
       1
       1
       1
       1
       1
       1
       1
       1
       1
       1
       1
       1
       1
       1
       1
       1
       1
       1
       1
       1
       1
       1
       1
       1
       1
       1
       1
       1
       1
       1
       1
       1
       1
       1
       1
       1
       1
       1
       1
       1
       1
       1
       1
       1
       1
       1
       1
       1
       1
       1
       1
       1
       1
       1
       1
       1
       1
       1
       1
       1
       1
       1
       1
       1
       1
       1
       1
       1
       1
       1
       1
       1
       1
       1
       1
       1
       1
       1
       1
       1
       1
       1
       1
       1
       1
       1
       1
       1
       1
       1
       1
       1
       1
       1
       1
       1
       1
       1
       1
       1
       1
       1
       1
       1
       1
       1
       1
       1
       1
       1
       1
       1
       1
       1
       1
       1
       1
       1
       1
       1
       1
       1
       1
       1
       1
       1
       1
       1
       1
       1
       1
       1
       1
       1
       1
       1
       1
       1
       1
       1
       1
       1
       1
       1
       1
       1
       1
       1
       1
       1
       1
       1
       1
       1
       1
       1
       1
       1
       1
       1
       1
       1
       1
       1
       1
       1
       1
       1
       1
       1
       1
       1
       1
       1
       1
       1
       1
       1
       1
       1
       1
       1
       1
       1
       1
       1
       1
       1
       1
       1
       1
       1
       1
       1
       1
       1
       1
       1
       1
       1
       1
       1
       1
       1
       1
       1
       1
       1
       1
       1
       1
       1
       1
       1
       1
       1
       1
       1
       1
       1
       1
       1
       1
       1
       1
       1
       1
       1
       1
       1
       1
       1
       1
       1
       1
       1
       1
       1
       1
       1
       1
       1
       1
       1
       1
       1
       1
       1
       1
       1
       1
       1
       1
       1
       1
       1
       1
       1
       1
       1
       1
       1
       1
       1
       1
       1
       1
       1
       1
       1
       1
       1
       1
       1
       1
       1
       1
       1
       1
       1
       1
       1
       1
       1
       1
       1
       1
       1
       1
       1
       1
       1
       1
       1
       1
       1
       1
       1
       1
       1
       1
       1
       1
       1
       1
       1
       1
       1
       1
       1
       1
       1
       1
       1
       1
       1
       1
       1
       1
       1
       1
       1
       1
       1
       1
       1
       1
       1
       1
       1
       1
       1
       1
       1
       1
       1
       1
       1
       1
       1
       1
       1
       1
       1
       1
       1
       1
       1
       1
       1
       1
       1
       1
       1
       1
       1
       1
       1
       1
       1
       1
       1
       1
       1
       1
       1
       1
       1
       1
       1
       1
       1
       1
       1
       1
       1
       1
       1
       1
       1
       1
       1
       1
       1
       1
       1
       1
       1
       1
       1
       1
       1
       1
       1
       1
       1
       1
       1
       1
       1
       1
       1
       1
       1
       1
       1
       1
       1
       1
       1
       1
       1
       1
       1
       1
       1
       1
       1
       1
       1
       1
       1
       1
       1
       1
       1
       1
       1
       1
       1
       1
       1
       1
       1
       1
       1
       1
       1
       1
       1
       1
       1
       1
       1
       1
       1
       1
       1
       1
       1
       1
       1
       1
       1
       1
       1
       1
       1
       1
       1
       1
       1
       1
       1
       1
       1
       1
       1
       1
       1
       1
       1
       1
       1
       1
       1
       1
       1
       1
       1
       1
       1
       1
       1
       1
       1
       1
       1
       1
       1
       1
       1
       1
       1
       1
       1
       1
       1
       1
       1
       1
       1
       1
       1
       1
       1
       1
       1
       1
       1
       1
       1
       1
       1
       1
       1
       1
       1
       1
       1
       1
       1
       1
       1
       1
       1
       1
       1
       1
       1
       1
       1
       1
       1
       1
       1
       1
       1
       1
       1
       1
       1
       1
       1
       1
       1
       1
       1
       1
       1
       1
       1
       1
       1
       1
       1
       1
       1
       1
       1
       1
       1
       1
       1
       1
       1
       1
       1
       1
       1
       1
       1
       1
       1
       1
       1
       1
       1
       1
       1
       1
       1
       1
       1
       1
       1
       1
       1
       1
       1
       1
       1
       1
       1
       1
       1
       1
       1
       1
       1
       1
       1
       1
       1
       1
       1
       1
       1
       1
       1
       1
       1
       1
       1
       1
       1
       1
       1
       1
       1
       1
       1
       1
       1
       1
       1
       1
       1
       1
       1
       1
       1
       1
       1
       1
       1
       1
       1
       1
       1
       1
       1
       1
       1
       1
       1
       1
       1
       1
       1
       1
       1
       1
       1
       1
       1
       1
       1
       1
       1
       1
       1
       1
       1
       1
       1
       1
       1
       1
       1
       1
       1
       1
       1
       1
       1
       1
       1
       1
       1
       1
       1
       1
       1
       1
       1
       1
       1
       1
       1
       1
       1
       1
       1
       1
       1
       1
       1
       1
       1
       1
       1
       1
       1
       1
       1
       1
       1
       1
       1
       1
       1
       1
       1
       1
       1
       1
       1
       1
       1
       1
       1
       1
       1
       1
       1
       1
       1
       1
       1
       1
       1
       1
       1
       1
       1
       1
       1
       1
       1
       1
       1
       1
       1
       1
       1
       1
       1
       1
       1
       1
       1
       1
       1
       1
       1
       1
       1
       1
       1
       1
       1
       1
       1
       1
       1
       1
       1
       1
       1
       1
       1
       1
       1
       1
       1
       1
       1
       1
       1
       1
       1
       1
       1
       1
       1
       1
       1
       1
       1
       1
       1
       1
       1
       1
       1
       1
       1
       1
       1
       1
       1
       1
       1
       1
       1
       1
       1
       1
       1
       1
       1
       1
       1
       1
       1
       1
       1
       1
       1
       1
       1
       1
       1
       1
       1
       1
       1
       1
       1
       1
       1
       1
       1
       1
       1
       1
       1
       1
       1
       1
       1
       1
       1
       1
       1
       1
       1
       1
       1
       1
       1
       1
       1
       1
       1
       1
       1
       1
       1
       1
       1
       1
       1
       1
       1
       1
       1
       1
       1
       1
       1
       1
       1
       1
       1
       1
       1
       1
       1
       1
       1
       1
       1
       1
       1
       1
       1
       1
       1
       1
       1
       1
       1
       1
       1
       1
       1
       1
       1
       1
       1
       1
       1
       1
       1
       1
       1
       1
       1
       1
       1
       1
       1
       1
       1
       1
       1
       1
       1
       1
       1
       1
       1
       1
       1
       1
       1
       1
       1
       1
       1
       1
       1
       1
       1
       1
       1
       1
       1
       1
       1
       1
       1
       1
       1
       1
       1
       1
       1
       1
       1
       1
       1
       1
       1
       1
       1
       1
       1
       1
       1
       1
       1
       1
       1
       1
       1
       1
       1
       1
       1
       1
       1
       1
       1
       1
       1
       1
       1
       1
       1
       1
       1
       1
       1
       1
       1
       1
       1
       1
       1
       1
       1
       1
       1
       1
       1
       1
       1
       1
       1
       1
       1
       1
       1
       1
       1
       1
       1
       1
       1
       1
       1
       1
       1
       1
       1
       1
       1
       1
       1
       1
       1
       1
       1
       1
       1
       1
       1
       1
       1
       1
       1
       1
       1
       1
       1
       1
       1
       1
       1
       1
       1
       1
       1
       1
       1
       1
       1
       1
       1
       1
       1
       1
       1
       1
       1
       1
       1
       1
       1
       1
       1
       1
       1
       1
       1
       1
       1
       1
       1
       1
       1
       1
       1
       1
       1
       1
       1
       1
       1
       1
       1
       1
       1
       1
       1
       1
       1
       1
       1
       1
       1
       1
       1
       1
       1
       1
       1
       1
       1
       1
       1
       1
       1
       1
       1
       1
       1
       1
       1
       1
       1
       1
       1
       1
       1
       1
       1
       1
       1
       1
       1
      12
      12
      12
      12
      12
      12
      12
      12
      12
      12
      12
      12
      12
      12
      12
      12
      12
      12
      12
      12
      12
      12
      12
      12
      12
      12
      12
      12
      12
      12
      12
      12
      12
      12
      12
      12
      12
      12
      12
      12
      12
      12
      12
      12
      12
      12
      12
      12
      12
      12
      12
      12
      12
      12
      12
      12
      12
      12
      12
      12
      12
      12
      12
      12
      12
      12
      12
      12
      12
      12
      12
      12
      12
      12
      12
      12
      12
      12
      12
      12
      12
      12
      12
      12
      12
      12
      12
      12
      12
      12
      12
      12
      12
      12
      12
      12
      12
      12
      12
      12
      12
      12
      12
      12
      12
      12
      12
      12
      12
      12
      12
      12
      12
      12
      12
      12
      12
      12
      12
      12
      12
      12
      12
      12
      12
      12
      12
      12
      12
      12
      12
      12
      12
      12
      12
      12
      12
      12
      12
      12
      12
      12
      12
      12
      12
      12
      12
      12
      12
      12
      12
      12
      12
      12
      12
      12
      12
      12
      12
      12
      12
      12
      12
      12
      12
      12
      12
      12
      12
      12
      12
      12
      12
      12
      12
      12
      12
      12
      12
      12
      12
      12
      12
      12
      12
      12
      12
      12
      12
      12
      12
      12
      12
      12
      12
      12
      12
      12
      12
      12
      12
      12
      12
      12
      12
      12
      12
      12
      12
      12
      12
      12
      12
      12
      12
      12
      12
      12
      12
      12
      12
      12
      12
      12
      12
      12
      12
      12
      12
      12
      12
      12
      12
      12
      12
      12
      12
      12
      12
      12
      12
      12
      12
      12
      12
      12
      12
      12
      12
      12
      12
      12
      12
      12
      12
      12
      12
      12
      12
      12
      12
      12
      12
      12
      12
      12
      12
      12
      12
      12
      12
      12
      12
      12
      12
      12
      12
      12
      12
      12
      12
      12
      12
      12
      12
      12
      12
      12
      12
      12
      12
      12
      12
      12
      12
      12
      12
      12
      12
      12
      12
      12
      12
      12
      12
      12
      12
      12
      12
      12
      12
      12
      12
      12
      12
      12
      12
      12
      12
      12
      12
      12
      12
      12
      12
      12
      12
      12
      12
      12
      12
      12
      12
      12
      12
      12
      12
      12
      12
      12
      12
      12
      12
      12
      12
      12
      12
      12
      12
      12
      12
      12
      12
      12
      12
      12
      12
      12
      12
      12
      12
      12
      12
      12
      12
      12
      12
      12
      12
      12
      12
      12
      12
      12
      12
      12
      12
      12
      12
      12
      12
      12
      12
      12
      12
      12
      12
      12
      12
      12
      12
      12
      12
      12
      12
      12
      12
      12
      12
      12
      12
      12
      12
      12
      12
      12
      12
      12
      12
      12
      12
      12
      12
      12
      12
      12
      12
      12
      12
      12
      12
      12
      12
      12
      12
      12
      12
      12
      12
      12
      12
      12
      12
      12
      12
      12
      12
      12
      12
      12
      12
      12
      12
      12
      12
      12
      12
      12
      12
      12
      12
      12
      12
      12
      12
      12
      12
      12
      12
      12
      12
      12
      12
      12
      12
      12
      12
      12
      12
      12
      12
      12
      12
      12
      12
      12
      12
      12
      12
      12
      12
      12
      12
      12
      12
      12
      12
      12
      12
      12
      12
      12
      12
      12
      12
      12
      12
      12
      12
      12
      12
      12
      12
      12
      12
      12
      12
      12
      12
      12
      12
      12
      12
      12
      12
      12
      12
      12
      12
      12
      12
      12
      12
      12
      12
      12
      12
      12
      12
      12
      12
      12
      12
      12
      12
      12
      12
      12
      12
      12
      12
      12
      12
      12
      12
      12
      12
      12
      12
      12
      12
      12
      12
      12
      12
      12
      12
      12
      12
      12
      12
      12
      12
      12
      12
      12
      12
      12
      12
      12
      12
      12
      12
      12
      12
      12
      12
      12
      12
      12
      12
      12
      12
      12
      12
      12
      12
      12
      12
      12
      12
      12
      12
      12
      12
      12
      12
      12
      12
      12
      12
      12
      12
      12
      12
      12
      12
      12
      12
      12
      12
      12
      12
      12
      12
      12
      12
      12
      12
      12
      12
      12
      12
      12
      12
      12
      12
      12
      12
      12
      12
      12
      12
      12
      12
      12
      12
      12
      12
      12
      12
      12
      12
      12
      12
      12
      12
      12
      12
      12
      12
      12
      12
      12
      12
      12
      12
      12
      12
      12
      12
      12
      12
      12
      12
      12
      12
      12
      12
      12
      12
      12
      12
      12
      12
      12
      12
      12
      12
      12
      12
      12
      12
      12
      12
      12
      12
      12
      12
      12
      12
      12
      12
      12
      12
      12
      12
      12
      12
      12
      12
      12
      12
      12
      12
      12
      12
      12
      12
      12
      12
      12
      12
      12
      12
      12
      12
      12
      12
      12
      12
      12
      12
      12
      12
      12
      12
      12
      12
      12
      12
      12
      12
      12
      12
      12
      12
      12
      12
      12
      12
      12
      12
      12
      12
      12
      12
      12
      12
      12
      12
      12
      12
      12
      12
      12
      12
      12
      12
      12
      12
      12
      12
      12
      12
      12
      12
      12
      12
      12
      12
      12
      12
      12
      12
      12
      12
      12
      12
      12
      12
      12
      12
      12
      12
      12
      12
      12
      12
      12
      12
      12
      12
      12
      12
      12
      12
      12
      12
      12
      12
      12
      12
      12
      12
      12
      12
      12
      12
      12
      12
      12
      12
      12
      12
      12
      12
      12
      12
      12
      12
      12
      12
      12
      12
      12
      12
      12
      12
      12
      12
      12
      12
      12
      12
      12
      12
      12
      12
      12
      12
      12
      12
      12
      12
      12
      12
      12
      12
      12
      12
      12
      12
      12
      12
      12
      12
      12
      12
      12
      12
      12
      12
      12
      12
      12
      12
      12
      12
      12
      12
      12
      12
      12
      12
      12
      12
      12
      12
      12
      12
      12
      12
      12
      12
      12
      12
      12
      12
      12
      12
      12
      12
      12
      12
      12
      12
      12
      12
      12
      12
      12
      12
      12
      12
      12
      12
      12
      12
      12
      12
      12
      12
      12
      12
      12
      12
      12
      12
      12
      12
      12
      12
      12
      12
      12
      12
      12
      12
      12
      12
      12
      12
      12
      12
      12
      12
      12
      12
      12
      12
      12
      12
      12
      12
      12
      12
      12
      12
      12
      12
      12
      12
      12
      12
      12
      12
      12
      12
      12
      12
      12
      12
      12
      12
      12
      12
      12
      12
      12
      12
      12
      12
      12
      12
      12
      12
      12
      12
      12
      12
      12
      12
      12
      12
      12
      12
      12
      12
      12
      12
      12
      12
      12
      12
      12
      12
      12
      12
      12
      12
      12
      12
      12
      12
      12
      12
      12
      12
      12
      12
      12
      12
      12
      12
      12
      12
      12
      12
      12
      12
      12
      12
      12
      12
      12
      12
      12
      12
      12
      12
      12
      12
      12
      12
      12
      12
      12
      12
      12
      12
      12
      12
      12
      12
      12
      12
      12
      12
      12
      12
      12
      12
      12
      12
      12
      12
      12
      12
      12
      12
      12
      12
      12
      12
      12
      12
      12
      12
      12
      12
      12
      12
      12
      12
      12
      12
      12
      12
      12
      12
      12
      12
      12
      12
      12
      12
      12
      12
      12
      12
      12
      12
      12
      12
      12
      12
      12
      12
      12
      12
      12
      12
      12
      12
      12
      12
      12
      12
      12
      12
      12
      12
      12
      12
      12
      12
      12
      12
      12
      12
      12
      12
      12
      12
      12
      12
      12
      12
      12
      12
      12
      12
      12
      12
      12
      12
      12
      12
      12
      12
      12
      12
      12
      12
      12
      12
      12
      12
      12
      12
      12
      12
      12
      12
      12
      12
      12
      12
      12
      12
      12
      12
      12
      12
      12
      12
      12
      12
      12
      12
      12
      12
      12
      12
      12
      12
      12
      12
      12
      12
      12
      12
      12
      12
      12
      12
      12
      12
      12
      12
      12
      12
      12
      12
      12
      12
      12
      12
      12
      12
      12
      12
      12
      12
      12
      12
      12
      12
      12
      12
      12
      12
      12
      12
      12
      12
      12
      12
      12
      12
      12
      12
      12
      12
      12
      12
      12
      12
      12
      12
      12
      12
      12
      12
      12
      12
      12
      12
      12
      12
      12
      12
      12
      12
      12
      12
      12
      12
      12
      12
      12
      12
      12
      12
      12
      12
      12
      12
      12
      12
      12
      12
      12
      12
      12
      12
      12
      12
      12
      12
      12
      12
      12
      12
      12
      12
      12
      12
      12
      12
      12
      12
      12
      12
      12
      12
      12
      12
      12
      12
      12
      12
      12
      12
      12
      12
      12
      12
      12
      12
      12
      12
      12
      12
      12
      12
      12
      12
      12
      12
      12
      12
      12
      12
      12
      12
      12
      12
      12
      12
      12
      12
      12
      12
      12
      12
      12
      12
      12
      12
      12
      12
      12
      12
      12
      12
      12
      12
      12
      12
      12
      12
      12
      12
      12
      12
      12
      12
      12
      12
      12
      12
      12
      12
      12
      12
      12
      12
      12
      12
      12
      12
      12
      12
      12
      12
      12
      12
      12
      12
      12
      12
      12
      12
      12
      12
      12
      12
      12
      12
      12
      12
      12
      12
      12
      12
      12
      12
      12
      12
      12
      12
      12
      12
      12
      12
      12
      12
      12
      12
      12
      12
      12
      12
      12
      12
      12
      12
      12
      12
      12
      12
      12
      12
      12
      12
      12
      12
      12
      12
      12
      12
      12
      12
      12
      12
      12
      12
      12
      12
      12
      12
      12
      12
      12
      12
      12
      12
      12
      12
      12
      12
      12
      12
      12
      12
      12
      12
      12
      12
      12
      12
      12
      12
      12
      12
      12
      12
      12
      12
      12
      12
      12
      12
      12
      12
      12
      12
      12
      12
      12
      12
      12
      12
      12
      12
      12
      12
      12
      12
      12
      12
      12
      12
      12
      12
      12
      12
      12
      12
      12
      12
      12
      12
      12
      12
      12
      12
      12
      12
      12
      12
      12
      12
      12
      12
      12
      12
      12
      12
      12
      12
      12
      12
      12
      12
      12
      12
      12
      12
      12
      12
      12
      12
      12
      12
      12
      12
      12
      12
      12
      12
      12
      12
      12
  
  
POINT_DATA       1950
  
SCALARS                  material_type  double 1
LOOKUP_TABLE default
                   2
                   2
                   2
                   2
                   2
                   2
                   2
                   2
                   2
                   2
                   2
                   2
                   2
                   2
                   2
                   2
                   2
                   2
                   2
                   2
                   2
                   2
                   2
                   2
                   2
                   2
                   2
                   2
                   2
                   2
                   2
                   2
                   2
                   2
                   2
                   2
                   2
                   2
                   2
                   2
                   2
                   2
                   2
                   2
                   2
                   2
                   2
                   2
                   2
                   2
                   2
                   2
                   2
                   2
                   2
                   2
                   2
                   2
                   2
                   2
                   2
                   2
                   2
                   2
                   2
                   2
                   2
                   2
                   2
                   2
                   2
                   2
                   2
                   2
                   2
                   2
                   2
                   2
                   2
                   2
                   2
                   2
                   2
                   2
                   2
                   2
                   2
                   2
                   2
                   2
                   2
                   2
                   2
                   2
                   2
                   2
                   2
                   2
                   2
                   2
                   2
                   2
                   2
                   2
                   2
                   2
                   2
                   2
                   2
                   2
                   2
                   2
                   2
                   2
                   2
                   2
                   2
                   2
                   2
                   2
                   2
                   2
                   2
                   2
                   2
                   2
                   2
                   2
                   2
                   2
                   2
                   2
                   2
                   2
                   2
                   2
                   2
                   2
                   2
                   2
                   2
                   2
                   2
                   2
                   2
                   2
                   2
                   2
                   2
                   2
                   2
                   2
                   2
                   2
                   2
                   2
                   2
                   2
                   2
                   2
                   2
                   2
                   2
                   2
                   2
                   2
                   2
                   2
                   2
                   2
                   2
                   2
                   2
                   2
                   2
                   2
                   2
                   2
                   2
                   2
                   2
                   2
                   2
                   2
                   2
                   2
                   2
                   2
                   2
                   2
                   2
                   2
                   2
                   2
                   2
                   2
                   2
                   2
                   2
                   2
                   2
                   2
                   2
                   2
                   2
                   2
                   2
                   2
                   2
                   2
                   2
                   2
                   2
                   2
                   2
                   2
                   2
                   2
                   2
                   2
                   2
                   2
                   2
                   2
                   2
                   2
                   2
                   2
                   2
                   2
                   2
                   2
                   2
                   2
                   2
                   2
                   2
                   2
                   2
                   2
                   2
                   2
                   2
                   2
                   2
                   2
                   2
                   2
                   2
                   2
                   2
                   2
                   2
                   2
                   2
                   2
                   2
                   2
                   2
                   2
                   2
                   2
                   2
                   2
                   2
                   2
                   2
                   2
                   2
                   2
                   2
                   2
                   2
                   2
                   2
                   2
                   2
                   2
                   2
                   2
                   2
                   2
                   2
                   2
                   2
                   2
                   2
                   2
                   2
                   2
                   2
                   2
                   2
                   2
                   2
                   2
                   2
                   2
                   2
                   2
                   2
                   2
                   2
                   2
                   2
                   2
                   2
                   2
                   2
                   2
                   2
                   2
                   2
                   2
                   2
                   2
                   2
                   2
                   2
                   2
                   2
                   2
                   2
                   2
                   2
                   2
                   2
                   2
                   2
                   2
                   2
                   2
                   2
                   2
                   2
                   2
                   2
                   2
                   2
                   2
                   2
                   2
                   2
                   2
                   2
                   2
                   2
                   2
                   2
                   2
                   2
                   2
                   2
                   2
                   2
                   2
                   2
                   2
                   2
                   2
                   2
                   2
                   2
                   2
                   2
                   2
                   2
                   2
                   2
                   2
                   2
                   2
                   2
                   2
                   2
                   2
                   2
                   2
                   2
                   2
                   2
                   2
                   2
                   2
                   2
                   2
                   2
                   2
                   2
                   2
                   2
                   2
                   2
                   2
                   2
                   2
                   2
                   2
                   2
                   2
                   2
                   2
                   2
                   2
                   2
                   2
                   2
                   2
                   2
                   2
                   2
                   2
                   2
                   2
                   2
                   2
                   2
                   2
                   2
                   2
                   2
                   2
                   2
                   2
                   2
                   2
                   2
                   2
                   2
                   2
                   2
                   2
                   2
                   2
                   2
                   2
                   2
                   2
                   2
                   2
                   2
                   2
                   2
                   2
                   2
                   2
                   2
                   2
                   2
                   2
                   2
                   2
                   2
                   2
                   2
                   2
                   2
                   2
                   2
                   2
                   2
                   2
                   2
                   2
                   2
                   2
                   2
                   2
                   2
                   2
                   2
                   2
                   2
                   2
                   2
                   2
                   2
                   2
                   2
                   2
                   2
                   2
                   2
                   2
                   2
                   2
                   2
                   2
                   2
                   2
                   2
                   2
                   2
                   2
                   2
                   2
                   2
                   2
                   2
                   2
                   2
                   2
                   2
                   2
                   2
                   2
                   2
                   2
                   2
                   2
                   2
                   2
                   2
                   2
                   2
                   2
                   2
                   2
                   2
                   2
                   2
                   2
                   2
                   2
                   2
                   2
                   2
                   2
                   2
                   2
                   2
                   2
                   2
                   2
                   2
                   2
                   2
                   2
                   2
                   2
                   2
                   2
                   2
                   2
                   2
                   2
                   2
                   2
                   2
                   2
                   2
                   2
                   2
                   2
                   2
                   2
                   2
                   2
                   2
                   2
                   2
                   2
                   2
                   2
                   2
                   2
                   2
                   2
                   2
                   2
                   2
                   2
                   2
                   2
                   2
                   2
                   2
                   2
                   2
                   2
                   2
                   2
                   2
                   2
                   2
                   2
                   2
                   2
                   2
                   2
                   2
                   2
                   2
                   2
                   2
                   2
                   2
                   2
                   2
                   2
                   2
                   2
                   2
                   2
                   2
                   2
                   2
                   2
                   2
                   2
                   2
                   2
                   2
                   2
                   2
                   2
                   2
                   2
                   2
                   2
                   2
                   2
                   2
                   2
                   2
                   2
                   2
                   2
                   2
                   2
                   2
                   2
                   2
                   2
                   2
                   2
                   2
                   2
                   2
                   2
                   2
                   2
                   2
                   2
                   2
                   2
                   2
                   2
                   2
                   2
                   2
                   2
                   2
                   2
                   2
                   2
                   2
                   2
                   2
                   2
                   2
                   2
                   2
                   2
                   2
                   2
                   2
                   2
                   2
                   2
                   2
                   2
                   2
                   2
                   2
                   2
                   2
                   2
                   2
                   2
                   2
                   2
                   2
                   2
                   2
                   2
                   2
                   2
                   2
                   2
                   2
                   2
                   2
                   2
                   2
                   2
                   2
                   2
                   2
                   2
                   2
                   2
                   2
                   2
                   2
                   2
                   2
                   2
                   2
                   2
                   2
                   2
                   2
                   2
                   2
                   2
                   2
                   2
                   2
                   2
                   2
                   2
                   2
                   2
                   2
                   2
                   2
                   2
                   2
                   2
                   2
                   2
                   2
                   2
                   2
                   2
                   2
                   2
                   2
                   2
                   2
                   2
                   2
                   2
                   2
                   2
                   2
                   2
                   2
                   2
                   2
                   2
                   2
                   2
                   2
                   2
                   2
                   2
                   2
                   2
                   2
                   2
                   2
                   2
                   2
                   2
                   2
                   2
                   2
                   2
                   2
                   2
                   2
                   2
                   2
                   2
                   2
                   2
                   2
                   2
                   2
                   2
                   2
                   2
                   2
                   2
                   2
                   2
                   2
                   2
                   2
                   2
                   2
                   2
                   2
                   2
                   2
                   2
                   2
                   2
                   2
                   2
                   2
                   2
                   2
                   2
                   2
                   2
                   2
                   2
                   2
                   2
                   2
                   2
                   2
                   2
                   2
                   2
                   2
                   2
                   2
                   2
                   2
                   2
                   2
                   2
                   2
                   2
                   2
                   2
                   2
                   2
                   2
                   2
                   2
                   2
                   2
                   2
                   2
                   2
                   2
                   2
                   2
                   2
                   2
                   2
                   2
                   2
                   2
                   2
                   2
                   2
                   2
                   2
                   2
                   2
                   2
                   2
                   2
                   2
                   2
                   2
                   2
                   2
                   2
                   2
                   2
                   2
                   2
                   2
                   2
                   2
                   2
                   2
                   2
                   2
                   2
                   2
                   2
                   2
                   2
                   2
                   2
                   2
                   2
                   2
                   2
                   2
                   2
                   2
                   2
                   2
                   2
                   2
                   2
                   2
                   2
                   2
                   2
                   2
                   2
                   2
                   2
                   2
                   2
                   2
                   2
                   2
                   2
                   2
                   2
                   2
                   2
                   2
                   2
                   2
                   2
                   2
                   2
                   2
                   2
                   2
                   2
                   2
                   2
                   2
                   2
                   2
                   2
                   2
                   2
                   2
                   2
                   2
                   2
                   2
                   2
                   2
                   2
                   2
                   2
                   2
                   2
                   2
                   2
                   2
                   2
                   2
                   2
                   2
                   2
                   2
                   2
                   2
                   2
                   2
                   2
                   2
                   2
                   2
                   2
                   2
                   2
                   2
                   2
                   2
                   2
                   2
                   2
                   2
                   2
                   2
                   2
                   2
                   2
                   2
                   2
                   2
                   2
                   2
                   2
                   2
                   2
                   2
                   2
                   2
                   2
                   2
                   2
                   2
                   2
                   2
                   2
                   2
                   2
                   2
                   2
                   2
                   2
                   2
                   2
                   2
                   2
                   2
                   2
                   2
                   2
                   2
                   2
                   2
                   2
                   2
                   2
                   2
                   2
                   2
                   2
                   2
                   2
                   2
                   2
                   2
                   2
                   2
                   2
                   2
                   2
                   2
                   2
                   2
                   2
                   2
                   2
                   2
                   2
                   2
                   2
                   2
                   2
                   2
                   2
                   2
                   2
                   2
                   2
                   2
                   2
                   2
                   2
                   2
                   2
                   2
                   2
                   2
                   2
                   2
                   2
                   2
                   2
                   2
                   2
                   2
                   2
                   2
                   2
                   2
                   2
                   2
                   2
                   2
                   2
                   2
                   2
                   2
                   2
                   2
                   2
                   2
                   2
                   2
                   2
                   2
                   2
                   2
                   2
                   2
                   2
                   2
                   2
                   2
                   2
                   2
                   2
                   2
                   2
                   2
                   2
                   2
                   2
                   2
                   2
                   2
                   2
                   2
                   2
                   2
                   2
                   2
                   2
                   2
                   2
                   2
                   2
                   2
                   2
                   2
                   2
                   2
                   2
                   2
                   2
                   2
                   2
                   2
                   2
                   2
                   2
                   2
                   2
                   2
                   2
                   2
                   2
                   2
                   2
                   2
                   2
                   2
                   2
                   2
                   2
                   2
                   2
                   2
                   2
                   2
                   2
                   2
                   2
                   2
                   2
                   2
                   2
                   2
                   2
                   2
                   2
                   2
                   2
                   2
                   2
                   2
                   2
                   2
                   2
                   2
                   2
                   2
                   2
                   2
                   2
                   2
                   2
                   2
                   2
                   2
                   2
                   2
                   2
                   2
                   2
                   2
                   2
                   2
                   2
                   2
                   2
                   2
                   2
                   2
                   2
                   2
                   2
                   2
                   2
                   2
                   2
                   2
                   2
                   2
                   2
                   2
                   2
                   2
                   2
                   2
                   2
                   2
                   2
                   2
                   2
                   2
                   2
                   2
                   2
                   2
                   2
                   2
                   2
                   2
                   2
                   2
                   2
                   2
                   2
                   2
                   2
                   2
                   2
                   2
                   2
                   2
                   2
                   2
                   2
                   2
                   2
                   2
                   2
                   2
                   2
                   2
                   2
                   2
                   2
                   2
                   2
                   2
                   2
                   2
                   2
                   2
                   2
                   2
                   2
                   2
                   2
                   2
                   2
                   2
                   2
                   2
                   2
                   2
                   2
                   2
                   2
                   2
                   2
                   2
                   2
                   2
                   2
                   2
                   2
                   2
                   2
                   2
                   2
                   2
                   2
                   2
                   2
                   2
                   2
                   2
                   2
                   2
                   2
                   2
                   2
                   2
                   2
                   2
                   2
                   2
                   2
                   2
                   2
                   2
                   2
                   2
                   2
                   2
                   2
                   2
                   2
                   2
                   2
                   2
                   2
                   2
                   2
                   2
                   2
                   2
                   2
                   2
                   2
                   2
                   2
                   2
                   2
                   2
                   2
                   2
                   2
                   2
                   2
                   2
                   2
                   2
                   2
                   2
                   2
                   2
                   2
                   2
                   2
                   2
                   2
                   2
                   2
                   2
                   2
                   2
                   2
                   2
                   2
                   2
                   2
                   2
                   2
                   2
                   2
                   2
                   2
                   2
                   2
                   2
                   2
                   2
                   2
                   2
                   2
                   2
                   2
                   2
                   2
                   2
                   2
                   2
                   2
                   2
                   2
                   2
                   2
                   2
                   2
                   2
                   2
                   2
                   2
                   2
                   2
                   2
                   2
                   2
                   2
                   2
                   2
                   2
                   2
                   2
                   2
                   2
                   2
                   2
                   2
                   2
                   2
                   2
                   2
                   2
                   2
                   2
                   2
                   2
                   2
                   2
                   2
                   2
                   2
                   2
                   2
                   2
                   2
                   2
                   2
                   2
                   2
                   2
                   2
                   2
                   2
                   2
                   2
                   2
                   2
                   2
                   2
                   2
                   2
                   2
                   2
                   2
                   2
                   2
                   2
                   2
                   2
                   2
                   2
                   2
                   2
                   2
                   2
                   2
                   2
                   2
                   2
                   2
                   2
                   2
                   2
                   2
                   2
                   2
                   2
                   2
                   2
                   2
                   2
                   2
                   2
                   2
                   2
                   2
                   2
                   2
                   2
                   2
                   2
                   2
                   2
                   2
                   2
                   2
                   2
                   2
                   2
                   2
                   2
                   2
                   2
                   2
                   2
                   2
                   2
                   2
                   2
                   2
                   2
                   2
                   2
                   2
                   2
                   2
                   2
                   2
                   2
                   2
                   2
                   2
                   2
                   2
                   2
                   2
                   2
                   2
                   2
                   2
                   2
                   2
                   2
                   2
                   2
                   2
                   2
                   2
                   2
                   2
                   2
                   2
                   2
                   2
                   2
                   2
                   2
                   2
                   2
                   2
                   2
                   2
                   2
                   2
                   2
                   2
                   2
                   2
                   2
                   2
                   2
                   2
                   2
                   2
                   2
                   2
                   2
                   2
                   2
                   2
                   2
                   2
                   2
                   2
                   2
                   2
                   2
                   2
                   2
                   2
                   2
                   2
                   2
                   2
                   2
                   2
                   2
                   2
                   2
                   2
                   2
                   2
                   2
                   2
                   2
                   2
                   2
                   2
                   2
                   2
                   2
                   2
                   2
                   2
                   2
                   2
                   2
                   2
                   2
                   2
                   2
                   2
                   2
                   2
                   2
                   2
                   2
                   2
                   2
                   2
                   2
                   2
                   2
                   2
                   2
                   2
                   2
                   2
                   2
                   2
                   2
                   2
                   2
                   2
                   2
                   2
                   2
                   2
                   2
                   2
                   2
                   2
                   2
                   2
                   2
                   2
                   2
                   2
                   2
                   2
                   2
                   2
                   2
                   2
                   2
                   2
                   2
                   2
                   2
                   2
                   2
                   2
                   2
                   2
                   2
                   2
                   2
                   2
                   2
                   2
                   2
                   2
                   2
                   2
                   2
                   2
                   2
                   2
                   2
                   2
                   2
                   2
                   2
                   2
                   2
                   2
                   2
                   2
                   2
                   2
                   2
                   2
                   2
                   2
                   2
                   2
                   2
                   2
                   2
                   2
                   2
                   2
                   2
                   2
                   2
                   2
                   2
                   2
                   2
                   2
                   2
                   2
                   2
                   2
                   2
                   2
                   2
                   2
                   2
                   2
                   2
                   2
                   2
                   2
                   2
                   2
                   2
                   2
                   2
                   2
                   2
                   2
                   2
                   2
                   2
                   2
                   2
                   2
                   2
                   2
                   2
                   2
                   2
                   2
                   2
                   2
                   2
                   2
                   2
                   2
                   2
                   2
                   2
                   2
                   2
                   2
                   2
                   2
                   2
                   2
                   2
                   2
                   2
                   2
                   2
                   2
                   2
                   2
                   2
                   2
                   2
                   2
                   2
                   2
                   2
                   2
                   2
                   2
                   2
                   2
                   2
                   2
                   2
                   2
                   2
                   2
                   2
                   2
                   2
                   2
                   2
                   2
                   2
                   2
                   2
                   2
                   2
                   2
                   2
                   2
                   2
                   2
                   2
                   2
                   2
                   2
                   2
                   2
                   2
                   2
                   2
                   2
                   2
                   2
                   2
                   2
                   2
                   2
                   2
                   2
                   2
                   2
                   2
                   2
                   2
                   2
                   2
                   2
                   2
                   2
                   2
                   2
                   2
                   2
                   2
                   2
                   2
                   2
                   2
                   2
                   2
                   2
                   2
                   2
                   2
                   2
                   2
                   2
                   2
                   2
                   2
                   2
                   2
                   2
                   2
                   2
                   2
                   2
                   2
                   2
                   2
                   2
                   2
                   2
                   2
                   2
                   2
                   2
                   2
                   2
                   2
                   2
                   2
                   2
                   2
                   2
                   2
                   2
                   2
                   2
                   2
                   2
                   2
                   2
                   2
                   2
                   2
                   2
                   2
                   2
                   2
                   2
                   2
                   2
                   2
                   2
                   2
                   2
                   2
                   2
                   2
                   2
                   2
                   2
                   2
                   2
                   2
                   2
                   2
                   2
                   2
                   2
                   2
                   2
                   2
                   2
                   2
                   2
                   2
                   2
                   2
                   2
                   2
                   2
                   2
                   2
                   2
                   2
                   2
                   2
                   2
                   2
                   2
                   2
                   2
                   2
                   2
                   2
                   2
                   2
                   2
                   2
                   2
                   2
                   2
                   2
                   2
                   2
                   2
                   2
                   2
                   2
                   2
                   2
                   2
                   2
                   2
                   2
                   2
                   2
                   2
                   2
                   2
                   2
                   2
                   2
                   2
                   2
  
SCALARS                        node_id  double 1
LOOKUP_TABLE default
                   1
                   2
                   3
                   4
                   5
                   6
                   7
                   8
                   9
                  10
                  11
                  12
                  13
                  14
                  15
                  16
                  17
                  18
                  19
                  20
                  21
                  22
                  23
                  24
                  25
                  26
                  27
                  28
                  29
                  30
                  31
                  32
                  33
                  34
                  35
                  36
                  37
                  38
                  39
                  40
                  41
                  42
                  43
                  44
                  45
                  46
                  47
                  48
                  49
                  50
                  51
                  52
                  53
                  54
                  55
                  56
                  57
                  58
                  59
                  60
                  61
                  62
                  63
                  64
                  65
                  66
                  67
                  68
                  69
                  70
                  71
                  72
                  73
                  74
                  75
                  76
                  77
                  78
                  79
                  80
                  81
                  82
                  83
                  84
                  85
                  86
                  87
                  88
                  89
                  90
                  91
                  92
                  93
                  94
                  95
                  96
                  97
                  98
                  99
                 100
                 101
                 102
                 103
                 104
                 105
                 106
                 107
                 108
                 109
                 110
                 111
                 112
                 113
                 114
                 115
                 116
                 117
                 118
                 119
                 120
                 121
                 122
                 123
                 124
                 125
                 126
                 127
                 128
                 129
                 130
                 131
                 132
                 133
                 134
                 135
                 136
                 137
                 138
                 139
                 140
                 141
                 142
                 143
                 144
                 145
                 146
                 147
                 148
                 149
                 150
                 151
                 152
                 153
                 154
                 155
                 156
                 157
                 158
                 159
                 160
                 161
                 162
                 163
                 164
                 165
                 166
                 167
                 168
                 169
                 170
                 171
                 172
                 173
                 174
                 175
                 176
                 177
                 178
                 179
                 180
                 181
                 182
                 183
                 184
                 185
                 186
                 187
                 188
                 189
                 190
                 191
                 192
                 193
                 194
                 195
                 196
                 197
                 198
                 199
                 200
                 201
                 202
                 203
                 204
                 205
                 206
                 207
                 208
                 209
                 210
                 211
                 212
                 213
                 214
                 215
                 216
                 217
                 218
                 219
                 220
                 221
                 222
                 223
                 224
                 225
                 226
                 227
                 228
                 229
                 230
                 231
                 232
                 233
                 234
                 235
                 236
                 237
                 238
                 239
                 240
                 241
                 242
                 243
                 244
                 245
                 246
                 247
                 248
                 249
                 250
                 251
                 252
                 253
                 254
                 255
                 256
                 257
                 258
                 259
                 260
                 261
                 262
                 263
                 264
                 265
                 266
                 267
                 268
                 269
                 270
                 271
                 272
                 273
                 274
                 275
                 276
                 277
                 278
                 279
                 280
                 281
                 282
                 283
                 284
                 285
                 286
                 287
                 288
                 289
                 290
                 291
                 292
                 293
                 294
                 295
                 296
                 297
                 298
                 299
                 300
                 301
                 302
                 303
                 304
                 305
                 306
                 307
                 308
                 309
                 310
                 311
                 312
                 313
                 314
                 315
                 316
                 317
                 318
                 319
                 320
                 321
                 322
                 323
                 324
                 325
                 326
                 327
                 328
                 329
                 330
                 331
                 332
                 333
                 334
                 335
                 336
                 337
                 338
                 339
                 340
                 341
                 342
                 343
                 344
                 345
                 346
                 347
                 348
                 349
                 350
                 351
                 352
                 353
                 354
                 355
                 356
                 357
                 358
                 359
                 360
                 361
                 362
                 363
                 364
                 365
                 366
                 367
                 368
                 369
                 370
                 371
                 372
                 373
                 374
                 375
                 376
                 377
                 378
                 379
                 380
                 381
                 382
                 383
                 384
                 385
                 386
                 387
                 388
                 389
                 390
                 391
                 392
                 393
                 394
                 395
                 396
                 397
                 398
                 399
                 400
                 401
                 402
                 403
                 404
                 405
                 406
                 407
                 408
                 409
                 410
                 411
                 412
                 413
                 414
                 415
                 416
                 417
                 418
                 419
                 420
                 421
                 422
                 423
                 424
                 425
                 426
                 427
                 428
                 429
                 430
                 431
                 432
                 433
                 434
                 435
                 436
                 437
                 438
                 439
                 440
                 441
                 442
                 443
                 444
                 445
                 446
                 447
                 448
                 449
                 450
                 451
                 452
                 453
                 454
                 455
                 456
                 457
                 458
                 459
                 460
                 461
                 462
                 463
                 464
                 465
                 466
                 467
                 468
                 469
                 470
                 471
                 472
                 473
                 474
                 475
                 476
                 477
                 478
                 479
                 480
                 481
                 482
                 483
                 484
                 485
                 486
                 487
                 488
                 489
                 490
                 491
                 492
                 493
                 494
                 495
                 496
                 497
                 498
                 499
                 500
                 501
                 502
                 503
                 504
                 505
                 506
                 507
                 508
                 509
                 510
                 511
                 512
                 513
                 514
                 515
                 516
                 517
                 518
                 519
                 520
                 521
                 522
                 523
                 524
                 525
                 526
                 527
                 528
                 529
                 530
                 531
                 532
                 533
                 534
                 535
                 536
                 537
                 538
                 539
                 540
                 541
                 542
                 543
                 544
                 545
                 546
                 547
                 548
                 549
                 550
                 551
                 552
                 553
                 554
                 555
                 556
                 557
                 558
                 559
                 560
                 561
                 562
                 563
                 564
                 565
                 566
                 567
                 568
                 569
                 570
                 571
                 572
                 573
                 574
                 575
                 576
                 577
                 578
                 579
                 580
                 581
                 582
                 583
                 584
                 585
                 586
                 587
                 588
                 589
                 590
                 591
                 592
                 593
                 594
                 595
                 596
                 597
                 598
                 599
                 600
                 601
                 602
                 603
                 604
                 605
                 606
                 607
                 608
                 609
                 610
                 611
                 612
                 613
                 614
                 615
                 616
                 617
                 618
                 619
                 620
                 621
                 622
                 623
                 624
                 625
                 626
                 627
                 628
                 629
                 630
                 631
                 632
                 633
                 634
                 635
                 636
                 637
                 638
                 639
                 640
                 641
                 642
                 643
                 644
                 645
                 646
                 647
                 648
                 649
                 650
                 651
                 652
                 653
                 654
                 655
                 656
                 657
                 658
                 659
                 660
                 661
                 662
                 663
                 664
                 665
                 666
                 667
                 668
                 669
                 670
                 671
                 672
                 673
                 674
                 675
                 676
                 677
                 678
                 679
                 680
                 681
                 682
                 683
                 684
                 685
                 686
                 687
                 688
                 689
                 690
                 691
                 692
                 693
                 694
                 695
                 696
                 697
                 698
                 699
                 700
                 701
                 702
                 703
                 704
                 705
                 706
                 707
                 708
                 709
                 710
                 711
                 712
                 713
                 714
                 715
                 716
                 717
                 718
                 719
                 720
                 721
                 722
                 723
                 724
                 725
                 726
                 727
                 728
                 729
                 730
                 731
                 732
                 733
                 734
                 735
                 736
                 737
                 738
                 739
                 740
                 741
                 742
                 743
                 744
                 745
                 746
                 747
                 748
                 749
                 750
                 751
                 752
                 753
                 754
                 755
                 756
                 757
                 758
                 759
                 760
                 761
                 762
                 763
                 764
                 765
                 766
                 767
                 768
                 769
                 770
                 771
                 772
                 773
                 774
                 775
                 776
                 777
                 778
                 779
                 780
                 781
                 782
                 783
                 784
                 785
                 786
                 787
                 788
                 789
                 790
                 791
                 792
                 793
                 794
                 795
                 796
                 797
                 798
                 799
                 800
                 801
                 802
                 803
                 804
                 805
                 806
                 807
                 808
                 809
                 810
                 811
                 812
                 813
                 814
                 815
                 816
                 817
                 818
                 819
                 820
                 821
                 822
                 823
                 824
                 825
                 826
                 827
                 828
                 829
                 830
                 831
                 832
                 833
                 834
                 835
                 836
                 837
                 838
                 839
                 840
                 841
                 842
                 843
                 844
                 845
                 846
                 847
                 848
                 849
                 850
                 851
                 852
                 853
                 854
                 855
                 856
                 857
                 858
                 859
                 860
                 861
                 862
                 863
                 864
                 865
                 866
                 867
                 868
                 869
                 870
                 871
                 872
                 873
                 874
                 875
                 876
                 877
                 878
                 879
                 880
                 881
                 882
                 883
                 884
                 885
                 886
                 887
                 888
                 889
                 890
                 891
                 892
                 893
                 894
                 895
                 896
                 897
                 898
                 899
                 900
                 901
                 902
                 903
                 904
                 905
                 906
                 907
                 908
                 909
                 910
                 911
                 912
                 913
                 914
                 915
                 916
                 917
                 918
                 919
                 920
                 921
                 922
                 923
                 924
                 925
                 926
                 927
                 928
                 929
                 930
                 931
                 932
                 933
                 934
                 935
                 936
                 937
                 938
                 939
                 940
                 941
                 942
                 943
                 944
                 945
                 946
                 947
                 948
                 949
                 950
                 951
                 952
                 953
                 954
                 955
                 956
                 957
                 958
                 959
                 960
                 961
                 962
                 963
                 964
                 965
                 966
                 967
                 968
                 969
                 970
                 971
                 972
                 973
                 974
                 975
                 976
                 977
                 978
                 979
                 980
                 981
                 982
                 983
                 984
                 985
                 986
                 987
                 988
                 989
                 990
                 991
                 992
                 993
                 994
                 995
                 996
                 997
                 998
                 999
                1000
                1001
                1002
                1003
                1004
                1005
                1006
                1007
                1008
                1009
                1010
                1011
                1012
                1013
                1014
                1015
                1016
                1017
                1018
                1019
                1020
                1021
                1022
                1023
                1024
                1025
                1026
                1027
                1028
                1029
                1030
                1031
                1032
                1033
                1034
                1035
                1036
                1037
                1038
                1039
                1040
                1041
                1042
                1043
                1044
                1045
                1046
                1047
                1048
                1049
                1050
                1051
                1052
                1053
                1054
                1055
                1056
                1057
                1058
                1059
                1060
                1061
                1062
                1063
                1064
                1065
                1066
                1067
                1068
                1069
                1070
                1071
                1072
                1073
                1074
                1075
                1076
                1077
                1078
                1079
                1080
                1081
                1082
                1083
                1084
                1085
                1086
                1087
                1088
                1089
                1090
                1091
                1092
                1093
                1094
                1095
                1096
                1097
                1098
                1099
                1100
                1101
                1102
                1103
                1104
                1105
                1106
                1107
                1108
                1109
                1110
                1111
                1112
                1113
                1114
                1115
                1116
                1117
                1118
                1119
                1120
                1121
                1122
                1123
                1124
                1125
                1126
                1127
                1128
                1129
                1130
                1131
                1132
                1133
                1134
                1135
                1136
                1137
                1138
                1139
                1140
                1141
                1142
                1143
                1144
                1145
                1146
                1147
                1148
                1149
                1150
                1151
                1152
                1153
                1154
                1155
                1156
                1157
                1158
                1159
                1160
                1161
                1162
                1163
                1164
                1165
                1166
                1167
                1168
                1169
                1170
                1171
                1172
                1173
                1174
                1175
                1176
                1177
                1178
                1179
                1180
                1181
                1182
                1183
                1184
                1185
                1186
                1187
                1188
                1189
                1190
                1191
                1192
                1193
                1194
                1195
                1196
                1197
                1198
                1199
                1200
                1201
                1202
                1203
                1204
                1205
                1206
                1207
                1208
                1209
                1210
                1211
                1212
                1213
                1214
                1215
                1216
                1217
                1218
                1219
                1220
                1221
                1222
                1223
                1224
                1225
                1226
                1227
                1228
                1229
                1230
                1231
                1232
                1233
                1234
                1235
                1236
                1237
                1238
                1239
                1240
                1241
                1242
                1243
                1244
                1245
                1246
                1247
                1248
                1249
                1250
                1251
                1252
                1253
                1254
                1255
                1256
                1257
                1258
                1259
                1260
                1261
                1262
                1263
                1264
                1265
                1266
                1267
                1268
                1269
                1270
                1271
                1272
                1273
                1274
                1275
                1276
                1277
                1278
                1279
                1280
                1281
                1282
                1283
                1284
                1285
                1286
                1287
                1288
                1289
                1290
                1291
                1292
                1293
                1294
                1295
                1296
                1297
                1298
                1299
                1300
                1301
                1302
                1303
                1304
                1305
                1306
                1307
                1308
                1309
                1310
                1311
                1312
                1313
                1314
                1315
                1316
                1317
                1318
                1319
                1320
                1321
                1322
                1323
                1324
                1325
                1326
                1327
                1328
                1329
                1330
                1331
                1332
                1333
                1334
                1335
                1336
                1337
                1338
                1339
                1340
                1341
                1342
                1343
                1344
                1345
                1346
                1347
                1348
                1349
                1350
                1351
                1352
                1353
                1354
                1355
                1356
                1357
                1358
                1359
                1360
                1361
                1362
                1363
                1364
                1365
                1366
                1367
                1368
                1369
                1370
                1371
                1372
                1373
                1374
                1375
                1376
                1377
                1378
                1379
                1380
                1381
                1382
                1383
                1384
                1385
                1386
                1387
                1388
                1389
                1390
                1391
                1392
                1393
                1394
                1395
                1396
                1397
                1398
                1399
                1400
                1401
                1402
                1403
                1404
                1405
                1406
                1407
                1408
                1409
                1410
                1411
                1412
                1413
                1414
                1415
                1416
                1417
                1418
                1419
                1420
                1421
                1422
                1423
                1424
                1425
                1426
                1427
                1428
                1429
                1430
                1431
                1432
                1433
                1434
                1435
                1436
                1437
                1438
                1439
                1440
                1441
                1442
                1443
                1444
                1445
                1446
                1447
                1448
                1449
                1450
                1451
                1452
                1453
                1454
                1455
                1456
                1457
                1458
                1459
                1460
                1461
                1462
                1463
                1464
                1465
                1466
                1467
                1468
                1469
                1470
                1471
                1472
                1473
                1474
                1475
                1476
                1477
                1478
                1479
                1480
                1481
                1482
                1483
                1484
                1485
                1486
                1487
                1488
                1489
                1490
                1491
                1492
                1493
                1494
                1495
                1496
                1497
                1498
                1499
                1500
                1501
                1502
                1503
                1504
                1505
                1506
                1507
                1508
                1509
                1510
                1511
                1512
                1513
                1514
                1515
                1516
                1517
                1518
                1519
                1520
                1521
                1522
                1523
                1524
                1525
                1526
                1527
                1528
                1529
                1530
                1531
                1532
                1533
                1534
                1535
                1536
                1537
                1538
                1539
                1540
                1541
                1542
                1543
                1544
                1545
                1546
                1547
                1548
                1549
                1550
                1551
                1552
                1553
                1554
                1555
                1556
                1557
                1558
                1559
                1560
                1561
                1562
                1563
                1564
                1565
                1566
                1567
                1568
                1569
                1570
                1571
                1572
                1573
                1574
                1575
                1576
                1577
                1578
                1579
                1580
                1581
                1582
                1583
                1584
                1585
                1586
                1587
                1588
                1589
                1590
                1591
                1592
                1593
                1594
                1595
                1596
                1597
                1598
                1599
                1600
                1601
                1602
                1603
                1604
                1605
                1606
                1607
                1608
                1609
                1610
                1611
                1612
                1613
                1614
                1615
                1616
                1617
                1618
                1619
                1620
                1621
                1622
                1623
                1624
                1625
                1626
                1627
                1628
                1629
                1630
                1631
                1632
                1633
                1634
                1635
                1636
                1637
                1638
                1639
                1640
                1641
                1642
                1643
                1644
                1645
                1646
                1647
                1648
                1649
                1650
                1651
                1652
                1653
                1654
                1655
                1656
                1657
                1658
                1659
                1660
                1661
                1662
                1663
                1664
                1665
                1666
                1667
                1668
                1669
                1670
                1671
                1672
                1673
                1674
                1675
                1676
                1677
                1678
                1679
                1680
                1681
                1682
                1683
                1684
                1685
                1686
                1687
                1688
                1689
                1690
                1691
                1692
                1693
                1694
                1695
                1696
                1697
                1698
                1699
                1700
                1701
                1702
                1703
                1704
                1705
                1706
                1707
                1708
                1709
                1710
                1711
                1712
                1713
                1714
                1715
                1716
                1717
                1718
                1719
                1720
                1721
                1722
                1723
                1724
                1725
                1726
                1727
                1728
                1729
                1730
                1731
                1732
                1733
                1734
                1735
                1736
                1737
                1738
                1739
                1740
                1741
                1742
                1743
                1744
                1745
                1746
                1747
                1748
                1749
                1750
                1751
                1752
                1753
                1754
                1755
                1756
                1757
                1758
                1759
                1760
                1761
                1762
                1763
                1764
                1765
                1766
                1767
                1768
                1769
                1770
                1771
                1772
                1773
                1774
                1775
                1776
                1777
                1778
                1779
                1780
                1781
                1782
                1783
                1784
                1785
                1786
                1787
                1788
                1789
                1790
                1791
                1792
                1793
                1794
                1795
                1796
                1797
                1798
                1799
                1800
                1801
                1802
                1803
                1804
                1805
                1806
                1807
                1808
                1809
                1810
                1811
                1812
                1813
                1814
                1815
                1816
                1817
                1818
                1819
                1820
                1821
                1822
                1823
                1824
                1825
                1826
                1827
                1828
                1829
                1830
                1831
                1832
                1833
                1834
                1835
                1836
                1837
                1838
                1839
                1840
                1841
                1842
                1843
                1844
                1845
                1846
                1847
                1848
                1849
                1850
                1851
                1852
                1853
                1854
                1855
                1856
                1857
                1858
                1859
                1860
                1861
                1862
                1863
                1864
                1865
                1866
                1867
                1868
                1869
                1870
                1871
                1872
                1873
                1874
                1875
                1876
                1877
                1878
                1879
                1880
                1881
                1882
                1883
                1884
                1885
                1886
                1887
                1888
                1889
                1890
                1891
                1892
                1893
                1894
                1895
                1896
                1897
                1898
                1899
                1900
                1901
                1902
                1903
                1904
                1905
                1906
                1907
                1908
                1909
                1910
                1911
                1912
                1913
                1914
                1915
                1916
                1917
                1918
                1919
                1920
                1921
                1922
                1923
                1924
                1925
                1926
                1927
                1928
                1929
                1930
                1931
                1932
                1933
                1934
                1935
                1936
                1937
                1938
                1939
                1940
                1941
                1942
                1943
                1944
                1945
                1946
                1947
                1948
                1949
                1950
  
SCALARS                         bodyid  double 1
LOOKUP_TABLE default
                   1
                   1
                   1
                   1
                   1
                   1
                   1
                   1
                   1
                   1
                   1
                   1
                   1
                   1
                   1
                   1
                   1
                   1
                   1
                   1
                   1
                   1
                   1
                   1
                   1
                   1
                   1
                   1
                   1
                   1
                   1
                   1
                   1
                   1
                   1
                   1
                   1
                   1
                   1
                   1
                   1
                   1
                   1
                   1
                   1
                   1
                   1
                   1
                   1
                   1
                   1
                   1
                   1
                   1
                   1
                   1
                   1
                   1
                   1
                   1
                   1
                   1
                   1
                   1
                   1
                   1
                   1
                   1
                   1
                   1
                   1
                   1
                   1
                   1
                   1
                   1
                   1
                   1
                   1
                   1
                   1
                   1
                   1
                   1
                   1
                   1
                   1
                   1
                   1
                   1
                   1
                   1
                   1
                   1
                   1
                   1
                   1
                   1
                   1
                   1
                   1
                   1
                   1
                   1
                   1
                   1
                   1
                   1
                   1
                   1
                   1
                   1
                   1
                   1
                   1
                   1
                   1
                   1
                   1
                   1
                   1
                   1
                   1
                   1
                   1
                   1
                   1
                   1
                   1
                   1
                   1
                   1
                   1
                   1
                   1
                   1
                   1
                   1
                   1
                   1
                   1
                   1
                   1
                   1
                   1
                   1
                   1
                   1
                   1
                   1
                   1
                   1
                   1
                   1
                   1
                   1
                   1
                   1
                   1
                   1
                   1
                   1
                   1
                   1
                   1
                   1
                   1
                   1
                   1
                   1
                   1
                   1
                   1
                   1
                   1
                   1
                   1
                   1
                   1
                   1
                   1
                   1
                   1
                   1
                   1
                   1
                   1
                   1
                   1
                   1
                   1
                   1
                   1
                   1
                   1
                   1
                   1
                   1
                   1
                   1
                   1
                   1
                   1
                   1
                   1
                   1
                   1
                   1
                   1
                   1
                   1
                   1
                   1
                   1
                   1
                   1
                   1
                   1
                   1
                   1
                   1
                   1
                   1
                   1
                   1
                   1
                   1
                   1
                   1
                   1
                   1
                   1
                   1
                   1
                   1
                   1
                   1
                   1
                   1
                   1
                   1
                   1
                   1
                   1
                   1
                   1
                   1
                   1
                   1
                   1
                   1
                   1
                   1
                   1
                   1
                   1
                   1
                   1
                   1
                   1
                   1
                   1
                   1
                   1
                   1
                   1
                   1
                   1
                   1
                   1
                   1
                   1
                   1
                   1
                   1
                   1
                   1
                   1
                   1
                   1
                   1
                   1
                   1
                   1
                   1
                   1
                   1
                   1
                   1
                   1
                   1
                   1
                   1
                   1
                   1
                   1
                   1
                   1
                   1
                   1
                   1
                   1
                   1
                   1
                   1
                   1
                   1
                   1
                   1
                   1
                   1
                   1
                   1
                   1
                   1
                   1
                   1
                   1
                   1
                   1
                   1
                   1
                   1
                   1
                   1
                   1
                   1
                   1
                   1
                   1
                   1
                   1
                   1
                   1
                   1
                   1
                   1
                   1
                   1
                   1
                   1
                   1
                   1
                   1
                   1
                   1
                   1
                   1
                   1
                   1
                   1
                   1
                   1
                   1
                   1
                   1
                   1
                   1
                   1
                   1
                   1
                   1
                   1
                   1
                   1
                   1
                   1
                   1
                   1
                   1
                   1
                   1
                   1
                   1
                   1
                   1
                   1
                   1
                   1
                   1
                   1
                   1
                   1
                   1
                   1
                   1
                   1
                   1
                   1
                   1
                   1
                   1
                   1
                   1
                   1
                   1
                   1
                   1
                   1
                   1
                   1
                   1
                   1
                   1
                   1
                   1
                   1
                   1
                   1
                   1
                   1
                   1
                   1
                   1
                   1
                   1
                   1
                   1
                   1
                   1
                   1
                   1
                   1
                   1
                   1
                   1
                   1
                   1
                   1
                   1
                   1
                   1
                   1
                   1
                   1
                   1
                   1
                   1
                   1
                   1
                   1
                   1
                   1
                   1
                   1
                   1
                   1
                   1
                   1
                   1
                   1
                   1
                   1
                   1
                   1
                   1
                   1
                   1
                   1
                   1
                   1
                   1
                   1
                   1
                   1
                   1
                   1
                   1
                   1
                   1
                   1
                   1
                   1
                   1
                   1
                   1
                   1
                   1
                   1
                   1
                   1
                   1
                   1
                   1
                   1
                   1
                   1
                   1
                   1
                   1
                   1
                   1
                   1
                   1
                   1
                   1
                   1
                   1
                   1
                   1
                   1
                   1
                   1
                   1
                   1
                   1
                   1
                   1
                   1
                   1
                   1
                   1
                   1
                   1
                   1
                   1
                   1
                   1
                   1
                   1
                   1
                   1
                   1
                   1
                   1
                   1
                   1
                   1
                   1
                   1
                   1
                   1
                   1
                   1
                   1
                   1
                   1
                   1
                   1
                   1
                   1
                   1
                   1
                   1
                   1
                   1
                   1
                   1
                   1
                   1
                   1
                   1
                   1
                   1
                   1
                   1
                   1
                   1
                   1
                   1
                   1
                   1
                   1
                   1
                   1
                   1
                   1
                   1
                   1
                   1
                   1
                   1
                   1
                   1
                   1
                   1
                   1
                   1
                   1
                   1
                   1
                   1
                   1
                   1
                   1
                   1
                   1
                   1
                   1
                   1
                   1
                   1
                   1
                   1
                   1
                   1
                   1
                   1
                   1
                   1
                   1
                   1
                   1
                   1
                   1
                   1
                   1
                   1
                   1
                   1
                   1
                   1
                   1
                   1
                   1
                   1
                   1
                   1
                   1
                   1
                   1
                   1
                   1
                   1
                   1
                   1
                   1
                   1
                   1
                   1
                   1
                   1
                   1
                   1
                   1
                   1
                   1
                   1
                   1
                   1
                   1
                   1
                   1
                   1
                   1
                   1
                   1
                   1
                   1
                   1
                   1
                   1
                   1
                   1
                   1
                   1
                   1
                   1
                   1
                   1
                   1
                   1
                   1
                   1
                   1
                   1
                   1
                   1
                   1
                   1
                   1
                   1
                   1
                   1
                   1
                   1
                   1
                   1
                   1
                   1
                   1
                   1
                   1
                   1
                   1
                   1
                   1
                   1
                   1
                   1
                   1
                   1
                   1
                   1
                   1
                   1
                   1
                   1
                   1
                   1
                   1
                   1
                   1
                   1
                   1
                   1
                   1
                   1
                   1
                   1
                   1
                   1
                   1
                   1
                   1
                   1
                   1
                   1
                   1
                   1
                   1
                   1
                   1
                   1
                   1
                   1
                   1
                   1
                   1
                   1
                   1
                   1
                   1
                   1
                   1
                   1
                   1
                   1
                   1
                   1
                   1
                   1
                   1
                   1
                   1
                   1
                   1
                   1
                   1
                   1
                   1
                   1
                   1
                   1
                   1
                   1
                   1
                   1
                   1
                   1
                   1
                   1
                   1
                   1
                   1
                   1
                   1
                   1
                   1
                   1
                   1
                   1
                   1
                   1
                   1
                   1
                   1
                   1
                   1
                   1
                   1
                   1
                   1
                   1
                   1
                   1
                   1
                   1
                   1
                   1
                   1
                   1
                   1
                   1
                   1
                   1
                   1
                   1
                   1
                   1
                   1
                   1
                   1
                   1
                   1
                   1
                   1
                   1
                   1
                   1
                   1
                   1
                   1
                   1
                   1
                   1
                   1
                   1
                   1
                   1
                   1
                   1
                   1
                   1
                   1
                   1
                   1
                   1
                   1
                   1
                   1
                   1
                   1
                   1
                   1
                   1
                   1
                   1
                   1
                   1
                   1
                   1
                   1
                   1
                   1
                   1
                   1
                   1
                   1
                   1
                   1
                   1
                   1
                   1
                   1
                   1
                   1
                   1
                   1
                   1
                   1
                   1
                   1
                   1
                   1
                   1
                   1
                   1
                   1
                   1
                   1
                   1
                   1
                   1
                   1
                   1
                   1
                   1
                   1
                   1
                   1
                   1
                   1
                   1
                   1
                   1
                   1
                   1
                   1
                   1
                   1
                   1
                   1
                   1
                   1
                   1
                   1
                   1
                   1
                   1
                   1
                   1
                   1
                   1
                   1
                   1
                   1
                   1
                   1
                   1
                   1
                   1
                   1
                   1
                   1
                   1
                   1
                   1
                   1
                   1
                   1
                   1
                   1
                   1
                   1
                   1
                   1
                   1
                   1
                   1
                   1
                   1
                   1
                   1
                   1
                   1
                   1
                   1
                   1
                   1
                   1
                   1
                   1
                   1
                   1
                   1
                   1
                   1
                   1
                   1
                   1
                   1
                   1
                   1
                   1
                   1
                   1
                   1
                   1
                   1
                   1
                   1
                   1
                   1
                   1
                   1
                   1
                   1
                   1
                   1
                   1
                   1
                   1
                   1
                   1
                   1
                   1
                   1
                   1
                   1
                   1
                   1
                   1
                   1
                   1
                   1
                   1
                   1
                   1
                   1
                   1
                   1
                   1
                   1
                   1
                   1
                   1
                   1
                   1
                   1
                   1
                   1
                   1
                   1
                   1
                   1
                   1
                   1
                   1
                   1
                   1
                   1
                   1
                   1
                   1
                   1
                   1
                   1
                   1
                   1
                   1
                   1
                   1
                   1
                   1
                   1
                   1
                   1
                   1
                   1
                   1
                   1
                   1
                   1
                   1
                   1
                   1
                   1
                   1
                   1
                   1
                   1
                   1
                   1
                   1
                   1
                   1
                   1
                   1
                   1
                   1
                   1
                   1
                   1
                   1
                   1
                   1
                   1
                   1
                   1
                   1
                   1
                   1
                   1
                   1
                   1
                   1
                   1
                   1
                   1
                   1
                   1
                   1
                   1
                   1
                   1
                   1
                   1
                   1
                   1
                   1
                   1
                   1
                   1
                   1
                   1
                   1
                   1
                   1
                   1
                   1
                   1
                   1
                   1
                   1
                   1
                   1
                   1
                   1
                   1
                   1
                   1
                   1
                   1
                   1
                   1
                   1
                   1
                   1
                   1
                   1
                   1
                   1
                   1
                   1
                   1
                   1
                   1
                   1
                   1
                   1
                   1
                   1
                   1
                   1
                   1
                   1
                   1
                   1
                   1
                   1
                   1
                   1
                   1
                   1
                   1
                   1
                   1
                   1
                   1
                   1
                   1
                   1
                   1
                   1
                   1
                   1
                   1
                   1
                   1
                   1
                   1
                   1
                   1
                   1
                   1
                   1
                   1
                   1
                   1
                   1
                   1
                   1
                   1
                   1
                   1
                   1
                   1
                   1
                   1
                   1
                   1
                   1
                   1
                   1
                   1
                   1
                   1
                   1
                   1
                   1
                   1
                   1
                   1
                   1
                   1
                   1
                   1
                   1
                   1
                   1
                   1
                   1
                   1
                   1
                   1
                   1
                   1
                   1
                   1
                   1
                   1
                   1
                   1
                   1
                   1
                   1
                   1
                   1
                   1
                   1
                   1
                   1
                   1
                   1
                   1
                   1
                   1
                   1
                   1
                   1
                   1
                   1
                   1
                   1
                   1
                   1
                   1
                   1
                   1
                   1
                   1
                   1
                   1
                   1
                   1
                   1
                   1
                   1
                   1
                   1
                   1
                   1
                   1
                   1
                   1
                   1
                   1
                   1
                   1
                   1
                   1
                   1
                   1
                   1
                   1
                   1
                   1
                   1
                   1
                   1
                   1
                   1
                   1
                   1
                   1
                   1
                   1
                   1
                   1
                   1
                   1
                   1
                   1
                   1
                   1
                   1
                   1
                   1
                   1
                   1
                   1
                   1
                   1
                   1
                   1
                   1
                   1
                   1
                   1
                   1
                   1
                   1
                   1
                   1
                   1
                   1
                   1
                   1
                   1
                   1
                   1
                   1
                   1
                   1
                   1
                   1
                   1
                   1
                   1
                   1
                   1
                   1
                   1
                   1
                   1
                   1
                   1
                   1
                   1
                   1
                   1
                   1
                   1
                   1
                   1
                   1
                   1
                   1
                   1
                   1
                   1
                   1
                   1
                   1
                   1
                   1
                   1
                   1
                   1
                   1
                   1
                   1
                   1
                   1
                   1
                   1
                   1
                   1
                   1
                   1
                   1
                   1
                   1
                   1
                   1
                   1
                   1
                   1
                   1
                   1
                   1
                   1
                   1
                   1
                   1
                   1
                   1
                   1
                   1
                   1
                   1
                   1
                   1
                   1
                   1
                   1
                   1
                   1
                   1
                   1
                   1
                   1
                   1
                   1
                   1
                   1
                   1
                   1
                   1
                   1
                   1
                   1
                   1
                   1
                   1
                   1
                   1
                   1
                   1
                   1
                   1
                   1
                   1
                   1
                   1
                   1
                   1
                   1
                   1
                   1
                   1
                   1
                   1
                   1
                   1
                   1
                   1
                   1
                   1
                   1
                   1
                   1
                   1
                   1
                   1
                   1
                   1
                   1
                   1
                   1
                   1
                   1
                   1
                   1
                   1
                   1
                   1
                   1
                   1
                   1
                   1
                   1
                   1
                   1
                   1
                   1
                   1
                   1
                   1
                   1
                   1
                   1
                   1
                   1
                   1
                   1
                   1
                   1
                   1
                   1
                   1
                   1
                   1
                   1
                   1
                   1
                   1
                   1
                   1
                   1
                   1
                   1
                   1
                   1
                   1
                   1
                   1
                   1
                   1
                   1
                   1
                   1
                   1
                   1
                   1
                   1
                   1
                   1
                   1
                   1
                   1
                   1
                   1
                   1
                   1
                   1
                   1
                   1
                   1
                   1
                   1
                   1
                   1
                   1
                   1
                   1
                   1
                   1
                   1
                   1
                   1
                   1
                   1
                   1
                   1
                   1
                   1
                   1
                   1
                   1
                   1
                   1
                   1
                   1
                   1
                   1
                   1
                   1
                   1
                   1
                   1
                   1
                   1
                   1
                   1
                   1
                   1
                   1
                   1
                   1
                   1
                   1
                   1
                   1
                   1
                   1
                   1
                   1
                   1
                   1
                   1
                   1
                   1
                   1
                   1
                   1
                   1
                   1
                   1
                   1
                   1
                   1
                   1
                   1
                   1
                   1
                   1
                   1
                   1
                   1
                   1
                   1
                   1
                   1
                   1
                   1
                   1
                   1
                   1
                   1
                   1
                   1
                   1
                   1
                   1
                   1
                   1
                   1
                   1
                   1
                   1
                   1
                   1
                   1
                   1
                   1
                   1
                   1
                   1
                   1
                   1
                   1
                   1
                   1
                   1
                   1
                   1
                   1
                   1
                   1
                   1
                   1
                   1
                   1
                   1
                   1
                   1
                   1
                   1
                   1
                   1
                   1
                   1
                   1
                   1
                   1
                   1
                   1
                   1
                   1
                   1
                   1
                   1
                   1
                   1
                   1
                   1
                   1
                   1
                   1
                   1
                   1
                   1
                   1
                   1
                   1
                   1
                   1
                   1
                   1
                   1
                   1
                   1
                   1
                   1
                   1
                   1
                   1
                   1
                   1
                   1
                   1
                   1
                   1
                   1
                   1
                   1
                   1
                   1
                   1
                   1
                   1
                   1
                   1
                   1
                   1
                   1
                   1
                   1
                   1
                   1
                   1
                   1
                   1
                   1
                   1
                   1
                   1
                   1
                   1
                   1
                   1
                   1
                   1
                   1
                   1
                   1
                   1
                   1
                   1
                   1
                   1
                   1
                   1
                   1
                   1
                   1
                   1
                   1
                   1
                   1
                   1
                   1
                   1
                   1
                   1
                   1
                   1
                   1
                   1
                   1
                   1
                   1
                   1
                   1
                   1
                   1
                   1
                   1
                   1
                   1
                   1
                   1
                   1
                   1
                   1
                   1
                   1
                   1
                   1
                   1
                   1
                   1
                   1
                   1
                   1
                   1
                   1
                   1
                   1
                   1
                   1
                   1
                   1
                   1
                   1
                   1
                   1
                   1
                   1
                   1
                   1
                   1
                   1
                   1
                   1
                   1
                   1
                   1
                   1
                   1
                   1
                   1
                   1
                   1
                   1
                   1
                   1
                   1
                   1
                   1
                   1
                   1
                   1
                   1
                   1
                   1
                   1
                   1
                   1
                   1
                   1
                   1
                   1
                   1
                   1
                   1
                   1
                   1
                   1
                   1
                   1
                   1
                   1
                   1
                   1
                   1
                   1
                   1
                   1
                   1
                   1
                   1
                   1
                   1
                   1
                   1
                   1
                   1
                   1
                   1
                   1
                   1
                   1
                   1
                   1
                   1
                   1
                   1
                   1
                   1
                   1
                   1
                   1
                   1
                   1
                   1
                   1
                   1
                   1
                   1
                   1
                   1
                   1
                   1
                   1
                   1
                   1
                   1
                   1
                   1
                   1
                   1
                   1
                   1
                   1
                   1
                   1
                   1
                   1
                   1
                   1
                   1
                   1
                   1
                   1
                   1
                   1
                   1
                   1
                   1
                   1
                   1
                   1
                   1
                   1
                   1
                   1
                   1
                   1
                   1
                   1
                   1
                   1
                   1
                   1
                   1
                   1
                   1
                   1
                   1
                   1
                   1
                   1
                   1
                   1
                   1
                   1
                   1
                   1
                   1
                   1
                   1
                   1
                   1
                   1
                   1
                   1
                   1
                   1
                   1
                   1
                   1
                   1
                   1
                   1
                   1
                   1
                   1
                   1
                   1
                   1
                   1
                   1
                   1
                   1
                   1
                   1
                   1
                   1
                   1
                   1
                   1
                   1
                   1
                   1
                   1
                   1
                   1
                   1
                   1
                   1
                   1
                   1
                   1
                   1
                   1
                   1
                   1
  
SCALARS                  material_type  double 1
LOOKUP_TABLE default
                   2
                   2
                   2
                   2
                   2
                   2
                   2
                   2
                   2
                   2
                   2
                   2
                   2
                   2
                   2
                   2
                   2
                   2
                   2
                   2
                   2
                   2
                   2
                   2
                   2
                   2
                   2
                   2
                   2
                   2
                   2
                   2
                   2
                   2
                   2
                   2
                   2
                   2
                   2
                   2
                   2
                   2
                   2
                   2
                   2
                   2
                   2
                   2
                   2
                   2
                   2
                   2
                   2
                   2
                   2
                   2
                   2
                   2
                   2
                   2
                   2
                   2
                   2
                   2
                   2
                   2
                   2
                   2
                   2
                   2
                   2
                   2
                   2
                   2
                   2
                   2
                   2
                   2
                   2
                   2
                   2
                   2
                   2
                   2
                   2
                   2
                   2
                   2
                   2
                   2
                   2
                   2
                   2
                   2
                   2
                   2
                   2
                   2
                   2
                   2
                   2
                   2
                   2
                   2
                   2
                   2
                   2
                   2
                   2
                   2
                   2
                   2
                   2
                   2
                   2
                   2
                   2
                   2
                   2
                   2
                   2
                   2
                   2
                   2
                   2
                   2
                   2
                   2
                   2
                   2
                   2
                   2
                   2
                   2
                   2
                   2
                   2
                   2
                   2
                   2
                   2
                   2
                   2
                   2
                   2
                   2
                   2
                   2
                   2
                   2
                   2
                   2
                   2
                   2
                   2
                   2
                   2
                   2
                   2
                   2
                   2
                   2
                   2
                   2
                   2
                   2
                   2
                   2
                   2
                   2
                   2
                   2
                   2
                   2
                   2
                   2
                   2
                   2
                   2
                   2
                   2
                   2
                   2
                   2
                   2
                   2
                   2
                   2
                   2
                   2
                   2
                   2
                   2
                   2
                   2
                   2
                   2
                   2
                   2
                   2
                   2
                   2
                   2
                   2
                   2
                   2
                   2
                   2
                   2
                   2
                   2
                   2
                   2
                   2
                   2
                   2
                   2
                   2
                   2
                   2
                   2
                   2
                   2
                   2
                   2
                   2
                   2
                   2
                   2
                   2
                   2
                   2
                   2
                   2
                   2
                   2
                   2
                   2
                   2
                   2
                   2
                   2
                   2
                   2
                   2
                   2
                   2
                   2
                   2
                   2
                   2
                   2
                   2
                   2
                   2
                   2
                   2
                   2
                   2
                   2
                   2
                   2
                   2
                   2
                   2
                   2
                   2
                   2
                   2
                   2
                   2
                   2
                   2
                   2
                   2
                   2
                   2
                   2
                   2
                   2
                   2
                   2
                   2
                   2
                   2
                   2
                   2
                   2
                   2
                   2
                   2
                   2
                   2
                   2
                   2
                   2
                   2
                   2
                   2
                   2
                   2
                   2
                   2
                   2
                   2
                   2
                   2
                   2
                   2
                   2
                   2
                   2
                   2
                   2
                   2
                   2
                   2
                   2
                   2
                   2
                   2
                   2
                   2
                   2
                   2
                   2
                   2
                   2
                   2
                   2
                   2
                   2
                   2
                   2
                   2
                   2
                   2
                   2
                   2
                   2
                   2
                   2
                   2
                   2
                   2
                   2
                   2
                   2
                   2
                   2
                   2
                   2
                   2
                   2
                   2
                   2
                   2
                   2
                   2
                   2
                   2
                   2
                   2
                   2
                   2
                   2
                   2
                   2
                   2
                   2
                   2
                   2
                   2
                   2
                   2
                   2
                   2
                   2
                   2
                   2
                   2
                   2
                   2
                   2
                   2
                   2
                   2
                   2
                   2
                   2
                   2
                   2
                   2
                   2
                   2
                   2
                   2
                   2
                   2
                   2
                   2
                   2
                   2
                   2
                   2
                   2
                   2
                   2
                   2
                   2
                   2
                   2
                   2
                   2
                   2
                   2
                   2
                   2
                   2
                   2
                   2
                   2
                   2
                   2
                   2
                   2
                   2
                   2
                   2
                   2
                   2
                   2
                   2
                   2
                   2
                   2
                   2
                   2
                   2
                   2
                   2
                   2
                   2
                   2
                   2
                   2
                   2
                   2
                   2
                   2
                   2
                   2
                   2
                   2
                   2
                   2
                   2
                   2
                   2
                   2
                   2
                   2
                   2
                   2
                   2
                   2
                   2
                   2
                   2
                   2
                   2
                   2
                   2
                   2
                   2
                   2
                   2
                   2
                   2
                   2
                   2
                   2
                   2
                   2
                   2
                   2
                   2
                   2
                   2
                   2
                   2
                   2
                   2
                   2
                   2
                   2
                   2
                   2
                   2
                   2
                   2
                   2
                   2
                   2
                   2
                   2
                   2
                   2
                   2
                   2
                   2
                   2
                   2
                   2
                   2
                   2
                   2
                   2
                   2
                   2
                   2
                   2
                   2
                   2
                   2
                   2
                   2
                   2
                   2
                   2
                   2
                   2
                   2
                   2
                   2
                   2
                   2
                   2
                   2
                   2
                   2
                   2
                   2
                   2
                   2
                   2
                   2
                   2
                   2
                   2
                   2
                   2
                   2
                   2
                   2
                   2
                   2
                   2
                   2
                   2
                   2
                   2
                   2
                   2
                   2
                   2
                   2
                   2
                   2
                   2
                   2
                   2
                   2
                   2
                   2
                   2
                   2
                   2
                   2
                   2
                   2
                   2
                   2
                   2
                   2
                   2
                   2
                   2
                   2
                   2
                   2
                   2
                   2
                   2
                   2
                   2
                   2
                   2
                   2
                   2
                   2
                   2
                   2
                   2
                   2
                   2
                   2
                   2
                   2
                   2
                   2
                   2
                   2
                   2
                   2
                   2
                   2
                   2
                   2
                   2
                   2
                   2
                   2
                   2
                   2
                   2
                   2
                   2
                   2
                   2
                   2
                   2
                   2
                   2
                   2
                   2
                   2
                   2
                   2
                   2
                   2
                   2
                   2
                   2
                   2
                   2
                   2
                   2
                   2
                   2
                   2
                   2
                   2
                   2
                   2
                   2
                   2
                   2
                   2
                   2
                   2
                   2
                   2
                   2
                   2
                   2
                   2
                   2
                   2
                   2
                   2
                   2
                   2
                   2
                   2
                   2
                   2
                   2
                   2
                   2
                   2
                   2
                   2
                   2
                   2
                   2
                   2
                   2
                   2
                   2
                   2
                   2
                   2
                   2
                   2
                   2
                   2
                   2
                   2
                   2
                   2
                   2
                   2
                   2
                   2
                   2
                   2
                   2
                   2
                   2
                   2
                   2
                   2
                   2
                   2
                   2
                   2
                   2
                   2
                   2
                   2
                   2
                   2
                   2
                   2
                   2
                   2
                   2
                   2
                   2
                   2
                   2
                   2
                   2
                   2
                   2
                   2
                   2
                   2
                   2
                   2
                   2
                   2
                   2
                   2
                   2
                   2
                   2
                   2
                   2
                   2
                   2
                   2
                   2
                   2
                   2
                   2
                   2
                   2
                   2
                   2
                   2
                   2
                   2
                   2
                   2
                   2
                   2
                   2
                   2
                   2
                   2
                   2
                   2
                   2
                   2
                   2
                   2
                   2
                   2
                   2
                   2
                   2
                   2
                   2
                   2
                   2
                   2
                   2
                   2
                   2
                   2
                   2
                   2
                   2
                   2
                   2
                   2
                   2
                   2
                   2
                   2
                   2
                   2
                   2
                   2
                   2
                   2
                   2
                   2
                   2
                   2
                   2
                   2
                   2
                   2
                   2
                   2
                   2
                   2
                   2
                   2
                   2
                   2
                   2
                   2
                   2
                   2
                   2
                   2
                   2
                   2
                   2
                   2
                   2
                   2
                   2
                   2
                   2
                   2
                   2
                   2
                   2
                   2
                   2
                   2
                   2
                   2
                   2
                   2
                   2
                   2
                   2
                   2
                   2
                   2
                   2
                   2
                   2
                   2
                   2
                   2
                   2
                   2
                   2
                   2
                   2
                   2
                   2
                   2
                   2
                   2
                   2
                   2
                   2
                   2
                   2
                   2
                   2
                   2
                   2
                   2
                   2
                   2
                   2
                   2
                   2
                   2
                   2
                   2
                   2
                   2
                   2
                   2
                   2
                   2
                   2
                   2
                   2
                   2
                   2
                   2
                   2
                   2
                   2
                   2
                   2
                   2
                   2
                   2
                   2
                   2
                   2
                   2
                   2
                   2
                   2
                   2
                   2
                   2
                   2
                   2
                   2
                   2
                   2
                   2
                   2
                   2
                   2
                   2
                   2
                   2
                   2
                   2
                   2
                   2
                   2
                   2
                   2
                   2
                   2
                   2
                   2
                   2
                   2
                   2
                   2
                   2
                   2
                   2
                   2
                   2
                   2
                   2
                   2
                   2
                   2
                   2
                   2
                   2
                   2
                   2
                   2
                   2
                   2
                   2
                   2
                   2
                   2
                   2
                   2
                   2
                   2
                   2
                   2
                   2
                   2
                   2
                   2
                   2
                   2
                   2
                   2
                   2
                   2
                   2
                   2
                   2
                   2
                   2
                   2
                   2
                   2
                   2
                   2
                   2
                   2
                   2
                   2
                   2
                   2
                   2
                   2
                   2
                   2
                   2
                   2
                   2
                   2
                   2
                   2
                   2
                   2
                   2
                   2
                   2
                   2
                   2
                   2
                   2
                   2
                   2
                   2
                   2
                   2
                   2
                   2
                   2
                   2
                   2
                   2
                   2
                   2
                   2
                   2
                   2
                   2
                   2
                   2
                   2
                   2
                   2
                   2
                   2
                   2
                   2
                   2
                   2
                   2
                   2
                   2
                   2
                   2
                   2
                   2
                   2
                   2
                   2
                   2
                   2
                   2
                   2
                   2
                   2
                   2
                   2
                   2
                   2
                   2
                   2
                   2
                   2
                   2
                   2
                   2
                   2
                   2
                   2
                   2
                   2
                   2
                   2
                   2
                   2
                   2
                   2
                   2
                   2
                   2
                   2
                   2
                   2
                   2
                   2
                   2
                   2
                   2
                   2
                   2
                   2
                   2
                   2
                   2
                   2
                   2
                   2
                   2
                   2
                   2
                   2
                   2
                   2
                   2
                   2
                   2
                   2
                   2
                   2
                   2
                   2
                   2
                   2
                   2
                   2
                   2
                   2
                   2
                   2
                   2
                   2
                   2
                   2
                   2
                   2
                   2
                   2
                   2
                   2
                   2
                   2
                   2
                   2
                   2
                   2
                   2
                   2
                   2
                   2
                   2
                   2
                   2
                   2
                   2
                   2
                   2
                   2
                   2
                   2
                   2
                   2
                   2
                   2
                   2
                   2
                   2
                   2
                   2
                   2
                   2
                   2
                   2
                   2
                   2
                   2
                   2
                   2
                   2
                   2
                   2
                   2
                   2
                   2
                   2
                   2
                   2
                   2
                   2
                   2
                   2
                   2
                   2
                   2
                   2
                   2
                   2
                   2
                   2
                   2
                   2
                   2
                   2
                   2
                   2
                   2
                   2
                   2
                   2
                   2
                   2
                   2
                   2
                   2
                   2
                   2
                   2
                   2
                   2
                   2
                   2
                   2
                   2
                   2
                   2
                   2
                   2
                   2
                   2
                   2
                   2
                   2
                   2
                   2
                   2
                   2
                   2
                   2
                   2
                   2
                   2
                   2
                   2
                   2
                   2
                   2
                   2
                   2
                   2
                   2
                   2
                   2
                   2
                   2
                   2
                   2
                   2
                   2
                   2
                   2
                   2
                   2
                   2
                   2
                   2
                   2
                   2
                   2
                   2
                   2
                   2
                   2
                   2
                   2
                   2
                   2
                   2
                   2
                   2
                   2
                   2
                   2
                   2
                   2
                   2
                   2
                   2
                   2
                   2
                   2
                   2
                   2
                   2
                   2
                   2
                   2
                   2
                   2
                   2
                   2
                   2
                   2
                   2
                   2
                   2
                   2
                   2
                   2
                   2
                   2
                   2
                   2
                   2
                   2
                   2
                   2
                   2
                   2
                   2
                   2
                   2
                   2
                   2
                   2
                   2
                   2
                   2
                   2
                   2
                   2
                   2
                   2
                   2
                   2
                   2
                   2
                   2
                   2
                   2
                   2
                   2
                   2
                   2
                   2
                   2
                   2
                   2
                   2
                   2
                   2
                   2
                   2
                   2
                   2
                   2
                   2
                   2
                   2
                   2
                   2
                   2
                   2
                   2
                   2
                   2
                   2
                   2
                   2
                   2
                   2
                   2
                   2
                   2
                   2
                   2
                   2
                   2
                   2
                   2
                   2
                   2
                   2
                   2
                   2
                   2
                   2
                   2
                   2
                   2
                   2
                   2
                   2
                   2
                   2
                   2
                   2
                   2
                   2
                   2
                   2
                   2
                   2
                   2
                   2
                   2
                   2
                   2
                   2
                   2
                   2
                   2
                   2
                   2
                   2
                   2
                   2
                   2
                   2
                   2
                   2
                   2
                   2
                   2
                   2
                   2
                   2
                   2
                   2
                   2
                   2
                   2
                   2
                   2
                   2
                   2
                   2
                   2
                   2
                   2
                   2
                   2
                   2
                   2
                   2
                   2
                   2
                   2
                   2
                   2
                   2
                   2
                   2
                   2
                   2
                   2
                   2
                   2
                   2
                   2
                   2
                   2
                   2
                   2
                   2
                   2
                   2
                   2
                   2
                   2
                   2
                   2
                   2
                   2
                   2
                   2
                   2
                   2
                   2
                   2
                   2
                   2
                   2
                   2
                   2
                   2
                   2
                   2
                   2
                   2
                   2
                   2
                   2
                   2
                   2
                   2
                   2
                   2
                   2
                   2
                   2
                   2
                   2
                   2
                   2
                   2
                   2
                   2
                   2
                   2
                   2
                   2
                   2
                   2
                   2
                   2
                   2
                   2
                   2
                   2
                   2
                   2
                   2
                   2
                   2
                   2
                   2
                   2
                   2
                   2
                   2
                   2
                   2
                   2
                   2
                   2
                   2
                   2
                   2
                   2
                   2
                   2
                   2
                   2
                   2
                   2
                   2
                   2
                   2
                   2
                   2
                   2
                   2
                   2
                   2
                   2
                   2
                   2
                   2
                   2
                   2
                   2
                   2
                   2
                   2
                   2
                   2
                   2
                   2
                   2
                   2
                   2
                   2
                   2
                   2
                   2
                   2
                   2
                   2
                   2
                   2
                   2
                   2
                   2
                   2
                   2
                   2
                   2
                   2
                   2
                   2
                   2
                   2
                   2
                   2
                   2
                   2
                   2
                   2
                   2
                   2
                   2
                   2
                   2
                   2
                   2
                   2
                   2
                   2
                   2
                   2
                   2
                   2
                   2
                   2
                   2
                   2
                   2
                   2
                   2
                   2
                   2
                   2
                   2
                   2
                   2
                   2
                   2
                   2
                   2
                   2
                   2
                   2
                   2
                   2
                   2
                   2
                   2
                   2
                   2
                   2
                   2
                   2
                   2
                   2
                   2
                   2
                   2
                   2
                   2
                   2
                   2
                   2
                   2
                   2
                   2
                   2
                   2
                   2
                   2
                   2
                   2
                   2
                   2
                   2
                   2
                   2
                   2
                   2
                   2
                   2
                   2
                   2
                   2
                   2
                   2
                   2
                   2
                   2
                   2
                   2
                   2
                   2
                   2
                   2
                   2
                   2
                   2
                   2
                   2
                   2
                   2
                   2
                   2
                   2
                   2
                   2
                   2
                   2
                   2
                   2
                   2
                   2
                   2
                   2
                   2
                   2
                   2
                   2
                   2
                   2
                   2
                   2
                   2
                   2
                   2
                   2
                   2
                   2
                   2
                   2
                   2
                   2
                   2
                   2
                   2
                   2
                   2
                   2
                   2
                   2
                   2
                   2
                   2
                   2
                   2
                   2
                   2
                   2
                   2
                   2
                   2
                   2
                   2
                   2
                   2
                   2
                   2
                   2
                   2
                   2
                   2
                   2
                   2
                   2
                   2
                   2
                   2
                   2
                   2
                   2
                   2
                   2
                   2
                   2
                   2
                   2
                   2
                   2
                   2
                   2
                   2
                   2
                   2
                   2
                   2
                   2
                   2
                   2
                   2
                   2
                   2
                   2
                   2
                   2
                   2
                   2
                   2
                   2
                   2
                   2
                   2
                   2
                   2
                   2
                   2
                   2
                   2
                   2
                   2
                   2
                   2
                   2
                   2
                   2
                   2
                   2
                   2
                   2
                   2
                   2
                   2
                   2
                   2
                   2
                   2
                   2
                   2
                   2
                   2
                   2
                   2
                   2
                   2
                   2
                   2
                   2
                   2
                   2
                   2
                   2
                   2
                   2
                   2
                   2
                   2
                   2
                   2
                   2
                   2
                   2
                   2
                   2
                   2
                   2
                   2
                   2
                   2
                   2
                   2
                   2
                   2
                   2
                   2
                   2
                   2
                   2
                   2
                   2
                   2
                   2
                   2
                   2
                   2
                   2
                   2
                   2
                   2
                   2
                   2
                   2
                   2
                   2
                   2
                   2
                   2
                   2
                   2
                   2
                   2
                   2
                   2
                   2
                   2
                   2
                   2
                   2
                   2
                   2
                   2
                   2
                   2
                   2
                   2
                   2
                   2
                   2
                   2
                   2
                   2
                   2
                   2
                   2
                   2
                   2
                   2
                   2
                   2
                   2
                   2
                   2
                   2
                   2
                   2
                   2
                   2
                   2
                   2
                   2
                   2
                   2
                   2
                   2
                   2
                   2
                   2
                   2
                   2
                   2
                   2
                   2
                   2
                   2
                   2
                   2
                   2
                   2
                   2
                   2
                   2
                   2
                   2
                   2
                   2
                   2
                   2
                   2
                   2
                   2
                   2
                   2
                   2
                   2
  
SCALARS                       fixity_x  double 1
LOOKUP_TABLE default
                   0
                   0
                   0
                   0
                   0
                   0
                   0
                   0
                   0
                   0
                   0
                   0
                   0
                   0
                   0
                   0
                   0
                   0
                   0
                   0
                   0
                   0
                   0
                   0
                   0
                   0
                   0
                   0
                   0
                   0
                   0
                   0
                   0
                   0
                   0
                   0
                   0
                   0
                   0
                   0
                   0
                   0
                   0
                   0
                   0
                   0
                   0
                   0
                   0
                   0
                   0
                   0
                   0
                   0
                   0
                   0
                   0
                   0
                   0
                   0
                   0
                   0
                   0
                   0
                   0
                   0
                   0
                   0
                   0
                   0
                   0
                   0
                   0
                   0
                   0
                   0
                   0
                   0
                   0
                   0
                   0
                   0
                   0
                   0
                   0
                   0
                   0
                   0
                   0
                   0
                   0
                   0
                   0
                   0
                   0
                   0
                   0
                   0
                   0
                   0
                   0
                   0
                   0
                   0
                   0
                   0
                   0
                   0
                   0
                   0
                   0
                   0
                   0
                   0
                   0
                   0
                   0
                   0
                   0
                   0
                   0
                   0
                   0
                   0
                   0
                   0
                   0
                   0
                   0
                   0
                   0
                   0
                   0
                   0
                   0
                   0
                   0
                   0
                   0
                   0
                   0
                   0
                   0
                   0
                   0
                   0
                   0
                   0
                   0
                   0
                   0
                   0
                   0
                   0
                   0
                   0
                   0
                   0
                   0
                   0
                   0
                   0
                   0
                   0
                   0
                   0
                   0
                   0
                   0
                   0
                   0
                   0
                   0
                   0
                   0
                   0
                   0
                   0
                   0
                   0
                   0
                   0
                   0
                   0
                   0
                   0
                   0
                   0
                   0
                   0
                   0
                   0
                   0
                   0
                   0
                   0
                   0
                   0
                   0
                   0
                   0
                   0
                   0
                   0
                   0
                   0
                   0
                   0
                   0
                   0
                   0
                   0
                   0
                   0
                   0
                   0
                   0
                   0
                   0
                   0
                   0
                   0
                   0
                   0
                   0
                   0
                   0
                   0
                   0
                   0
                   0
                   0
                   0
                   0
                   0
                   0
                   0
                   0
                   0
                   0
                   0
                   0
                   0
                   0
                   0
                   0
                   0
                   0
                   0
                   0
                   0
                   0
                   0
                   0
                   0
                   0
                   0
                   0
                   0
                   0
                   0
                   0
                   0
                   0
                   0
                   0
                   0
                   0
                   0
                   0
                   0
                   0
                   0
                   0
                   0
                   0
                   0
                   0
                   0
                   0
                   0
                   0
                   0
                   0
                   0
                   0
                   0
                   0
                   0
                   0
                   0
                   0
                   0
                   0
                   0
                   0
                   0
                   0
                   0
                   0
                   0
                   0
                   0
                   0
                   0
                   0
                   0
                   0
                   0
                   0
                   0
                   0
                   0
                   0
                   0
                   0
                   0
                   0
                   0
                   0
                   0
                   0
                   0
                   0
                   0
                   0
                   0
                   0
                   0
                   0
                   0
                   0
                   0
                   0
                   0
                   0
                   0
                   0
                   0
                   0
                   0
                   0
                   0
                   0
                   0
                   0
                   0
                   0
                   0
                   0
                   0
                   0
                   0
                   0
                   0
                   0
                   0
                   0
                   0
                   0
                   0
                   0
                   0
                   0
                   0
                   0
                   0
                   0
                   0
                   0
                   0
                   0
                   0
                   0
                   0
                   0
                   0
                   0
                   0
                   0
                   0
                   0
                   0
                   0
                   0
                   0
                   0
                   0
                   0
                   0
                   0
                   0
                   0
                   0
                   0
                   0
                   0
                   0
                   0
                   0
                   0
                   0
                   0
                   0
                   0
                   0
                   0
                   0
                   0
                   0
                   0
                   0
                   0
                   0
                   0
                   0
                   0
                   0
                   0
                   0
                   0
                   0
                   0
                   0
                   0
                   0
                   0
                   0
                   0
                   0
                   0
                   0
                   0
                   0
                   0
                   0
                   0
                   0
                   0
                   0
                   0
                   0
                   0
                   0
                   0
                   0
                   0
                   0
                   0
                   0
                   0
                   0
                   0
                   0
                   0
                   0
                   0
                   0
                   0
                   0
                   0
                   0
                   0
                   0
                   0
                   0
                   0
                   0
                   0
                   0
                   0
                   0
                   0
                   0
                   0
                   0
                   0
                   0
                   0
                   0
                   0
                   0
                   0
                   0
                   0
                   0
                   0
                   0
                   0
                   0
                   0
                   0
                   0
                   0
                   0
                   0
                   0
                   0
                   0
                   0
                   0
                   0
                   0
                   0
                   0
                   0
                   0
                   0
                   0
                   0
                   0
                   0
                   0
                   0
                   0
                   0
                   0
                   0
                   0
                   0
                   0
                   0
                   0
                   0
                   0
                   0
                   0
                   0
                   0
                   0
                   0
                   0
                   0
                   0
                   0
                   0
                   0
                   0
                   0
                   0
                   0
                   0
                   0
                   0
                   0
                   0
                   0
                   0
                   0
                   0
                   0
                   0
                   0
                   0
                   0
                   0
                   0
                   0
                   0
                   0
                   0
                   0
                   0
                   0
                   0
                   0
                   0
                   0
                   0
                   0
                   0
                   0
                   0
                   0
                   0
                   0
                   0
                   0
                   0
                   0
                   0
                   0
                   0
                   0
                   0
                   0
                   0
                   0
                   0
                   0
                   0
                   0
                   0
                   0
                   0
                   0
                   0
                   0
                   0
                   0
                   0
                   0
                   0
                   0
                   0
                   0
                   0
                   0
                   0
                   0
                   0
                   0
                   0
                   0
                   0
                   0
                   0
                   0
                   0
                   0
                   0
                   0
                   0
                   0
                   0
                   0
                   0
                   0
                   0
                   0
                   0
                   0
                   0
                   0
                   0
                   0
                   0
                   0
                   0
                   0
                   0
                   0
                   0
                   0
                   0
                   0
                   0
                   0
                   0
                   0
                   0
                   0
                   0
                   0
                   0
                   0
                   0
                   0
                   0
                   0
                   0
                   0
                   0
                   0
                   0
                   0
                   0
                   0
                   0
                   0
                   0
                   0
                   0
                   0
                   0
                   0
                   0
                   0
                   0
                   0
                   0
                   0
                   0
                   0
                   0
                   0
                   0
                   0
                   0
                   0
                   0
                   0
                   0
                   0
                   0
                   0
                   0
                   0
                   0
                   0
                   0
                   0
                   0
                   0
                   0
                   0
                   0
                   0
                   0
                   0
                   0
                   0
                   0
                   0
                   0
                   0
                   0
                   0
                   0
                   0
                   0
                   0
                   0
                   0
                   0
                   0
                   0
                   0
                   0
                   0
                   0
                   0
                   0
                   0
                   0
                   0
                   0
                   0
                   0
                   0
                   0
                   0
                   0
                   0
                   0
                   0
                   0
                   0
                   0
                   0
                   0
                   0
                   0
                   0
                   0
                   0
                   0
                   0
                   0
                   0
                   0
                   0
                   0
                   0
                   0
                   0
                   0
                   0
                   0
                   0
                   0
                   0
                   0
                   0
                   0
                   0
                   0
                   0
                   0
                   0
                   0
                   0
                   0
                   0
                   0
                   0
                   0
                   0
                   0
                   0
                   0
                   0
                   0
                   0
                   0
                   0
                   0
                   0
                   0
                   0
                   0
                   0
                   0
                   0
                   0
                   0
                   0
                   0
                   0
                   0
                   0
                   0
                   0
                   0
                   0
                   0
                   0
                   0
                   0
                   0
                   0
                   0
                   0
                   0
                   0
                   0
                   0
                   0
                   0
                   0
                   0
                   0
                   0
                   0
                   0
                   0
                   0
                   0
                   0
                   0
                   0
                   0
                   0
                   0
                   0
                   0
                   0
                   0
                   0
                   0
                   0
                   0
                   0
                   0
                   0
                   0
                   0
                   0
                   0
                   0
                   0
                   0
                   0
                   0
                   0
                   0
                   0
                   0
                   0
                   0
                   0
                   0
                   0
                   0
                   0
                   0
                   0
                   0
                   0
                   0
                   0
                   0
                   0
                   0
                   0
                   0
                   0
                   0
                   0
                   0
                   0
                   0
                   0
                   0
                   0
                   0
                   0
                   0
                   0
                   0
                   0
                   0
                   0
                   0
                   0
                   0
                   0
                   0
                   0
                   0
                   0
                   0
                   0
                   0
                   0
                   0
                   0
                   0
                   0
                   0
                   0
                   0
                   0
                   0
                   0
                   0
                   0
                   0
                   0
                   0
                   0
                   0
                   0
                   0
                   0
                   0
                   0
                   0
                   0
                   0
                   0
                   0
                   0
                   0
                   0
                   0
                   0
                   0
                   0
                   0
                   0
                   0
                   0
                   0
                   0
                   0
                   0
                   0
                   0
                   0
                   0
                   0
                   0
                   0
                   0
                   0
                   0
                   0
                   0
                   0
                   0
                   0
                   0
                   0
                   0
                   0
                   0
                   0
                   0
                   0
                   0
                   0
                   0
                   0
                   0
                   0
                   0
                   0
                   0
                   0
                   0
                   0
                   0
                   0
                   0
                   0
                   0
                   0
                   0
                   0
                   0
                   0
                   0
                   0
                   0
                   0
                   0
                   0
                   0
                   0
                   0
                   0
                   0
                   0
                   0
                   0
                   0
                   0
                   0
                   0
                   0
                   0
                   0
                   0
                   0
                   0
                   0
                   0
                   0
                   0
                   0
                   0
                   0
                   0
                   0
                   0
                   0
                   0
                   0
                   0
                   0
                   0
                   0
                   0
                   0
                   0
                   0
                   0
                   0
                   0
                   0
                   0
                   0
                   0
                   0
                   0
                   0
                   0
                   0
                   0
                   0
                   0
                   0
                   0
                   0
                   0
                   0
                   0
                   0
                   0
                   0
                   0
                   0
                   0
                   0
                   0
                   0
                   0
                   0
                   0
                   0
                   0
                   0
                   0
                   0
                   0
                   0
                   0
                   0
                   0
                   0
                   0
                   0
                   0
                   0
                   0
                   0
                   0
                   0
                   0
                   0
                   0
                   0
                   0
                   0
                   0
                   0
                   0
                   0
                   0
                   0
                   0
                   0
                   0
                   0
                   0
                   0
                   0
                   0
                   0
                   0
                   0
                   0
                   0
                   0
                   0
                   0
                   0
                   0
                   0
                   0
                   0
                   0
                   0
                   0
                   0
                   0
                   0
                   0
                   0
                   0
                   0
                   0
                   0
                   0
                   0
                   0
                   0
                   0
                   0
                   0
                   0
                   0
                   0
                   0
                   0
                   0
                   0
                   0
                   0
                   0
                   0
                   0
                   0
                   0
                   0
                   0
                   0
                   0
                   0
                   0
                   0
                   0
                   0
                   0
                   0
                   0
                   0
                   0
                   0
                   0
                   0
                   0
                   0
                   0
                   0
                   0
                   0
                   0
                   0
                   0
                   0
                   0
                   0
                   0
                   0
                   0
                   0
                   0
                   0
                   0
                   0
                   0
                   0
                   0
                   0
                   0
                   0
                   0
                   0
                   0
                   0
                   0
                   0
                   0
                   0
                   0
                   0
                   0
                   0
                   0
                   0
                   0
                   0
                   0
                   0
                   0
                   0
                   0
                   0
                   0
                   0
                   0
                   0
                   0
                   0
                   0
                   0
                   0
                   0
                   0
                   0
                   0
                   0
                   0
                   0
                   0
                   0
                   0
                   0
                   0
                   0
                   0
                   0
                   0
                   0
                   0
                   0
                   0
                   0
                   0
                   0
                   0
                   0
                   0
                   0
                   0
                   0
                   0
                   0
                   0
                   0
                   0
                   0
                   0
                   0
                   0
                   0
                   0
                   0
                   0
                   0
                   0
                   0
                   0
                   0
                   0
                   0
                   0
                   0
                   0
                   0
                   0
                   0
                   0
                   0
                   0
                   0
                   0
                   0
                   0
                   0
                   0
                   0
                   0
                   0
                   0
                   0
                   0
                   0
                   0
                   0
                   0
                   0
                   0
                   0
                   0
                   0
                   0
                   0
                   0
                   0
                   0
                   0
                   0
                   0
                   0
                   0
                   0
                   0
                   0
                   0
                   0
                   0
                   0
                   0
                   0
                   0
                   0
                   0
                   0
                   0
                   0
                   0
                   0
                   0
                   0
                   0
                   0
                   0
                   0
                   0
                   0
                   0
                   0
                   0
                   0
                   0
                   0
                   0
                   0
                   0
                   0
                   0
                   0
                   0
                   0
                   0
                   0
                   0
                   0
                   0
                   0
                   0
                   0
                   0
                   0
                   0
                   0
                   0
                   0
                   0
                   0
                   0
                   0
                   0
                   0
                   0
                   0
                   0
                   0
                   0
                   0
                   0
                   0
                   0
                   0
                   0
                   0
                   0
                   0
                   0
                   0
                   0
                   0
                   0
                   0
                   0
                   0
                   0
                   0
                   0
                   0
                   0
                   0
                   0
                   0
                   0
                   0
                   0
                   0
                   0
                   0
                   0
                   0
                   0
                   0
                   0
                   0
                   0
                   0
                   0
                   0
                   0
                   0
                   0
                   0
                   0
                   0
                   0
                   0
                   0
                   0
                   0
                   0
                   0
                   0
                   0
                   0
                   0
                   0
                   0
                   0
                   0
                   0
                   0
                   0
                   0
                   0
                   0
                   0
                   0
                   0
                   0
                   0
                   0
                   0
                   0
                   0
                   0
                   0
                   0
                   0
                   0
                   0
                   0
                   0
                   0
                   0
                   0
                   0
                   0
                   0
                   0
                   0
                   0
                   0
                   0
                   0
                   0
                   0
                   0
                   0
                   0
                   0
                   0
                   0
                   0
                   0
                   0
                   0
                   0
                   0
                   0
                   0
                   0
                   0
                   0
                   0
                   0
                   0
                   0
                   0
                   0
                   0
                   0
                   0
                   0
                   0
                   0
                   0
                   0
                   0
                   0
                   0
                   0
                   0
                   0
                   0
                   0
                   0
                   0
                   0
                   0
                   0
                   0
                   0
                   0
                   0
                   0
                   0
                   0
                   0
                   0
                   0
                   0
                   0
                   0
                   0
                   0
                   0
                   0
                   0
                   0
                   0
                   0
                   0
                   0
                   0
                   0
                   0
                   0
                   0
                   0
                   0
                   0
                   0
                   0
                   0
                   0
                   0
                   0
                   0
                   0
                   0
                   0
                   0
                   0
                   0
                   0
                   0
                   0
                   0
                   0
                   0
                   0
                   0
                   0
                   0
                   0
                   0
                   0
                   0
                   0
                   0
                   0
                   0
                   0
                   0
                   0
                   0
                   0
                   0
                   0
                   0
                   0
                   0
                   0
                   0
                   0
                   0
                   0
                   0
                   0
                   0
                   0
                   0
                   0
                   0
                   0
                   0
                   0
                   0
                   0
                   0
                   0
                   0
                   0
                   0
                   0
                   0
                   0
                   0
                   0
                   0
                   0
                   0
                   0
                   0
                   0
                   0
                   0
                   0
                   0
                   0
                   0
                   0
                   0
                   0
                   0
                   0
                   0
                   0
                   0
                   0
                   0
                   0
                   0
                   0
                   0
                   0
                   0
                   0
                   0
                   0
                   0
                   0
                   0
                   0
                   0
                   0
                   0
                   0
                   0
                   0
                   0
                   0
                   0
                   0
                   0
                   0
                   0
                   0
                   0
                   0
                   0
                   0
                   0
                   0
                   0
                   0
                   0
                   0
                   0
                   0
                   0
                   0
                   0
                   0
                   0
                   0
                   0
                   0
                   0
                   0
                   0
                   0
                   0
                   0
                   0
                   0
                   0
                   0
                   0
                   0
                   0
                   0
                   0
                   0
                   0
                   0
                   0
                   0
                   0
                   0
                   0
                   0
                   0
                   0
                   0
                   0
                   0
                   0
                   0
                   0
                   0
                   0
                   0
                   0
                   0
                   0
                   0
                   0
                   0
                   0
                   0
                   0
                   0
                   0
                   0
                   0
                   0
                   0
                   0
                   0
                   0
                   0
                   0
                   0
                   0
                   0
                   0
                   0
                   0
                   0
                   0
                   0
                   0
                   0
                   0
                   0
                   0
                   0
                   0
                   0
                   0
                   0
                   0
                   0
                   0
                   0
                   0
                   0
                   0
                   0
                   0
                   0
                   0
                   0
                   0
                   0
                   0
                   0
                   0
                   0
                   0
                   0
                   0
                   0
                   0
                   0
                   0
                   0
                   0
                   0
                   0
                   0
                   0
                   0
                   0
                   0
                   0
                   0
                   0
                   0
                   0
                   0
                   0
                   0
                   0
                   0
                   0
                   0
                   0
                   0
                   0
                   0
                   0
                   0
                   0
                   0
                   0
                   0
                   0
                   0
                   0
                   0
                   0
                   0
                   0
                   0
                   0
                   0
                   0
                   0
                   0
                   0
                   0
                   0
                   0
                   0
                   0
                   0
                   0
                   0
                   0
                   0
                   0
                   0
                   0
                   0
                   0
                   0
                   0
                   0
                   0
                   0
                   0
                   0
                   0
                   0
                   0
                   0
                   0
                   0
                   0
                   0
                   0
                   0
                   0
                   0
                   0
                   0
                   0
                   0
                   0
                   0
                   0
                   0
                   0
                   0
                   0
                   0
                   0
                   0
                   0
                   0
                   0
                   0
                   0
                   0
                   0
                   0
                   0
                   0
                   0
                   0
                   0
                   0
                   0
                   0
                   0
                   0
                   0
                   0
                   0
                   0
                   0
                   0
                   0
                   0
                   0
                   0
                   0
                   0
                   0
                   0
                   0
                   0
                   0
                   0
                   0
                   0
                   0
                   0
                   0
                   0
                   0
                   0
                   0
                   0
                   0
                   0
                   0
                   0
                   0
                   0
                   0
                   0
                   0
  
SCALARS                       fixity_y  double 1
LOOKUP_TABLE default
                   0
                   0
                   0
                   0
                   0
                   0
                   0
                   0
                   0
                   0
                   0
                   0
                   0
                   0
                   0
                   0
                   0
                   0
                   0
                   0
                   0
                   0
                   0
                   0
                   0
                   0
                   0
                   0
                   0
                   0
                   0
                   0
                   0
                   0
                   0
                   0
                   0
                   0
                   0
                   0
                   0
                   0
                   0
                   0
                   0
                   0
                   0
                   0
                   0
                   0
                   0
                   0
                   0
                   0
                   0
                   0
                   0
                   0
                   0
                   0
                   0
                   0
                   0
                   0
                   0
                   0
                   0
                   0
                   0
                   0
                   0
                   0
                   0
                   0
                   0
                   0
                   0
                   0
                   0
                   0
                   0
                   0
                   0
                   0
                   0
                   0
                   0
                   0
                   0
                   0
                   0
                   0
                   0
                   0
                   0
                   0
                   0
                   0
                   0
                   0
                   0
                   0
                   0
                   0
                   0
                   0
                   0
                   0
                   0
                   0
                   0
                   0
                   0
                   0
                   0
                   0
                   0
                   0
                   0
                   0
                   0
                   0
                   0
                   0
                   0
                   0
                   0
                   0
                   0
                   0
                   0
                   0
                   0
                   0
                   0
                   0
                   0
                   0
                   0
                   0
                   0
                   0
                   0
                   0
                   0
                   0
                   0
                   0
                   0
                   0
                   0
                   0
                   0
                   0
                   0
                   0
                   0
                   0
                   0
                   0
                   0
                   0
                   0
                   0
                   0
                   0
                   0
                   0
                   0
                   0
                   0
                   0
                   0
                   0
                   0
                   0
                   0
                   0
                   0
                   0
                   0
                   0
                   0
                   0
                   0
                   0
                   0
                   0
                   0
                   0
                   0
                   0
                   0
                   0
                   0
                   0
                   0
                   0
                   0
                   0
                   0
                   0
                   0
                   0
                   0
                   0
                   0
                   0
                   0
                   0
                   0
                   0
                   0
                   0
                   0
                   0
                   0
                   0
                   0
                   0
                   0
                   0
                   0
                   0
                   0
                   0
                   0
                   0
                   0
                   0
                   0
                   0
                   0
                   0
                   0
                   0
                   0
                   0
                   0
                   0
                   0
                   0
                   0
                   0
                   0
                   0
                   0
                   0
                   0
                   0
                   0
                   0
                   0
                   0
                   0
                   0
                   0
                   0
                   0
                   0
                   0
                   0
                   0
                   0
                   0
                   0
                   0
                   0
                   0
                   0
                   0
                   0
                   0
                   0
                   0
                   0
                   0
                   0
                   0
                   0
                   0
                   0
                   0
                   0
                   0
                   0
                   0
                   0
                   0
                   0
                   0
                   0
                   0
                   0
                   0
                   0
                   0
                   0
                   0
                   0
                   0
                   0
                   0
                   0
                   0
                   0
                   0
                   0
                   0
                   0
                   0
                   0
                   0
                   0
                   0
                   0
                   0
                   0
                   0
                   0
                   0
                   0
                   0
                   0
                   0
                   0
                   0
                   0
                   0
                   0
                   0
                   0
                   0
                   0
                   0
                   0
                   0
                   0
                   0
                   0
                   0
                   0
                   0
                   0
                   0
                   0
                   0
                   0
                   0
                   0
                   0
                   0
                   0
                   0
                   0
                   0
                   0
                   0
                   0
                   0
                   0
                   0
                   0
                   0
                   0
                   0
                   0
                   0
                   0
                   0
                   0
                   0
                   0
                   0
                   0
                   0
                   0
                   0
                   0
                   0
                   0
                   0
                   0
                   0
                   0
                   0
                   0
                   0
                   0
                   0
                   0
                   0
                   0
                   0
                   0
                   0
                   0
                   0
                   0
                   0
                   0
                   0
                   0
                   0
                   0
                   0
                   0
                   0
                   0
                   0
                   0
                   0
                   0
                   0
                   0
                   0
                   0
                   0
                   0
                   0
                   0
                   0
                   0
                   0
                   0
                   0
                   0
                   0
                   0
                   0
                   0
                   0
                   0
                   0
                   0
                   0
                   0
                   0
                   0
                   0
                   0
                   0
                   0
                   0
                   0
                   0
                   0
                   0
                   0
                   0
                   0
                   0
                   0
                   0
                   0
                   0
                   0
                   0
                   0
                   0
                   0
                   0
                   0
                   0
                   0
                   0
                   0
                   0
                   0
                   0
                   0
                   0
                   0
                   0
                   0
                   0
                   0
                   0
                   0
                   0
                   0
                   0
                   0
                   0
                   0
                   0
                   0
                   0
                   0
                   0
                   0
                   0
                   0
                   0
                   0
                   0
                   0
                   0
                   0
                   0
                   0
                   0
                   0
                   0
                   0
                   0
                   0
                   0
                   0
                   0
                   0
                   0
                   0
                   0
                   0
                   0
                   0
                   0
                   0
                   0
                   0
                   0
                   0
                   0
                   0
                   0
                   0
                   0
                   0
                   0
                   0
                   0
                   0
                   0
                   0
                   0
                   0
                   0
                   0
                   0
                   0
                   0
                   0
                   0
                   0
                   0
                   0
                   0
                   0
                   0
                   0
                   0
                   0
                   0
                   0
                   0
                   0
                   0
                   0
                   0
                   0
                   0
                   0
                   0
                   0
                   0
                   0
                   0
                   0
                   0
                   0
                   0
                   0
                   0
                   0
                   0
                   0
                   0
                   0
                   0
                   0
                   0
                   0
                   0
                   0
                   0
                   0
                   0
                   0
                   0
                   0
                   0
                   0
                   0
                   0
                   0
                   0
                   0
                   0
                   0
                   0
                   0
                   0
                   0
                   0
                   0
                   0
                   0
                   0
                   0
                   0
                   0
                   0
                   0
                   0
                   0
                   0
                   0
                   0
                   0
                   0
                   0
                   0
                   0
                   0
                   0
                   0
                   0
                   0
                   0
                   0
                   0
                   0
                   0
                   0
                   0
                   0
                   0
                   0
                   0
                   0
                   0
                   0
                   0
                   0
                   0
                   0
                   0
                   0
                   0
                   0
                   0
                   0
                   0
                   0
                   0
                   0
                   0
                   0
                   0
                   0
                   0
                   0
                   0
                   0
                   0
                   0
                   0
                   0
                   0
                   0
                   0
                   0
                   0
                   0
                   0
                   0
                   0
                   0
                   0
                   0
                   0
                   0
                   0
                   0
                   0
                   0
                   0
                   0
                   0
                   0
                   0
                   0
                   0
                   0
                   0
                   0
                   0
                   0
                   0
                   0
                   0
                   0
                   0
                   0
                   0
                   0
                   0
                   0
                   0
                   0
                   0
                   0
                   0
                   0
                   0
                   0
                   0
                   0
                   0
                   0
                   0
                   0
                   0
                   0
                   0
                   0
                   0
                   0
                   0
                   0
                   0
                   0
                   0
                   0
                   0
                   0
                   0
                   0
                   0
                   0
                   0
                   0
                   0
                   0
                   0
                   0
                   0
                   0
                   0
                   0
                   0
                   0
                   0
                   0
                   0
                   0
                   0
                   0
                   0
                   0
                   0
                   0
                   0
                   0
                   0
                   0
                   0
                   0
                   0
                   0
                   0
                   0
                   0
                   0
                   0
                   0
                   0
                   0
                   0
                   0
                   0
                   0
                   0
                   0
                   0
                   0
                   0
                   0
                   0
                   0
                   0
                   0
                   0
                   0
                   0
                   0
                   0
                   0
                   0
                   0
                   0
                   0
                   0
                   0
                   0
                   0
                   0
                   0
                   0
                   0
                   0
                   0
                   0
                   0
                   0
                   0
                   0
                   0
                   0
                   0
                   0
                   0
                   0
                   0
                   0
                   0
                   0
                   0
                   0
                   0
                   0
                   0
                   0
                   0
                   0
                   0
                   0
                   0
                   0
                   0
                   0
                   0
                   0
                   0
                   0
                   0
                   0
                   0
                   0
                   0
                   0
                   0
                   0
                   0
                   0
                   0
                   0
                   0
                   0
                   0
                   0
                   0
                   0
                   0
                   0
                   0
                   0
                   0
                   0
                   0
                   0
                   0
                   0
                   0
                   0
                   0
                   0
                   0
                   0
                   0
                   0
                   0
                   0
                   0
                   0
                   0
                   0
                   0
                   0
                   0
                   0
                   0
                   0
                   0
                   0
                   0
                   0
                   0
                   0
                   0
                   0
                   0
                   0
                   0
                   0
                   0
                   0
                   0
                   0
                   0
                   0
                   0
                   0
                   0
                   0
                   0
                   0
                   0
                   0
                   0
                   0
                   0
                   0
                   0
                   0
                   0
                   0
                   0
                   0
                   0
                   0
                   0
                   0
                   0
                   0
                   0
                   0
                   0
                   0
                   0
                   0
                   0
                   0
                   0
                   0
                   0
                   0
                   0
                   0
                   0
                   0
                   0
                   0
                   0
                   0
                   0
                   0
                   0
                   0
                   0
                   0
                   0
                   0
                   0
                   0
                   0
                   0
                   0
                   0
                   0
                   0
                   0
                   0
                   0
                   0
                   0
                   0
                   0
                   0
                   0
                   0
                   0
                   0
                   0
                   0
                   0
                   0
                   0
                   0
                   0
                   0
                   0
                   0
                   0
                   0
                   0
                   0
                   0
                   0
                   0
                   0
                   0
                   0
                   0
                   0
                   0
                   0
                   0
                   0
                   0
                   0
                   0
                   0
                   0
                   0
                   0
                   0
                   0
                   0
                   0
                   0
                   0
                   0
                   0
                   0
                   0
                   0
                   0
                   0
                   0
                   0
                   0
                   0
                   0
                   0
                   0
                   0
                   0
                   0
                   0
                   0
                   0
                   0
                   0
                   0
                   0
                   0
                   0
                   0
                   0
                   0
                   0
                   0
                   0
                   0
                   0
                   0
                   0
                   0
                   0
                   0
                   0
                   0
                   0
                   0
                   0
                   0
                   0
                   0
                   0
                   0
                   0
                   0
                   0
                   0
                   0
                   0
                   0
                   0
                   0
                   0
                   0
                   0
                   0
                   0
                   0
                   0
                   0
                   0
                   0
                   0
                   0
                   0
                   0
                   0
                   0
                   0
                   0
                   0
                   0
                   0
                   0
                   0
                   0
                   0
                   0
                   0
                   0
                   0
                   0
                   0
                   0
                   0
                   0
                   0
                   0
                   0
                   0
                   0
                   0
                   0
                   0
                   0
                   0
                   0
                   0
                   0
                   0
                   0
                   0
                   0
                   0
                   0
                   0
                   0
                   0
                   0
                   0
                   0
                   0
                   0
                   0
                   0
                   0
                   0
                   0
                   0
                   0
                   0
                   0
                   0
                   0
                   0
                   0
                   0
                   0
                   0
                   0
                   0
                   0
                   0
                   0
                   0
                   0
                   0
                   0
                   0
                   0
                   0
                   0
                   0
                   0
                   0
                   0
                   0
                   0
                   0
                   0
                   0
                   0
                   0
                   0
                   0
                   0
                   0
                   0
                   0
                   0
                   0
                   0
                   0
                   0
                   0
                   0
                   0
                   0
                   0
                   0
                   0
                   0
                   0
                   0
                   0
                   0
                   0
                   0
                   0
                   0
                   0
                   0
                   0
                   0
                   0
                   0
                   0
                   0
                   0
                   0
                   0
                   0
                   0
                   0
                   0
                   0
                   0
                   0
                   0
                   0
                   0
                   0
                   0
                   0
                   0
                   0
                   0
                   0
                   0
                   0
                   0
                   0
                   0
                   0
                   0
                   0
                   0
                   0
                   0
                   0
                   0
                   0
                   0
                   0
                   0
                   0
                   0
                   0
                   0
                   0
                   0
                   0
                   0
                   0
                   0
                   0
                   0
                   0
                   0
                   0
                   0
                   0
                   0
                   0
                   0
                   0
                   0
                   0
                   0
                   0
                   0
                   0
                   0
                   0
                   0
                   0
                   0
                   0
                   0
                   0
                   0
                   0
                   0
                   0
                   0
                   0
                   0
                   0
                   0
                   0
                   0
                   0
                   0
                   0
                   0
                   0
                   0
                   0
                   0
                   0
                   0
                   0
                   0
                   0
                   0
                   0
                   0
                   0
                   0
                   0
                   0
                   0
                   0
                   0
                   0
                   0
                   0
                   0
                   0
                   0
                   0
                   0
                   0
                   0
                   0
                   0
                   0
                   0
                   0
                   0
                   0
                   0
                   0
                   0
                   0
                   0
                   0
                   0
                   0
                   0
                   0
                   0
                   0
                   0
                   0
                   0
                   0
                   0
                   0
                   0
                   0
                   0
                   0
                   0
                   0
                   0
                   0
                   0
                   0
                   0
                   0
                   0
                   0
                   0
                   0
                   0
                   0
                   0
                   0
                   0
                   0
                   0
                   0
                   0
                   0
                   0
                   0
                   0
                   0
                   0
                   0
                   0
                   0
                   0
                   0
                   0
                   0
                   0
                   0
                   0
                   0
                   0
                   0
                   0
                   0
                   0
                   0
                   0
                   0
                   0
                   0
                   0
                   0
                   0
                   0
                   0
                   0
                   0
                   0
                   0
                   0
                   0
                   0
                   0
                   0
                   0
                   0
                   0
                   0
                   0
                   0
                   0
                   0
                   0
                   0
                   0
                   0
                   0
                   0
                   0
                   0
                   0
                   0
                   0
                   0
                   0
                   0
                   0
                   0
                   0
                   0
                   0
                   0
                   0
                   0
                   0
                   0
                   0
                   0
                   0
                   0
                   0
                   0
                   0
                   0
                   0
                   0
                   0
                   0
                   0
                   0
                   0
                   0
                   0
                   0
                   0
                   0
                   0
                   0
                   0
                   0
                   0
                   0
                   0
                   0
                   0
                   0
                   0
                   0
                   0
                   0
                   0
                   0
                   0
                   0
                   0
                   0
                   0
                   0
                   0
                   0
                   0
                   0
                   0
                   0
                   0
                   0
                   0
                   0
                   0
                   0
                   0
                   0
                   0
                   0
                   0
                   0
                   0
                   0
                   0
                   0
                   0
                   0
                   0
                   0
                   0
                   0
                   0
                   0
                   0
                   0
                   0
                   0
                   0
                   0
                   0
                   0
                   0
                   0
                   0
                   0
                   0
                   0
                   0
                   0
                   0
                   0
                   0
                   0
                   0
                   0
                   0
                   0
                   0
                   0
                   0
                   0
                   0
                   0
                   0
                   0
                   0
                   0
                   0
                   0
                   0
                   0
                   0
                   0
                   0
                   0
                   0
                   0
                   0
                   0
                   0
                   0
                   0
                   0
                   0
                   0
                   0
                   0
                   0
                   0
                   0
                   0
                   0
                   0
                   0
                   0
                   0
                   0
                   0
                   0
                   0
                   0
                   0
                   0
                   0
                   0
                   0
                   0
                   0
                   0
                   0
                   0
                   0
                   0
                   0
                   0
                   0
                   0
                   0
                   0
                   0
                   0
                   0
                   0
                   0
                   0
                   0
                   0
                   0
                   0
                   0
                   0
                   0
                   0
                   0
                   0
                   0
                   0
                   0
                   0
                   0
                   0
                   0
                   0
                   0
                   0
                   0
                   0
                   0
                   0
                   0
                   0
                   0
                   0
                   0
                   0
                   0
                   0
                   0
                   0
                   0
                   0
                   0
                   0
                   0
                   0
                   0
                   0
                   0
                   0
                   0
                   0
                   0
                   0
                   0
                   0
                   0
                   0
                   0
                   0
                   0
                   0
                   0
                   0
                   0
                   0
                   0
                   0
                   0
                   0
                   0
                   0
                   0
                   0
                   0
                   0
                   0
                   0
                   0
                   0
                   0
                   0
                   0
                   0
                   0
                   0
                   0
                   0
                   0
                   0
                   0
                   0
                   0
                   0
                   0
                   0
                   0
                   0
                   0
                   0
                   0
                   0
                   0
                   0
                   0
                   0
                   0
                   0
                   0
                   0
                   0
                   0
                   0
                   0
                   0
                   0
                   0
                   0
                   0
                   0
                   0
                   0
                   0
                   0
                   0
                   0
                   0
                   0
                   0
                   0
                   0
                   0
                   0
                   0
                   0
                   0
                   0
                   0
                   0
                   0
                   0
                   0
                   0
                   0
                   0
                   0
                   0
                   0
                   0
                   0
                   0
                   0
                   0
                   0
                   0
                   0
                   0
                   0
                   0
                   0
                   0
                   0
                   0
                   0
                   0
                   0
                   0
                   0
                   0
                   0
                   0
                   0
                   0
                   0
                   0
                   0
                   0
                   0
                   0
                   0
                   0
                   0
                   0
                   0
                   0
                   0
                   0
                   0
                   0
                   0
                   0
                   0
                   0
                   0
                   0
                   0
                   0
                   0
                   0
                   0
                   0
                   0
                   0
                   0
                   0
                   0
                   0
                   0
                   0
                   0
                   0
                   0
                   0
                   0
                   0
                   0
                   0
                   0
                   0
                   0
                   0
                   0
                   0
                   0
                   0
                   0
                   0
                   0
                   0
                   0
                   0
                   0
                   0
                   0
                   0
                   0
                   0
                   0
                   0
                   0
                   0
                   0
                   0
                   0
                   0
                   0
                   0
                   0
                   0
                   0
                   0
                   0
                   0
                   0
                   0
                   0
                   0
                   0
                   0
                   0
                   0
                   0
                   0
                   0
                   0
                   0
                   0
                   0
                   0
                   0
                   0
                   0
                   0
                   0
                   0
                   0
                   0
                   0
                   0
                   0
                   0
                   0
                   0
                   0
                   0
                   0
                   0
                   0
                   0
                   0
                   0
                   0
                   0
                   0
                   0
                   0
                   0
                   0
                   0
                   0
                   0
                   0
                   0
                   0
                   0
                   0
                   0
                   0
                   0
                   0
                   0
                   0
                   0
                   0
                   0
                   0
                   0
                   0
                   0
                   0
                   0
                   0
                   0
                   0
                   0
                   0
                   0
                   0
                   0
                   0
                   0
                   0
                   0
                   0
                   0
                   0
  
SCALARS                       fixity_z  double 1
LOOKUP_TABLE default
                   0
                   0
                   0
                   0
                   1
                   1
                   1
                   1
                   0
                   0
                   1
                   1
                   0
                   0
                   1
                   1
                   0
                   0
                   1
                   1
                   0
                   0
                   0
                   1
                   1
                   1
                   0
                   0
                   1
                   1
                   0
                   0
                   0
                   1
                   1
                   1
                   0
                   0
                   1
                   1
                   0
                   0
                   1
                   1
                   0
                   0
                   1
                   1
                   0
                   1
                   0
                   1
                   0
                   1
                   0
                   1
                   0
                   0
                   1
                   1
                   0
                   0
                   1
                   1
                   0
                   1
                   0
                   1
                   0
                   0
                   1
                   1
                   0
                   1
                   0
                   1
                   0
                   1
                   0
                   1
                   0
                   0
                   1
                   1
                   0
                   1
                   0
                   1
                   0
                   1
                   0
                   0
                   1
                   1
                   0
                   1
                   0
                   1
                   0
                   1
                   0
                   0
                   1
                   1
                   0
                   0
                   1
                   1
                   0
                   1
                   0
                   1
                   0
                   1
                   0
                   1
                   0
                   1
                   0
                   1
                   0
                   1
                   0
                   1
                   0
                   1
                   0
                   1
                   0
                   1
                   0
                   1
                   0
                   1
                   0
                   1
                   0
                   1
                   0
                   1
                   0
                   1
                   0
                   1
                   0
                   1
                   0
                   1
                   0
                   1
                   0
                   1
                   0
                   1
                   0
                   1
                   0
                   0
                   0
                   0
                   0
                   0
                   0
                   0
                   0
                   0
                   0
                   0
                   0
                   0
                   0
                   0
                   0
                   0
                   0
                   0
                   0
                   0
                   0
                   0
                   0
                   0
                   0
                   0
                   0
                   0
                   0
                   0
                   0
                   0
                   0
                   0
                   0
                   0
                   0
                   0
                   0
                   0
                   0
                   0
                   0
                   0
                   0
                   0
                   0
                   0
                   0
                   0
                   0
                   0
                   0
                   0
                   0
                   0
                   0
                   0
                   0
                   0
                   0
                   0
                   0
                   0
                   0
                   0
                   0
                   0
                   0
                   0
                   0
                   0
                   0
                   0
                   0
                   0
                   0
                   0
                   0
                   0
                   0
                   0
                   0
                   0
                   0
                   0
                   0
                   0
                   0
                   0
                   0
                   0
                   0
                   0
                   0
                   0
                   0
                   0
                   0
                   0
                   0
                   0
                   0
                   0
                   0
                   0
                   0
                   0
                   0
                   0
                   0
                   0
                   0
                   0
                   0
                   0
                   0
                   0
                   0
                   0
                   0
                   0
                   0
                   0
                   0
                   0
                   0
                   0
                   0
                   0
                   0
                   0
                   0
                   0
                   0
                   0
                   0
                   0
                   0
                   0
                   0
                   0
                   0
                   0
                   0
                   0
                   0
                   0
                   0
                   0
                   0
                   0
                   0
                   0
                   0
                   0
                   0
                   0
                   0
                   0
                   0
                   0
                   0
                   0
                   0
                   0
                   0
                   0
                   0
                   0
                   0
                   0
                   0
                   0
                   0
                   0
                   0
                   0
                   0
                   0
                   0
                   0
                   0
                   0
                   0
                   0
                   0
                   0
                   0
                   0
                   0
                   0
                   0
                   0
                   0
                   0
                   0
                   0
                   0
                   0
                   0
                   0
                   0
                   0
                   0
                   0
                   0
                   0
                   0
                   0
                   0
                   0
                   0
                   0
                   0
                   0
                   0
                   0
                   0
                   0
                   0
                   0
                   0
                   0
                   0
                   0
                   0
                   0
                   0
                   0
                   0
                   0
                   0
                   0
                   0
                   0
                   0
                   0
                   0
                   0
                   0
                   0
                   0
                   0
                   0
                   0
                   0
                   0
                   0
                   0
                   0
                   0
                   0
                   0
                   0
                   0
                   0
                   0
                   0
                   0
                   0
                   0
                   0
                   0
                   0
                   0
                   0
                   0
                   0
                   0
                   0
                   0
                   0
                   0
                   0
                   0
                   0
                   0
                   0
                   0
                   0
                   0
                   0
                   0
                   0
                   0
                   0
                   0
                   0
                   0
                   0
                   0
                   0
                   0
                   0
                   0
                   0
                   0
                   0
                   0
                   0
                   0
                   0
                   0
                   0
                   0
                   0
                   0
                   0
                   0
                   0
                   0
                   0
                   0
                   0
                   0
                   0
                   0
                   0
                   0
                   0
                   0
                   0
                   0
                   0
                   0
                   0
                   0
                   0
                   0
                   0
                   0
                   0
                   0
                   0
                   0
                   0
                   0
                   0
                   0
                   0
                   0
                   0
                   0
                   0
                   0
                   0
                   0
                   0
                   0
                   0
                   0
                   0
                   0
                   0
                   0
                   0
                   0
                   0
                   0
                   0
                   0
                   0
                   0
                   0
                   0
                   0
                   0
                   0
                   0
                   0
                   0
                   0
                   0
                   0
                   0
                   0
                   0
                   0
                   0
                   0
                   0
                   0
                   0
                   0
                   0
                   0
                   0
                   0
                   0
                   0
                   0
                   0
                   0
                   0
                   0
                   0
                   0
                   0
                   0
                   0
                   0
                   0
                   0
                   0
                   0
                   0
                   0
                   0
                   0
                   0
                   0
                   0
                   0
                   0
                   0
                   0
                   0
                   0
                   0
                   0
                   0
                   0
                   0
                   0
                   0
                   0
                   0
                   0
                   0
                   0
                   0
                   0
                   0
                   0
                   0
                   0
                   0
                   0
                   0
                   0
                   0
                   0
                   0
                   0
                   0
                   0
                   0
                   0
                   0
                   0
                   0
                   0
                   0
                   0
                   0
                   0
                   0
                   0
                   0
                   0
                   0
                   0
                   0
                   0
                   0
                   0
                   0
                   0
                   0
                   0
                   0
                   0
                   0
                   0
                   0
                   0
                   0
                   0
                   0
                   0
                   0
                   0
                   0
                   0
                   0
                   0
                   0
                   0
                   0
                   0
                   0
                   0
                   0
                   0
                   0
                   0
                   0
                   0
                   0
                   0
                   0
                   0
                   0
                   0
                   0
                   0
                   0
                   0
                   0
                   0
                   0
                   0
                   0
                   0
                   0
                   0
                   0
                   0
                   0
                   0
                   0
                   0
                   0
                   0
                   0
                   0
                   0
                   0
                   0
                   0
                   0
                   0
                   0
                   0
                   0
                   0
                   0
                   0
                   0
                   0
                   0
                   0
                   0
                   0
                   0
                   0
                   0
                   0
                   0
                   0
                   0
                   0
                   0
                   0
                   0
                   0
                   0
                   0
                   0
                   0
                   0
                   0
                   0
                   0
                   0
                   0
                   0
                   0
                   0
                   0
                   0
                   0
                   0
                   0
                   0
                   0
                   0
                   0
                   0
                   0
                   0
                   0
                   0
                   0
                   0
                   0
                   0
                   0
                   0
                   0
                   0
                   0
                   0
                   0
                   0
                   0
                   0
                   0
                   0
                   0
                   0
                   0
                   0
                   0
                   0
                   0
                   0
                   0
                   0
                   0
                   0
                   0
                   0
                   0
                   0
                   0
                   0
                   0
                   0
                   0
                   0
                   0
                   0
                   0
                   0
                   0
                   0
                   0
                   0
                   0
                   0
                   0
                   0
                   0
                   0
                   0
                   0
                   0
                   0
                   0
                   0
                   0
                   0
                   0
                   0
                   0
                   0
                   0
                   0
                   0
                   0
                   0
                   0
                   0
                   0
                   0
                   0
                   0
                   0
                   0
                   0
                   0
                   0
                   0
                   0
                   0
                   0
                   0
                   0
                   0
                   0
                   0
                   0
                   0
                   0
                   0
                   0
                   0
                   0
                   0
                   0
                   0
                   0
                   0
                   0
                   0
                   0
                   0
                   0
                   0
                   0
                   0
                   0
                   0
                   0
                   0
                   0
                   0
                   0
                   0
                   0
                   0
                   0
                   0
                   0
                   0
                   0
                   0
                   0
                   0
                   0
                   0
                   0
                   0
                   0
                   0
                   0
                   0
                   0
                   0
                   0
                   0
                   0
                   0
                   0
                   0
                   0
                   0
                   0
                   0
                   0
                   0
                   0
                   0
                   0
                   0
                   0
                   0
                   0
                   0
                   0
                   0
                   0
                   0
                   0
                   0
                   0
                   0
                   0
                   0
                   0
                   0
                   0
                   0
                   0
                   0
                   0
                   0
                   0
                   0
                   0
                   0
                   0
                   0
                   0
                   0
                   0
                   0
                   0
                   0
                   0
                   0
                   0
                   0
                   0
                   0
                   0
                   0
                   0
                   0
                   0
                   0
                   0
                   0
                   0
                   0
                   0
                   0
                   0
                   0
                   0
                   0
                   0
                   0
                   0
                   0
                   0
                   0
                   0
                   0
                   0
                   0
                   0
                   0
                   0
                   0
                   0
                   0
                   0
                   0
                   0
                   0
                   0
                   0
                   0
                   0
                   0
                   0
                   0
                   0
                   0
                   0
                   0
                   0
                   0
                   0
                   0
                   0
                   0
                   0
                   0
                   0
                   0
                   0
                   0
                   0
                   0
                   0
                   0
                   0
                   0
                   0
                   0
                   0
                   0
                   0
                   0
                   0
                   0
                   0
                   0
                   0
                   0
                   0
                   0
                   0
                   0
                   0
                   0
                   0
                   0
                   0
                   0
                   0
                   0
                   0
                   0
                   0
                   0
                   0
                   0
                   0
                   0
                   0
                   0
                   0
                   0
                   0
                   0
                   0
                   0
                   0
                   0
                   0
                   0
                   0
                   0
                   0
                   0
                   0
                   0
                   0
                   0
                   0
                   0
                   0
                   0
                   0
                   0
                   0
                   0
                   0
                   0
                   0
                   0
                   0
                   0
                   0
                   0
                   0
                   0
                   0
                   0
                   0
                   0
                   0
                   0
                   0
                   0
                   0
                   0
                   0
                   0
                   0
                   0
                   0
                   0
                   0
                   0
                   0
                   0
                   0
                   0
                   0
                   0
                   0
                   0
                   0
                   0
                   0
                   0
                   0
                   0
                   0
                   0
                   0
                   0
                   0
                   0
                   0
                   0
                   0
                   0
                   0
                   0
                   0
                   0
                   0
                   0
                   0
                   0
                   0
                   0
                   0
                   0
                   0
                   0
                   0
                   0
                   0
                   0
                   0
                   0
                   0
                   0
                   0
                   0
                   0
                   0
                   0
                   0
                   0
                   0
                   0
                   0
                   0
                   0
                   0
                   0
                   0
                   0
                   0
                   0
                   0
                   0
                   0
                   0
                   0
                   0
                   0
                   0
                   0
                   0
                   0
                   0
                   0
                   0
                   0
                   0
                   0
                   0
                   0
                   0
                   0
                   0
                   0
                   0
                   0
                   0
                   0
                   0
                   0
                   0
                   0
                   0
                   0
                   0
                   0
                   0
                   0
                   0
                   0
                   0
                   0
                   0
                   0
                   0
                   0
                   0
                   0
                   0
                   0
                   0
                   0
                   0
                   0
                   0
                   0
                   0
                   0
                   0
                   0
                   0
                   0
                   0
                   0
                   0
                   0
                   0
                   0
                   0
                   0
                   0
                   0
                   0
                   0
                   0
                   0
                   0
                   0
                   0
                   0
                   0
                   0
                   0
                   0
                   0
                   0
                   0
                   0
                   0
                   0
                   0
                   0
                   0
                   0
                   0
                   0
                   0
                   0
                   0
                   0
                   0
                   0
                   0
                   0
                   0
                   0
                   0
                   0
                   0
                   0
                   0
                   0
                   0
                   0
                   0
                   0
                   0
                   0
                   0
                   0
                   0
                   0
                   0
                   0
                   0
                   0
                   0
                   0
                   0
                   0
                   0
                   0
                   0
                   0
                   0
                   0
                   0
                   0
                   0
                   0
                   0
                   0
                   0
                   0
                   0
                   0
                   0
                   0
                   0
                   0
                   0
                   0
                   0
                   0
                   0
                   0
                   0
                   0
                   0
                   0
                   0
                   0
                   0
                   0
                   0
                   0
                   0
                   0
                   0
                   0
                   0
                   0
                   0
                   0
                   0
                   0
                   0
                   0
                   0
                   0
                   0
                   0
                   0
                   0
                   0
                   0
                   0
                   0
                   0
                   0
                   0
                   0
                   0
                   0
                   0
                   0
                   0
                   0
                   0
                   0
                   0
                   0
                   0
                   0
                   0
                   0
                   0
                   0
                   0
                   0
                   0
                   0
                   0
                   0
                   0
                   0
                   0
                   0
                   0
                   0
                   0
                   0
                   0
                   0
                   0
                   0
                   0
                   0
                   0
                   0
                   0
                   0
                   0
                   0
                   0
                   0
                   0
                   0
                   0
                   0
                   0
                   0
                   0
                   0
                   0
                   0
                   0
                   0
                   0
                   0
                   0
                   0
                   0
                   0
                   0
                   0
                   0
                   0
                   0
                   0
                   0
                   0
                   0
                   0
                   0
                   0
                   0
                   0
                   0
                   0
                   0
                   0
                   0
                   0
                   0
                   0
                   0
                   0
                   0
                   0
                   0
                   0
                   0
                   0
                   0
                   0
                   0
                   0
                   0
                   0
                   0
                   0
                   0
                   0
                   0
                   0
                   0
                   0
                   0
                   0
                   0
                   0
                   0
                   0
                   0
                   0
                   0
                   0
                   0
                   0
                   0
                   0
                   0
                   0
                   0
                   0
                   0
                   0
                   0
                   0
                   0
                   0
                   0
                   0
                   0
                   0
                   0
                   0
                   0
                   0
                   0
                   0
                   0
                   0
                   0
                   0
                   0
                   0
                   0
                   0
                   0
                   0
                   0
                   0
                   0
                   0
                   0
                   0
                   0
                   0
                   0
                   0
                   0
                   0
                   0
                   0
                   0
                   0
                   0
                   0
                   0
                   0
                   0
                   0
                   0
                   0
                   0
                   0
                   0
                   0
                   0
                   0
                   0
                   0
                   0
                   0
                   0
                   0
                   0
                   0
                   0
                   0
                   0
                   0
                   0
                   0
                   0
                   0
                   0
                   0
                   0
                   0
                   0
                   0
                   0
                   0
                   0
                   0
                   0
                   0
                   0
                   0
                   0
                   0
                   0
                   0
                   0
                   0
                   0
                   0
                   0
                   0
                   0
                   0
                   0
                   0
                   0
                   0
                   0
                   0
                   0
                   0
                   0
                   0
                   0
                   0
                   0
                   0
                   0
                   0
                   0
                   0
                   0
                   0
                   0
                   0
                   0
                   0
                   0
                   0
                   0
                   0
                   0
                   0
                   0
                   0
                   0
                   0
                   0
                   0
                   0
                   0
                   0
                   0
                   0
                   0
                   0
                   0
                   0
                   0
                   0
                   0
                   0
                   0
                   0
                   0
                   0
                   0
                   0
                   0
                   0
                   0
                   0
                   0
                   0
                   0
                   0
                   0
                   0
                   0
                   0
                   0
                   0
                   0
                   0
                   0
                   0
                   0
                   0
                   0
                   0
                   0
                   0
                   0
                   0
                   0
                   0
                   0
                   0
                   0
                   0
                   0
                   0
                   0
                   0
                   0
                   0
                   0
                   0
                   0
                   0
                   0
                   0
                   0
                   0
                   0
                   0
                   0
                   0
                   0
                   0
                   0
                   0
                   0
                   0
                   0
                   0
                   0
                   0
                   0
                   0
                   0
                   0
                   0
                   0
                   0
                   0
                   0
                   0
                   0
                   0
                   0
                   0
                   0
                   0
                   0
                   0
                   0
                   0
                   0
                   0
                   0
                   0
                   0
                   0
                   0
                   0
                   0
                   0
                   0
                   0
                   0
                   0
                   0
                   0
                   0
                   0
                   0
                   0
                   0
                   0
                   0
                   0
                   0
                   0
                   0
                   0
                   0
                   0
                   0
                   0
                   0
                   0
                   0
                   0
                   0
                   0
                   0
                   0
                   0
                   0
                   0
                   0
                   0
                   0
                   0
                   0
                   0
                   0
                   0
                   0
                   0
                   0
                   0
                   0
                   0
                   0
                   0
                   0
                   0
                   0
                   0
                   0
                   0
                   0
                   0
                   0
                   0
                   0
                   0
                   0
                   0
                   0
                   0
                   0
                   0
                   0
                   0
                   0
                   0
                   0
                   0
                   0
                   0
                   0
                   0
                   0
                   0
                   0
                   0
                   0
                   0
                   0
                   0
                   0
                   0
                   0
                   0
                   0
                   0
                   0
                   0
                   0
                   0
                   0
                   0
                   0
                   0
                   0
                   0
                   0
                   0
                   0
                   0
                   0
                   0
                   0
                   0
                   0
                   0
                   0
                   0
                   0
                   0
                   0
                   0
                   0
                   0
                   0
                   0
                   0
                   0
                   0
                   0
                   0
                   0
                   0
                   0
                   0
                   0
                   0
                   0
                   0
                   0
                   0
                   0
                   0
                   0
                   0
                   0
                   0
                   0
                   0
                   0
                   0
                   0
                   0
                   0
                   0
                   0
                   0
                   0
                   0
                   0
                   0
                   0
                   0
                   0
                   0
                   0
                   0
                   0
                   0
                   0
                   0
                   0
                   0
                   0
                   0
                   0
                   0
                   0
                   0
                   0
                   0
                   0
                   0
                   0
                   0
                   0
                   0
                   0
                   0
                   0
                   0
                   0
                   0
                   0
                   0
                   0
                   0
                   0
                   0
                   0
                   0
                   0
                   0
                   0
                   0
                   0
                   0
                   0
                   0
                   0
                   0
                   0
                   0
                   0
                   0
                   0
                   0
                   0
                   0
                   0
                   0
                   0
                   0
                   0
                   0
                   0
                   0
                   0
                   0
                   0
                   0
                   0
                   0
                   0
                   0
                   0
                   0
                   0
                   0
                   0
                   0
                   0
                   0
                   0
                   0
  
SCALARS                         Ispace  double 1
LOOKUP_TABLE default
                  12
                  12
                  12
                  12
                  12
                  12
                  12
                  12
                  12
                  12
                  12
                  12
                  12
                  11
                  12
                  11
                  11
                  11
                  11
                  11
                  11
                  12
                  12
                  11
                  12
                  12
                  11
                  11
                  11
                  11
                  11
                  11
                  11
                  11
                  11
                  11
                  11
                  11
                  11
                  11
                  11
                  11
                  11
                  11
                  11
                  11
                  11
                  11
                  11
                  11
                  11
                  11
                  11
                  11
                  11
                  11
                  11
                  11
                  11
                  11
                  11
                  11
                  11
                  11
                  11
                  11
                  12
                  12
                  12
                  12
                  12
                  12
                  12
                  12
                  11
                  11
                  11
                  11
                  11
                  11
                  11
                  11
                  11
                  11
                  11
                  11
                  11
                  11
                  11
                  11
                  11
                  11
                  11
                  11
                  11
                  11
                  12
                  12
                  12
                  12
                  12
                  12
                  12
                  12
                  12
                  12
                  12
                  12
                  12
                  12
                  12
                  12
                  12
                  12
                  12
                  12
                  11
                  11
                  11
                  11
                  11
                  11
                  11
                  11
                  11
                  11
                  11
                  11
                  11
                  11
                  11
                  11
                  11
                  11
                  11
                  11
                  11
                  11
                  11
                  11
                  11
                  11
                  11
                  11
                  11
                  11
                  12
                  12
                  12
                  12
                  12
                  12
                  12
                  12
                  12
                  12
                  12
                  12
                  12
                  12
                  12
                  12
                  12
                  11
                  11
                  11
                  11
                  12
                  12
                  11
                  11
                  11
                  11
                  11
                  11
                  11
                  11
                  11
                  11
                  11
                  11
                  11
                  11
                  11
                  11
                  11
                  11
                  11
                  11
                  12
                  12
                  12
                  12
                  11
                  11
                  11
                  11
                  11
                  11
                  11
                  11
                  11
                  11
                  11
                  12
                  12
                  12
                  12
                  12
                  12
                  12
                  12
                  12
                  12
                  11
                  11
                  11
                  11
                  11
                  11
                  11
                  11
                  11
                  11
                  11
                  11
                  11
                  11
                  11
                  12
                  12
                  12
                  12
                  12
                  12
                  12
                  12
                  12
                  12
                  12
                  12
                  11
                  11
                  11
                  11
                  12
                  12
                  11
                  11
                  11
                  11
                  11
                  11
                  11
                  11
                  11
                  11
                  11
                  11
                  11
                  11
                  11
                  11
                  11
                  11
                  11
                  11
                  12
                  12
                  12
                  12
                  11
                  11
                  11
                  11
                  11
                  11
                  11
                  11
                  11
                  11
                  11
                  12
                  12
                  12
                  12
                  12
                  12
                  12
                  12
                  12
                  12
                  11
                  11
                  11
                  11
                  11
                  11
                  11
                  11
                  11
                  11
                  11
                  11
                  11
                  11
                  11
                  12
                  12
                  12
                  12
                  12
                  12
                  12
                  12
                  12
                  12
                  12
                  12
                  11
                  11
                  11
                  11
                  12
                  12
                  11
                  11
                  11
                  11
                  11
                  11
                  11
                  11
                  11
                  11
                  11
                  11
                  11
                  11
                  11
                  11
                  11
                  11
                  11
                  11
                  12
                  12
                  12
                  12
                  11
                  11
                  11
                  11
                  11
                  11
                  11
                  11
                  11
                  11
                  11
                  12
                  12
                  12
                  12
                  12
                  12
                  12
                  12
                  12
                  12
                  11
                  11
                  11
                  11
                  11
                  11
                  11
                  11
                  11
                  11
                  11
                  11
                  11
                  11
                  11
                  12
                  12
                  12
                  12
                  12
                  12
                  12
                  12
                  12
                  12
                  12
                  12
                  11
                  11
                  11
                  11
                  12
                  12
                  11
                  11
                  11
                  11
                  11
                  11
                  11
                  11
                  11
                  11
                  11
                  11
                  11
                  11
                  11
                  11
                  11
                  11
                  11
                  11
                  12
                  12
                  12
                  12
                  11
                  11
                  11
                  11
                  11
                  11
                  11
                  11
                  11
                  11
                  11
                  12
                  12
                  12
                  12
                  12
                  12
                  12
                  12
                  12
                  12
                  11
                  11
                  11
                  11
                  11
                  11
                  11
                  11
                  11
                  11
                  11
                  11
                  11
                  11
                  11
                  12
                  12
                  12
                  12
                  12
                  12
                  12
                  12
                  12
                  12
                  12
                  12
                  11
                  11
                  11
                  11
                  12
                  12
                  11
                  11
                  11
                  11
                  11
                  11
                  11
                  11
                  11
                  11
                  11
                  11
                  11
                  11
                  11
                  11
                  11
                  11
                  11
                  11
                  12
                  12
                  12
                  12
                  11
                  11
                  11
                  11
                  11
                  11
                  11
                  11
                  11
                  11
                  11
                  12
                  12
                  12
                  12
                  12
                  12
                  12
                  12
                  12
                  12
                  11
                  11
                  11
                  11
                  11
                  11
                  11
                  11
                  11
                  11
                  11
                  11
                  11
                  11
                  11
                  12
                  12
                  12
                  12
                  12
                  12
                  12
                  12
                  12
                  12
                  12
                  12
                  11
                  11
                  11
                  11
                  12
                  12
                  11
                  11
                  11
                  11
                  11
                  11
                  11
                  11
                  11
                  11
                  11
                  11
                  11
                  11
                  11
                  11
                  11
                  11
                  11
                  11
                  12
                  12
                  12
                  12
                  11
                  11
                  11
                  11
                  11
                  11
                  11
                  11
                  11
                  11
                  11
                  12
                  12
                  12
                  12
                  12
                  12
                  12
                  12
                  12
                  12
                  11
                  11
                  11
                  11
                  11
                  11
                  11
                  11
                  11
                  11
                  11
                  11
                  11
                  11
                  11
                  12
                  12
                  12
                  12
                  12
                  12
                  12
                  12
                  12
                  12
                  12
                  12
                  11
                  11
                  11
                  11
                  12
                  12
                  11
                  11
                  11
                  11
                  11
                  11
                  11
                  11
                  11
                  11
                  11
                  11
                  11
                  11
                  11
                  11
                  11
                  11
                  11
                  11
                  12
                  12
                  12
                  12
                  11
                  11
                  11
                  11
                  11
                  11
                  11
                  11
                  11
                  11
                  11
                  12
                  12
                  12
                  12
                  12
                  12
                  12
                  12
                  12
                  12
                  11
                  11
                  11
                  11
                  11
                  11
                  11
                  11
                  11
                  11
                  11
                  11
                  11
                  11
                  11
                  12
                  12
                  12
                  12
                  12
                  12
                  12
                  12
                  12
                  12
                  12
                  12
                  11
                  11
                  11
                  11
                  12
                  12
                  11
                  11
                  11
                  11
                  11
                  11
                  11
                  11
                  11
                  11
                  11
                  11
                  11
                  11
                  11
                  11
                  11
                  11
                  11
                  11
                  12
                  12
                  12
                  12
                  11
                  11
                  11
                  11
                  11
                  11
                  11
                  11
                  11
                  11
                  11
                  12
                  12
                  12
                  12
                  12
                  12
                  12
                  12
                  12
                  12
                  11
                  11
                  11
                  11
                  11
                  11
                  11
                  11
                  11
                  11
                  11
                  11
                  11
                  11
                  11
                  12
                  12
                  12
                  12
                  12
                  12
                  12
                  12
                  12
                  12
                  12
                  12
                  11
                  11
                  11
                  11
                  12
                  12
                  11
                  11
                  11
                  11
                  11
                  11
                  11
                  11
                  11
                  11
                  11
                  11
                  11
                  11
                  11
                  11
                  11
                  11
                  11
                  11
                  12
                  12
                  12
                  12
                  11
                  11
                  11
                  11
                  11
                  11
                  11
                  11
                  11
                  11
                  11
                  12
                  12
                  12
                  12
                  12
                  12
                  12
                  12
                  12
                  12
                  11
                  11
                  11
                  11
                  11
                  11
                  11
                  11
                  11
                  11
                  11
                  11
                  11
                  11
                  11
                  12
                  12
                  12
                  12
                  12
                  12
                  12
                  12
                  12
                  12
                  12
                  12
                  11
                  11
                  11
                  11
                  12
                  12
                  11
                  11
                  11
                  11
                  11
                  11
                  11
                  11
                  11
                  11
                  11
                  11
                  11
                  11
                  11
                  11
                  11
                  11
                  11
                  11
                  12
                  12
                  12
                  12
                  11
                  11
                  11
                  11
                  11
                  11
                  11
                  11
                  11
                  11
                  11
                  12
                  12
                  12
                  12
                  12
                  12
                  12
                  12
                  12
                  12
                  11
                  11
                  11
                  11
                  11
                  11
                  11
                  11
                  11
                  11
                  11
                  11
                  11
                  11
                  11
                  12
                  12
                  12
                  12
                  12
                  12
                  12
                  12
                  12
                  12
                  12
                  12
                  11
                  11
                  11
                  11
                  12
                  12
                  11
                  11
                  11
                  11
                  11
                  11
                  11
                  11
                  11
                  11
                  11
                  11
                  11
                  11
                  11
                  11
                  11
                  11
                  11
                  11
                  12
                  12
                  12
                  12
                  11
                  11
                  11
                  11
                  11
                  11
                  11
                  11
                  11
                  11
                  11
                  12
                  12
                  12
                  12
                  12
                  12
                  12
                  12
                  12
                  12
                  11
                  11
                  11
                  11
                  11
                  11
                  11
                  11
                  11
                  11
                  11
                  11
                  11
                  11
                  11
                  12
                  12
                  12
                  12
                  12
                  12
                  12
                  12
                  12
                  12
                  12
                  12
                  11
                  11
                  11
                  11
                  12
                  12
                  11
                  11
                  11
                  11
                  11
                  11
                  11
                  11
                  11
                  11
                  11
                  11
                  11
                  11
                  11
                  11
                  11
                  11
                  11
                  11
                  12
                  12
                  12
                  12
                  11
                  11
                  11
                  11
                  11
                  11
                  11
                  11
                  11
                  11
                  11
                  12
                  12
                  12
                  12
                  12
                  12
                  12
                  12
                  12
                  12
                  11
                  11
                  11
                  11
                  11
                  11
                  11
                  11
                  11
                  11
                  11
                  11
                  11
                  11
                  11
                  12
                  12
                  12
                  12
                  12
                  12
                  12
                  12
                  12
                  12
                  12
                  12
                  11
                  11
                  11
                  11
                  12
                  12
                  11
                  11
                  11
                  11
                  11
                  11
                  11
                  11
                  11
                  11
                  11
                  11
                  11
                  11
                  11
                  11
                  11
                  11
                  11
                  11
                  12
                  12
                  12
                  12
                  11
                  11
                  11
                  11
                  11
                  11
                  11
                  11
                  11
                  11
                  11
                  12
                  12
                  12
                  12
                  12
                  12
                  12
                  12
                  12
                  12
                  11
                  11
                  11
                  11
                  11
                  11
                  11
                  11
                  11
                  11
                  11
                  11
                  11
                  11
                  11
                  12
                  12
                  12
                  12
                  12
                  12
                  12
                  12
                  12
                  12
                  12
                  12
                  11
                  11
                  11
                  11
                  12
                  12
                  11
                  11
                  11
                  11
                  11
                  11
                  11
                  11
                  11
                  11
                  11
                  11
                  11
                  11
                  11
                  11
                  11
                  11
                  11
                  11
                  12
                  12
                  12
                  12
                  11
                  11
                  11
                  11
                  11
                  11
                  11
                  11
                  11
                  11
                  11
                  12
                  12
                  12
                  12
                  12
                  12
                  12
                  12
                  12
                  12
                  11
                  11
                  11
                  11
                  11
                  11
                  11
                  11
                  11
                  11
                  11
                  11
                  11
                  11
                  11
                  12
                  12
                  12
                  12
                  12
                  12
                  12
                  12
                  12
                  12
                  12
                  12
                  11
                  11
                  11
                  11
                  12
                  12
                  11
                  11
                  11
                  11
                  11
                  11
                  11
                  11
                  11
                  11
                  11
                  11
                  11
                  11
                  11
                  11
                  11
                  11
                  11
                  11
                  12
                  12
                  12
                  12
                  11
                  11
                  11
                  11
                  11
                  11
                  11
                  11
                  11
                  11
                  11
                  12
                  12
                  12
                  12
                  12
                  12
                  12
                  12
                  12
                  12
                  11
                  11
                  11
                  11
                  11
                  11
                  11
                  11
                  11
                  11
                  11
                  11
                  11
                  11
                  11
                  12
                  12
                  12
                  12
                  12
                  12
                  12
                  12
                  12
                  12
                  12
                  12
                  11
                  11
                  11
                  11
                  12
                  12
                  11
                  11
                  11
                  11
                  11
                  11
                  11
                  11
                  11
                  11
                  11
                  11
                  11
                  11
                  11
                  11
                  11
                  11
                  11
                  11
                  12
                  12
                  12
                  12
                  11
                  11
                  11
                  11
                  11
                  11
                  11
                  11
                  11
                  11
                  11
                  12
                  12
                  12
                  12
                  12
                  12
                  12
                  12
                  12
                  12
                  11
                  11
                  11
                  11
                  11
                  11
                  11
                  11
                  11
                  11
                  11
                  11
                  11
                  11
                  11
                  12
                  12
                  12
                  12
                  12
                  12
                  12
                  12
                  12
                  12
                  12
                  12
                  11
                  11
                  11
                  11
                  12
                  12
                  11
                  11
                  11
                  11
                  11
                  11
                  11
                  11
                  11
                  11
                  11
                  11
                  11
                  11
                  11
                  11
                  11
                  11
                  11
                  11
                  12
                  12
                  12
                  12
                  11
                  11
                  11
                  11
                  11
                  11
                  11
                  11
                  11
                  11
                  11
                  12
                  12
                  12
                  12
                  12
                  12
                  12
                  12
                  12
                  12
                  11
                  11
                  11
                  11
                  11
                  11
                  11
                  11
                  11
                  11
                  11
                  11
                  11
                  11
                  11
                  12
                  12
                  12
                  12
                  12
                  12
                  12
                  12
                  12
                  12
                  12
                  12
                  11
                  11
                  11
                  11
                  12
                  12
                  11
                  11
                  11
                  11
                  11
                  11
                  11
                  11
                  11
                  11
                  11
                  11
                  11
                  11
                  11
                  11
                  11
                  11
                  11
                  11
                  12
                  12
                  12
                  12
                  11
                  11
                  11
                  11
                  11
                  11
                  11
                  11
                  11
                  11
                  11
                  12
                  12
                  12
                  12
                  12
                  12
                  12
                  12
                  12
                  12
                  11
                  11
                  11
                  11
                  11
                  11
                  11
                  11
                  11
                  11
                  11
                  11
                  11
                  11
                  11
                  12
                  12
                  12
                  12
                  12
                  12
                  12
                  12
                  12
                  12
                  12
                  12
                  11
                  11
                  11
                  11
                  12
                  12
                  11
                  11
                  11
                  11
                  11
                  11
                  11
                  11
                  11
                  11
                  11
                  11
                  11
                  11
                  11
                  11
                  11
                  11
                  11
                  11
                  12
                  12
                  12
                  12
                  11
                  11
                  11
                  11
                  11
                  11
                  11
                  11
                  11
                  11
                  11
                  12
                  12
                  12
                  12
                  12
                  12
                  12
                  12
                  12
                  12
                  11
                  11
                  11
                  11
                  11
                  11
                  11
                  11
                  11
                  11
                  11
                  11
                  11
                  11
                  11
                  12
                  12
                  12
                  12
                  12
                  12
                  12
                  12
                  12
                  12
                  12
                  12
                  11
                  11
                  11
                  11
                  12
                  12
                  11
                  11
                  11
                  11
                  11
                  11
                  11
                  11
                  11
                  11
                  11
                  11
                  11
                  11
                  11
                  11
                  11
                  11
                  11
                  11
                  12
                  12
                  12
                  12
                  11
                  11
                  11
                  11
                  11
                  11
                  11
                  11
                  11
                  11
                  11
                  12
                  12
                  12
                  12
                  12
                  12
                  12
                  12
                  12
                  12
                  11
                  11
                  11
                  11
                  11
                  11
                  11
                  11
                  11
                  11
                  11
                  11
                  11
                  11
                  11
                  12
                  12
                  12
                  12
                  12
                  12
                  12
                  12
                  12
                  12
                  12
                  12
                  11
                  11
                  11
                  11
                  12
                  12
                  11
                  11
                  11
                  11
                  11
                  11
                  11
                  11
                  11
                  11
                  11
                  11
                  11
                  11
                  11
                  11
                  11
                  11
                  11
                  11
                  12
                  12
                  12
                  12
                  11
                  11
                  11
                  11
                  11
                  11
                  11
                  11
                  11
                  11
                  11
                  12
                  12
                  12
                  12
                  12
                  12
                  12
                  12
                  12
                  12
                  11
                  11
                  11
                  11
                  11
                  11
                  11
                  11
                  11
                  11
                  11
                  11
                  11
                  11
                  11
                  12
                  12
                  12
                  12
                  12
                  12
                  12
                  12
                  12
                  12
                  12
                  12
                  11
                  11
                  11
                  11
                  12
                  12
                  11
                  11
                  11
                  11
                  11
                  11
                  11
                  11
                  11
                  11
                  11
                  11
                  11
                  11
                  11
                  11
                  11
                  11
                  11
                  11
                  12
                  12
                  12
                  12
                  11
                  11
                  11
                  11
                  11
                  11
                  11
                  11
                  11
                  11
                  11
                  12
                  12
                  12
                  12
                  12
                  12
                  12
                  12
                  12
                  12
                  11
                  11
                  11
                  11
                  11
                  11
                  11
                  11
                  11
                  11
                  11
                  11
                  11
                  11
                  11
                  12
                  12
                  12
                  12
                  12
                  12
                  12
                  12
                  12
                  12
                  12
                  12
                  11
                  11
                  11
                  11
                  12
                  12
                  11
                  11
                  11
                  11
                  11
                  11
                  11
                  11
                  11
                  11
                  11
                  11
                  11
                  11
                  11
                  11
                  11
                  11
                  11
                  11
                  12
                  12
                  12
                  12
                  11
                  11
                  11
                  11
                  11
                  11
                  11
                  11
                  11
                  11
                  11
                  12
                  12
                  12
                  12
                  12
                  12
                  12
                  12
                  12
                  12
                  11
                  11
                  11
                  11
                  11
                  11
                  11
                  11
                  11
                  11
                  11
                  11
                  11
                  11
                  11
                  12
                  12
                  12
                  12
                  12
  
SCALARS                         Jspace  double 1
LOOKUP_TABLE default
                  11
                  12
                  11
                  11
                  11
                  12
                  11
                  11
                  11
                  11
                  11
                  11
                  12
                  12
                  12
                  12
                  11
                  12
                  11
                  12
                  12
                  12
                  12
                  12
                  12
                  12
                  12
                  12
                  12
                  12
                  11
                  11
                  11
                  11
                  11
                  11
                  11
                  11
                  11
                  11
                  11
                  11
                  11
                  11
                  11
                  11
                  11
                  11
                  11
                  11
                  11
                  11
                  12
                  12
                  12
                  12
                  12
                  11
                  12
                  11
                  11
                  11
                  11
                  11
                  11
                  11
                  11
                  11
                  11
                  12
                  11
                  12
                  12
                  12
                  12
                  12
                  12
                  12
                  12
                  12
                  12
                  12
                  12
                  12
                  11
                  11
                  11
                  11
                  11
                  11
                  11
                  11
                  11
                  11
                  11
                  11
                  11
                  11
                  11
                  11
                  11
                  11
                  11
                  11
                  11
                  11
                  11
                  11
                  12
                  12
                  12
                  12
                  12
                  12
                  12
                  12
                  12
                  12
                  12
                  12
                  12
                  12
                  12
                  12
                  12
                  12
                  12
                  12
                  11
                  11
                  11
                  11
                  11
                  11
                  11
                  11
                  11
                  11
                  11
                  11
                  11
                  11
                  11
                  11
                  11
                  11
                  11
                  11
                  11
                  11
                  11
                  11
                  11
                  11
                  11
                  11
                  11
                  12
                  11
                  11
                  11
                  11
                  12
                  12
                  11
                  12
                  12
                  12
                  12
                  12
                  12
                  11
                  11
                  11
                  11
                  11
                  11
                  11
                  11
                  11
                  11
                  11
                  12
                  12
                  12
                  11
                  11
                  11
                  11
                  11
                  11
                  12
                  12
                  12
                  12
                  12
                  12
                  12
                  11
                  11
                  11
                  11
                  11
                  11
                  11
                  11
                  11
                  11
                  11
                  11
                  12
                  12
                  12
                  12
                  12
                  12
                  12
                  12
                  12
                  12
                  11
                  11
                  11
                  11
                  11
                  11
                  11
                  11
                  11
                  11
                  11
                  11
                  11
                  11
                  11
                  12
                  11
                  11
                  11
                  11
                  12
                  12
                  11
                  12
                  12
                  12
                  12
                  12
                  12
                  11
                  11
                  11
                  11
                  11
                  11
                  11
                  11
                  11
                  11
                  11
                  12
                  12
                  12
                  11
                  11
                  11
                  11
                  11
                  11
                  12
                  12
                  12
                  12
                  12
                  12
                  12
                  11
                  11
                  11
                  11
                  11
                  11
                  11
                  11
                  11
                  11
                  11
                  11
                  12
                  12
                  12
                  12
                  12
                  12
                  12
                  12
                  12
                  12
                  11
                  11
                  11
                  11
                  11
                  11
                  11
                  11
                  11
                  11
                  11
                  11
                  11
                  11
                  11
                  12
                  11
                  11
                  11
                  11
                  12
                  12
                  11
                  12
                  12
                  12
                  12
                  12
                  12
                  11
                  11
                  11
                  11
                  11
                  11
                  11
                  11
                  11
                  11
                  11
                  12
                  12
                  12
                  11
                  11
                  11
                  11
                  11
                  11
                  12
                  12
                  12
                  12
                  12
                  12
                  12
                  11
                  11
                  11
                  11
                  11
                  11
                  11
                  11
                  11
                  11
                  11
                  11
                  12
                  12
                  12
                  12
                  12
                  12
                  12
                  12
                  12
                  12
                  11
                  11
                  11
                  11
                  11
                  11
                  11
                  11
                  11
                  11
                  11
                  11
                  11
                  11
                  11
                  12
                  11
                  11
                  11
                  11
                  12
                  12
                  11
                  12
                  12
                  12
                  12
                  12
                  12
                  11
                  11
                  11
                  11
                  11
                  11
                  11
                  11
                  11
                  11
                  11
                  12
                  12
                  12
                  11
                  11
                  11
                  11
                  11
                  11
                  12
                  12
                  12
                  12
                  12
                  12
                  12
                  11
                  11
                  11
                  11
                  11
                  11
                  11
                  11
                  11
                  11
                  11
                  11
                  12
                  12
                  12
                  12
                  12
                  12
                  12
                  12
                  12
                  12
                  11
                  11
                  11
                  11
                  11
                  11
                  11
                  11
                  11
                  11
                  11
                  11
                  11
                  11
                  11
                  12
                  11
                  11
                  11
                  11
                  12
                  12
                  11
                  12
                  12
                  12
                  12
                  12
                  12
                  11
                  11
                  11
                  11
                  11
                  11
                  11
                  11
                  11
                  11
                  11
                  12
                  12
                  12
                  11
                  11
                  11
                  11
                  11
                  11
                  12
                  12
                  12
                  12
                  12
                  12
                  12
                  11
                  11
                  11
                  11
                  11
                  11
                  11
                  11
                  11
                  11
                  11
                  11
                  12
                  12
                  12
                  12
                  12
                  12
                  12
                  12
                  12
                  12
                  11
                  11
                  11
                  11
                  11
                  11
                  11
                  11
                  11
                  11
                  11
                  11
                  11
                  11
                  11
                  12
                  11
                  11
                  11
                  11
                  12
                  12
                  11
                  12
                  12
                  12
                  12
                  12
                  12
                  11
                  11
                  11
                  11
                  11
                  11
                  11
                  11
                  11
                  11
                  11
                  12
                  12
                  12
                  11
                  11
                  11
                  11
                  11
                  11
                  12
                  12
                  12
                  12
                  12
                  12
                  12
                  11
                  11
                  11
                  11
                  11
                  11
                  11
                  11
                  11
                  11
                  11
                  11
                  12
                  12
                  12
                  12
                  12
                  12
                  12
                  12
                  12
                  12
                  11
                  11
                  11
                  11
                  11
                  11
                  11
                  11
                  11
                  11
                  11
                  11
                  11
                  11
                  11
                  12
                  11
                  11
                  11
                  11
                  12
                  12
                  11
                  12
                  12
                  12
                  12
                  12
                  12
                  11
                  11
                  11
                  11
                  11
                  11
                  11
                  11
                  11
                  11
                  11
                  12
                  12
                  12
                  11
                  11
                  11
                  11
                  11
                  11
                  12
                  12
                  12
                  12
                  12
                  12
                  12
                  11
                  11
                  11
                  11
                  11
                  11
                  11
                  11
                  11
                  11
                  11
                  11
                  12
                  12
                  12
                  12
                  12
                  12
                  12
                  12
                  12
                  12
                  11
                  11
                  11
                  11
                  11
                  11
                  11
                  11
                  11
                  11
                  11
                  11
                  11
                  11
                  11
                  12
                  11
                  11
                  11
                  11
                  12
                  12
                  11
                  12
                  12
                  12
                  12
                  12
                  12
                  11
                  11
                  11
                  11
                  11
                  11
                  11
                  11
                  11
                  11
                  11
                  12
                  12
                  12
                  11
                  11
                  11
                  11
                  11
                  11
                  12
                  12
                  12
                  12
                  12
                  12
                  12
                  11
                  11
                  11
                  11
                  11
                  11
                  11
                  11
                  11
                  11
                  11
                  11
                  12
                  12
                  12
                  12
                  12
                  12
                  12
                  12
                  12
                  12
                  11
                  11
                  11
                  11
                  11
                  11
                  11
                  11
                  11
                  11
                  11
                  11
                  11
                  11
                  11
                  12
                  11
                  11
                  11
                  11
                  12
                  12
                  11
                  12
                  12
                  12
                  12
                  12
                  12
                  11
                  11
                  11
                  11
                  11
                  11
                  11
                  11
                  11
                  11
                  11
                  12
                  12
                  12
                  11
                  11
                  11
                  11
                  11
                  11
                  12
                  12
                  12
                  12
                  12
                  12
                  12
                  11
                  11
                  11
                  11
                  11
                  11
                  11
                  11
                  11
                  11
                  11
                  11
                  12
                  12
                  12
                  12
                  12
                  12
                  12
                  12
                  12
                  12
                  11
                  11
                  11
                  11
                  11
                  11
                  11
                  11
                  11
                  11
                  11
                  11
                  11
                  11
                  11
                  12
                  11
                  11
                  11
                  11
                  12
                  12
                  11
                  12
                  12
                  12
                  12
                  12
                  12
                  11
                  11
                  11
                  11
                  11
                  11
                  11
                  11
                  11
                  11
                  11
                  12
                  12
                  12
                  11
                  11
                  11
                  11
                  11
                  11
                  12
                  12
                  12
                  12
                  12
                  12
                  12
                  11
                  11
                  11
                  11
                  11
                  11
                  11
                  11
                  11
                  11
                  11
                  11
                  12
                  12
                  12
                  12
                  12
                  12
                  12
                  12
                  12
                  12
                  11
                  11
                  11
                  11
                  11
                  11
                  11
                  11
                  11
                  11
                  11
                  11
                  11
                  11
                  11
                  12
                  11
                  11
                  11
                  11
                  12
                  12
                  11
                  12
                  12
                  12
                  12
                  12
                  12
                  11
                  11
                  11
                  11
                  11
                  11
                  11
                  11
                  11
                  11
                  11
                  12
                  12
                  12
                  11
                  11
                  11
                  11
                  11
                  11
                  12
                  12
                  12
                  12
                  12
                  12
                  12
                  11
                  11
                  11
                  11
                  11
                  11
                  11
                  11
                  11
                  11
                  11
                  11
                  12
                  12
                  12
                  12
                  12
                  12
                  12
                  12
                  12
                  12
                  11
                  11
                  11
                  11
                  11
                  11
                  11
                  11
                  11
                  11
                  11
                  11
                  11
                  11
                  11
                  12
                  11
                  11
                  11
                  11
                  12
                  12
                  11
                  12
                  12
                  12
                  12
                  12
                  12
                  11
                  11
                  11
                  11
                  11
                  11
                  11
                  11
                  11
                  11
                  11
                  12
                  12
                  12
                  11
                  11
                  11
                  11
                  11
                  11
                  12
                  12
                  12
                  12
                  12
                  12
                  12
                  11
                  11
                  11
                  11
                  11
                  11
                  11
                  11
                  11
                  11
                  11
                  11
                  12
                  12
                  12
                  12
                  12
                  12
                  12
                  12
                  12
                  12
                  11
                  11
                  11
                  11
                  11
                  11
                  11
                  11
                  11
                  11
                  11
                  11
                  11
                  11
                  11
                  12
                  11
                  11
                  11
                  11
                  12
                  12
                  11
                  12
                  12
                  12
                  12
                  12
                  12
                  11
                  11
                  11
                  11
                  11
                  11
                  11
                  11
                  11
                  11
                  11
                  12
                  12
                  12
                  11
                  11
                  11
                  11
                  11
                  11
                  12
                  12
                  12
                  12
                  12
                  12
                  12
                  11
                  11
                  11
                  11
                  11
                  11
                  11
                  11
                  11
                  11
                  11
                  11
                  12
                  12
                  12
                  12
                  12
                  12
                  12
                  12
                  12
                  12
                  11
                  11
                  11
                  11
                  11
                  11
                  11
                  11
                  11
                  11
                  11
                  11
                  11
                  11
                  11
                  12
                  11
                  11
                  11
                  11
                  12
                  12
                  11
                  12
                  12
                  12
                  12
                  12
                  12
                  11
                  11
                  11
                  11
                  11
                  11
                  11
                  11
                  11
                  11
                  11
                  12
                  12
                  12
                  11
                  11
                  11
                  11
                  11
                  11
                  12
                  12
                  12
                  12
                  12
                  12
                  12
                  11
                  11
                  11
                  11
                  11
                  11
                  11
                  11
                  11
                  11
                  11
                  11
                  12
                  12
                  12
                  12
                  12
                  12
                  12
                  12
                  12
                  12
                  11
                  11
                  11
                  11
                  11
                  11
                  11
                  11
                  11
                  11
                  11
                  11
                  11
                  11
                  11
                  12
                  11
                  11
                  11
                  11
                  12
                  12
                  11
                  12
                  12
                  12
                  12
                  12
                  12
                  11
                  11
                  11
                  11
                  11
                  11
                  11
                  11
                  11
                  11
                  11
                  12
                  12
                  12
                  11
                  11
                  11
                  11
                  11
                  11
                  12
                  12
                  12
                  12
                  12
                  12
                  12
                  11
                  11
                  11
                  11
                  11
                  11
                  11
                  11
                  11
                  11
                  11
                  11
                  12
                  12
                  12
                  12
                  12
                  12
                  12
                  12
                  12
                  12
                  11
                  11
                  11
                  11
                  11
                  11
                  11
                  11
                  11
                  11
                  11
                  11
                  11
                  11
                  11
                  12
                  11
                  11
                  11
                  11
                  12
                  12
                  11
                  12
                  12
                  12
                  12
                  12
                  12
                  11
                  11
                  11
                  11
                  11
                  11
                  11
                  11
                  11
                  11
                  11
                  12
                  12
                  12
                  11
                  11
                  11
                  11
                  11
                  11
                  12
                  12
                  12
                  12
                  12
                  12
                  12
                  11
                  11
                  11
                  11
                  11
                  11
                  11
                  11
                  11
                  11
                  11
                  11
                  12
                  12
                  12
                  12
                  12
                  12
                  12
                  12
                  12
                  12
                  11
                  11
                  11
                  11
                  11
                  11
                  11
                  11
                  11
                  11
                  11
                  11
                  11
                  11
                  11
                  12
                  11
                  11
                  11
                  11
                  12
                  12
                  11
                  12
                  12
                  12
                  12
                  12
                  12
                  11
                  11
                  11
                  11
                  11
                  11
                  11
                  11
                  11
                  11
                  11
                  12
                  12
                  12
                  11
                  11
                  11
                  11
                  11
                  11
                  12
                  12
                  12
                  12
                  12
                  12
                  12
                  11
                  11
                  11
                  11
                  11
                  11
                  11
                  11
                  11
                  11
                  11
                  11
                  12
                  12
                  12
                  12
                  12
                  12
                  12
                  12
                  12
                  12
                  11
                  11
                  11
                  11
                  11
                  11
                  11
                  11
                  11
                  11
                  11
                  11
                  11
                  11
                  11
                  12
                  11
                  11
                  11
                  11
                  12
                  12
                  11
                  12
                  12
                  12
                  12
                  12
                  12
                  11
                  11
                  11
                  11
                  11
                  11
                  11
                  11
                  11
                  11
                  11
                  12
                  12
                  12
                  11
                  11
                  11
                  11
                  11
                  11
                  12
                  12
                  12
                  12
                  12
                  12
                  12
                  11
                  11
                  11
                  11
                  11
                  11
                  11
                  11
                  11
                  11
                  11
                  11
                  12
                  12
                  12
                  12
                  12
                  12
                  12
                  12
                  12
                  12
                  11
                  11
                  11
                  11
                  11
                  11
                  11
                  11
                  11
                  11
                  11
                  11
                  11
                  11
                  11
                  12
                  11
                  11
                  11
                  11
                  12
                  12
                  11
                  12
                  12
                  12
                  12
                  12
                  12
                  11
                  11
                  11
                  11
                  11
                  11
                  11
                  11
                  11
                  11
                  11
                  12
                  12
                  12
                  11
                  11
                  11
                  11
                  11
                  11
                  12
                  12
                  12
                  12
                  12
                  12
                  12
                  11
                  11
                  11
                  11
                  11
                  11
                  11
                  11
                  11
                  11
                  11
                  11
                  12
                  12
                  12
                  12
                  12
                  12
                  12
                  12
                  12
                  12
                  11
                  11
                  11
                  11
                  11
                  11
                  11
                  11
                  11
                  11
                  11
                  11
                  11
                  11
                  11
                  12
                  11
                  11
                  11
                  11
                  12
                  12
                  11
                  12
                  12
                  12
                  12
                  12
                  12
                  11
                  11
                  11
                  11
                  11
                  11
                  11
                  11
                  11
                  11
                  11
                  12
                  12
                  12
                  11
                  11
                  11
                  11
                  11
                  11
                  12
                  12
                  12
                  12
                  12
                  12
                  12
                  11
                  11
                  11
                  11
                  11
                  11
                  11
                  11
                  11
                  11
                  11
                  11
                  12
                  12
                  12
                  12
                  12
                  12
                  12
                  12
                  12
                  12
                  11
                  11
                  11
                  11
                  11
                  11
                  11
                  11
                  11
                  11
                  11
                  11
                  11
                  11
                  11
                  12
                  11
                  11
                  11
                  11
                  12
                  12
                  11
                  12
                  12
                  12
                  12
                  12
                  12
                  11
                  11
                  11
                  11
                  11
                  11
                  11
                  11
                  11
                  11
                  11
                  12
                  12
                  12
                  11
                  11
                  11
                  11
                  11
                  11
                  12
                  12
                  12
                  12
                  12
                  12
                  12
                  11
                  11
                  11
                  11
                  11
                  11
                  11
                  11
                  11
                  11
                  11
                  11
                  12
                  12
                  12
                  12
                  12
                  12
                  12
                  12
                  12
                  12
                  11
                  11
                  11
                  11
                  11
                  11
                  11
                  11
                  11
                  11
                  11
                  11
                  11
                  11
                  11
                  12
                  11
                  11
                  11
                  11
                  12
                  12
                  11
                  12
                  12
                  12
                  12
                  12
                  12
                  11
                  11
                  11
                  11
                  11
                  11
                  11
                  11
                  11
                  11
                  11
                  12
                  12
                  12
                  11
                  11
                  11
                  11
                  11
                  11
                  12
                  12
                  12
                  12
                  12
                  12
                  12
                  11
                  11
                  11
                  11
                  11
                  11
                  11
                  11
                  11
                  11
                  11
                  11
                  12
                  12
                  12
                  12
                  12
                  12
                  12
                  12
                  12
                  12
                  11
                  11
                  11
                  11
                  11
                  11
                  11
                  11
                  11
                  11
                  11
                  11
                  11
                  11
                  11
                  12
                  11
                  11
                  11
                  11
                  12
                  12
                  11
                  12
                  12
                  12
                  12
                  12
                  12
                  11
                  11
                  11
                  11
                  11
                  11
                  11
                  11
                  11
                  11
                  11
                  12
                  12
                  12
                  11
                  11
                  11
                  11
                  11
                  11
                  12
                  12
                  12
                  12
                  12
                  12
                  12
                  11
                  11
                  11
                  11
                  11
                  11
                  11
                  11
                  11
                  11
                  11
                  11
                  12
                  12
                  12
                  12
                  12
                  12
                  12
                  12
                  12
                  12
                  11
                  11
                  11
                  11
                  11
                  11
                  11
                  11
                  11
                  11
                  11
                  11
                  11
                  11
  
SCALARS                         Kspace  double 1
LOOKUP_TABLE default
                  11
                  11
                  11
                  11
                  11
                  11
                  11
                  11
                  11
                  11
                  11
                  11
                  11
                  11
                  11
                  11
                  11
                  11
                  11
                  11
                  11
                  11
                  11
                  11
                  11
                  11
                  11
                  11
                  11
                  11
                  11
                  11
                  11
                  11
                  11
                  11
                  11
                  11
                  11
                  11
                  11
                  11
                  11
                  11
                  11
                  11
                  11
                  11
                  11
                  11
                  11
                  11
                  11
                  11
                  11
                  11
                  11
                  11
                  11
                  11
                  11
                  11
                  11
                  11
                  11
                  11
                  11
                  11
                  11
                  11
                  11
                  11
                  11
                  11
                  11
                  11
                  11
                  11
                  11
                  11
                  11
                  11
                  11
                  11
                  11
                  11
                  11
                  11
                  11
                  11
                  11
                  11
                  11
                  11
                  11
                  11
                  11
                  11
                  11
                  11
                  11
                  11
                  11
                  11
                  11
                  11
                  11
                  11
                  11
                  11
                  11
                  11
                  11
                  11
                  11
                  11
                  11
                  11
                  11
                  11
                  11
                  11
                  11
                  11
                  11
                  11
                  11
                  11
                  11
                  11
                  11
                  11
                  11
                  11
                  11
                  11
                  11
                  11
                  11
                  11
                  11
                  11
                  11
                  11
                  11
                  11
                  11
                  11
                  11
                  11
                  11
                  11
                  11
                  11
                  11
                  11
                  11
                  11
                  11
                  11
                  11
                  11
                  11
                  11
                  11
                  11
                  11
                  11
                  11
                  11
                  11
                  11
                  11
                  11
                  11
                  11
                  11
                  11
                  11
                  11
                  11
                  11
                  11
                  11
                  11
                  11
                  11
                  11
                  11
                  11
                  11
                  11
                  11
                  11
                  11
                  11
                  11
                  11
                  11
                  11
                  11
                  11
                  11
                  11
                  11
                  11
                  11
                  11
                  11
                  11
                  11
                  11
                  11
                  11
                  11
                  11
                  11
                  11
                  11
                  11
                  11
                  11
                  11
                  11
                  11
                  11
                  11
                  11
                  11
                  11
                  11
                  11
                  11
                  11
                  11
                  11
                  11
                  11
                  11
                  11
                  11
                  11
                  11
                  11
                  11
                  11
                  11
                  11
                  11
                  11
                  11
                  11
                  11
                  11
                  11
                  11
                  11
                  11
                  11
                  11
                  11
                  11
                  11
                  11
                  11
                  11
                  11
                  11
                  11
                  11
                  11
                  11
                  11
                  11
                  11
                  11
                  11
                  11
                  11
                  11
                  11
                  11
                  11
                  11
                  11
                  11
                  11
                  11
                  11
                  11
                  11
                  11
                  11
                  11
                  11
                  11
                  11
                  11
                  11
                  11
                  11
                  11
                  11
                  11
                  11
                  11
                  11
                  11
                  11
                  11
                  11
                  11
                  12
                  12
                  12
                  12
                  12
                  12
                  12
                  12
                  12
                  12
                  12
                  12
                  12
                  12
                  12
                  12
                  12
                  12
                  12
                  12
                  12
                  12
                  12
                  12
                  12
                  12
                  12
                  12
                  12
                  12
                  12
                  12
                  12
                  12
                  12
                  12
                  12
                  12
                  12
                  12
                  12
                  12
                  12
                  12
                  12
                  12
                  12
                  12
                  12
                  12
                  12
                  12
                  12
                  12
                  12
                  12
                  12
                  12
                  12
                  12
                  12
                  12
                  12
                  12
                  12
                  12
                  12
                  12
                  12
                  12
                  12
                  12
                  12
                  12
                  12
                  12
                  12
                  12
                  12
                  12
                  12
                  12
                  12
                  12
                  12
                  12
                  12
                  12
                  12
                  12
                  12
                  12
                  12
                  12
                  12
                  12
                  12
                  12
                  12
                  12
                  12
                  12
                  12
                  12
                  12
                  12
                  12
                  12
                  12
                  12
                  12
                  12
                  12
                  12
                  12
                  12
                  12
                  12
                  12
                  12
                  12
                  12
                  12
                  12
                  12
                  12
                  12
                  12
                  12
                  12
                  12
                  12
                  12
                  12
                  12
                  12
                  12
                  12
                  12
                  12
                  12
                  12
                  12
                  12
                  12
                  12
                  12
                  12
                  12
                  12
                  12
                  12
                  12
                  12
                  12
                  12
                  12
                  12
                  12
                  12
                  12
                  12
                  12
                  12
                  12
                  12
                  12
                  12
                  12
                  12
                  12
                  12
                  12
                  12
                  12
                  12
                  12
                  12
                  12
                  12
                  12
                  12
                  12
                  12
                  12
                  12
                  12
                  12
                  12
                  12
                  12
                  12
                  12
                  12
                  12
                  12
                  12
                  12
                  12
                  12
                  12
                  12
                  12
                  12
                  12
                  12
                  12
                  12
                  12
                  12
                  12
                  12
                  12
                  12
                  12
                  12
                  12
                  12
                  12
                  12
                  12
                  12
                  12
                  12
                  12
                  12
                  12
                  12
                  12
                  12
                  12
                  12
                  12
                  12
                  13
                  13
                  13
                  13
                  13
                  13
                  13
                  13
                  13
                  13
                  13
                  13
                  13
                  13
                  13
                  13
                  13
                  13
                  13
                  13
                  13
                  13
                  13
                  13
                  13
                  13
                  13
                  13
                  13
                  13
                  13
                  13
                  13
                  13
                  13
                  13
                  13
                  13
                  13
                  13
                  13
                  13
                  13
                  13
                  13
                  13
                  13
                  13
                  13
                  13
                  13
                  13
                  13
                  13
                  13
                  13
                  13
                  13
                  13
                  13
                  13
                  13
                  13
                  13
                  13
                  13
                  13
                  13
                  13
                  13
                  13
                  13
                  13
                  13
                  13
                  13
                  13
                  13
                  13
                  13
                  13
                  13
                  13
                  13
                  13
                  13
                  13
                  13
                  13
                  13
                  13
                  13
                  13
                  13
                  13
                  13
                  13
                  13
                  13
                  13
                  13
                  13
                  13
                  13
                  13
                  13
                  13
                  13
                  13
                  13
                  13
                  13
                  13
                  13
                  13
                  13
                  13
                  13
                  13
                  13
                  13
                  13
                  13
                  13
                  13
                  13
                  13
                  13
                  13
                  13
                  13
                  13
                  13
                  13
                  13
                  13
                  13
                  13
                  13
                  13
                  13
                  13
                  13
                  13
                  13
                  13
                  13
                  13
                  13
                  13
                  13
                  13
                  13
                  13
                  13
                  13
                  13
                  13
                  13
                  13
                  13
                  13
                  13
                  13
                  13
                  13
                  13
                  13
                  13
                  13
                  13
                  13
                  13
                  13
                  13
                  13
                  13
                  13
                  13
                  13
                  13
                  13
                  13
                  13
                  13
                  13
                  13
                  13
                  13
                  13
                  13
                  13
                  13
                  13
                  13
                  13
                  13
                  13
                  13
                  13
                  13
                  13
                  13
                  13
                  13
                  13
                  13
                  13
                  13
                  13
                  13
                  13
                  13
                  13
                  13
                  13
                  13
                  13
                  13
                  13
                  13
                  13
                  13
                  13
                  13
                  13
                  13
                  13
                  13
                  13
                  13
                  13
                  13
                  13
                  14
                  14
                  14
                  14
                  14
                  14
                  14
                  14
                  14
                  14
                  14
                  14
                  14
                  14
                  14
                  14
                  14
                  14
                  14
                  14
                  14
                  14
                  14
                  14
                  14
                  14
                  14
                  14
                  14
                  14
                  14
                  14
                  14
                  14
                  14
                  14
                  14
                  14
                  14
                  14
                  14
                  14
                  14
                  14
                  14
                  14
                  14
                  14
                  14
                  14
                  14
                  14
                  14
                  14
                  14
                  14
                  14
                  14
                  14
                  14
                  14
                  14
                  14
                  14
                  14
                  14
                  14
                  14
                  14
                  14
                  14
                  14
                  14
                  14
                  14
                  14
                  14
                  14
                  14
                  14
                  14
                  14
                  14
                  14
                  14
                  14
                  14
                  14
                  14
                  14
                  14
                  14
                  14
                  14
                  14
                  14
                  14
                  14
                  14
                  14
                  14
                  14
                  14
                  14
                  14
                  14
                  14
                  14
                  14
                  14
                  14
                  14
                  14
                  14
                  14
                  14
                  14
                  14
                  14
                  14
                  14
                  14
                  14
                  14
                  14
                  14
                  14
                  14
                  14
                  14
                  14
                  14
                  14
                  14
                  14
                  14
                  14
                  14
                  14
                  14
                  14
                  14
                  14
                  14
                  14
                  14
                  14
                  14
                  14
                  14
                  14
                  14
                  14
                  14
                  14
                  14
                  14
                  14
                  14
                  14
                  14
                  14
                  14
                  14
                  14
                  14
                  14
                  14
                  14
                  14
                  14
                  14
                  14
                  14
                  14
                  14
                  14
                  14
                  14
                  14
                  14
                  14
                  14
                  14
                  14
                  14
                  14
                  14
                  14
                  14
                  14
                  14
                  14
                  14
                  14
                  14
                  14
                  14
                  14
                  14
                  14
                  14
                  14
                  14
                  14
                  14
                  14
                  14
                  14
                  14
                  14
                  14
                  14
                  14
                  14
                  14
                  14
                  14
                  14
                  14
                  14
                  14
                  14
                  14
                  14
                  14
                  14
                  14
                  14
                  14
                  14
                  14
                  14
                  14
                  15
                  15
                  15
                  15
                  15
                  15
                  15
                  15
                  15
                  15
                  15
                  15
                  15
                  15
                  15
                  15
                  15
                  15
                  15
                  15
                  15
                  15
                  15
                  15
                  15
                  15
                  15
                  15
                  15
                  15
                  15
                  15
                  15
                  15
                  15
                  15
                  15
                  15
                  15
                  15
                  15
                  15
                  15
                  15
                  15
                  15
                  15
                  15
                  15
                  15
                  15
                  15
                  15
                  15
                  15
                  15
                  15
                  15
                  15
                  15
                  15
                  15
                  15
                  15
                  15
                  15
                  15
                  15
                  15
                  15
                  15
                  15
                  15
                  15
                  15
                  15
                  15
                  15
                  15
                  15
                  15
                  15
                  15
                  15
                  15
                  15
                  15
                  15
                  15
                  15
                  15
                  15
                  15
                  15
                  15
                  15
                  15
                  15
                  15
                  15
                  15
                  15
                  15
                  15
                  15
                  15
                  15
                  15
                  15
                  15
                  15
                  15
                  15
                  15
                  15
                  15
                  15
                  15
                  15
                  15
                  15
                  15
                  15
                  15
                  15
                  15
                  15
                  15
                  15
                  15
                  15
                  15
                  15
                  15
                  15
                  15
                  15
                  15
                  15
                  15
                  15
                  15
                  15
                  15
                  15
                  15
                  15
                  15
                  15
                  15
                  15
                  15
                  15
                  15
                  15
                  15
                  15
                  15
                  15
                  15
                  15
                  15
                  15
                  15
                  15
                  15
                  15
                  15
                  15
                  15
                  15
                  15
                  15
                  15
                  15
                  15
                  15
                  15
                  15
                  15
                  15
                  15
                  15
                  15
                  15
                  15
                  15
                  15
                  15
                  15
                  15
                  15
                  15
                  15
                  15
                  15
                  15
                  15
                  15
                  15
                  15
                  15
                  15
                  15
                  15
                  15
                  15
                  15
                  15
                  15
                  15
                  15
                  15
                  15
                  15
                  15
                  15
                  15
                  15
                  15
                  15
                  15
                  15
                  15
                  15
                  15
                  15
                  15
                  15
                  15
                  15
                  15
                  15
                  15
                  15
                  15
                  15
                  15
                  15
                  15
                  15
                  15
                  15
                  15
                  15
                  15
                  15
                  15
                  15
                  15
                  15
                  15
                  15
                  15
                  15
                  15
                  15
                  15
                  15
                  15
                  15
                  15
                  15
                  15
                  15
                  15
                  15
                  15
                  15
                  15
                  15
                  15
                  15
                  15
                  15
                  15
                  15
                  15
                  15
                  15
                  15
                  15
                  15
                  15
                  15
                  15
                  15
                  15
                  15
                  15
                  15
                  15
                  15
                  15
                  15
                  15
                  15
                  15
                  15
                  15
                  15
                  15
                  15
                  15
                  15
                  15
                  15
                  15
                  15
                  15
                  15
                  15
                  16
                  16
                  16
                  16
                  16
                  16
                  16
                  16
                  16
                  16
                  16
                  16
                  16
                  16
                  16
                  16
                  16
                  16
                  16
                  16
                  16
                  16
                  16
                  16
                  16
                  16
                  16
                  16
                  16
                  16
                  16
                  16
                  16
                  16
                  16
                  16
                  16
                  16
                  16
                  16
                  16
                  16
                  16
                  16
                  16
                  16
                  16
                  16
                  16
                  16
                  16
                  16
                  16
                  16
                  16
                  16
                  16
                  16
                  16
                  16
                  16
                  16
                  16
                  16
                  16
                  16
                  16
                  16
                  16
                  16
                  16
                  16
                  16
                  16
                  16
                  16
                  16
                  16
                  16
                  16
                  16
                  16
                  16
                  16
                  16
                  16
                  16
                  16
                  16
                  16
                  16
                  16
                  16
                  16
                  16
                  16
                  16
                  16
                  16
                  16
                  16
                  16
                  16
                  16
                  16
                  16
                  16
                  16
                  16
                  16
                  16
                  16
                  16
                  16
                  16
                  16
                  16
                  16
                  16
                  16
                  16
                  16
                  16
                  16
                  16
                  16
                  16
                  16
                  16
                  16
                  16
                  16
                  16
                  16
                  16
                  16
                  16
                  16
                  16
                  16
                  16
                  16
                  16
                  16
                  16
                  16
                  16
                  16
                  16
                  16
                  16
                  16
                  16
                  16
                  16
                  16
                  16
                  16
                  16
                  16
                  16
                  16
                  16
                  16
                  16
                  16
                  16
                  16
                  16
                  16
                  16
                  16
                  16
                  16
                  16
                  16
                  16
                  16
                  16
                  16
                  16
                  16
                  16
                  16
                  16
                  16
                  16
                  16
                  16
                  16
                  16
                  16
                  16
                  16
                  16
                  16
                  16
                  16
                  16
                  16
                  16
                  16
                  16
                  16
                  16
                  16
                  16
                  16
                  16
                  16
                  16
                  16
                  16
                  16
                  16
                  16
                  16
                  16
                  16
                  16
                  16
                  16
                  16
                  16
                  16
                  16
                  16
                  16
                  16
                  16
                  16
                  16
                  16
                  16
                  17
                  17
                  17
                  17
                  17
                  17
                  17
                  17
                  17
                  17
                  17
                  17
                  17
                  17
                  17
                  17
                  17
                  17
                  17
                  17
                  17
                  17
                  17
                  17
                  17
                  17
                  17
                  17
                  17
                  17
                  17
                  17
                  17
                  17
                  17
                  17
                  17
                  17
                  17
                  17
                  17
                  17
                  17
                  17
                  17
                  17
                  17
                  17
                  17
                  17
                  17
                  17
                  17
                  17
                  17
                  17
                  17
                  17
                  17
                  17
                  17
                  17
                  17
                  17
                  17
                  17
                  17
                  17
                  17
                  17
                  17
                  17
                  17
                  17
                  17
                  17
                  17
                  17
                  17
                  17
                  17
                  17
                  17
                  17
                  17
                  17
                  17
                  17
                  17
                  17
                  17
                  17
                  17
                  17
                  17
                  17
                  17
                  17
                  17
                  17
                  17
                  17
                  17
                  17
                  17
                  17
                  17
                  17
                  17
                  17
                  17
                  17
                  17
                  17
                  17
                  17
                  17
                  17
                  17
                  17
                  17
                  17
                  17
                  17
                  17
                  17
                  17
                  17
                  17
                  17
                  17
                  17
                  17
                  17
                  17
                  17
                  17
                  17
                  17
                  17
                  17
                  17
                  17
                  17
                  17
                  17
                  17
                  17
                  17
                  17
                  17
                  17
                  17
                  17
                  17
                  17
                  17
                  17
                  17
                  17
                  17
                  17
                  17
                  17
                  17
                  17
                  17
                  17
                  17
                  17
                  17
                  17
                  17
                  17
                  17
                  17
                  17
                  17
                  17
                  17
                  17
                  17
                  17
                  17
                  17
                  17
                  17
                  17
                  17
                  17
                  17
                  17
                  17
                  17
                  17
                  17
                  17
                  17
                  17
                  17
                  17
                  17
                  17
                  17
                  17
                  17
                  17
                  17
                  17
                  17
                  17
                  17
                  17
                  17
                  17
                  17
                  17
                  17
                  17
                  17
                  17
                  17
                  17
                  17
                  17
                  17
                  17
                  17
                  17
                  17
                  17
                  17
                  17
                  17
                  18
                  18
                  18
                  18
                  18
                  18
                  18
                  18
                  18
                  18
                  18
                  18
                  18
                  18
                  18
                  18
                  18
                  18
                  18
                  18
                  18
                  18
                  18
                  18
                  18
                  18
                  18
                  18
                  18
                  18
                  18
                  18
                  18
                  18
                  18
                  18
                  18
                  18
                  18
                  18
                  18
                  18
                  18
                  18
                  18
                  18
                  18
                  18
                  18
                  18
                  18
                  18
                  18
                  18
                  18
                  18
                  18
                  18
                  18
                  18
                  18
                  18
                  18
                  18
                  18
                  18
                  18
                  18
                  18
                  18
                  18
                  18
                  18
                  18
                  18
                  18
                  18
                  18
                  18
                  18
                  18
                  18
                  18
                  18
                  18
                  18
                  18
                  18
                  18
                  18
                  18
                  18
                  18
                  18
                  18
                  18
                  18
                  18
                  18
                  18
                  18
                  18
                  18
                  18
                  18
                  18
                  18
                  18
                  18
                  18
                  18
                  18
                  18
                  18
                  18
                  18
                  18
                  18
                  18
                  18
                  18
                  18
                  18
                  18
                  18
                  18
                  18
                  18
                  18
                  18
                  18
                  18
                  18
                  18
                  18
                  18
                  18
                  18
                  18
                  18
                  18
                  18
                  18
                  18
                  18
                  18
                  18
                  18
                  18
                  18
                  18
                  18
                  18
                  18
                  18
                  18
  
SCALARS                 displacement_x  double 1
LOOKUP_TABLE default
         0.00000E+00
         0.00000E+00
         0.00000E+00
         0.00000E+00
         0.00000E+00
         0.00000E+00
         0.00000E+00
         0.00000E+00
         0.00000E+00
         0.00000E+00
         0.00000E+00
         0.00000E+00
         0.00000E+00
         0.00000E+00
         0.00000E+00
         0.00000E+00
         0.00000E+00
         0.00000E+00
         0.00000E+00
         0.00000E+00
         0.00000E+00
         0.00000E+00
         0.00000E+00
         0.00000E+00
         0.00000E+00
         0.00000E+00
         0.00000E+00
         0.00000E+00
         0.00000E+00
         0.00000E+00
         0.00000E+00
         0.00000E+00
         0.00000E+00
         0.00000E+00
         0.00000E+00
         0.00000E+00
         0.00000E+00
         0.00000E+00
         0.00000E+00
         0.00000E+00
         0.00000E+00
         0.00000E+00
         0.00000E+00
         0.00000E+00
         0.00000E+00
         0.00000E+00
         0.00000E+00
         0.00000E+00
         0.00000E+00
         0.00000E+00
         0.00000E+00
         0.00000E+00
         0.00000E+00
         0.00000E+00
         0.00000E+00
         0.00000E+00
         0.00000E+00
         0.00000E+00
         0.00000E+00
         0.00000E+00
         0.00000E+00
         0.00000E+00
         0.00000E+00
         0.00000E+00
         0.00000E+00
         0.00000E+00
         0.00000E+00
         0.00000E+00
         0.00000E+00
         0.00000E+00
         0.00000E+00
         0.00000E+00
         0.00000E+00
         0.00000E+00
         0.00000E+00
         0.00000E+00
         0.00000E+00
         0.00000E+00
         0.00000E+00
         0.00000E+00
         0.00000E+00
         0.00000E+00
         0.00000E+00
         0.00000E+00
         0.00000E+00
         0.00000E+00
         0.00000E+00
         0.00000E+00
         0.00000E+00
         0.00000E+00
         0.00000E+00
         0.00000E+00
         0.00000E+00
         0.00000E+00
         0.00000E+00
         0.00000E+00
         0.00000E+00
         0.00000E+00
         0.00000E+00
         0.00000E+00
         0.00000E+00
         0.00000E+00
         0.00000E+00
         0.00000E+00
         0.00000E+00
         0.00000E+00
         0.00000E+00
         0.00000E+00
         0.00000E+00
         0.00000E+00
         0.00000E+00
         0.00000E+00
         0.00000E+00
         0.00000E+00
         0.00000E+00
         0.00000E+00
         0.00000E+00
         0.00000E+00
         0.00000E+00
         0.00000E+00
         0.00000E+00
         0.00000E+00
         0.00000E+00
         0.00000E+00
         0.00000E+00
         0.00000E+00
         0.00000E+00
         0.00000E+00
         0.00000E+00
         0.00000E+00
         0.00000E+00
         0.00000E+00
         0.00000E+00
         0.00000E+00
         0.00000E+00
         0.00000E+00
         0.00000E+00
         0.00000E+00
         0.00000E+00
         0.00000E+00
         0.00000E+00
         0.00000E+00
         0.00000E+00
         0.00000E+00
         0.00000E+00
         0.00000E+00
         0.00000E+00
         0.00000E+00
         0.00000E+00
         0.00000E+00
         0.00000E+00
         0.00000E+00
         0.00000E+00
         0.00000E+00
         0.00000E+00
         0.00000E+00
         0.00000E+00
         0.00000E+00
         0.00000E+00
         0.00000E+00
         0.00000E+00
         0.00000E+00
         0.00000E+00
         0.00000E+00
         0.00000E+00
         0.00000E+00
         0.00000E+00
         0.00000E+00
         0.00000E+00
         0.00000E+00
         0.00000E+00
         0.00000E+00
         0.00000E+00
         0.00000E+00
         0.00000E+00
         0.00000E+00
         0.00000E+00
         0.00000E+00
         0.00000E+00
         0.00000E+00
         0.00000E+00
         0.00000E+00
         0.00000E+00
         0.00000E+00
         0.00000E+00
         0.00000E+00
         0.00000E+00
         0.00000E+00
         0.00000E+00
         0.00000E+00
         0.00000E+00
         0.00000E+00
         0.00000E+00
         0.00000E+00
         0.00000E+00
         0.00000E+00
         0.00000E+00
         0.00000E+00
         0.00000E+00
         0.00000E+00
         0.00000E+00
         0.00000E+00
         0.00000E+00
         0.00000E+00
         0.00000E+00
         0.00000E+00
         0.00000E+00
         0.00000E+00
         0.00000E+00
         0.00000E+00
         0.00000E+00
         0.00000E+00
         0.00000E+00
         0.00000E+00
         0.00000E+00
         0.00000E+00
         0.00000E+00
         0.00000E+00
         0.00000E+00
         0.00000E+00
         0.00000E+00
         0.00000E+00
         0.00000E+00
         0.00000E+00
         0.00000E+00
         0.00000E+00
         0.00000E+00
         0.00000E+00
         0.00000E+00
         0.00000E+00
         0.00000E+00
         0.00000E+00
         0.00000E+00
         0.00000E+00
         0.00000E+00
         0.00000E+00
         0.00000E+00
         0.00000E+00
         0.00000E+00
         0.00000E+00
         0.00000E+00
         0.00000E+00
         0.00000E+00
         0.00000E+00
         0.00000E+00
         0.00000E+00
         0.00000E+00
         0.00000E+00
         0.00000E+00
         0.00000E+00
         0.00000E+00
         0.00000E+00
         0.00000E+00
         0.00000E+00
         0.00000E+00
         0.00000E+00
         0.00000E+00
         0.00000E+00
         0.00000E+00
         0.00000E+00
         0.00000E+00
         0.00000E+00
         0.00000E+00
         0.00000E+00
         0.00000E+00
         0.00000E+00
         0.00000E+00
         0.00000E+00
         0.00000E+00
         0.00000E+00
         0.00000E+00
         0.00000E+00
         0.00000E+00
         0.00000E+00
         0.00000E+00
         0.00000E+00
         0.00000E+00
         0.00000E+00
         0.00000E+00
         0.00000E+00
         0.00000E+00
         0.00000E+00
         0.00000E+00
         0.00000E+00
         0.00000E+00
         0.00000E+00
         0.00000E+00
         0.00000E+00
         0.00000E+00
         0.00000E+00
         0.00000E+00
         0.00000E+00
         0.00000E+00
         0.00000E+00
         0.00000E+00
         0.00000E+00
         0.00000E+00
         0.00000E+00
         0.00000E+00
         0.00000E+00
         0.00000E+00
         0.00000E+00
         0.00000E+00
         0.00000E+00
         0.00000E+00
         0.00000E+00
         0.00000E+00
         0.00000E+00
         0.00000E+00
         0.00000E+00
         0.00000E+00
         0.00000E+00
         0.00000E+00
         0.00000E+00
         0.00000E+00
         0.00000E+00
         0.00000E+00
         0.00000E+00
         0.00000E+00
         0.00000E+00
         0.00000E+00
         0.00000E+00
         0.00000E+00
         0.00000E+00
         0.00000E+00
         0.00000E+00
         0.00000E+00
         0.00000E+00
         0.00000E+00
         0.00000E+00
         0.00000E+00
         0.00000E+00
         0.00000E+00
         0.00000E+00
         0.00000E+00
         0.00000E+00
         0.00000E+00
         0.00000E+00
         0.00000E+00
         0.00000E+00
         0.00000E+00
         0.00000E+00
         0.00000E+00
         0.00000E+00
         0.00000E+00
         0.00000E+00
         0.00000E+00
         0.00000E+00
         0.00000E+00
         0.00000E+00
         0.00000E+00
         0.00000E+00
         0.00000E+00
         0.00000E+00
         0.00000E+00
         0.00000E+00
         0.00000E+00
         0.00000E+00
         0.00000E+00
         0.00000E+00
         0.00000E+00
         0.00000E+00
         0.00000E+00
         0.00000E+00
         0.00000E+00
         0.00000E+00
         0.00000E+00
         0.00000E+00
         0.00000E+00
         0.00000E+00
         0.00000E+00
         0.00000E+00
         0.00000E+00
         0.00000E+00
         0.00000E+00
         0.00000E+00
         0.00000E+00
         0.00000E+00
         0.00000E+00
         0.00000E+00
         0.00000E+00
         0.00000E+00
         0.00000E+00
         0.00000E+00
         0.00000E+00
         0.00000E+00
         0.00000E+00
         0.00000E+00
         0.00000E+00
         0.00000E+00
         0.00000E+00
         0.00000E+00
         0.00000E+00
         0.00000E+00
         0.00000E+00
         0.00000E+00
         0.00000E+00
         0.00000E+00
         0.00000E+00
         0.00000E+00
         0.00000E+00
         0.00000E+00
         0.00000E+00
         0.00000E+00
         0.00000E+00
         0.00000E+00
         0.00000E+00
         0.00000E+00
         0.00000E+00
         0.00000E+00
         0.00000E+00
         0.00000E+00
         0.00000E+00
         0.00000E+00
         0.00000E+00
         0.00000E+00
         0.00000E+00
         0.00000E+00
         0.00000E+00
         0.00000E+00
         0.00000E+00
         0.00000E+00
         0.00000E+00
         0.00000E+00
         0.00000E+00
         0.00000E+00
         0.00000E+00
         0.00000E+00
         0.00000E+00
         0.00000E+00
         0.00000E+00
         0.00000E+00
         0.00000E+00
         0.00000E+00
         0.00000E+00
         0.00000E+00
         0.00000E+00
         0.00000E+00
         0.00000E+00
         0.00000E+00
         0.00000E+00
         0.00000E+00
         0.00000E+00
         0.00000E+00
         0.00000E+00
         0.00000E+00
         0.00000E+00
         0.00000E+00
         0.00000E+00
         0.00000E+00
         0.00000E+00
         0.00000E+00
         0.00000E+00
         0.00000E+00
         0.00000E+00
         0.00000E+00
         0.00000E+00
         0.00000E+00
         0.00000E+00
         0.00000E+00
         0.00000E+00
         0.00000E+00
         0.00000E+00
         0.00000E+00
         0.00000E+00
         0.00000E+00
         0.00000E+00
         0.00000E+00
         0.00000E+00
         0.00000E+00
         0.00000E+00
         0.00000E+00
         0.00000E+00
         0.00000E+00
         0.00000E+00
         0.00000E+00
         0.00000E+00
         0.00000E+00
         0.00000E+00
         0.00000E+00
         0.00000E+00
         0.00000E+00
         0.00000E+00
         0.00000E+00
         0.00000E+00
         0.00000E+00
         0.00000E+00
         0.00000E+00
         0.00000E+00
         0.00000E+00
         0.00000E+00
         0.00000E+00
         0.00000E+00
         0.00000E+00
         0.00000E+00
         0.00000E+00
         0.00000E+00
         0.00000E+00
         0.00000E+00
         0.00000E+00
         0.00000E+00
         0.00000E+00
         0.00000E+00
         0.00000E+00
         0.00000E+00
         0.00000E+00
         0.00000E+00
         0.00000E+00
         0.00000E+00
         0.00000E+00
         0.00000E+00
         0.00000E+00
         0.00000E+00
         0.00000E+00
         0.00000E+00
         0.00000E+00
         0.00000E+00
         0.00000E+00
         0.00000E+00
         0.00000E+00
         0.00000E+00
         0.00000E+00
         0.00000E+00
         0.00000E+00
         0.00000E+00
         0.00000E+00
         0.00000E+00
         0.00000E+00
         0.00000E+00
         0.00000E+00
         0.00000E+00
         0.00000E+00
         0.00000E+00
         0.00000E+00
         0.00000E+00
         0.00000E+00
         0.00000E+00
         0.00000E+00
         0.00000E+00
         0.00000E+00
         0.00000E+00
         0.00000E+00
         0.00000E+00
         0.00000E+00
         0.00000E+00
         0.00000E+00
         0.00000E+00
         0.00000E+00
         0.00000E+00
         0.00000E+00
         0.00000E+00
         0.00000E+00
         0.00000E+00
         0.00000E+00
         0.00000E+00
         0.00000E+00
         0.00000E+00
         0.00000E+00
         0.00000E+00
         0.00000E+00
         0.00000E+00
         0.00000E+00
         0.00000E+00
         0.00000E+00
         0.00000E+00
         0.00000E+00
         0.00000E+00
         0.00000E+00
         0.00000E+00
         0.00000E+00
         0.00000E+00
         0.00000E+00
         0.00000E+00
         0.00000E+00
         0.00000E+00
         0.00000E+00
         0.00000E+00
         0.00000E+00
         0.00000E+00
         0.00000E+00
         0.00000E+00
         0.00000E+00
         0.00000E+00
         0.00000E+00
         0.00000E+00
         0.00000E+00
         0.00000E+00
         0.00000E+00
         0.00000E+00
         0.00000E+00
         0.00000E+00
         0.00000E+00
         0.00000E+00
         0.00000E+00
         0.00000E+00
         0.00000E+00
         0.00000E+00
         0.00000E+00
         0.00000E+00
         0.00000E+00
         0.00000E+00
         0.00000E+00
         0.00000E+00
         0.00000E+00
         0.00000E+00
         0.00000E+00
         0.00000E+00
         0.00000E+00
         0.00000E+00
         0.00000E+00
         0.00000E+00
         0.00000E+00
         0.00000E+00
         0.00000E+00
         0.00000E+00
         0.00000E+00
         0.00000E+00
         0.00000E+00
         0.00000E+00
         0.00000E+00
         0.00000E+00
         0.00000E+00
         0.00000E+00
         0.00000E+00
         0.00000E+00
         0.00000E+00
         0.00000E+00
         0.00000E+00
         0.00000E+00
         0.00000E+00
         0.00000E+00
         0.00000E+00
         0.00000E+00
         0.00000E+00
         0.00000E+00
         0.00000E+00
         0.00000E+00
         0.00000E+00
         0.00000E+00
         0.00000E+00
         0.00000E+00
         0.00000E+00
         0.00000E+00
         0.00000E+00
         0.00000E+00
         0.00000E+00
         0.00000E+00
         0.00000E+00
         0.00000E+00
         0.00000E+00
         0.00000E+00
         0.00000E+00
         0.00000E+00
         0.00000E+00
         0.00000E+00
         0.00000E+00
         0.00000E+00
         0.00000E+00
         0.00000E+00
         0.00000E+00
         0.00000E+00
         0.00000E+00
         0.00000E+00
         0.00000E+00
         0.00000E+00
         0.00000E+00
         0.00000E+00
         0.00000E+00
         0.00000E+00
         0.00000E+00
         0.00000E+00
         0.00000E+00
         0.00000E+00
         0.00000E+00
         0.00000E+00
         0.00000E+00
         0.00000E+00
         0.00000E+00
         0.00000E+00
         0.00000E+00
         0.00000E+00
         0.00000E+00
         0.00000E+00
         0.00000E+00
         0.00000E+00
         0.00000E+00
         0.00000E+00
         0.00000E+00
         0.00000E+00
         0.00000E+00
         0.00000E+00
         0.00000E+00
         0.00000E+00
         0.00000E+00
         0.00000E+00
         0.00000E+00
         0.00000E+00
         0.00000E+00
         0.00000E+00
         0.00000E+00
         0.00000E+00
         0.00000E+00
         0.00000E+00
         0.00000E+00
         0.00000E+00
         0.00000E+00
         0.00000E+00
         0.00000E+00
         0.00000E+00
         0.00000E+00
         0.00000E+00
         0.00000E+00
         0.00000E+00
         0.00000E+00
         0.00000E+00
         0.00000E+00
         0.00000E+00
         0.00000E+00
         0.00000E+00
         0.00000E+00
         0.00000E+00
         0.00000E+00
         0.00000E+00
         0.00000E+00
         0.00000E+00
         0.00000E+00
         0.00000E+00
         0.00000E+00
         0.00000E+00
         0.00000E+00
         0.00000E+00
         0.00000E+00
         0.00000E+00
         0.00000E+00
         0.00000E+00
         0.00000E+00
         0.00000E+00
         0.00000E+00
         0.00000E+00
         0.00000E+00
         0.00000E+00
         0.00000E+00
         0.00000E+00
         0.00000E+00
         0.00000E+00
         0.00000E+00
         0.00000E+00
         0.00000E+00
         0.00000E+00
         0.00000E+00
         0.00000E+00
         0.00000E+00
         0.00000E+00
         0.00000E+00
         0.00000E+00
         0.00000E+00
         0.00000E+00
         0.00000E+00
         0.00000E+00
         0.00000E+00
         0.00000E+00
         0.00000E+00
         0.00000E+00
         0.00000E+00
         0.00000E+00
         0.00000E+00
         0.00000E+00
         0.00000E+00
         0.00000E+00
         0.00000E+00
         0.00000E+00
         0.00000E+00
         0.00000E+00
         0.00000E+00
         0.00000E+00
         0.00000E+00
         0.00000E+00
         0.00000E+00
         0.00000E+00
         0.00000E+00
         0.00000E+00
         0.00000E+00
         0.00000E+00
         0.00000E+00
         0.00000E+00
         0.00000E+00
         0.00000E+00
         0.00000E+00
         0.00000E+00
         0.00000E+00
         0.00000E+00
         0.00000E+00
         0.00000E+00
         0.00000E+00
         0.00000E+00
         0.00000E+00
         0.00000E+00
         0.00000E+00
         0.00000E+00
         0.00000E+00
         0.00000E+00
         0.00000E+00
         0.00000E+00
         0.00000E+00
         0.00000E+00
         0.00000E+00
         0.00000E+00
         0.00000E+00
         0.00000E+00
         0.00000E+00
         0.00000E+00
         0.00000E+00
         0.00000E+00
         0.00000E+00
         0.00000E+00
         0.00000E+00
         0.00000E+00
         0.00000E+00
         0.00000E+00
         0.00000E+00
         0.00000E+00
         0.00000E+00
         0.00000E+00
         0.00000E+00
         0.00000E+00
         0.00000E+00
         0.00000E+00
         0.00000E+00
         0.00000E+00
         0.00000E+00
         0.00000E+00
         0.00000E+00
         0.00000E+00
         0.00000E+00
         0.00000E+00
         0.00000E+00
         0.00000E+00
         0.00000E+00
         0.00000E+00
         0.00000E+00
         0.00000E+00
         0.00000E+00
         0.00000E+00
         0.00000E+00
         0.00000E+00
         0.00000E+00
         0.00000E+00
         0.00000E+00
         0.00000E+00
         0.00000E+00
         0.00000E+00
         0.00000E+00
         0.00000E+00
         0.00000E+00
         0.00000E+00
         0.00000E+00
         0.00000E+00
         0.00000E+00
         0.00000E+00
         0.00000E+00
         0.00000E+00
         0.00000E+00
         0.00000E+00
         0.00000E+00
         0.00000E+00
         0.00000E+00
         0.00000E+00
         0.00000E+00
         0.00000E+00
         0.00000E+00
         0.00000E+00
         0.00000E+00
         0.00000E+00
         0.00000E+00
         0.00000E+00
         0.00000E+00
         0.00000E+00
         0.00000E+00
         0.00000E+00
         0.00000E+00
         0.00000E+00
         0.00000E+00
         0.00000E+00
         0.00000E+00
         0.00000E+00
         0.00000E+00
         0.00000E+00
         0.00000E+00
         0.00000E+00
         0.00000E+00
         0.00000E+00
         0.00000E+00
         0.00000E+00
         0.00000E+00
         0.00000E+00
         0.00000E+00
         0.00000E+00
         0.00000E+00
         0.00000E+00
         0.00000E+00
         0.00000E+00
         0.00000E+00
         0.00000E+00
         0.00000E+00
         0.00000E+00
         0.00000E+00
         0.00000E+00
         0.00000E+00
         0.00000E+00
         0.00000E+00
         0.00000E+00
         0.00000E+00
         0.00000E+00
         0.00000E+00
         0.00000E+00
         0.00000E+00
         0.00000E+00
         0.00000E+00
         0.00000E+00
         0.00000E+00
         0.00000E+00
         0.00000E+00
         0.00000E+00
         0.00000E+00
         0.00000E+00
         0.00000E+00
         0.00000E+00
         0.00000E+00
         0.00000E+00
         0.00000E+00
         0.00000E+00
         0.00000E+00
         0.00000E+00
         0.00000E+00
         0.00000E+00
         0.00000E+00
         0.00000E+00
         0.00000E+00
         0.00000E+00
         0.00000E+00
         0.00000E+00
         0.00000E+00
         0.00000E+00
         0.00000E+00
         0.00000E+00
         0.00000E+00
         0.00000E+00
         0.00000E+00
         0.00000E+00
         0.00000E+00
         0.00000E+00
         0.00000E+00
         0.00000E+00
         0.00000E+00
         0.00000E+00
         0.00000E+00
         0.00000E+00
         0.00000E+00
         0.00000E+00
         0.00000E+00
         0.00000E+00
         0.00000E+00
         0.00000E+00
         0.00000E+00
         0.00000E+00
         0.00000E+00
         0.00000E+00
         0.00000E+00
         0.00000E+00
         0.00000E+00
         0.00000E+00
         0.00000E+00
         0.00000E+00
         0.00000E+00
         0.00000E+00
         0.00000E+00
         0.00000E+00
         0.00000E+00
         0.00000E+00
         0.00000E+00
         0.00000E+00
         0.00000E+00
         0.00000E+00
         0.00000E+00
         0.00000E+00
         0.00000E+00
         0.00000E+00
         0.00000E+00
         0.00000E+00
         0.00000E+00
         0.00000E+00
         0.00000E+00
         0.00000E+00
         0.00000E+00
         0.00000E+00
         0.00000E+00
         0.00000E+00
         0.00000E+00
         0.00000E+00
         0.00000E+00
         0.00000E+00
         0.00000E+00
         0.00000E+00
         0.00000E+00
         0.00000E+00
         0.00000E+00
         0.00000E+00
         0.00000E+00
         0.00000E+00
         0.00000E+00
         0.00000E+00
         0.00000E+00
         0.00000E+00
         0.00000E+00
         0.00000E+00
         0.00000E+00
         0.00000E+00
         0.00000E+00
         0.00000E+00
         0.00000E+00
         0.00000E+00
         0.00000E+00
         0.00000E+00
         0.00000E+00
         0.00000E+00
         0.00000E+00
         0.00000E+00
         0.00000E+00
         0.00000E+00
         0.00000E+00
         0.00000E+00
         0.00000E+00
         0.00000E+00
         0.00000E+00
         0.00000E+00
         0.00000E+00
         0.00000E+00
         0.00000E+00
         0.00000E+00
         0.00000E+00
         0.00000E+00
         0.00000E+00
         0.00000E+00
         0.00000E+00
         0.00000E+00
         0.00000E+00
         0.00000E+00
         0.00000E+00
         0.00000E+00
         0.00000E+00
         0.00000E+00
         0.00000E+00
         0.00000E+00
         0.00000E+00
         0.00000E+00
         0.00000E+00
         0.00000E+00
         0.00000E+00
         0.00000E+00
         0.00000E+00
         0.00000E+00
         0.00000E+00
         0.00000E+00
         0.00000E+00
         0.00000E+00
         0.00000E+00
         0.00000E+00
         0.00000E+00
         0.00000E+00
         0.00000E+00
         0.00000E+00
         0.00000E+00
         0.00000E+00
         0.00000E+00
         0.00000E+00
         0.00000E+00
         0.00000E+00
         0.00000E+00
         0.00000E+00
         0.00000E+00
         0.00000E+00
         0.00000E+00
         0.00000E+00
         0.00000E+00
         0.00000E+00
         0.00000E+00
         0.00000E+00
         0.00000E+00
         0.00000E+00
         0.00000E+00
         0.00000E+00
         0.00000E+00
         0.00000E+00
         0.00000E+00
         0.00000E+00
         0.00000E+00
         0.00000E+00
         0.00000E+00
         0.00000E+00
         0.00000E+00
         0.00000E+00
         0.00000E+00
         0.00000E+00
         0.00000E+00
         0.00000E+00
         0.00000E+00
         0.00000E+00
         0.00000E+00
         0.00000E+00
         0.00000E+00
         0.00000E+00
         0.00000E+00
         0.00000E+00
         0.00000E+00
         0.00000E+00
         0.00000E+00
         0.00000E+00
         0.00000E+00
         0.00000E+00
         0.00000E+00
         0.00000E+00
         0.00000E+00
         0.00000E+00
         0.00000E+00
         0.00000E+00
         0.00000E+00
         0.00000E+00
         0.00000E+00
         0.00000E+00
         0.00000E+00
         0.00000E+00
         0.00000E+00
         0.00000E+00
         0.00000E+00
         0.00000E+00
         0.00000E+00
         0.00000E+00
         0.00000E+00
         0.00000E+00
         0.00000E+00
         0.00000E+00
         0.00000E+00
         0.00000E+00
         0.00000E+00
         0.00000E+00
         0.00000E+00
         0.00000E+00
         0.00000E+00
         0.00000E+00
         0.00000E+00
         0.00000E+00
         0.00000E+00
         0.00000E+00
         0.00000E+00
         0.00000E+00
         0.00000E+00
         0.00000E+00
         0.00000E+00
         0.00000E+00
         0.00000E+00
         0.00000E+00
         0.00000E+00
         0.00000E+00
         0.00000E+00
         0.00000E+00
         0.00000E+00
         0.00000E+00
         0.00000E+00
         0.00000E+00
         0.00000E+00
         0.00000E+00
         0.00000E+00
         0.00000E+00
         0.00000E+00
         0.00000E+00
         0.00000E+00
         0.00000E+00
         0.00000E+00
         0.00000E+00
         0.00000E+00
         0.00000E+00
         0.00000E+00
         0.00000E+00
         0.00000E+00
         0.00000E+00
         0.00000E+00
         0.00000E+00
         0.00000E+00
         0.00000E+00
         0.00000E+00
         0.00000E+00
         0.00000E+00
         0.00000E+00
         0.00000E+00
         0.00000E+00
         0.00000E+00
         0.00000E+00
         0.00000E+00
         0.00000E+00
         0.00000E+00
         0.00000E+00
         0.00000E+00
         0.00000E+00
         0.00000E+00
         0.00000E+00
         0.00000E+00
         0.00000E+00
         0.00000E+00
         0.00000E+00
         0.00000E+00
         0.00000E+00
         0.00000E+00
         0.00000E+00
         0.00000E+00
         0.00000E+00
         0.00000E+00
         0.00000E+00
         0.00000E+00
         0.00000E+00
         0.00000E+00
         0.00000E+00
         0.00000E+00
         0.00000E+00
         0.00000E+00
         0.00000E+00
         0.00000E+00
         0.00000E+00
         0.00000E+00
         0.00000E+00
         0.00000E+00
         0.00000E+00
         0.00000E+00
         0.00000E+00
         0.00000E+00
         0.00000E+00
         0.00000E+00
         0.00000E+00
         0.00000E+00
         0.00000E+00
         0.00000E+00
         0.00000E+00
         0.00000E+00
         0.00000E+00
         0.00000E+00
         0.00000E+00
         0.00000E+00
         0.00000E+00
         0.00000E+00
         0.00000E+00
         0.00000E+00
         0.00000E+00
         0.00000E+00
         0.00000E+00
         0.00000E+00
         0.00000E+00
         0.00000E+00
         0.00000E+00
         0.00000E+00
         0.00000E+00
         0.00000E+00
         0.00000E+00
         0.00000E+00
         0.00000E+00
         0.00000E+00
         0.00000E+00
         0.00000E+00
         0.00000E+00
         0.00000E+00
         0.00000E+00
         0.00000E+00
         0.00000E+00
         0.00000E+00
         0.00000E+00
         0.00000E+00
         0.00000E+00
         0.00000E+00
         0.00000E+00
         0.00000E+00
         0.00000E+00
         0.00000E+00
         0.00000E+00
         0.00000E+00
         0.00000E+00
         0.00000E+00
         0.00000E+00
         0.00000E+00
         0.00000E+00
         0.00000E+00
         0.00000E+00
         0.00000E+00
         0.00000E+00
         0.00000E+00
         0.00000E+00
         0.00000E+00
         0.00000E+00
         0.00000E+00
         0.00000E+00
         0.00000E+00
         0.00000E+00
         0.00000E+00
         0.00000E+00
         0.00000E+00
         0.00000E+00
         0.00000E+00
         0.00000E+00
         0.00000E+00
         0.00000E+00
         0.00000E+00
         0.00000E+00
         0.00000E+00
         0.00000E+00
         0.00000E+00
         0.00000E+00
         0.00000E+00
         0.00000E+00
         0.00000E+00
         0.00000E+00
         0.00000E+00
         0.00000E+00
         0.00000E+00
         0.00000E+00
         0.00000E+00
         0.00000E+00
         0.00000E+00
         0.00000E+00
         0.00000E+00
         0.00000E+00
         0.00000E+00
         0.00000E+00
         0.00000E+00
         0.00000E+00
         0.00000E+00
         0.00000E+00
         0.00000E+00
         0.00000E+00
         0.00000E+00
         0.00000E+00
         0.00000E+00
         0.00000E+00
         0.00000E+00
         0.00000E+00
         0.00000E+00
         0.00000E+00
         0.00000E+00
         0.00000E+00
         0.00000E+00
         0.00000E+00
         0.00000E+00
         0.00000E+00
         0.00000E+00
         0.00000E+00
         0.00000E+00
         0.00000E+00
         0.00000E+00
         0.00000E+00
         0.00000E+00
         0.00000E+00
         0.00000E+00
         0.00000E+00
         0.00000E+00
         0.00000E+00
         0.00000E+00
         0.00000E+00
         0.00000E+00
         0.00000E+00
         0.00000E+00
         0.00000E+00
         0.00000E+00
         0.00000E+00
         0.00000E+00
         0.00000E+00
         0.00000E+00
         0.00000E+00
         0.00000E+00
         0.00000E+00
         0.00000E+00
         0.00000E+00
         0.00000E+00
         0.00000E+00
         0.00000E+00
         0.00000E+00
         0.00000E+00
         0.00000E+00
         0.00000E+00
         0.00000E+00
         0.00000E+00
         0.00000E+00
         0.00000E+00
         0.00000E+00
         0.00000E+00
         0.00000E+00
         0.00000E+00
         0.00000E+00
         0.00000E+00
         0.00000E+00
         0.00000E+00
         0.00000E+00
         0.00000E+00
         0.00000E+00
         0.00000E+00
         0.00000E+00
         0.00000E+00
         0.00000E+00
         0.00000E+00
         0.00000E+00
         0.00000E+00
         0.00000E+00
         0.00000E+00
         0.00000E+00
         0.00000E+00
         0.00000E+00
         0.00000E+00
         0.00000E+00
         0.00000E+00
         0.00000E+00
         0.00000E+00
         0.00000E+00
         0.00000E+00
         0.00000E+00
         0.00000E+00
         0.00000E+00
         0.00000E+00
         0.00000E+00
         0.00000E+00
         0.00000E+00
         0.00000E+00
         0.00000E+00
         0.00000E+00
         0.00000E+00
         0.00000E+00
         0.00000E+00
         0.00000E+00
         0.00000E+00
         0.00000E+00
         0.00000E+00
         0.00000E+00
         0.00000E+00
         0.00000E+00
         0.00000E+00
         0.00000E+00
         0.00000E+00
         0.00000E+00
         0.00000E+00
         0.00000E+00
         0.00000E+00
         0.00000E+00
         0.00000E+00
         0.00000E+00
         0.00000E+00
         0.00000E+00
         0.00000E+00
         0.00000E+00
         0.00000E+00
         0.00000E+00
         0.00000E+00
         0.00000E+00
         0.00000E+00
         0.00000E+00
         0.00000E+00
         0.00000E+00
         0.00000E+00
         0.00000E+00
         0.00000E+00
         0.00000E+00
         0.00000E+00
         0.00000E+00
         0.00000E+00
         0.00000E+00
         0.00000E+00
         0.00000E+00
         0.00000E+00
         0.00000E+00
         0.00000E+00
         0.00000E+00
         0.00000E+00
         0.00000E+00
         0.00000E+00
         0.00000E+00
         0.00000E+00
         0.00000E+00
         0.00000E+00
         0.00000E+00
         0.00000E+00
         0.00000E+00
         0.00000E+00
         0.00000E+00
         0.00000E+00
         0.00000E+00
         0.00000E+00
         0.00000E+00
         0.00000E+00
         0.00000E+00
         0.00000E+00
         0.00000E+00
         0.00000E+00
         0.00000E+00
         0.00000E+00
         0.00000E+00
         0.00000E+00
         0.00000E+00
         0.00000E+00
         0.00000E+00
         0.00000E+00
         0.00000E+00
         0.00000E+00
         0.00000E+00
         0.00000E+00
         0.00000E+00
         0.00000E+00
         0.00000E+00
         0.00000E+00
         0.00000E+00
         0.00000E+00
         0.00000E+00
         0.00000E+00
         0.00000E+00
         0.00000E+00
         0.00000E+00
         0.00000E+00
         0.00000E+00
         0.00000E+00
         0.00000E+00
         0.00000E+00
         0.00000E+00
         0.00000E+00
         0.00000E+00
         0.00000E+00
         0.00000E+00
         0.00000E+00
         0.00000E+00
         0.00000E+00
         0.00000E+00
         0.00000E+00
         0.00000E+00
         0.00000E+00
         0.00000E+00
         0.00000E+00
         0.00000E+00
         0.00000E+00
         0.00000E+00
         0.00000E+00
         0.00000E+00
         0.00000E+00
         0.00000E+00
         0.00000E+00
         0.00000E+00
         0.00000E+00
         0.00000E+00
         0.00000E+00
         0.00000E+00
         0.00000E+00
         0.00000E+00
         0.00000E+00
         0.00000E+00
         0.00000E+00
         0.00000E+00
         0.00000E+00
         0.00000E+00
         0.00000E+00
         0.00000E+00
         0.00000E+00
         0.00000E+00
         0.00000E+00
         0.00000E+00
         0.00000E+00
         0.00000E+00
         0.00000E+00
         0.00000E+00
         0.00000E+00
         0.00000E+00
         0.00000E+00
         0.00000E+00
         0.00000E+00
         0.00000E+00
         0.00000E+00
         0.00000E+00
         0.00000E+00
         0.00000E+00
         0.00000E+00
         0.00000E+00
         0.00000E+00
         0.00000E+00
         0.00000E+00
         0.00000E+00
         0.00000E+00
         0.00000E+00
         0.00000E+00
         0.00000E+00
         0.00000E+00
         0.00000E+00
         0.00000E+00
         0.00000E+00
         0.00000E+00
         0.00000E+00
         0.00000E+00
         0.00000E+00
         0.00000E+00
         0.00000E+00
         0.00000E+00
         0.00000E+00
         0.00000E+00
         0.00000E+00
         0.00000E+00
         0.00000E+00
         0.00000E+00
         0.00000E+00
         0.00000E+00
         0.00000E+00
         0.00000E+00
         0.00000E+00
         0.00000E+00
         0.00000E+00
         0.00000E+00
         0.00000E+00
         0.00000E+00
         0.00000E+00
         0.00000E+00
         0.00000E+00
         0.00000E+00
         0.00000E+00
         0.00000E+00
         0.00000E+00
         0.00000E+00
         0.00000E+00
         0.00000E+00
         0.00000E+00
         0.00000E+00
         0.00000E+00
         0.00000E+00
         0.00000E+00
         0.00000E+00
         0.00000E+00
         0.00000E+00
         0.00000E+00
         0.00000E+00
         0.00000E+00
         0.00000E+00
         0.00000E+00
         0.00000E+00
         0.00000E+00
         0.00000E+00
         0.00000E+00
         0.00000E+00
         0.00000E+00
         0.00000E+00
         0.00000E+00
         0.00000E+00
         0.00000E+00
         0.00000E+00
         0.00000E+00
         0.00000E+00
         0.00000E+00
         0.00000E+00
         0.00000E+00
         0.00000E+00
         0.00000E+00
         0.00000E+00
         0.00000E+00
         0.00000E+00
         0.00000E+00
         0.00000E+00
         0.00000E+00
         0.00000E+00
         0.00000E+00
         0.00000E+00
         0.00000E+00
         0.00000E+00
         0.00000E+00
         0.00000E+00
         0.00000E+00
         0.00000E+00
         0.00000E+00
         0.00000E+00
         0.00000E+00
         0.00000E+00
         0.00000E+00
         0.00000E+00
         0.00000E+00
         0.00000E+00
         0.00000E+00
         0.00000E+00
         0.00000E+00
         0.00000E+00
         0.00000E+00
         0.00000E+00
         0.00000E+00
         0.00000E+00
         0.00000E+00
         0.00000E+00
         0.00000E+00
         0.00000E+00
         0.00000E+00
         0.00000E+00
         0.00000E+00
         0.00000E+00
         0.00000E+00
         0.00000E+00
         0.00000E+00
         0.00000E+00
         0.00000E+00
         0.00000E+00
         0.00000E+00
         0.00000E+00
         0.00000E+00
         0.00000E+00
         0.00000E+00
         0.00000E+00
         0.00000E+00
         0.00000E+00
         0.00000E+00
         0.00000E+00
         0.00000E+00
         0.00000E+00
         0.00000E+00
         0.00000E+00
         0.00000E+00
         0.00000E+00
         0.00000E+00
         0.00000E+00
         0.00000E+00
         0.00000E+00
         0.00000E+00
         0.00000E+00
         0.00000E+00
         0.00000E+00
         0.00000E+00
         0.00000E+00
         0.00000E+00
         0.00000E+00
         0.00000E+00
         0.00000E+00
         0.00000E+00
         0.00000E+00
         0.00000E+00
         0.00000E+00
         0.00000E+00
         0.00000E+00
         0.00000E+00
         0.00000E+00
         0.00000E+00
         0.00000E+00
         0.00000E+00
         0.00000E+00
         0.00000E+00
         0.00000E+00
         0.00000E+00
         0.00000E+00
         0.00000E+00
         0.00000E+00
         0.00000E+00
         0.00000E+00
         0.00000E+00
         0.00000E+00
         0.00000E+00
         0.00000E+00
         0.00000E+00
         0.00000E+00
         0.00000E+00
         0.00000E+00
         0.00000E+00
         0.00000E+00
         0.00000E+00
         0.00000E+00
         0.00000E+00
         0.00000E+00
         0.00000E+00
         0.00000E+00
         0.00000E+00
         0.00000E+00
         0.00000E+00
         0.00000E+00
         0.00000E+00
         0.00000E+00
         0.00000E+00
         0.00000E+00
         0.00000E+00
         0.00000E+00
         0.00000E+00
         0.00000E+00
         0.00000E+00
         0.00000E+00
         0.00000E+00
         0.00000E+00
         0.00000E+00
         0.00000E+00
         0.00000E+00
         0.00000E+00
         0.00000E+00
         0.00000E+00
         0.00000E+00
         0.00000E+00
         0.00000E+00
         0.00000E+00
         0.00000E+00
         0.00000E+00
         0.00000E+00
         0.00000E+00
         0.00000E+00
         0.00000E+00
         0.00000E+00
         0.00000E+00
         0.00000E+00
         0.00000E+00
         0.00000E+00
         0.00000E+00
         0.00000E+00
         0.00000E+00
         0.00000E+00
         0.00000E+00
         0.00000E+00
         0.00000E+00
         0.00000E+00
         0.00000E+00
         0.00000E+00
         0.00000E+00
         0.00000E+00
         0.00000E+00
         0.00000E+00
         0.00000E+00
         0.00000E+00
         0.00000E+00
         0.00000E+00
         0.00000E+00
         0.00000E+00
         0.00000E+00
         0.00000E+00
         0.00000E+00
         0.00000E+00
         0.00000E+00
         0.00000E+00
         0.00000E+00
         0.00000E+00
         0.00000E+00
         0.00000E+00
         0.00000E+00
         0.00000E+00
         0.00000E+00
         0.00000E+00
         0.00000E+00
         0.00000E+00
         0.00000E+00
         0.00000E+00
         0.00000E+00
         0.00000E+00
         0.00000E+00
         0.00000E+00
         0.00000E+00
         0.00000E+00
         0.00000E+00
         0.00000E+00
         0.00000E+00
         0.00000E+00
         0.00000E+00
         0.00000E+00
         0.00000E+00
         0.00000E+00
         0.00000E+00
         0.00000E+00
         0.00000E+00
         0.00000E+00
         0.00000E+00
         0.00000E+00
         0.00000E+00
         0.00000E+00
         0.00000E+00
         0.00000E+00
         0.00000E+00
         0.00000E+00
         0.00000E+00
         0.00000E+00
         0.00000E+00
         0.00000E+00
         0.00000E+00
         0.00000E+00
         0.00000E+00
         0.00000E+00
         0.00000E+00
         0.00000E+00
         0.00000E+00
         0.00000E+00
         0.00000E+00
         0.00000E+00
         0.00000E+00
         0.00000E+00
         0.00000E+00
         0.00000E+00
         0.00000E+00
         0.00000E+00
         0.00000E+00
         0.00000E+00
         0.00000E+00
         0.00000E+00
         0.00000E+00
         0.00000E+00
         0.00000E+00
         0.00000E+00
         0.00000E+00
         0.00000E+00
         0.00000E+00
         0.00000E+00
         0.00000E+00
         0.00000E+00
         0.00000E+00
         0.00000E+00
         0.00000E+00
         0.00000E+00
         0.00000E+00
         0.00000E+00
         0.00000E+00
         0.00000E+00
         0.00000E+00
         0.00000E+00
         0.00000E+00
         0.00000E+00
         0.00000E+00
         0.00000E+00
         0.00000E+00
         0.00000E+00
         0.00000E+00
         0.00000E+00
         0.00000E+00
         0.00000E+00
         0.00000E+00
         0.00000E+00
         0.00000E+00
         0.00000E+00
         0.00000E+00
         0.00000E+00
         0.00000E+00
         0.00000E+00
         0.00000E+00
         0.00000E+00
         0.00000E+00
         0.00000E+00
         0.00000E+00
         0.00000E+00
         0.00000E+00
         0.00000E+00
         0.00000E+00
         0.00000E+00
         0.00000E+00
         0.00000E+00
         0.00000E+00
         0.00000E+00
         0.00000E+00
         0.00000E+00
         0.00000E+00
         0.00000E+00
         0.00000E+00
         0.00000E+00
  
SCALARS                 displacement_y  double 1
LOOKUP_TABLE default
         0.00000E+00
         0.00000E+00
         0.00000E+00
         0.00000E+00
         0.00000E+00
         0.00000E+00
         0.00000E+00
         0.00000E+00
         0.00000E+00
         0.00000E+00
         0.00000E+00
         0.00000E+00
         0.00000E+00
         0.00000E+00
         0.00000E+00
         0.00000E+00
         0.00000E+00
         0.00000E+00
         0.00000E+00
         0.00000E+00
         0.00000E+00
         0.00000E+00
         0.00000E+00
         0.00000E+00
         0.00000E+00
         0.00000E+00
         0.00000E+00
         0.00000E+00
         0.00000E+00
         0.00000E+00
         0.00000E+00
         0.00000E+00
         0.00000E+00
         0.00000E+00
         0.00000E+00
         0.00000E+00
         0.00000E+00
         0.00000E+00
         0.00000E+00
         0.00000E+00
         0.00000E+00
         0.00000E+00
         0.00000E+00
         0.00000E+00
         0.00000E+00
         0.00000E+00
         0.00000E+00
         0.00000E+00
         0.00000E+00
         0.00000E+00
         0.00000E+00
         0.00000E+00
         0.00000E+00
         0.00000E+00
         0.00000E+00
         0.00000E+00
         0.00000E+00
         0.00000E+00
         0.00000E+00
         0.00000E+00
         0.00000E+00
         0.00000E+00
         0.00000E+00
         0.00000E+00
         0.00000E+00
         0.00000E+00
         0.00000E+00
         0.00000E+00
         0.00000E+00
         0.00000E+00
         0.00000E+00
         0.00000E+00
         0.00000E+00
         0.00000E+00
         0.00000E+00
         0.00000E+00
         0.00000E+00
         0.00000E+00
         0.00000E+00
         0.00000E+00
         0.00000E+00
         0.00000E+00
         0.00000E+00
         0.00000E+00
         0.00000E+00
         0.00000E+00
         0.00000E+00
         0.00000E+00
         0.00000E+00
         0.00000E+00
         0.00000E+00
         0.00000E+00
         0.00000E+00
         0.00000E+00
         0.00000E+00
         0.00000E+00
         0.00000E+00
         0.00000E+00
         0.00000E+00
         0.00000E+00
         0.00000E+00
         0.00000E+00
         0.00000E+00
         0.00000E+00
         0.00000E+00
         0.00000E+00
         0.00000E+00
         0.00000E+00
         0.00000E+00
         0.00000E+00
         0.00000E+00
         0.00000E+00
         0.00000E+00
         0.00000E+00
         0.00000E+00
         0.00000E+00
         0.00000E+00
         0.00000E+00
         0.00000E+00
         0.00000E+00
         0.00000E+00
         0.00000E+00
         0.00000E+00
         0.00000E+00
         0.00000E+00
         0.00000E+00
         0.00000E+00
         0.00000E+00
         0.00000E+00
         0.00000E+00
         0.00000E+00
         0.00000E+00
         0.00000E+00
         0.00000E+00
         0.00000E+00
         0.00000E+00
         0.00000E+00
         0.00000E+00
         0.00000E+00
         0.00000E+00
         0.00000E+00
         0.00000E+00
         0.00000E+00
         0.00000E+00
         0.00000E+00
         0.00000E+00
         0.00000E+00
         0.00000E+00
         0.00000E+00
         0.00000E+00
         0.00000E+00
         0.00000E+00
         0.00000E+00
         0.00000E+00
         0.00000E+00
         0.00000E+00
         0.00000E+00
         0.00000E+00
         0.00000E+00
         0.00000E+00
         0.00000E+00
         0.00000E+00
         0.00000E+00
         0.00000E+00
         0.00000E+00
         0.00000E+00
         0.00000E+00
         0.00000E+00
         0.00000E+00
         0.00000E+00
         0.00000E+00
         0.00000E+00
         0.00000E+00
         0.00000E+00
         0.00000E+00
         0.00000E+00
         0.00000E+00
         0.00000E+00
         0.00000E+00
         0.00000E+00
         0.00000E+00
         0.00000E+00
         0.00000E+00
         0.00000E+00
         0.00000E+00
         0.00000E+00
         0.00000E+00
         0.00000E+00
         0.00000E+00
         0.00000E+00
         0.00000E+00
         0.00000E+00
         0.00000E+00
         0.00000E+00
         0.00000E+00
         0.00000E+00
         0.00000E+00
         0.00000E+00
         0.00000E+00
         0.00000E+00
         0.00000E+00
         0.00000E+00
         0.00000E+00
         0.00000E+00
         0.00000E+00
         0.00000E+00
         0.00000E+00
         0.00000E+00
         0.00000E+00
         0.00000E+00
         0.00000E+00
         0.00000E+00
         0.00000E+00
         0.00000E+00
         0.00000E+00
         0.00000E+00
         0.00000E+00
         0.00000E+00
         0.00000E+00
         0.00000E+00
         0.00000E+00
         0.00000E+00
         0.00000E+00
         0.00000E+00
         0.00000E+00
         0.00000E+00
         0.00000E+00
         0.00000E+00
         0.00000E+00
         0.00000E+00
         0.00000E+00
         0.00000E+00
         0.00000E+00
         0.00000E+00
         0.00000E+00
         0.00000E+00
         0.00000E+00
         0.00000E+00
         0.00000E+00
         0.00000E+00
         0.00000E+00
         0.00000E+00
         0.00000E+00
         0.00000E+00
         0.00000E+00
         0.00000E+00
         0.00000E+00
         0.00000E+00
         0.00000E+00
         0.00000E+00
         0.00000E+00
         0.00000E+00
         0.00000E+00
         0.00000E+00
         0.00000E+00
         0.00000E+00
         0.00000E+00
         0.00000E+00
         0.00000E+00
         0.00000E+00
         0.00000E+00
         0.00000E+00
         0.00000E+00
         0.00000E+00
         0.00000E+00
         0.00000E+00
         0.00000E+00
         0.00000E+00
         0.00000E+00
         0.00000E+00
         0.00000E+00
         0.00000E+00
         0.00000E+00
         0.00000E+00
         0.00000E+00
         0.00000E+00
         0.00000E+00
         0.00000E+00
         0.00000E+00
         0.00000E+00
         0.00000E+00
         0.00000E+00
         0.00000E+00
         0.00000E+00
         0.00000E+00
         0.00000E+00
         0.00000E+00
         0.00000E+00
         0.00000E+00
         0.00000E+00
         0.00000E+00
         0.00000E+00
         0.00000E+00
         0.00000E+00
         0.00000E+00
         0.00000E+00
         0.00000E+00
         0.00000E+00
         0.00000E+00
         0.00000E+00
         0.00000E+00
         0.00000E+00
         0.00000E+00
         0.00000E+00
         0.00000E+00
         0.00000E+00
         0.00000E+00
         0.00000E+00
         0.00000E+00
         0.00000E+00
         0.00000E+00
         0.00000E+00
         0.00000E+00
         0.00000E+00
         0.00000E+00
         0.00000E+00
         0.00000E+00
         0.00000E+00
         0.00000E+00
         0.00000E+00
         0.00000E+00
         0.00000E+00
         0.00000E+00
         0.00000E+00
         0.00000E+00
         0.00000E+00
         0.00000E+00
         0.00000E+00
         0.00000E+00
         0.00000E+00
         0.00000E+00
         0.00000E+00
         0.00000E+00
         0.00000E+00
         0.00000E+00
         0.00000E+00
         0.00000E+00
         0.00000E+00
         0.00000E+00
         0.00000E+00
         0.00000E+00
         0.00000E+00
         0.00000E+00
         0.00000E+00
         0.00000E+00
         0.00000E+00
         0.00000E+00
         0.00000E+00
         0.00000E+00
         0.00000E+00
         0.00000E+00
         0.00000E+00
         0.00000E+00
         0.00000E+00
         0.00000E+00
         0.00000E+00
         0.00000E+00
         0.00000E+00
         0.00000E+00
         0.00000E+00
         0.00000E+00
         0.00000E+00
         0.00000E+00
         0.00000E+00
         0.00000E+00
         0.00000E+00
         0.00000E+00
         0.00000E+00
         0.00000E+00
         0.00000E+00
         0.00000E+00
         0.00000E+00
         0.00000E+00
         0.00000E+00
         0.00000E+00
         0.00000E+00
         0.00000E+00
         0.00000E+00
         0.00000E+00
         0.00000E+00
         0.00000E+00
         0.00000E+00
         0.00000E+00
         0.00000E+00
         0.00000E+00
         0.00000E+00
         0.00000E+00
         0.00000E+00
         0.00000E+00
         0.00000E+00
         0.00000E+00
         0.00000E+00
         0.00000E+00
         0.00000E+00
         0.00000E+00
         0.00000E+00
         0.00000E+00
         0.00000E+00
         0.00000E+00
         0.00000E+00
         0.00000E+00
         0.00000E+00
         0.00000E+00
         0.00000E+00
         0.00000E+00
         0.00000E+00
         0.00000E+00
         0.00000E+00
         0.00000E+00
         0.00000E+00
         0.00000E+00
         0.00000E+00
         0.00000E+00
         0.00000E+00
         0.00000E+00
         0.00000E+00
         0.00000E+00
         0.00000E+00
         0.00000E+00
         0.00000E+00
         0.00000E+00
         0.00000E+00
         0.00000E+00
         0.00000E+00
         0.00000E+00
         0.00000E+00
         0.00000E+00
         0.00000E+00
         0.00000E+00
         0.00000E+00
         0.00000E+00
         0.00000E+00
         0.00000E+00
         0.00000E+00
         0.00000E+00
         0.00000E+00
         0.00000E+00
         0.00000E+00
         0.00000E+00
         0.00000E+00
         0.00000E+00
         0.00000E+00
         0.00000E+00
         0.00000E+00
         0.00000E+00
         0.00000E+00
         0.00000E+00
         0.00000E+00
         0.00000E+00
         0.00000E+00
         0.00000E+00
         0.00000E+00
         0.00000E+00
         0.00000E+00
         0.00000E+00
         0.00000E+00
         0.00000E+00
         0.00000E+00
         0.00000E+00
         0.00000E+00
         0.00000E+00
         0.00000E+00
         0.00000E+00
         0.00000E+00
         0.00000E+00
         0.00000E+00
         0.00000E+00
         0.00000E+00
         0.00000E+00
         0.00000E+00
         0.00000E+00
         0.00000E+00
         0.00000E+00
         0.00000E+00
         0.00000E+00
         0.00000E+00
         0.00000E+00
         0.00000E+00
         0.00000E+00
         0.00000E+00
         0.00000E+00
         0.00000E+00
         0.00000E+00
         0.00000E+00
         0.00000E+00
         0.00000E+00
         0.00000E+00
         0.00000E+00
         0.00000E+00
         0.00000E+00
         0.00000E+00
         0.00000E+00
         0.00000E+00
         0.00000E+00
         0.00000E+00
         0.00000E+00
         0.00000E+00
         0.00000E+00
         0.00000E+00
         0.00000E+00
         0.00000E+00
         0.00000E+00
         0.00000E+00
         0.00000E+00
         0.00000E+00
         0.00000E+00
         0.00000E+00
         0.00000E+00
         0.00000E+00
         0.00000E+00
         0.00000E+00
         0.00000E+00
         0.00000E+00
         0.00000E+00
         0.00000E+00
         0.00000E+00
         0.00000E+00
         0.00000E+00
         0.00000E+00
         0.00000E+00
         0.00000E+00
         0.00000E+00
         0.00000E+00
         0.00000E+00
         0.00000E+00
         0.00000E+00
         0.00000E+00
         0.00000E+00
         0.00000E+00
         0.00000E+00
         0.00000E+00
         0.00000E+00
         0.00000E+00
         0.00000E+00
         0.00000E+00
         0.00000E+00
         0.00000E+00
         0.00000E+00
         0.00000E+00
         0.00000E+00
         0.00000E+00
         0.00000E+00
         0.00000E+00
         0.00000E+00
         0.00000E+00
         0.00000E+00
         0.00000E+00
         0.00000E+00
         0.00000E+00
         0.00000E+00
         0.00000E+00
         0.00000E+00
         0.00000E+00
         0.00000E+00
         0.00000E+00
         0.00000E+00
         0.00000E+00
         0.00000E+00
         0.00000E+00
         0.00000E+00
         0.00000E+00
         0.00000E+00
         0.00000E+00
         0.00000E+00
         0.00000E+00
         0.00000E+00
         0.00000E+00
         0.00000E+00
         0.00000E+00
         0.00000E+00
         0.00000E+00
         0.00000E+00
         0.00000E+00
         0.00000E+00
         0.00000E+00
         0.00000E+00
         0.00000E+00
         0.00000E+00
         0.00000E+00
         0.00000E+00
         0.00000E+00
         0.00000E+00
         0.00000E+00
         0.00000E+00
         0.00000E+00
         0.00000E+00
         0.00000E+00
         0.00000E+00
         0.00000E+00
         0.00000E+00
         0.00000E+00
         0.00000E+00
         0.00000E+00
         0.00000E+00
         0.00000E+00
         0.00000E+00
         0.00000E+00
         0.00000E+00
         0.00000E+00
         0.00000E+00
         0.00000E+00
         0.00000E+00
         0.00000E+00
         0.00000E+00
         0.00000E+00
         0.00000E+00
         0.00000E+00
         0.00000E+00
         0.00000E+00
         0.00000E+00
         0.00000E+00
         0.00000E+00
         0.00000E+00
         0.00000E+00
         0.00000E+00
         0.00000E+00
         0.00000E+00
         0.00000E+00
         0.00000E+00
         0.00000E+00
         0.00000E+00
         0.00000E+00
         0.00000E+00
         0.00000E+00
         0.00000E+00
         0.00000E+00
         0.00000E+00
         0.00000E+00
         0.00000E+00
         0.00000E+00
         0.00000E+00
         0.00000E+00
         0.00000E+00
         0.00000E+00
         0.00000E+00
         0.00000E+00
         0.00000E+00
         0.00000E+00
         0.00000E+00
         0.00000E+00
         0.00000E+00
         0.00000E+00
         0.00000E+00
         0.00000E+00
         0.00000E+00
         0.00000E+00
         0.00000E+00
         0.00000E+00
         0.00000E+00
         0.00000E+00
         0.00000E+00
         0.00000E+00
         0.00000E+00
         0.00000E+00
         0.00000E+00
         0.00000E+00
         0.00000E+00
         0.00000E+00
         0.00000E+00
         0.00000E+00
         0.00000E+00
         0.00000E+00
         0.00000E+00
         0.00000E+00
         0.00000E+00
         0.00000E+00
         0.00000E+00
         0.00000E+00
         0.00000E+00
         0.00000E+00
         0.00000E+00
         0.00000E+00
         0.00000E+00
         0.00000E+00
         0.00000E+00
         0.00000E+00
         0.00000E+00
         0.00000E+00
         0.00000E+00
         0.00000E+00
         0.00000E+00
         0.00000E+00
         0.00000E+00
         0.00000E+00
         0.00000E+00
         0.00000E+00
         0.00000E+00
         0.00000E+00
         0.00000E+00
         0.00000E+00
         0.00000E+00
         0.00000E+00
         0.00000E+00
         0.00000E+00
         0.00000E+00
         0.00000E+00
         0.00000E+00
         0.00000E+00
         0.00000E+00
         0.00000E+00
         0.00000E+00
         0.00000E+00
         0.00000E+00
         0.00000E+00
         0.00000E+00
         0.00000E+00
         0.00000E+00
         0.00000E+00
         0.00000E+00
         0.00000E+00
         0.00000E+00
         0.00000E+00
         0.00000E+00
         0.00000E+00
         0.00000E+00
         0.00000E+00
         0.00000E+00
         0.00000E+00
         0.00000E+00
         0.00000E+00
         0.00000E+00
         0.00000E+00
         0.00000E+00
         0.00000E+00
         0.00000E+00
         0.00000E+00
         0.00000E+00
         0.00000E+00
         0.00000E+00
         0.00000E+00
         0.00000E+00
         0.00000E+00
         0.00000E+00
         0.00000E+00
         0.00000E+00
         0.00000E+00
         0.00000E+00
         0.00000E+00
         0.00000E+00
         0.00000E+00
         0.00000E+00
         0.00000E+00
         0.00000E+00
         0.00000E+00
         0.00000E+00
         0.00000E+00
         0.00000E+00
         0.00000E+00
         0.00000E+00
         0.00000E+00
         0.00000E+00
         0.00000E+00
         0.00000E+00
         0.00000E+00
         0.00000E+00
         0.00000E+00
         0.00000E+00
         0.00000E+00
         0.00000E+00
         0.00000E+00
         0.00000E+00
         0.00000E+00
         0.00000E+00
         0.00000E+00
         0.00000E+00
         0.00000E+00
         0.00000E+00
         0.00000E+00
         0.00000E+00
         0.00000E+00
         0.00000E+00
         0.00000E+00
         0.00000E+00
         0.00000E+00
         0.00000E+00
         0.00000E+00
         0.00000E+00
         0.00000E+00
         0.00000E+00
         0.00000E+00
         0.00000E+00
         0.00000E+00
         0.00000E+00
         0.00000E+00
         0.00000E+00
         0.00000E+00
         0.00000E+00
         0.00000E+00
         0.00000E+00
         0.00000E+00
         0.00000E+00
         0.00000E+00
         0.00000E+00
         0.00000E+00
         0.00000E+00
         0.00000E+00
         0.00000E+00
         0.00000E+00
         0.00000E+00
         0.00000E+00
         0.00000E+00
         0.00000E+00
         0.00000E+00
         0.00000E+00
         0.00000E+00
         0.00000E+00
         0.00000E+00
         0.00000E+00
         0.00000E+00
         0.00000E+00
         0.00000E+00
         0.00000E+00
         0.00000E+00
         0.00000E+00
         0.00000E+00
         0.00000E+00
         0.00000E+00
         0.00000E+00
         0.00000E+00
         0.00000E+00
         0.00000E+00
         0.00000E+00
         0.00000E+00
         0.00000E+00
         0.00000E+00
         0.00000E+00
         0.00000E+00
         0.00000E+00
         0.00000E+00
         0.00000E+00
         0.00000E+00
         0.00000E+00
         0.00000E+00
         0.00000E+00
         0.00000E+00
         0.00000E+00
         0.00000E+00
         0.00000E+00
         0.00000E+00
         0.00000E+00
         0.00000E+00
         0.00000E+00
         0.00000E+00
         0.00000E+00
         0.00000E+00
         0.00000E+00
         0.00000E+00
         0.00000E+00
         0.00000E+00
         0.00000E+00
         0.00000E+00
         0.00000E+00
         0.00000E+00
         0.00000E+00
         0.00000E+00
         0.00000E+00
         0.00000E+00
         0.00000E+00
         0.00000E+00
         0.00000E+00
         0.00000E+00
         0.00000E+00
         0.00000E+00
         0.00000E+00
         0.00000E+00
         0.00000E+00
         0.00000E+00
         0.00000E+00
         0.00000E+00
         0.00000E+00
         0.00000E+00
         0.00000E+00
         0.00000E+00
         0.00000E+00
         0.00000E+00
         0.00000E+00
         0.00000E+00
         0.00000E+00
         0.00000E+00
         0.00000E+00
         0.00000E+00
         0.00000E+00
         0.00000E+00
         0.00000E+00
         0.00000E+00
         0.00000E+00
         0.00000E+00
         0.00000E+00
         0.00000E+00
         0.00000E+00
         0.00000E+00
         0.00000E+00
         0.00000E+00
         0.00000E+00
         0.00000E+00
         0.00000E+00
         0.00000E+00
         0.00000E+00
         0.00000E+00
         0.00000E+00
         0.00000E+00
         0.00000E+00
         0.00000E+00
         0.00000E+00
         0.00000E+00
         0.00000E+00
         0.00000E+00
         0.00000E+00
         0.00000E+00
         0.00000E+00
         0.00000E+00
         0.00000E+00
         0.00000E+00
         0.00000E+00
         0.00000E+00
         0.00000E+00
         0.00000E+00
         0.00000E+00
         0.00000E+00
         0.00000E+00
         0.00000E+00
         0.00000E+00
         0.00000E+00
         0.00000E+00
         0.00000E+00
         0.00000E+00
         0.00000E+00
         0.00000E+00
         0.00000E+00
         0.00000E+00
         0.00000E+00
         0.00000E+00
         0.00000E+00
         0.00000E+00
         0.00000E+00
         0.00000E+00
         0.00000E+00
         0.00000E+00
         0.00000E+00
         0.00000E+00
         0.00000E+00
         0.00000E+00
         0.00000E+00
         0.00000E+00
         0.00000E+00
         0.00000E+00
         0.00000E+00
         0.00000E+00
         0.00000E+00
         0.00000E+00
         0.00000E+00
         0.00000E+00
         0.00000E+00
         0.00000E+00
         0.00000E+00
         0.00000E+00
         0.00000E+00
         0.00000E+00
         0.00000E+00
         0.00000E+00
         0.00000E+00
         0.00000E+00
         0.00000E+00
         0.00000E+00
         0.00000E+00
         0.00000E+00
         0.00000E+00
         0.00000E+00
         0.00000E+00
         0.00000E+00
         0.00000E+00
         0.00000E+00
         0.00000E+00
         0.00000E+00
         0.00000E+00
         0.00000E+00
         0.00000E+00
         0.00000E+00
         0.00000E+00
         0.00000E+00
         0.00000E+00
         0.00000E+00
         0.00000E+00
         0.00000E+00
         0.00000E+00
         0.00000E+00
         0.00000E+00
         0.00000E+00
         0.00000E+00
         0.00000E+00
         0.00000E+00
         0.00000E+00
         0.00000E+00
         0.00000E+00
         0.00000E+00
         0.00000E+00
         0.00000E+00
         0.00000E+00
         0.00000E+00
         0.00000E+00
         0.00000E+00
         0.00000E+00
         0.00000E+00
         0.00000E+00
         0.00000E+00
         0.00000E+00
         0.00000E+00
         0.00000E+00
         0.00000E+00
         0.00000E+00
         0.00000E+00
         0.00000E+00
         0.00000E+00
         0.00000E+00
         0.00000E+00
         0.00000E+00
         0.00000E+00
         0.00000E+00
         0.00000E+00
         0.00000E+00
         0.00000E+00
         0.00000E+00
         0.00000E+00
         0.00000E+00
         0.00000E+00
         0.00000E+00
         0.00000E+00
         0.00000E+00
         0.00000E+00
         0.00000E+00
         0.00000E+00
         0.00000E+00
         0.00000E+00
         0.00000E+00
         0.00000E+00
         0.00000E+00
         0.00000E+00
         0.00000E+00
         0.00000E+00
         0.00000E+00
         0.00000E+00
         0.00000E+00
         0.00000E+00
         0.00000E+00
         0.00000E+00
         0.00000E+00
         0.00000E+00
         0.00000E+00
         0.00000E+00
         0.00000E+00
         0.00000E+00
         0.00000E+00
         0.00000E+00
         0.00000E+00
         0.00000E+00
         0.00000E+00
         0.00000E+00
         0.00000E+00
         0.00000E+00
         0.00000E+00
         0.00000E+00
         0.00000E+00
         0.00000E+00
         0.00000E+00
         0.00000E+00
         0.00000E+00
         0.00000E+00
         0.00000E+00
         0.00000E+00
         0.00000E+00
         0.00000E+00
         0.00000E+00
         0.00000E+00
         0.00000E+00
         0.00000E+00
         0.00000E+00
         0.00000E+00
         0.00000E+00
         0.00000E+00
         0.00000E+00
         0.00000E+00
         0.00000E+00
         0.00000E+00
         0.00000E+00
         0.00000E+00
         0.00000E+00
         0.00000E+00
         0.00000E+00
         0.00000E+00
         0.00000E+00
         0.00000E+00
         0.00000E+00
         0.00000E+00
         0.00000E+00
         0.00000E+00
         0.00000E+00
         0.00000E+00
         0.00000E+00
         0.00000E+00
         0.00000E+00
         0.00000E+00
         0.00000E+00
         0.00000E+00
         0.00000E+00
         0.00000E+00
         0.00000E+00
         0.00000E+00
         0.00000E+00
         0.00000E+00
         0.00000E+00
         0.00000E+00
         0.00000E+00
         0.00000E+00
         0.00000E+00
         0.00000E+00
         0.00000E+00
         0.00000E+00
         0.00000E+00
         0.00000E+00
         0.00000E+00
         0.00000E+00
         0.00000E+00
         0.00000E+00
         0.00000E+00
         0.00000E+00
         0.00000E+00
         0.00000E+00
         0.00000E+00
         0.00000E+00
         0.00000E+00
         0.00000E+00
         0.00000E+00
         0.00000E+00
         0.00000E+00
         0.00000E+00
         0.00000E+00
         0.00000E+00
         0.00000E+00
         0.00000E+00
         0.00000E+00
         0.00000E+00
         0.00000E+00
         0.00000E+00
         0.00000E+00
         0.00000E+00
         0.00000E+00
         0.00000E+00
         0.00000E+00
         0.00000E+00
         0.00000E+00
         0.00000E+00
         0.00000E+00
         0.00000E+00
         0.00000E+00
         0.00000E+00
         0.00000E+00
         0.00000E+00
         0.00000E+00
         0.00000E+00
         0.00000E+00
         0.00000E+00
         0.00000E+00
         0.00000E+00
         0.00000E+00
         0.00000E+00
         0.00000E+00
         0.00000E+00
         0.00000E+00
         0.00000E+00
         0.00000E+00
         0.00000E+00
         0.00000E+00
         0.00000E+00
         0.00000E+00
         0.00000E+00
         0.00000E+00
         0.00000E+00
         0.00000E+00
         0.00000E+00
         0.00000E+00
         0.00000E+00
         0.00000E+00
         0.00000E+00
         0.00000E+00
         0.00000E+00
         0.00000E+00
         0.00000E+00
         0.00000E+00
         0.00000E+00
         0.00000E+00
         0.00000E+00
         0.00000E+00
         0.00000E+00
         0.00000E+00
         0.00000E+00
         0.00000E+00
         0.00000E+00
         0.00000E+00
         0.00000E+00
         0.00000E+00
         0.00000E+00
         0.00000E+00
         0.00000E+00
         0.00000E+00
         0.00000E+00
         0.00000E+00
         0.00000E+00
         0.00000E+00
         0.00000E+00
         0.00000E+00
         0.00000E+00
         0.00000E+00
         0.00000E+00
         0.00000E+00
         0.00000E+00
         0.00000E+00
         0.00000E+00
         0.00000E+00
         0.00000E+00
         0.00000E+00
         0.00000E+00
         0.00000E+00
         0.00000E+00
         0.00000E+00
         0.00000E+00
         0.00000E+00
         0.00000E+00
         0.00000E+00
         0.00000E+00
         0.00000E+00
         0.00000E+00
         0.00000E+00
         0.00000E+00
         0.00000E+00
         0.00000E+00
         0.00000E+00
         0.00000E+00
         0.00000E+00
         0.00000E+00
         0.00000E+00
         0.00000E+00
         0.00000E+00
         0.00000E+00
         0.00000E+00
         0.00000E+00
         0.00000E+00
         0.00000E+00
         0.00000E+00
         0.00000E+00
         0.00000E+00
         0.00000E+00
         0.00000E+00
         0.00000E+00
         0.00000E+00
         0.00000E+00
         0.00000E+00
         0.00000E+00
         0.00000E+00
         0.00000E+00
         0.00000E+00
         0.00000E+00
         0.00000E+00
         0.00000E+00
         0.00000E+00
         0.00000E+00
         0.00000E+00
         0.00000E+00
         0.00000E+00
         0.00000E+00
         0.00000E+00
         0.00000E+00
         0.00000E+00
         0.00000E+00
         0.00000E+00
         0.00000E+00
         0.00000E+00
         0.00000E+00
         0.00000E+00
         0.00000E+00
         0.00000E+00
         0.00000E+00
         0.00000E+00
         0.00000E+00
         0.00000E+00
         0.00000E+00
         0.00000E+00
         0.00000E+00
         0.00000E+00
         0.00000E+00
         0.00000E+00
         0.00000E+00
         0.00000E+00
         0.00000E+00
         0.00000E+00
         0.00000E+00
         0.00000E+00
         0.00000E+00
         0.00000E+00
         0.00000E+00
         0.00000E+00
         0.00000E+00
         0.00000E+00
         0.00000E+00
         0.00000E+00
         0.00000E+00
         0.00000E+00
         0.00000E+00
         0.00000E+00
         0.00000E+00
         0.00000E+00
         0.00000E+00
         0.00000E+00
         0.00000E+00
         0.00000E+00
         0.00000E+00
         0.00000E+00
         0.00000E+00
         0.00000E+00
         0.00000E+00
         0.00000E+00
         0.00000E+00
         0.00000E+00
         0.00000E+00
         0.00000E+00
         0.00000E+00
         0.00000E+00
         0.00000E+00
         0.00000E+00
         0.00000E+00
         0.00000E+00
         0.00000E+00
         0.00000E+00
         0.00000E+00
         0.00000E+00
         0.00000E+00
         0.00000E+00
         0.00000E+00
         0.00000E+00
         0.00000E+00
         0.00000E+00
         0.00000E+00
         0.00000E+00
         0.00000E+00
         0.00000E+00
         0.00000E+00
         0.00000E+00
         0.00000E+00
         0.00000E+00
         0.00000E+00
         0.00000E+00
         0.00000E+00
         0.00000E+00
         0.00000E+00
         0.00000E+00
         0.00000E+00
         0.00000E+00
         0.00000E+00
         0.00000E+00
         0.00000E+00
         0.00000E+00
         0.00000E+00
         0.00000E+00
         0.00000E+00
         0.00000E+00
         0.00000E+00
         0.00000E+00
         0.00000E+00
         0.00000E+00
         0.00000E+00
         0.00000E+00
         0.00000E+00
         0.00000E+00
         0.00000E+00
         0.00000E+00
         0.00000E+00
         0.00000E+00
         0.00000E+00
         0.00000E+00
         0.00000E+00
         0.00000E+00
         0.00000E+00
         0.00000E+00
         0.00000E+00
         0.00000E+00
         0.00000E+00
         0.00000E+00
         0.00000E+00
         0.00000E+00
         0.00000E+00
         0.00000E+00
         0.00000E+00
         0.00000E+00
         0.00000E+00
         0.00000E+00
         0.00000E+00
         0.00000E+00
         0.00000E+00
         0.00000E+00
         0.00000E+00
         0.00000E+00
         0.00000E+00
         0.00000E+00
         0.00000E+00
         0.00000E+00
         0.00000E+00
         0.00000E+00
         0.00000E+00
         0.00000E+00
         0.00000E+00
         0.00000E+00
         0.00000E+00
         0.00000E+00
         0.00000E+00
         0.00000E+00
         0.00000E+00
         0.00000E+00
         0.00000E+00
         0.00000E+00
         0.00000E+00
         0.00000E+00
         0.00000E+00
         0.00000E+00
         0.00000E+00
         0.00000E+00
         0.00000E+00
         0.00000E+00
         0.00000E+00
         0.00000E+00
         0.00000E+00
         0.00000E+00
         0.00000E+00
         0.00000E+00
         0.00000E+00
         0.00000E+00
         0.00000E+00
         0.00000E+00
         0.00000E+00
         0.00000E+00
         0.00000E+00
         0.00000E+00
         0.00000E+00
         0.00000E+00
         0.00000E+00
         0.00000E+00
         0.00000E+00
         0.00000E+00
         0.00000E+00
         0.00000E+00
         0.00000E+00
         0.00000E+00
         0.00000E+00
         0.00000E+00
         0.00000E+00
         0.00000E+00
         0.00000E+00
         0.00000E+00
         0.00000E+00
         0.00000E+00
         0.00000E+00
         0.00000E+00
         0.00000E+00
         0.00000E+00
         0.00000E+00
         0.00000E+00
         0.00000E+00
         0.00000E+00
         0.00000E+00
         0.00000E+00
         0.00000E+00
         0.00000E+00
         0.00000E+00
         0.00000E+00
         0.00000E+00
         0.00000E+00
         0.00000E+00
         0.00000E+00
         0.00000E+00
         0.00000E+00
         0.00000E+00
         0.00000E+00
         0.00000E+00
         0.00000E+00
         0.00000E+00
         0.00000E+00
         0.00000E+00
         0.00000E+00
         0.00000E+00
         0.00000E+00
         0.00000E+00
         0.00000E+00
         0.00000E+00
         0.00000E+00
         0.00000E+00
         0.00000E+00
         0.00000E+00
         0.00000E+00
         0.00000E+00
         0.00000E+00
         0.00000E+00
         0.00000E+00
         0.00000E+00
         0.00000E+00
         0.00000E+00
         0.00000E+00
         0.00000E+00
         0.00000E+00
         0.00000E+00
         0.00000E+00
         0.00000E+00
         0.00000E+00
         0.00000E+00
         0.00000E+00
         0.00000E+00
         0.00000E+00
         0.00000E+00
         0.00000E+00
         0.00000E+00
         0.00000E+00
         0.00000E+00
         0.00000E+00
         0.00000E+00
         0.00000E+00
         0.00000E+00
         0.00000E+00
         0.00000E+00
         0.00000E+00
         0.00000E+00
         0.00000E+00
         0.00000E+00
         0.00000E+00
         0.00000E+00
         0.00000E+00
         0.00000E+00
         0.00000E+00
         0.00000E+00
         0.00000E+00
         0.00000E+00
         0.00000E+00
         0.00000E+00
         0.00000E+00
         0.00000E+00
         0.00000E+00
         0.00000E+00
         0.00000E+00
         0.00000E+00
         0.00000E+00
         0.00000E+00
         0.00000E+00
         0.00000E+00
         0.00000E+00
         0.00000E+00
         0.00000E+00
         0.00000E+00
         0.00000E+00
         0.00000E+00
         0.00000E+00
         0.00000E+00
         0.00000E+00
         0.00000E+00
         0.00000E+00
         0.00000E+00
         0.00000E+00
         0.00000E+00
         0.00000E+00
         0.00000E+00
         0.00000E+00
         0.00000E+00
         0.00000E+00
         0.00000E+00
         0.00000E+00
         0.00000E+00
         0.00000E+00
         0.00000E+00
         0.00000E+00
         0.00000E+00
         0.00000E+00
         0.00000E+00
         0.00000E+00
         0.00000E+00
         0.00000E+00
         0.00000E+00
         0.00000E+00
         0.00000E+00
         0.00000E+00
         0.00000E+00
         0.00000E+00
         0.00000E+00
         0.00000E+00
         0.00000E+00
         0.00000E+00
         0.00000E+00
         0.00000E+00
         0.00000E+00
         0.00000E+00
         0.00000E+00
         0.00000E+00
         0.00000E+00
         0.00000E+00
         0.00000E+00
         0.00000E+00
         0.00000E+00
         0.00000E+00
         0.00000E+00
         0.00000E+00
         0.00000E+00
         0.00000E+00
         0.00000E+00
         0.00000E+00
         0.00000E+00
         0.00000E+00
         0.00000E+00
         0.00000E+00
         0.00000E+00
         0.00000E+00
         0.00000E+00
         0.00000E+00
         0.00000E+00
         0.00000E+00
         0.00000E+00
         0.00000E+00
         0.00000E+00
         0.00000E+00
         0.00000E+00
         0.00000E+00
         0.00000E+00
         0.00000E+00
         0.00000E+00
         0.00000E+00
         0.00000E+00
         0.00000E+00
         0.00000E+00
         0.00000E+00
         0.00000E+00
         0.00000E+00
         0.00000E+00
         0.00000E+00
         0.00000E+00
         0.00000E+00
         0.00000E+00
         0.00000E+00
         0.00000E+00
         0.00000E+00
         0.00000E+00
         0.00000E+00
         0.00000E+00
         0.00000E+00
         0.00000E+00
         0.00000E+00
         0.00000E+00
         0.00000E+00
         0.00000E+00
         0.00000E+00
         0.00000E+00
         0.00000E+00
         0.00000E+00
         0.00000E+00
         0.00000E+00
         0.00000E+00
         0.00000E+00
         0.00000E+00
         0.00000E+00
         0.00000E+00
         0.00000E+00
         0.00000E+00
         0.00000E+00
         0.00000E+00
         0.00000E+00
         0.00000E+00
         0.00000E+00
         0.00000E+00
         0.00000E+00
         0.00000E+00
         0.00000E+00
         0.00000E+00
         0.00000E+00
         0.00000E+00
         0.00000E+00
         0.00000E+00
         0.00000E+00
         0.00000E+00
         0.00000E+00
         0.00000E+00
         0.00000E+00
         0.00000E+00
         0.00000E+00
         0.00000E+00
         0.00000E+00
         0.00000E+00
         0.00000E+00
         0.00000E+00
         0.00000E+00
         0.00000E+00
         0.00000E+00
         0.00000E+00
         0.00000E+00
         0.00000E+00
         0.00000E+00
         0.00000E+00
         0.00000E+00
         0.00000E+00
         0.00000E+00
         0.00000E+00
         0.00000E+00
         0.00000E+00
         0.00000E+00
         0.00000E+00
         0.00000E+00
         0.00000E+00
         0.00000E+00
         0.00000E+00
         0.00000E+00
         0.00000E+00
         0.00000E+00
         0.00000E+00
         0.00000E+00
         0.00000E+00
         0.00000E+00
         0.00000E+00
         0.00000E+00
         0.00000E+00
         0.00000E+00
         0.00000E+00
         0.00000E+00
         0.00000E+00
         0.00000E+00
         0.00000E+00
         0.00000E+00
         0.00000E+00
         0.00000E+00
         0.00000E+00
         0.00000E+00
         0.00000E+00
         0.00000E+00
         0.00000E+00
         0.00000E+00
         0.00000E+00
         0.00000E+00
         0.00000E+00
         0.00000E+00
         0.00000E+00
         0.00000E+00
         0.00000E+00
         0.00000E+00
         0.00000E+00
         0.00000E+00
         0.00000E+00
         0.00000E+00
         0.00000E+00
         0.00000E+00
         0.00000E+00
         0.00000E+00
         0.00000E+00
         0.00000E+00
         0.00000E+00
         0.00000E+00
         0.00000E+00
         0.00000E+00
         0.00000E+00
         0.00000E+00
         0.00000E+00
         0.00000E+00
         0.00000E+00
         0.00000E+00
         0.00000E+00
         0.00000E+00
         0.00000E+00
         0.00000E+00
         0.00000E+00
         0.00000E+00
         0.00000E+00
         0.00000E+00
         0.00000E+00
         0.00000E+00
         0.00000E+00
         0.00000E+00
         0.00000E+00
         0.00000E+00
         0.00000E+00
         0.00000E+00
         0.00000E+00
         0.00000E+00
         0.00000E+00
         0.00000E+00
         0.00000E+00
         0.00000E+00
         0.00000E+00
         0.00000E+00
         0.00000E+00
         0.00000E+00
         0.00000E+00
         0.00000E+00
         0.00000E+00
         0.00000E+00
         0.00000E+00
         0.00000E+00
         0.00000E+00
         0.00000E+00
         0.00000E+00
         0.00000E+00
         0.00000E+00
         0.00000E+00
         0.00000E+00
         0.00000E+00
         0.00000E+00
         0.00000E+00
         0.00000E+00
         0.00000E+00
         0.00000E+00
         0.00000E+00
         0.00000E+00
         0.00000E+00
         0.00000E+00
         0.00000E+00
         0.00000E+00
         0.00000E+00
         0.00000E+00
         0.00000E+00
         0.00000E+00
         0.00000E+00
         0.00000E+00
         0.00000E+00
         0.00000E+00
         0.00000E+00
         0.00000E+00
         0.00000E+00
         0.00000E+00
         0.00000E+00
         0.00000E+00
         0.00000E+00
         0.00000E+00
         0.00000E+00
         0.00000E+00
         0.00000E+00
         0.00000E+00
         0.00000E+00
         0.00000E+00
         0.00000E+00
         0.00000E+00
         0.00000E+00
         0.00000E+00
         0.00000E+00
         0.00000E+00
         0.00000E+00
         0.00000E+00
         0.00000E+00
         0.00000E+00
         0.00000E+00
         0.00000E+00
         0.00000E+00
         0.00000E+00
         0.00000E+00
         0.00000E+00
         0.00000E+00
         0.00000E+00
         0.00000E+00
         0.00000E+00
         0.00000E+00
         0.00000E+00
         0.00000E+00
         0.00000E+00
         0.00000E+00
         0.00000E+00
         0.00000E+00
         0.00000E+00
         0.00000E+00
         0.00000E+00
         0.00000E+00
         0.00000E+00
         0.00000E+00
         0.00000E+00
         0.00000E+00
         0.00000E+00
         0.00000E+00
         0.00000E+00
         0.00000E+00
         0.00000E+00
         0.00000E+00
         0.00000E+00
         0.00000E+00
         0.00000E+00
         0.00000E+00
         0.00000E+00
         0.00000E+00
         0.00000E+00
         0.00000E+00
         0.00000E+00
         0.00000E+00
         0.00000E+00
         0.00000E+00
         0.00000E+00
         0.00000E+00
         0.00000E+00
         0.00000E+00
         0.00000E+00
         0.00000E+00
         0.00000E+00
         0.00000E+00
         0.00000E+00
         0.00000E+00
         0.00000E+00
         0.00000E+00
         0.00000E+00
         0.00000E+00
         0.00000E+00
         0.00000E+00
         0.00000E+00
         0.00000E+00
         0.00000E+00
         0.00000E+00
         0.00000E+00
         0.00000E+00
         0.00000E+00
         0.00000E+00
         0.00000E+00
         0.00000E+00
         0.00000E+00
         0.00000E+00
         0.00000E+00
         0.00000E+00
         0.00000E+00
         0.00000E+00
         0.00000E+00
         0.00000E+00
         0.00000E+00
         0.00000E+00
         0.00000E+00
         0.00000E+00
         0.00000E+00
         0.00000E+00
         0.00000E+00
         0.00000E+00
         0.00000E+00
         0.00000E+00
         0.00000E+00
         0.00000E+00
         0.00000E+00
         0.00000E+00
         0.00000E+00
         0.00000E+00
         0.00000E+00
         0.00000E+00
         0.00000E+00
         0.00000E+00
         0.00000E+00
         0.00000E+00
         0.00000E+00
         0.00000E+00
         0.00000E+00
         0.00000E+00
         0.00000E+00
  
SCALARS                 displacement_z  double 1
LOOKUP_TABLE default
        -0.34435E-03
        -0.34380E-03
        -0.34372E-03
        -0.34473E-03
        -0.21161E-17
        -0.23728E-17
        -0.22721E-17
        -0.20641E-17
        -0.34269E-03
        -0.34390E-03
        -0.21338E-17
        -0.20650E-17
        -0.34320E-03
        -0.34398E-03
        -0.25353E-17
        -0.23838E-17
        -0.34439E-03
        -0.34454E-03
        -0.18734E-17
        -0.20778E-17
        -0.34279E-03
        -0.34232E-03
        -0.34255E-03
        -0.25128E-17
        -0.21945E-17
        -0.22660E-17
        -0.34375E-03
        -0.34344E-03
        -0.24106E-17
        -0.20330E-17
        -0.34483E-03
        -0.34509E-03
        -0.34464E-03
        -0.20572E-17
        -0.19125E-17
        -0.18595E-17
        -0.34373E-03
        -0.34485E-03
        -0.21764E-17
        -0.19860E-17
        -0.34341E-03
        -0.34435E-03
        -0.18810E-17
        -0.16653E-17
        -0.34255E-03
        -0.34299E-03
        -0.20614E-17
        -0.23033E-17
        -0.34517E-03
        -0.20137E-17
        -0.34359E-03
        -0.23663E-17
        -0.34476E-03
        -0.21265E-17
        -0.34510E-03
        -0.20398E-17
        -0.34417E-03
        -0.34491E-03
        -0.20783E-17
        -0.20241E-17
        -0.34458E-03
        -0.34359E-03
        -0.20841E-17
        -0.23560E-17
        -0.34452E-03
        -0.20111E-17
        -0.34411E-03
        -0.21948E-17
        -0.34115E-03
        -0.34235E-03
        -0.21127E-17
        -0.22137E-17
        -0.34279E-03
        -0.22322E-17
        -0.34408E-03
        -0.17636E-17
        -0.34396E-03
        -0.17119E-17
        -0.34283E-03
        -0.18050E-17
        -0.34155E-03
        -0.34315E-03
        -0.17198E-17
        -0.17930E-17
        -0.34446E-03
        -0.16699E-17
        -0.34266E-03
        -0.21898E-17
        -0.34219E-03
        -0.22413E-17
        -0.34103E-03
        -0.34261E-03
        -0.21523E-17
        -0.21775E-17
        -0.34369E-03
        -0.19778E-17
        -0.34353E-03
        -0.19496E-17
        -0.34267E-03
        -0.20871E-17
        -0.34144E-03
        -0.34288E-03
        -0.20467E-17
        -0.21067E-17
        -0.33787E-03
        -0.33844E-03
        -0.15890E-17
        -0.14946E-17
        -0.33837E-03
        -0.15173E-17
        -0.33796E-03
        -0.14548E-17
        -0.33800E-03
        -0.14346E-17
        -0.33794E-03
        -0.13557E-17
        -0.33827E-03
        -0.12044E-17
        -0.33842E-03
        -0.10845E-17
        -0.33833E-03
        -0.10769E-17
        -0.33826E-03
        -0.11679E-17
        -0.33776E-03
        -0.12274E-17
        -0.33840E-03
        -0.11207E-17
        -0.33863E-03
        -0.10102E-17
        -0.33857E-03
        -0.10091E-17
        -0.33831E-03
        -0.11279E-17
        -0.33806E-03
        -0.12861E-17
        -0.33793E-03
        -0.13816E-17
        -0.33832E-03
        -0.14921E-17
        -0.33794E-03
        -0.15986E-17
        -0.33852E-03
        -0.14644E-17
        -0.33832E-03
        -0.12847E-17
        -0.33814E-03
        -0.12807E-17
        -0.33846E-03
        -0.14013E-17
        -0.33800E-03
        -0.14939E-17
        -0.33846E-03
        -0.14177E-17
        -0.33847E-03
        -0.13706E-17
        -0.48535E-03
        -0.48525E-03
        -0.48524E-03
        -0.48539E-03
        -0.48509E-03
        -0.48527E-03
        -0.48516E-03
        -0.48528E-03
        -0.48537E-03
        -0.48539E-03
        -0.48511E-03
        -0.48504E-03
        -0.48506E-03
        -0.48524E-03
        -0.48521E-03
        -0.48539E-03
        -0.48547E-03
        -0.48539E-03
        -0.48525E-03
        -0.48542E-03
        -0.48520E-03
        -0.48536E-03
        -0.48506E-03
        -0.48514E-03
        -0.48547E-03
        -0.48522E-03
        -0.48541E-03
        -0.48545E-03
        -0.48530E-03
        -0.48543E-03
        -0.48538E-03
        -0.48521E-03
        -0.48537E-03
        -0.48529E-03
        -0.48488E-03
        -0.48503E-03
        -0.48509E-03
        -0.48532E-03
        -0.48529E-03
        -0.48510E-03
        -0.48493E-03
        -0.48515E-03
        -0.48536E-03
        -0.48507E-03
        -0.48500E-03
        -0.48486E-03
        -0.48506E-03
        -0.48524E-03
        -0.48521E-03
        -0.48507E-03
        -0.48492E-03
        -0.48511E-03
        -0.48452E-03
        -0.48462E-03
        -0.48461E-03
        -0.48456E-03
        -0.48457E-03
        -0.48457E-03
        -0.48462E-03
        -0.48463E-03
        -0.48460E-03
        -0.48457E-03
        -0.48449E-03
        -0.48460E-03
        -0.48466E-03
        -0.48465E-03
        -0.48461E-03
        -0.48457E-03
        -0.48456E-03
        -0.48461E-03
        -0.48454E-03
        -0.48464E-03
        -0.48463E-03
        -0.48459E-03
        -0.48462E-03
        -0.48454E-03
        -0.48462E-03
        -0.48465E-03
        -0.49690E-03
        -0.49690E-03
        -0.49690E-03
        -0.49690E-03
        -0.49690E-03
        -0.49690E-03
        -0.49690E-03
        -0.49690E-03
        -0.49690E-03
        -0.49690E-03
        -0.49690E-03
        -0.49690E-03
        -0.49690E-03
        -0.49690E-03
        -0.49690E-03
        -0.49690E-03
        -0.49690E-03
        -0.49690E-03
        -0.49690E-03
        -0.49690E-03
        -0.49690E-03
        -0.49690E-03
        -0.49690E-03
        -0.49690E-03
        -0.49690E-03
        -0.49690E-03
        -0.49690E-03
        -0.49690E-03
        -0.49690E-03
        -0.49690E-03
        -0.49690E-03
        -0.49690E-03
        -0.49690E-03
        -0.49690E-03
        -0.49690E-03
        -0.49690E-03
        -0.49690E-03
        -0.49690E-03
        -0.49690E-03
        -0.49690E-03
        -0.49690E-03
        -0.49690E-03
        -0.49690E-03
        -0.49690E-03
        -0.49690E-03
        -0.49690E-03
        -0.49690E-03
        -0.49690E-03
        -0.49690E-03
        -0.49690E-03
        -0.49690E-03
        -0.49690E-03
        -0.49690E-03
        -0.49690E-03
        -0.49690E-03
        -0.49690E-03
        -0.49690E-03
        -0.49690E-03
        -0.49690E-03
        -0.49690E-03
        -0.49690E-03
        -0.49690E-03
        -0.49690E-03
        -0.49690E-03
        -0.49690E-03
        -0.49690E-03
        -0.49690E-03
        -0.49690E-03
        -0.49690E-03
        -0.49690E-03
        -0.49690E-03
        -0.49690E-03
        -0.49690E-03
        -0.49690E-03
        -0.49690E-03
        -0.49690E-03
        -0.49690E-03
        -0.49690E-03
        -0.49690E-03
        -0.49690E-03
        -0.49690E-03
        -0.49690E-03
        -0.49690E-03
        -0.49690E-03
        -0.49690E-03
        -0.49690E-03
        -0.49690E-03
        -0.49690E-03
        -0.49690E-03
        -0.49690E-03
        -0.49690E-03
        -0.49690E-03
        -0.49690E-03
        -0.49690E-03
        -0.49690E-03
        -0.49690E-03
        -0.49690E-03
        -0.49690E-03
        -0.49690E-03
        -0.49690E-03
        -0.49690E-03
        -0.49690E-03
        -0.49690E-03
        -0.49690E-03
        -0.49690E-03
        -0.49690E-03
        -0.49690E-03
        -0.49690E-03
        -0.49690E-03
        -0.49690E-03
        -0.49690E-03
        -0.49690E-03
        -0.49690E-03
        -0.49690E-03
        -0.49690E-03
        -0.49690E-03
        -0.49690E-03
        -0.49690E-03
        -0.49690E-03
        -0.49690E-03
        -0.49690E-03
        -0.49690E-03
        -0.49690E-03
        -0.49690E-03
        -0.49690E-03
        -0.49690E-03
        -0.49690E-03
        -0.49690E-03
        -0.49690E-03
        -0.49690E-03
        -0.49690E-03
        -0.49690E-03
        -0.49690E-03
        -0.49690E-03
        -0.49690E-03
        -0.49690E-03
        -0.49690E-03
        -0.49690E-03
        -0.49690E-03
        -0.49690E-03
        -0.49690E-03
        -0.49690E-03
        -0.49690E-03
        -0.49690E-03
        -0.49690E-03
        -0.49690E-03
        -0.49690E-03
        -0.49690E-03
        -0.49690E-03
        -0.49690E-03
        -0.49690E-03
        -0.49690E-03
        -0.49690E-03
        -0.49690E-03
        -0.49690E-03
        -0.49690E-03
        -0.49690E-03
        -0.49690E-03
        -0.49690E-03
        -0.49690E-03
        -0.49690E-03
        -0.49690E-03
        -0.49690E-03
        -0.49690E-03
        -0.49690E-03
        -0.49690E-03
        -0.49690E-03
        -0.49690E-03
        -0.49690E-03
        -0.49690E-03
        -0.49690E-03
        -0.49690E-03
        -0.49690E-03
        -0.49690E-03
        -0.49690E-03
        -0.49690E-03
        -0.49690E-03
        -0.49690E-03
        -0.49690E-03
        -0.49690E-03
        -0.49690E-03
        -0.49690E-03
        -0.49690E-03
        -0.49690E-03
        -0.49690E-03
        -0.49690E-03
        -0.49690E-03
        -0.49690E-03
        -0.49690E-03
        -0.49690E-03
        -0.49690E-03
        -0.49690E-03
        -0.49690E-03
        -0.49690E-03
        -0.49690E-03
        -0.49690E-03
        -0.49690E-03
        -0.49690E-03
        -0.49690E-03
        -0.49690E-03
        -0.49690E-03
        -0.49690E-03
        -0.49690E-03
        -0.49690E-03
        -0.49690E-03
        -0.49690E-03
        -0.49690E-03
        -0.49690E-03
        -0.49690E-03
        -0.49690E-03
        -0.49690E-03
        -0.49690E-03
        -0.49690E-03
        -0.49690E-03
        -0.49690E-03
        -0.49690E-03
        -0.49690E-03
        -0.49690E-03
        -0.49690E-03
        -0.49690E-03
        -0.49690E-03
        -0.49690E-03
        -0.49690E-03
        -0.49690E-03
        -0.49690E-03
        -0.49690E-03
        -0.49690E-03
        -0.49690E-03
        -0.49690E-03
        -0.49690E-03
        -0.49690E-03
        -0.49690E-03
        -0.49690E-03
        -0.49690E-03
        -0.49690E-03
        -0.49690E-03
        -0.49690E-03
        -0.49690E-03
        -0.49690E-03
        -0.49690E-03
        -0.49690E-03
        -0.49690E-03
        -0.49690E-03
        -0.49690E-03
        -0.49690E-03
        -0.49690E-03
        -0.49690E-03
        -0.49690E-03
        -0.49690E-03
        -0.49690E-03
        -0.49690E-03
        -0.49690E-03
        -0.49690E-03
        -0.49690E-03
        -0.49690E-03
        -0.49690E-03
        -0.49690E-03
        -0.49690E-03
        -0.49690E-03
        -0.49690E-03
        -0.49690E-03
        -0.49690E-03
        -0.49690E-03
        -0.49690E-03
        -0.49690E-03
        -0.49690E-03
        -0.49690E-03
        -0.49690E-03
        -0.49690E-03
        -0.49690E-03
        -0.49690E-03
        -0.49690E-03
        -0.49690E-03
        -0.49690E-03
        -0.49690E-03
        -0.49690E-03
        -0.49690E-03
        -0.49690E-03
        -0.49690E-03
        -0.49690E-03
        -0.49690E-03
        -0.49690E-03
        -0.49690E-03
        -0.49690E-03
        -0.49690E-03
        -0.49690E-03
        -0.49690E-03
        -0.49690E-03
        -0.49690E-03
        -0.49690E-03
        -0.49690E-03
        -0.49690E-03
        -0.49690E-03
        -0.49690E-03
        -0.49690E-03
        -0.49690E-03
        -0.49690E-03
        -0.49690E-03
        -0.49690E-03
        -0.49690E-03
        -0.49690E-03
        -0.49690E-03
        -0.49690E-03
        -0.49690E-03
        -0.49690E-03
        -0.49690E-03
        -0.49690E-03
        -0.49690E-03
        -0.49690E-03
        -0.49690E-03
        -0.49690E-03
        -0.49690E-03
        -0.49690E-03
        -0.49690E-03
        -0.49690E-03
        -0.49690E-03
        -0.49690E-03
        -0.49690E-03
        -0.49690E-03
        -0.49690E-03
        -0.49690E-03
        -0.49690E-03
        -0.49690E-03
        -0.49690E-03
        -0.49690E-03
        -0.49690E-03
        -0.49690E-03
        -0.49690E-03
        -0.49690E-03
        -0.49690E-03
        -0.49690E-03
        -0.49690E-03
        -0.49690E-03
        -0.49690E-03
        -0.49690E-03
        -0.49690E-03
        -0.49690E-03
        -0.49690E-03
        -0.49690E-03
        -0.49690E-03
        -0.49690E-03
        -0.49690E-03
        -0.49690E-03
        -0.49690E-03
        -0.49690E-03
        -0.49690E-03
        -0.49690E-03
        -0.49690E-03
        -0.49690E-03
        -0.49690E-03
        -0.49690E-03
        -0.49690E-03
        -0.49690E-03
        -0.49690E-03
        -0.49690E-03
        -0.49690E-03
        -0.49690E-03
        -0.49690E-03
        -0.49690E-03
        -0.49690E-03
        -0.49690E-03
        -0.49690E-03
        -0.49690E-03
        -0.49690E-03
        -0.49690E-03
        -0.49690E-03
        -0.49690E-03
        -0.49690E-03
        -0.49690E-03
        -0.49690E-03
        -0.49690E-03
        -0.49690E-03
        -0.49690E-03
        -0.49690E-03
        -0.49690E-03
        -0.49690E-03
        -0.49690E-03
        -0.49690E-03
        -0.49690E-03
        -0.49690E-03
        -0.49690E-03
        -0.49690E-03
        -0.49690E-03
        -0.49690E-03
        -0.49690E-03
        -0.49690E-03
        -0.49690E-03
        -0.49690E-03
        -0.49690E-03
        -0.49690E-03
        -0.49690E-03
        -0.49690E-03
        -0.49690E-03
        -0.49690E-03
        -0.49690E-03
        -0.49690E-03
        -0.49690E-03
        -0.49690E-03
        -0.49690E-03
        -0.49690E-03
        -0.49690E-03
        -0.49690E-03
        -0.49690E-03
        -0.49690E-03
        -0.49690E-03
        -0.49690E-03
        -0.49690E-03
        -0.49690E-03
        -0.49690E-03
        -0.49690E-03
        -0.49690E-03
        -0.49690E-03
        -0.49690E-03
        -0.49690E-03
        -0.49690E-03
        -0.49690E-03
        -0.49690E-03
        -0.49690E-03
        -0.49690E-03
        -0.49690E-03
        -0.49690E-03
        -0.49690E-03
        -0.49690E-03
        -0.49690E-03
        -0.49690E-03
        -0.49690E-03
        -0.49690E-03
        -0.49690E-03
        -0.49690E-03
        -0.49690E-03
        -0.49690E-03
        -0.49690E-03
        -0.49690E-03
        -0.49690E-03
        -0.49690E-03
        -0.49690E-03
        -0.49690E-03
        -0.49690E-03
        -0.49690E-03
        -0.49690E-03
        -0.49690E-03
        -0.49690E-03
        -0.49690E-03
        -0.49690E-03
        -0.49690E-03
        -0.49690E-03
        -0.49690E-03
        -0.49690E-03
        -0.49690E-03
        -0.49690E-03
        -0.49690E-03
        -0.49690E-03
        -0.49690E-03
        -0.49690E-03
        -0.49690E-03
        -0.49690E-03
        -0.49690E-03
        -0.49690E-03
        -0.49690E-03
        -0.49690E-03
        -0.49690E-03
        -0.49690E-03
        -0.49690E-03
        -0.49690E-03
        -0.49690E-03
        -0.49690E-03
        -0.49690E-03
        -0.49690E-03
        -0.49690E-03
        -0.49690E-03
        -0.49690E-03
        -0.49690E-03
        -0.49690E-03
        -0.49690E-03
        -0.49690E-03
        -0.49690E-03
        -0.49690E-03
        -0.49690E-03
        -0.49690E-03
        -0.49690E-03
        -0.49690E-03
        -0.49690E-03
        -0.49690E-03
        -0.49690E-03
        -0.49690E-03
        -0.49690E-03
        -0.49690E-03
        -0.49690E-03
        -0.49690E-03
        -0.49690E-03
        -0.49690E-03
        -0.49690E-03
        -0.49690E-03
        -0.49690E-03
        -0.49690E-03
        -0.49690E-03
        -0.49690E-03
        -0.49690E-03
        -0.49690E-03
        -0.49690E-03
        -0.49690E-03
        -0.49690E-03
        -0.49690E-03
        -0.49690E-03
        -0.49690E-03
        -0.49690E-03
        -0.49690E-03
        -0.49690E-03
        -0.49690E-03
        -0.49690E-03
        -0.49690E-03
        -0.49690E-03
        -0.49690E-03
        -0.49690E-03
        -0.49690E-03
        -0.49690E-03
        -0.49690E-03
        -0.49690E-03
        -0.49690E-03
        -0.49690E-03
        -0.49690E-03
        -0.49690E-03
        -0.49690E-03
        -0.49690E-03
        -0.49690E-03
        -0.49690E-03
        -0.49690E-03
        -0.49690E-03
        -0.49690E-03
        -0.49690E-03
        -0.49690E-03
        -0.49690E-03
        -0.49690E-03
        -0.49690E-03
        -0.49690E-03
        -0.49690E-03
        -0.49690E-03
        -0.49690E-03
        -0.49690E-03
        -0.49690E-03
        -0.49690E-03
        -0.49690E-03
        -0.49690E-03
        -0.49690E-03
        -0.49690E-03
        -0.49690E-03
        -0.49690E-03
        -0.49690E-03
        -0.49690E-03
        -0.49690E-03
        -0.49690E-03
        -0.49690E-03
        -0.49690E-03
        -0.49690E-03
        -0.49690E-03
        -0.49690E-03
        -0.49690E-03
        -0.49690E-03
        -0.49690E-03
        -0.49690E-03
        -0.49690E-03
        -0.49690E-03
        -0.49690E-03
        -0.49690E-03
        -0.49690E-03
        -0.49690E-03
        -0.49690E-03
        -0.49690E-03
        -0.49690E-03
        -0.49690E-03
        -0.49690E-03
        -0.49690E-03
        -0.49690E-03
        -0.49690E-03
        -0.49690E-03
        -0.49690E-03
        -0.49690E-03
        -0.49690E-03
        -0.49690E-03
        -0.49690E-03
        -0.49690E-03
        -0.49690E-03
        -0.49690E-03
        -0.49690E-03
        -0.49690E-03
        -0.49690E-03
        -0.49690E-03
        -0.49690E-03
        -0.49690E-03
        -0.49690E-03
        -0.49690E-03
        -0.49690E-03
        -0.49690E-03
        -0.49690E-03
        -0.49690E-03
        -0.49690E-03
        -0.49690E-03
        -0.49690E-03
        -0.49690E-03
        -0.49690E-03
        -0.49690E-03
        -0.49690E-03
        -0.49690E-03
        -0.49690E-03
        -0.49690E-03
        -0.49690E-03
        -0.49690E-03
        -0.49690E-03
        -0.49690E-03
        -0.49690E-03
        -0.49690E-03
        -0.49690E-03
        -0.49690E-03
        -0.49690E-03
        -0.49690E-03
        -0.49690E-03
        -0.49690E-03
        -0.49690E-03
        -0.49690E-03
        -0.49690E-03
        -0.49690E-03
        -0.49690E-03
        -0.49690E-03
        -0.49690E-03
        -0.49690E-03
        -0.49690E-03
        -0.49690E-03
        -0.49690E-03
        -0.49690E-03
        -0.49690E-03
        -0.49690E-03
        -0.49690E-03
        -0.49690E-03
        -0.49690E-03
        -0.49690E-03
        -0.49690E-03
        -0.49690E-03
        -0.49690E-03
        -0.49690E-03
        -0.49690E-03
        -0.49690E-03
        -0.49690E-03
        -0.49690E-03
        -0.49690E-03
        -0.49690E-03
        -0.49690E-03
        -0.49690E-03
        -0.49690E-03
        -0.49690E-03
        -0.49690E-03
        -0.49690E-03
        -0.49690E-03
        -0.49690E-03
        -0.49690E-03
        -0.49690E-03
        -0.49690E-03
        -0.49690E-03
        -0.49690E-03
        -0.49690E-03
        -0.49690E-03
        -0.49690E-03
        -0.49690E-03
        -0.49690E-03
        -0.49690E-03
        -0.49690E-03
        -0.49690E-03
        -0.49690E-03
        -0.49690E-03
        -0.49690E-03
        -0.49690E-03
        -0.49690E-03
        -0.49690E-03
        -0.49690E-03
        -0.49690E-03
        -0.49690E-03
        -0.49690E-03
        -0.49690E-03
        -0.49690E-03
        -0.49690E-03
        -0.49690E-03
        -0.49690E-03
        -0.49690E-03
        -0.49690E-03
        -0.49690E-03
        -0.49690E-03
        -0.49690E-03
        -0.49690E-03
        -0.49690E-03
        -0.49690E-03
        -0.49690E-03
        -0.49690E-03
        -0.49690E-03
        -0.49690E-03
        -0.49690E-03
        -0.49690E-03
        -0.49690E-03
        -0.49690E-03
        -0.49690E-03
        -0.49690E-03
        -0.49690E-03
        -0.49690E-03
        -0.49690E-03
        -0.49690E-03
        -0.49690E-03
        -0.49690E-03
        -0.49690E-03
        -0.49690E-03
        -0.49690E-03
        -0.49690E-03
        -0.49690E-03
        -0.49690E-03
        -0.49690E-03
        -0.49690E-03
        -0.49690E-03
        -0.49690E-03
        -0.49690E-03
        -0.49690E-03
        -0.49690E-03
        -0.49690E-03
        -0.49690E-03
        -0.49690E-03
        -0.49690E-03
        -0.49690E-03
        -0.49690E-03
        -0.49690E-03
        -0.49690E-03
        -0.49690E-03
        -0.49690E-03
        -0.49690E-03
        -0.49690E-03
        -0.49690E-03
        -0.49690E-03
        -0.49690E-03
        -0.49690E-03
        -0.49690E-03
        -0.49690E-03
        -0.49690E-03
        -0.49690E-03
        -0.49690E-03
        -0.49690E-03
        -0.49690E-03
        -0.49690E-03
        -0.49690E-03
        -0.49690E-03
        -0.49690E-03
        -0.49690E-03
        -0.49690E-03
        -0.49690E-03
        -0.49690E-03
        -0.49690E-03
        -0.49690E-03
        -0.49690E-03
        -0.49690E-03
        -0.49690E-03
        -0.49690E-03
        -0.49690E-03
        -0.49690E-03
        -0.49690E-03
        -0.49690E-03
        -0.49690E-03
        -0.49690E-03
        -0.49690E-03
        -0.49690E-03
        -0.49690E-03
        -0.49690E-03
        -0.49690E-03
        -0.49690E-03
        -0.49690E-03
        -0.49690E-03
        -0.49690E-03
        -0.49690E-03
        -0.49690E-03
        -0.49690E-03
        -0.49690E-03
        -0.49690E-03
        -0.49690E-03
        -0.49690E-03
        -0.49690E-03
        -0.49690E-03
        -0.49690E-03
        -0.49690E-03
        -0.49690E-03
        -0.49690E-03
        -0.49690E-03
        -0.49690E-03
        -0.49690E-03
        -0.49690E-03
        -0.49690E-03
        -0.49690E-03
        -0.49690E-03
        -0.49690E-03
        -0.49690E-03
        -0.49690E-03
        -0.49690E-03
        -0.49690E-03
        -0.49690E-03
        -0.49690E-03
        -0.49690E-03
        -0.49690E-03
        -0.49690E-03
        -0.49690E-03
        -0.49690E-03
        -0.49690E-03
        -0.49690E-03
        -0.49690E-03
        -0.49690E-03
        -0.49690E-03
        -0.49690E-03
        -0.49690E-03
        -0.49690E-03
        -0.49690E-03
        -0.49690E-03
        -0.49690E-03
        -0.49690E-03
        -0.49690E-03
        -0.49690E-03
        -0.49690E-03
        -0.49690E-03
        -0.49690E-03
        -0.49690E-03
        -0.49690E-03
        -0.49690E-03
        -0.49690E-03
        -0.49690E-03
        -0.49690E-03
        -0.49690E-03
        -0.49690E-03
        -0.49690E-03
        -0.49690E-03
        -0.49690E-03
        -0.49690E-03
        -0.49690E-03
        -0.49690E-03
        -0.49690E-03
        -0.49690E-03
        -0.49690E-03
        -0.49690E-03
        -0.49690E-03
        -0.49690E-03
        -0.49690E-03
        -0.49690E-03
        -0.49690E-03
        -0.49690E-03
        -0.49690E-03
        -0.49690E-03
        -0.49690E-03
        -0.49690E-03
        -0.49690E-03
        -0.49690E-03
        -0.49690E-03
        -0.49690E-03
        -0.49690E-03
        -0.49690E-03
        -0.49690E-03
        -0.49690E-03
        -0.49690E-03
        -0.49690E-03
        -0.49690E-03
        -0.49690E-03
        -0.49690E-03
        -0.49690E-03
        -0.49690E-03
        -0.49690E-03
        -0.49690E-03
        -0.49690E-03
        -0.49690E-03
        -0.49690E-03
        -0.49690E-03
        -0.49690E-03
        -0.49690E-03
        -0.49690E-03
        -0.49690E-03
        -0.49690E-03
        -0.49690E-03
        -0.49690E-03
        -0.49690E-03
        -0.49690E-03
        -0.49690E-03
        -0.49690E-03
        -0.49690E-03
        -0.49690E-03
        -0.49690E-03
        -0.49690E-03
        -0.49690E-03
        -0.49690E-03
        -0.49690E-03
        -0.49690E-03
        -0.49690E-03
        -0.49690E-03
        -0.49690E-03
        -0.49690E-03
        -0.49690E-03
        -0.49690E-03
        -0.49690E-03
        -0.49690E-03
        -0.49690E-03
        -0.49690E-03
        -0.49690E-03
        -0.49690E-03
        -0.49690E-03
        -0.49690E-03
        -0.49690E-03
        -0.49690E-03
        -0.49690E-03
        -0.49690E-03
        -0.49690E-03
        -0.49690E-03
        -0.49690E-03
        -0.49690E-03
        -0.49690E-03
        -0.49690E-03
        -0.49690E-03
        -0.49690E-03
        -0.49690E-03
        -0.49690E-03
        -0.49690E-03
        -0.49690E-03
        -0.49690E-03
        -0.49690E-03
        -0.49690E-03
        -0.49690E-03
        -0.49690E-03
        -0.49690E-03
        -0.49690E-03
        -0.49690E-03
        -0.49690E-03
        -0.49690E-03
        -0.49690E-03
        -0.49690E-03
        -0.49690E-03
        -0.49690E-03
        -0.49690E-03
        -0.49690E-03
        -0.49690E-03
        -0.49690E-03
        -0.49690E-03
        -0.49690E-03
        -0.49690E-03
        -0.49690E-03
        -0.49690E-03
        -0.49690E-03
        -0.49690E-03
        -0.49690E-03
        -0.49690E-03
        -0.49690E-03
        -0.49690E-03
        -0.49690E-03
        -0.49690E-03
        -0.49690E-03
        -0.49690E-03
        -0.49690E-03
        -0.49690E-03
        -0.49690E-03
        -0.49690E-03
        -0.49690E-03
        -0.49690E-03
        -0.49690E-03
        -0.49690E-03
        -0.49690E-03
        -0.49690E-03
        -0.49690E-03
        -0.49690E-03
        -0.49690E-03
        -0.49690E-03
        -0.49690E-03
        -0.49690E-03
        -0.49690E-03
        -0.49690E-03
        -0.49690E-03
        -0.49690E-03
        -0.49690E-03
        -0.49690E-03
        -0.49690E-03
        -0.49690E-03
        -0.49690E-03
        -0.49690E-03
        -0.49690E-03
        -0.49690E-03
        -0.49690E-03
        -0.49690E-03
        -0.49690E-03
        -0.49690E-03
        -0.49690E-03
        -0.49690E-03
        -0.49690E-03
        -0.49690E-03
        -0.49690E-03
        -0.49690E-03
        -0.49690E-03
        -0.49690E-03
        -0.49690E-03
        -0.49690E-03
        -0.49690E-03
        -0.49690E-03
        -0.49690E-03
        -0.49690E-03
        -0.49690E-03
        -0.49690E-03
        -0.49690E-03
        -0.49690E-03
        -0.49690E-03
        -0.49690E-03
        -0.49690E-03
        -0.49690E-03
        -0.49690E-03
        -0.49690E-03
        -0.49690E-03
        -0.49690E-03
        -0.49690E-03
        -0.49690E-03
        -0.49690E-03
        -0.49690E-03
        -0.49690E-03
        -0.49690E-03
        -0.49690E-03
        -0.49690E-03
        -0.49690E-03
        -0.49690E-03
        -0.49690E-03
        -0.49690E-03
        -0.49690E-03
        -0.49690E-03
        -0.49690E-03
        -0.49690E-03
        -0.49690E-03
        -0.49690E-03
        -0.49690E-03
        -0.49690E-03
        -0.49690E-03
        -0.49690E-03
        -0.49690E-03
        -0.49690E-03
        -0.49690E-03
        -0.49690E-03
        -0.49690E-03
        -0.49690E-03
        -0.49690E-03
        -0.49690E-03
        -0.49690E-03
        -0.49690E-03
        -0.49690E-03
        -0.49690E-03
        -0.49690E-03
        -0.49690E-03
        -0.49690E-03
        -0.49690E-03
        -0.49690E-03
        -0.49690E-03
        -0.49690E-03
        -0.49690E-03
        -0.49690E-03
        -0.49690E-03
        -0.49690E-03
        -0.49690E-03
        -0.49690E-03
        -0.49690E-03
        -0.49690E-03
        -0.49690E-03
        -0.49690E-03
        -0.49690E-03
        -0.49690E-03
        -0.49690E-03
        -0.49690E-03
        -0.49690E-03
        -0.49690E-03
        -0.49690E-03
        -0.49690E-03
        -0.49690E-03
        -0.49690E-03
        -0.49690E-03
        -0.49690E-03
        -0.49690E-03
        -0.49690E-03
        -0.49690E-03
        -0.49690E-03
        -0.49690E-03
        -0.49690E-03
        -0.49690E-03
        -0.49690E-03
        -0.49690E-03
        -0.49690E-03
        -0.49690E-03
        -0.49690E-03
        -0.49690E-03
        -0.49690E-03
        -0.49690E-03
        -0.49690E-03
        -0.49690E-03
        -0.49690E-03
        -0.49690E-03
        -0.49690E-03
        -0.49690E-03
        -0.49690E-03
        -0.49690E-03
        -0.49690E-03
        -0.49690E-03
        -0.49690E-03
        -0.49690E-03
        -0.49690E-03
        -0.49690E-03
        -0.49690E-03
        -0.49690E-03
        -0.49690E-03
        -0.49690E-03
        -0.49690E-03
        -0.49690E-03
        -0.49690E-03
        -0.49690E-03
        -0.49690E-03
        -0.49690E-03
        -0.49690E-03
        -0.49690E-03
        -0.49690E-03
        -0.49690E-03
        -0.49690E-03
        -0.49690E-03
        -0.49690E-03
        -0.49690E-03
        -0.49690E-03
        -0.49690E-03
        -0.49690E-03
        -0.49690E-03
        -0.49690E-03
        -0.49690E-03
        -0.49690E-03
        -0.49690E-03
        -0.49690E-03
        -0.49690E-03
        -0.49690E-03
        -0.49690E-03
        -0.49690E-03
        -0.49690E-03
        -0.49690E-03
        -0.49690E-03
        -0.49690E-03
        -0.49690E-03
        -0.49690E-03
        -0.49690E-03
        -0.49690E-03
        -0.49690E-03
        -0.49690E-03
        -0.49690E-03
        -0.49690E-03
        -0.49690E-03
        -0.49690E-03
        -0.49690E-03
        -0.49690E-03
        -0.49690E-03
        -0.49690E-03
        -0.49690E-03
        -0.49690E-03
        -0.49690E-03
        -0.49690E-03
        -0.49690E-03
        -0.49690E-03
        -0.49690E-03
        -0.49690E-03
        -0.49690E-03
        -0.49690E-03
        -0.49690E-03
        -0.49690E-03
        -0.49690E-03
        -0.49690E-03
        -0.49690E-03
        -0.49690E-03
        -0.49690E-03
        -0.49690E-03
        -0.49690E-03
        -0.49690E-03
        -0.49690E-03
        -0.49690E-03
        -0.49690E-03
        -0.49690E-03
        -0.49690E-03
        -0.49690E-03
        -0.49690E-03
        -0.49690E-03
        -0.49690E-03
        -0.49690E-03
        -0.49690E-03
        -0.49690E-03
        -0.49690E-03
        -0.49690E-03
        -0.49690E-03
        -0.49690E-03
        -0.49690E-03
        -0.49690E-03
        -0.49690E-03
        -0.49690E-03
        -0.49690E-03
        -0.49690E-03
        -0.49690E-03
        -0.49690E-03
        -0.49690E-03
        -0.49690E-03
        -0.49690E-03
        -0.49690E-03
        -0.49690E-03
        -0.49690E-03
        -0.49690E-03
        -0.49690E-03
        -0.49690E-03
        -0.49690E-03
        -0.49690E-03
        -0.49690E-03
        -0.49690E-03
        -0.49690E-03
        -0.49690E-03
        -0.49690E-03
        -0.49690E-03
        -0.49690E-03
        -0.49690E-03
        -0.49690E-03
        -0.49690E-03
        -0.49690E-03
        -0.49690E-03
        -0.49690E-03
        -0.49690E-03
        -0.49690E-03
        -0.49690E-03
        -0.49690E-03
        -0.49690E-03
        -0.49690E-03
        -0.49690E-03
        -0.49690E-03
        -0.49690E-03
        -0.49690E-03
        -0.49690E-03
        -0.49690E-03
        -0.49690E-03
        -0.49690E-03
        -0.49690E-03
        -0.49690E-03
        -0.49690E-03
        -0.49690E-03
        -0.49690E-03
        -0.49690E-03
        -0.49690E-03
        -0.49690E-03
        -0.49690E-03
        -0.49690E-03
        -0.49690E-03
        -0.49690E-03
        -0.49690E-03
        -0.49690E-03
        -0.49690E-03
        -0.49690E-03
        -0.49690E-03
        -0.49690E-03
        -0.49690E-03
        -0.49690E-03
        -0.49690E-03
        -0.49690E-03
        -0.49690E-03
        -0.49690E-03
        -0.49690E-03
        -0.49690E-03
        -0.49690E-03
        -0.49690E-03
        -0.49690E-03
        -0.49690E-03
        -0.49690E-03
        -0.49690E-03
        -0.49690E-03
        -0.49690E-03
        -0.49690E-03
        -0.49690E-03
        -0.49690E-03
        -0.49690E-03
        -0.49690E-03
        -0.49690E-03
        -0.49690E-03
        -0.49690E-03
        -0.49690E-03
        -0.49690E-03
        -0.49690E-03
        -0.49690E-03
        -0.49690E-03
        -0.49690E-03
        -0.49690E-03
        -0.49690E-03
        -0.49690E-03
        -0.49690E-03
        -0.49690E-03
        -0.49690E-03
        -0.49690E-03
        -0.49690E-03
        -0.49690E-03
        -0.49690E-03
        -0.49690E-03
        -0.49690E-03
        -0.49690E-03
        -0.49690E-03
        -0.49690E-03
        -0.49690E-03
        -0.49690E-03
        -0.49690E-03
        -0.49690E-03
        -0.49690E-03
        -0.49690E-03
        -0.49690E-03
        -0.49690E-03
        -0.49690E-03
        -0.49690E-03
        -0.49690E-03
        -0.49690E-03
        -0.49690E-03
        -0.49690E-03
        -0.49690E-03
        -0.49690E-03
        -0.49690E-03
        -0.49690E-03
        -0.49690E-03
        -0.49690E-03
        -0.49690E-03
        -0.49690E-03
        -0.49690E-03
        -0.49690E-03
        -0.49690E-03
        -0.49690E-03
        -0.49690E-03
        -0.49690E-03
        -0.49690E-03
        -0.49690E-03
        -0.49690E-03
        -0.49690E-03
        -0.49690E-03
        -0.49690E-03
        -0.49690E-03
        -0.49690E-03
        -0.49690E-03
        -0.49690E-03
        -0.49690E-03
        -0.49690E-03
        -0.49690E-03
        -0.49690E-03
        -0.49690E-03
        -0.49690E-03
        -0.49690E-03
        -0.49690E-03
        -0.49690E-03
        -0.49690E-03
        -0.49690E-03
        -0.49690E-03
        -0.49690E-03
        -0.49690E-03
        -0.49690E-03
        -0.49690E-03
        -0.49690E-03
        -0.49690E-03
        -0.49690E-03
        -0.49690E-03
        -0.49690E-03
        -0.49690E-03
        -0.49690E-03
        -0.49690E-03
        -0.49690E-03
        -0.49690E-03
        -0.49690E-03
        -0.49690E-03
        -0.49690E-03
        -0.49690E-03
        -0.49690E-03
        -0.49690E-03
        -0.49690E-03
        -0.49690E-03
        -0.49690E-03
        -0.49690E-03
        -0.49690E-03
        -0.49690E-03
        -0.49690E-03
        -0.49690E-03
        -0.49690E-03
        -0.49690E-03
        -0.49690E-03
        -0.49690E-03
        -0.49690E-03
        -0.49690E-03
        -0.49690E-03
        -0.49690E-03
        -0.49690E-03
        -0.49690E-03
        -0.49690E-03
        -0.49690E-03
        -0.49690E-03
        -0.49690E-03
        -0.49690E-03
        -0.49690E-03
        -0.49690E-03
        -0.49690E-03
        -0.49690E-03
        -0.49690E-03
        -0.49690E-03
        -0.49690E-03
        -0.49690E-03
        -0.49690E-03
        -0.49690E-03
        -0.49690E-03
        -0.49690E-03
        -0.49690E-03
        -0.49690E-03
        -0.49690E-03
        -0.49690E-03
        -0.49690E-03
        -0.49690E-03
        -0.49690E-03
        -0.49690E-03
        -0.49690E-03
        -0.49690E-03
        -0.49690E-03
        -0.49690E-03
        -0.49690E-03
        -0.49690E-03
        -0.49690E-03
        -0.49690E-03
        -0.49690E-03
        -0.49690E-03
        -0.49690E-03
        -0.49690E-03
        -0.49690E-03
        -0.49690E-03
        -0.49690E-03
        -0.49690E-03
        -0.49690E-03
        -0.49690E-03
        -0.49690E-03
        -0.49690E-03
        -0.49690E-03
        -0.49690E-03
        -0.49690E-03
        -0.49690E-03
        -0.49690E-03
        -0.49690E-03
        -0.49690E-03
        -0.49690E-03
        -0.49690E-03
        -0.49690E-03
        -0.49690E-03
        -0.49690E-03
        -0.49690E-03
        -0.49690E-03
        -0.49690E-03
        -0.49690E-03
        -0.49690E-03
        -0.49690E-03
        -0.49690E-03
        -0.49690E-03
        -0.49690E-03
        -0.49690E-03
        -0.49690E-03
        -0.49690E-03
        -0.49690E-03
        -0.49690E-03
        -0.49690E-03
        -0.49690E-03
        -0.49690E-03
        -0.49690E-03
        -0.49690E-03
        -0.49690E-03
        -0.49690E-03
        -0.49690E-03
        -0.49690E-03
        -0.49690E-03
        -0.49690E-03
        -0.49690E-03
        -0.49690E-03
        -0.49690E-03
        -0.49690E-03
        -0.49690E-03
        -0.49690E-03
        -0.49690E-03
        -0.49690E-03
        -0.49690E-03
        -0.49690E-03
        -0.49690E-03
        -0.49690E-03
        -0.49690E-03
        -0.49690E-03
        -0.49690E-03
        -0.49690E-03
        -0.49690E-03
        -0.49690E-03
        -0.49690E-03
        -0.49690E-03
        -0.49690E-03
        -0.49690E-03
        -0.49690E-03
        -0.49690E-03
        -0.49690E-03
        -0.49690E-03
        -0.49690E-03
        -0.49690E-03
        -0.49690E-03
        -0.49690E-03
        -0.49690E-03
        -0.49690E-03
        -0.49690E-03
        -0.49690E-03
        -0.49690E-03
        -0.49690E-03
        -0.49690E-03
        -0.49690E-03
        -0.49690E-03
        -0.49690E-03
        -0.49690E-03
        -0.49690E-03
        -0.49690E-03
        -0.49690E-03
        -0.49690E-03
        -0.49690E-03
        -0.49690E-03
        -0.49690E-03
        -0.49690E-03
        -0.49690E-03
        -0.49690E-03
        -0.49690E-03
        -0.49690E-03
        -0.49690E-03
        -0.49690E-03
        -0.49690E-03
        -0.49690E-03
        -0.49690E-03
        -0.49690E-03
        -0.49690E-03
        -0.49690E-03
        -0.49690E-03
        -0.49690E-03
        -0.49690E-03
        -0.49690E-03
        -0.49690E-03
        -0.49690E-03
        -0.49690E-03
        -0.49690E-03
        -0.49690E-03
        -0.49690E-03
        -0.49690E-03
        -0.49690E-03
        -0.49690E-03
        -0.49690E-03
        -0.49690E-03
        -0.49690E-03
        -0.49690E-03
        -0.49690E-03
        -0.49690E-03
        -0.49690E-03
        -0.49690E-03
        -0.49690E-03
        -0.49690E-03
        -0.49690E-03
        -0.49690E-03
        -0.49690E-03
        -0.49690E-03
        -0.49690E-03
        -0.49690E-03
        -0.49690E-03
        -0.49690E-03
        -0.49690E-03
        -0.49690E-03
        -0.49690E-03
        -0.49690E-03
        -0.49690E-03
        -0.49690E-03
        -0.49690E-03
        -0.49690E-03
        -0.49690E-03
        -0.49690E-03
        -0.49690E-03
        -0.49690E-03
        -0.49690E-03
        -0.49690E-03
        -0.49690E-03
        -0.49690E-03
        -0.49690E-03
        -0.49690E-03
        -0.49690E-03
        -0.49690E-03
        -0.49690E-03
        -0.49690E-03
        -0.49690E-03
        -0.49690E-03
        -0.49690E-03
        -0.49690E-03
        -0.49690E-03
        -0.49690E-03
        -0.49690E-03
        -0.49690E-03
        -0.49690E-03
        -0.49690E-03
        -0.49690E-03
        -0.49690E-03
        -0.49690E-03
        -0.49690E-03
        -0.49690E-03
        -0.49690E-03
        -0.49690E-03
        -0.49690E-03
        -0.49690E-03
        -0.49690E-03
        -0.49690E-03
        -0.49690E-03
        -0.49690E-03
        -0.49690E-03
        -0.49690E-03
        -0.49690E-03
        -0.49690E-03
        -0.49690E-03
        -0.49690E-03
        -0.49690E-03
        -0.49690E-03
        -0.49690E-03
        -0.49690E-03
        -0.49690E-03
        -0.49690E-03
        -0.49690E-03
        -0.49690E-03
        -0.49690E-03
        -0.49690E-03
        -0.49690E-03
        -0.49690E-03
        -0.49690E-03
        -0.49690E-03
        -0.49690E-03
        -0.49690E-03
        -0.49690E-03
        -0.49690E-03
        -0.49690E-03
        -0.49690E-03
        -0.49690E-03
        -0.49690E-03
        -0.49690E-03
        -0.49690E-03
        -0.49690E-03
        -0.49690E-03
        -0.49690E-03
        -0.49690E-03
        -0.49690E-03
        -0.49690E-03
        -0.49690E-03
        -0.49690E-03
        -0.49690E-03
        -0.49690E-03
        -0.49690E-03
        -0.49690E-03
        -0.49690E-03
        -0.49690E-03
        -0.49690E-03
        -0.49690E-03
        -0.49690E-03
        -0.49690E-03
        -0.49690E-03
        -0.49690E-03
        -0.49690E-03
        -0.49690E-03
        -0.49690E-03
        -0.49690E-03
        -0.49690E-03
        -0.49690E-03
        -0.49690E-03
        -0.49690E-03
        -0.49690E-03
        -0.49690E-03
        -0.49690E-03
        -0.49690E-03
        -0.49690E-03
        -0.49690E-03
        -0.49690E-03
        -0.49690E-03
        -0.49690E-03
        -0.49690E-03
        -0.49690E-03
        -0.49690E-03
        -0.49690E-03
        -0.49690E-03
        -0.49690E-03
        -0.49690E-03
        -0.49690E-03
        -0.49690E-03
        -0.49690E-03
        -0.49690E-03
        -0.49690E-03
        -0.49690E-03
        -0.49690E-03
        -0.49690E-03
        -0.49690E-03
        -0.49690E-03
        -0.49690E-03
        -0.49690E-03
        -0.49690E-03
        -0.49690E-03
        -0.49690E-03
        -0.49690E-03
        -0.49690E-03
        -0.49690E-03
        -0.49690E-03
        -0.49690E-03
        -0.49690E-03
        -0.49690E-03
        -0.49690E-03
        -0.49690E-03
        -0.49690E-03
        -0.49690E-03
        -0.49690E-03
        -0.49690E-03
        -0.49690E-03
        -0.49690E-03
        -0.49690E-03
        -0.49690E-03
        -0.49690E-03
        -0.49690E-03
        -0.49690E-03
        -0.49690E-03
        -0.49690E-03
        -0.49690E-03
        -0.49690E-03
        -0.49690E-03
        -0.49690E-03
  
SCALARS                     velocity_x  double 1
LOOKUP_TABLE default
         0.00000E+00
         0.00000E+00
         0.00000E+00
         0.00000E+00
         0.00000E+00
         0.00000E+00
         0.00000E+00
         0.00000E+00
         0.00000E+00
         0.00000E+00
         0.00000E+00
         0.00000E+00
         0.00000E+00
         0.00000E+00
         0.00000E+00
         0.00000E+00
         0.00000E+00
         0.00000E+00
         0.00000E+00
         0.00000E+00
         0.00000E+00
         0.00000E+00
         0.00000E+00
         0.00000E+00
         0.00000E+00
         0.00000E+00
         0.00000E+00
         0.00000E+00
         0.00000E+00
         0.00000E+00
         0.00000E+00
         0.00000E+00
         0.00000E+00
         0.00000E+00
         0.00000E+00
         0.00000E+00
         0.00000E+00
         0.00000E+00
         0.00000E+00
         0.00000E+00
         0.00000E+00
         0.00000E+00
         0.00000E+00
         0.00000E+00
         0.00000E+00
         0.00000E+00
         0.00000E+00
         0.00000E+00
         0.00000E+00
         0.00000E+00
         0.00000E+00
         0.00000E+00
         0.00000E+00
         0.00000E+00
         0.00000E+00
         0.00000E+00
         0.00000E+00
         0.00000E+00
         0.00000E+00
         0.00000E+00
         0.00000E+00
         0.00000E+00
         0.00000E+00
         0.00000E+00
         0.00000E+00
         0.00000E+00
         0.00000E+00
         0.00000E+00
         0.00000E+00
         0.00000E+00
         0.00000E+00
         0.00000E+00
         0.00000E+00
         0.00000E+00
         0.00000E+00
         0.00000E+00
         0.00000E+00
         0.00000E+00
         0.00000E+00
         0.00000E+00
         0.00000E+00
         0.00000E+00
         0.00000E+00
         0.00000E+00
         0.00000E+00
         0.00000E+00
         0.00000E+00
         0.00000E+00
         0.00000E+00
         0.00000E+00
         0.00000E+00
         0.00000E+00
         0.00000E+00
         0.00000E+00
         0.00000E+00
         0.00000E+00
         0.00000E+00
         0.00000E+00
         0.00000E+00
         0.00000E+00
         0.00000E+00
         0.00000E+00
         0.00000E+00
         0.00000E+00
         0.00000E+00
         0.00000E+00
         0.00000E+00
         0.00000E+00
         0.00000E+00
         0.00000E+00
         0.00000E+00
         0.00000E+00
         0.00000E+00
         0.00000E+00
         0.00000E+00
         0.00000E+00
         0.00000E+00
         0.00000E+00
         0.00000E+00
         0.00000E+00
         0.00000E+00
         0.00000E+00
         0.00000E+00
         0.00000E+00
         0.00000E+00
         0.00000E+00
         0.00000E+00
         0.00000E+00
         0.00000E+00
         0.00000E+00
         0.00000E+00
         0.00000E+00
         0.00000E+00
         0.00000E+00
         0.00000E+00
         0.00000E+00
         0.00000E+00
         0.00000E+00
         0.00000E+00
         0.00000E+00
         0.00000E+00
         0.00000E+00
         0.00000E+00
         0.00000E+00
         0.00000E+00
         0.00000E+00
         0.00000E+00
         0.00000E+00
         0.00000E+00
         0.00000E+00
         0.00000E+00
         0.00000E+00
         0.00000E+00
         0.00000E+00
         0.00000E+00
         0.00000E+00
         0.00000E+00
         0.00000E+00
         0.00000E+00
         0.00000E+00
         0.00000E+00
         0.00000E+00
         0.00000E+00
         0.00000E+00
         0.00000E+00
         0.00000E+00
         0.00000E+00
         0.00000E+00
         0.00000E+00
         0.00000E+00
         0.00000E+00
         0.00000E+00
         0.00000E+00
         0.00000E+00
         0.00000E+00
         0.00000E+00
         0.00000E+00
         0.00000E+00
         0.00000E+00
         0.00000E+00
         0.00000E+00
         0.00000E+00
         0.00000E+00
         0.00000E+00
         0.00000E+00
         0.00000E+00
         0.00000E+00
         0.00000E+00
         0.00000E+00
         0.00000E+00
         0.00000E+00
         0.00000E+00
         0.00000E+00
         0.00000E+00
         0.00000E+00
         0.00000E+00
         0.00000E+00
         0.00000E+00
         0.00000E+00
         0.00000E+00
         0.00000E+00
         0.00000E+00
         0.00000E+00
         0.00000E+00
         0.00000E+00
         0.00000E+00
         0.00000E+00
         0.00000E+00
         0.00000E+00
         0.00000E+00
         0.00000E+00
         0.00000E+00
         0.00000E+00
         0.00000E+00
         0.00000E+00
         0.00000E+00
         0.00000E+00
         0.00000E+00
         0.00000E+00
         0.00000E+00
         0.00000E+00
         0.00000E+00
         0.00000E+00
         0.00000E+00
         0.00000E+00
         0.00000E+00
         0.00000E+00
         0.00000E+00
         0.00000E+00
         0.00000E+00
         0.00000E+00
         0.00000E+00
         0.00000E+00
         0.00000E+00
         0.00000E+00
         0.00000E+00
         0.00000E+00
         0.00000E+00
         0.00000E+00
         0.00000E+00
         0.00000E+00
         0.00000E+00
         0.00000E+00
         0.00000E+00
         0.00000E+00
         0.00000E+00
         0.00000E+00
         0.00000E+00
         0.00000E+00
         0.00000E+00
         0.00000E+00
         0.00000E+00
         0.00000E+00
         0.00000E+00
         0.00000E+00
         0.00000E+00
         0.00000E+00
         0.00000E+00
         0.00000E+00
         0.00000E+00
         0.00000E+00
         0.00000E+00
         0.00000E+00
         0.00000E+00
         0.00000E+00
         0.00000E+00
         0.00000E+00
         0.00000E+00
         0.00000E+00
         0.00000E+00
         0.00000E+00
         0.00000E+00
         0.00000E+00
         0.00000E+00
         0.00000E+00
         0.00000E+00
         0.00000E+00
         0.00000E+00
         0.00000E+00
         0.00000E+00
         0.00000E+00
         0.00000E+00
         0.00000E+00
         0.00000E+00
         0.00000E+00
         0.00000E+00
         0.00000E+00
         0.00000E+00
         0.00000E+00
         0.00000E+00
         0.00000E+00
         0.00000E+00
         0.00000E+00
         0.00000E+00
         0.00000E+00
         0.00000E+00
         0.00000E+00
         0.00000E+00
         0.00000E+00
         0.00000E+00
         0.00000E+00
         0.00000E+00
         0.00000E+00
         0.00000E+00
         0.00000E+00
         0.00000E+00
         0.00000E+00
         0.00000E+00
         0.00000E+00
         0.00000E+00
         0.00000E+00
         0.00000E+00
         0.00000E+00
         0.00000E+00
         0.00000E+00
         0.00000E+00
         0.00000E+00
         0.00000E+00
         0.00000E+00
         0.00000E+00
         0.00000E+00
         0.00000E+00
         0.00000E+00
         0.00000E+00
         0.00000E+00
         0.00000E+00
         0.00000E+00
         0.00000E+00
         0.00000E+00
         0.00000E+00
         0.00000E+00
         0.00000E+00
         0.00000E+00
         0.00000E+00
         0.00000E+00
         0.00000E+00
         0.00000E+00
         0.00000E+00
         0.00000E+00
         0.00000E+00
         0.00000E+00
         0.00000E+00
         0.00000E+00
         0.00000E+00
         0.00000E+00
         0.00000E+00
         0.00000E+00
         0.00000E+00
         0.00000E+00
         0.00000E+00
         0.00000E+00
         0.00000E+00
         0.00000E+00
         0.00000E+00
         0.00000E+00
         0.00000E+00
         0.00000E+00
         0.00000E+00
         0.00000E+00
         0.00000E+00
         0.00000E+00
         0.00000E+00
         0.00000E+00
         0.00000E+00
         0.00000E+00
         0.00000E+00
         0.00000E+00
         0.00000E+00
         0.00000E+00
         0.00000E+00
         0.00000E+00
         0.00000E+00
         0.00000E+00
         0.00000E+00
         0.00000E+00
         0.00000E+00
         0.00000E+00
         0.00000E+00
         0.00000E+00
         0.00000E+00
         0.00000E+00
         0.00000E+00
         0.00000E+00
         0.00000E+00
         0.00000E+00
         0.00000E+00
         0.00000E+00
         0.00000E+00
         0.00000E+00
         0.00000E+00
         0.00000E+00
         0.00000E+00
         0.00000E+00
         0.00000E+00
         0.00000E+00
         0.00000E+00
         0.00000E+00
         0.00000E+00
         0.00000E+00
         0.00000E+00
         0.00000E+00
         0.00000E+00
         0.00000E+00
         0.00000E+00
         0.00000E+00
         0.00000E+00
         0.00000E+00
         0.00000E+00
         0.00000E+00
         0.00000E+00
         0.00000E+00
         0.00000E+00
         0.00000E+00
         0.00000E+00
         0.00000E+00
         0.00000E+00
         0.00000E+00
         0.00000E+00
         0.00000E+00
         0.00000E+00
         0.00000E+00
         0.00000E+00
         0.00000E+00
         0.00000E+00
         0.00000E+00
         0.00000E+00
         0.00000E+00
         0.00000E+00
         0.00000E+00
         0.00000E+00
         0.00000E+00
         0.00000E+00
         0.00000E+00
         0.00000E+00
         0.00000E+00
         0.00000E+00
         0.00000E+00
         0.00000E+00
         0.00000E+00
         0.00000E+00
         0.00000E+00
         0.00000E+00
         0.00000E+00
         0.00000E+00
         0.00000E+00
         0.00000E+00
         0.00000E+00
         0.00000E+00
         0.00000E+00
         0.00000E+00
         0.00000E+00
         0.00000E+00
         0.00000E+00
         0.00000E+00
         0.00000E+00
         0.00000E+00
         0.00000E+00
         0.00000E+00
         0.00000E+00
         0.00000E+00
         0.00000E+00
         0.00000E+00
         0.00000E+00
         0.00000E+00
         0.00000E+00
         0.00000E+00
         0.00000E+00
         0.00000E+00
         0.00000E+00
         0.00000E+00
         0.00000E+00
         0.00000E+00
         0.00000E+00
         0.00000E+00
         0.00000E+00
         0.00000E+00
         0.00000E+00
         0.00000E+00
         0.00000E+00
         0.00000E+00
         0.00000E+00
         0.00000E+00
         0.00000E+00
         0.00000E+00
         0.00000E+00
         0.00000E+00
         0.00000E+00
         0.00000E+00
         0.00000E+00
         0.00000E+00
         0.00000E+00
         0.00000E+00
         0.00000E+00
         0.00000E+00
         0.00000E+00
         0.00000E+00
         0.00000E+00
         0.00000E+00
         0.00000E+00
         0.00000E+00
         0.00000E+00
         0.00000E+00
         0.00000E+00
         0.00000E+00
         0.00000E+00
         0.00000E+00
         0.00000E+00
         0.00000E+00
         0.00000E+00
         0.00000E+00
         0.00000E+00
         0.00000E+00
         0.00000E+00
         0.00000E+00
         0.00000E+00
         0.00000E+00
         0.00000E+00
         0.00000E+00
         0.00000E+00
         0.00000E+00
         0.00000E+00
         0.00000E+00
         0.00000E+00
         0.00000E+00
         0.00000E+00
         0.00000E+00
         0.00000E+00
         0.00000E+00
         0.00000E+00
         0.00000E+00
         0.00000E+00
         0.00000E+00
         0.00000E+00
         0.00000E+00
         0.00000E+00
         0.00000E+00
         0.00000E+00
         0.00000E+00
         0.00000E+00
         0.00000E+00
         0.00000E+00
         0.00000E+00
         0.00000E+00
         0.00000E+00
         0.00000E+00
         0.00000E+00
         0.00000E+00
         0.00000E+00
         0.00000E+00
         0.00000E+00
         0.00000E+00
         0.00000E+00
         0.00000E+00
         0.00000E+00
         0.00000E+00
         0.00000E+00
         0.00000E+00
         0.00000E+00
         0.00000E+00
         0.00000E+00
         0.00000E+00
         0.00000E+00
         0.00000E+00
         0.00000E+00
         0.00000E+00
         0.00000E+00
         0.00000E+00
         0.00000E+00
         0.00000E+00
         0.00000E+00
         0.00000E+00
         0.00000E+00
         0.00000E+00
         0.00000E+00
         0.00000E+00
         0.00000E+00
         0.00000E+00
         0.00000E+00
         0.00000E+00
         0.00000E+00
         0.00000E+00
         0.00000E+00
         0.00000E+00
         0.00000E+00
         0.00000E+00
         0.00000E+00
         0.00000E+00
         0.00000E+00
         0.00000E+00
         0.00000E+00
         0.00000E+00
         0.00000E+00
         0.00000E+00
         0.00000E+00
         0.00000E+00
         0.00000E+00
         0.00000E+00
         0.00000E+00
         0.00000E+00
         0.00000E+00
         0.00000E+00
         0.00000E+00
         0.00000E+00
         0.00000E+00
         0.00000E+00
         0.00000E+00
         0.00000E+00
         0.00000E+00
         0.00000E+00
         0.00000E+00
         0.00000E+00
         0.00000E+00
         0.00000E+00
         0.00000E+00
         0.00000E+00
         0.00000E+00
         0.00000E+00
         0.00000E+00
         0.00000E+00
         0.00000E+00
         0.00000E+00
         0.00000E+00
         0.00000E+00
         0.00000E+00
         0.00000E+00
         0.00000E+00
         0.00000E+00
         0.00000E+00
         0.00000E+00
         0.00000E+00
         0.00000E+00
         0.00000E+00
         0.00000E+00
         0.00000E+00
         0.00000E+00
         0.00000E+00
         0.00000E+00
         0.00000E+00
         0.00000E+00
         0.00000E+00
         0.00000E+00
         0.00000E+00
         0.00000E+00
         0.00000E+00
         0.00000E+00
         0.00000E+00
         0.00000E+00
         0.00000E+00
         0.00000E+00
         0.00000E+00
         0.00000E+00
         0.00000E+00
         0.00000E+00
         0.00000E+00
         0.00000E+00
         0.00000E+00
         0.00000E+00
         0.00000E+00
         0.00000E+00
         0.00000E+00
         0.00000E+00
         0.00000E+00
         0.00000E+00
         0.00000E+00
         0.00000E+00
         0.00000E+00
         0.00000E+00
         0.00000E+00
         0.00000E+00
         0.00000E+00
         0.00000E+00
         0.00000E+00
         0.00000E+00
         0.00000E+00
         0.00000E+00
         0.00000E+00
         0.00000E+00
         0.00000E+00
         0.00000E+00
         0.00000E+00
         0.00000E+00
         0.00000E+00
         0.00000E+00
         0.00000E+00
         0.00000E+00
         0.00000E+00
         0.00000E+00
         0.00000E+00
         0.00000E+00
         0.00000E+00
         0.00000E+00
         0.00000E+00
         0.00000E+00
         0.00000E+00
         0.00000E+00
         0.00000E+00
         0.00000E+00
         0.00000E+00
         0.00000E+00
         0.00000E+00
         0.00000E+00
         0.00000E+00
         0.00000E+00
         0.00000E+00
         0.00000E+00
         0.00000E+00
         0.00000E+00
         0.00000E+00
         0.00000E+00
         0.00000E+00
         0.00000E+00
         0.00000E+00
         0.00000E+00
         0.00000E+00
         0.00000E+00
         0.00000E+00
         0.00000E+00
         0.00000E+00
         0.00000E+00
         0.00000E+00
         0.00000E+00
         0.00000E+00
         0.00000E+00
         0.00000E+00
         0.00000E+00
         0.00000E+00
         0.00000E+00
         0.00000E+00
         0.00000E+00
         0.00000E+00
         0.00000E+00
         0.00000E+00
         0.00000E+00
         0.00000E+00
         0.00000E+00
         0.00000E+00
         0.00000E+00
         0.00000E+00
         0.00000E+00
         0.00000E+00
         0.00000E+00
         0.00000E+00
         0.00000E+00
         0.00000E+00
         0.00000E+00
         0.00000E+00
         0.00000E+00
         0.00000E+00
         0.00000E+00
         0.00000E+00
         0.00000E+00
         0.00000E+00
         0.00000E+00
         0.00000E+00
         0.00000E+00
         0.00000E+00
         0.00000E+00
         0.00000E+00
         0.00000E+00
         0.00000E+00
         0.00000E+00
         0.00000E+00
         0.00000E+00
         0.00000E+00
         0.00000E+00
         0.00000E+00
         0.00000E+00
         0.00000E+00
         0.00000E+00
         0.00000E+00
         0.00000E+00
         0.00000E+00
         0.00000E+00
         0.00000E+00
         0.00000E+00
         0.00000E+00
         0.00000E+00
         0.00000E+00
         0.00000E+00
         0.00000E+00
         0.00000E+00
         0.00000E+00
         0.00000E+00
         0.00000E+00
         0.00000E+00
         0.00000E+00
         0.00000E+00
         0.00000E+00
         0.00000E+00
         0.00000E+00
         0.00000E+00
         0.00000E+00
         0.00000E+00
         0.00000E+00
         0.00000E+00
         0.00000E+00
         0.00000E+00
         0.00000E+00
         0.00000E+00
         0.00000E+00
         0.00000E+00
         0.00000E+00
         0.00000E+00
         0.00000E+00
         0.00000E+00
         0.00000E+00
         0.00000E+00
         0.00000E+00
         0.00000E+00
         0.00000E+00
         0.00000E+00
         0.00000E+00
         0.00000E+00
         0.00000E+00
         0.00000E+00
         0.00000E+00
         0.00000E+00
         0.00000E+00
         0.00000E+00
         0.00000E+00
         0.00000E+00
         0.00000E+00
         0.00000E+00
         0.00000E+00
         0.00000E+00
         0.00000E+00
         0.00000E+00
         0.00000E+00
         0.00000E+00
         0.00000E+00
         0.00000E+00
         0.00000E+00
         0.00000E+00
         0.00000E+00
         0.00000E+00
         0.00000E+00
         0.00000E+00
         0.00000E+00
         0.00000E+00
         0.00000E+00
         0.00000E+00
         0.00000E+00
         0.00000E+00
         0.00000E+00
         0.00000E+00
         0.00000E+00
         0.00000E+00
         0.00000E+00
         0.00000E+00
         0.00000E+00
         0.00000E+00
         0.00000E+00
         0.00000E+00
         0.00000E+00
         0.00000E+00
         0.00000E+00
         0.00000E+00
         0.00000E+00
         0.00000E+00
         0.00000E+00
         0.00000E+00
         0.00000E+00
         0.00000E+00
         0.00000E+00
         0.00000E+00
         0.00000E+00
         0.00000E+00
         0.00000E+00
         0.00000E+00
         0.00000E+00
         0.00000E+00
         0.00000E+00
         0.00000E+00
         0.00000E+00
         0.00000E+00
         0.00000E+00
         0.00000E+00
         0.00000E+00
         0.00000E+00
         0.00000E+00
         0.00000E+00
         0.00000E+00
         0.00000E+00
         0.00000E+00
         0.00000E+00
         0.00000E+00
         0.00000E+00
         0.00000E+00
         0.00000E+00
         0.00000E+00
         0.00000E+00
         0.00000E+00
         0.00000E+00
         0.00000E+00
         0.00000E+00
         0.00000E+00
         0.00000E+00
         0.00000E+00
         0.00000E+00
         0.00000E+00
         0.00000E+00
         0.00000E+00
         0.00000E+00
         0.00000E+00
         0.00000E+00
         0.00000E+00
         0.00000E+00
         0.00000E+00
         0.00000E+00
         0.00000E+00
         0.00000E+00
         0.00000E+00
         0.00000E+00
         0.00000E+00
         0.00000E+00
         0.00000E+00
         0.00000E+00
         0.00000E+00
         0.00000E+00
         0.00000E+00
         0.00000E+00
         0.00000E+00
         0.00000E+00
         0.00000E+00
         0.00000E+00
         0.00000E+00
         0.00000E+00
         0.00000E+00
         0.00000E+00
         0.00000E+00
         0.00000E+00
         0.00000E+00
         0.00000E+00
         0.00000E+00
         0.00000E+00
         0.00000E+00
         0.00000E+00
         0.00000E+00
         0.00000E+00
         0.00000E+00
         0.00000E+00
         0.00000E+00
         0.00000E+00
         0.00000E+00
         0.00000E+00
         0.00000E+00
         0.00000E+00
         0.00000E+00
         0.00000E+00
         0.00000E+00
         0.00000E+00
         0.00000E+00
         0.00000E+00
         0.00000E+00
         0.00000E+00
         0.00000E+00
         0.00000E+00
         0.00000E+00
         0.00000E+00
         0.00000E+00
         0.00000E+00
         0.00000E+00
         0.00000E+00
         0.00000E+00
         0.00000E+00
         0.00000E+00
         0.00000E+00
         0.00000E+00
         0.00000E+00
         0.00000E+00
         0.00000E+00
         0.00000E+00
         0.00000E+00
         0.00000E+00
         0.00000E+00
         0.00000E+00
         0.00000E+00
         0.00000E+00
         0.00000E+00
         0.00000E+00
         0.00000E+00
         0.00000E+00
         0.00000E+00
         0.00000E+00
         0.00000E+00
         0.00000E+00
         0.00000E+00
         0.00000E+00
         0.00000E+00
         0.00000E+00
         0.00000E+00
         0.00000E+00
         0.00000E+00
         0.00000E+00
         0.00000E+00
         0.00000E+00
         0.00000E+00
         0.00000E+00
         0.00000E+00
         0.00000E+00
         0.00000E+00
         0.00000E+00
         0.00000E+00
         0.00000E+00
         0.00000E+00
         0.00000E+00
         0.00000E+00
         0.00000E+00
         0.00000E+00
         0.00000E+00
         0.00000E+00
         0.00000E+00
         0.00000E+00
         0.00000E+00
         0.00000E+00
         0.00000E+00
         0.00000E+00
         0.00000E+00
         0.00000E+00
         0.00000E+00
         0.00000E+00
         0.00000E+00
         0.00000E+00
         0.00000E+00
         0.00000E+00
         0.00000E+00
         0.00000E+00
         0.00000E+00
         0.00000E+00
         0.00000E+00
         0.00000E+00
         0.00000E+00
         0.00000E+00
         0.00000E+00
         0.00000E+00
         0.00000E+00
         0.00000E+00
         0.00000E+00
         0.00000E+00
         0.00000E+00
         0.00000E+00
         0.00000E+00
         0.00000E+00
         0.00000E+00
         0.00000E+00
         0.00000E+00
         0.00000E+00
         0.00000E+00
         0.00000E+00
         0.00000E+00
         0.00000E+00
         0.00000E+00
         0.00000E+00
         0.00000E+00
         0.00000E+00
         0.00000E+00
         0.00000E+00
         0.00000E+00
         0.00000E+00
         0.00000E+00
         0.00000E+00
         0.00000E+00
         0.00000E+00
         0.00000E+00
         0.00000E+00
         0.00000E+00
         0.00000E+00
         0.00000E+00
         0.00000E+00
         0.00000E+00
         0.00000E+00
         0.00000E+00
         0.00000E+00
         0.00000E+00
         0.00000E+00
         0.00000E+00
         0.00000E+00
         0.00000E+00
         0.00000E+00
         0.00000E+00
         0.00000E+00
         0.00000E+00
         0.00000E+00
         0.00000E+00
         0.00000E+00
         0.00000E+00
         0.00000E+00
         0.00000E+00
         0.00000E+00
         0.00000E+00
         0.00000E+00
         0.00000E+00
         0.00000E+00
         0.00000E+00
         0.00000E+00
         0.00000E+00
         0.00000E+00
         0.00000E+00
         0.00000E+00
         0.00000E+00
         0.00000E+00
         0.00000E+00
         0.00000E+00
         0.00000E+00
         0.00000E+00
         0.00000E+00
         0.00000E+00
         0.00000E+00
         0.00000E+00
         0.00000E+00
         0.00000E+00
         0.00000E+00
         0.00000E+00
         0.00000E+00
         0.00000E+00
         0.00000E+00
         0.00000E+00
         0.00000E+00
         0.00000E+00
         0.00000E+00
         0.00000E+00
         0.00000E+00
         0.00000E+00
         0.00000E+00
         0.00000E+00
         0.00000E+00
         0.00000E+00
         0.00000E+00
         0.00000E+00
         0.00000E+00
         0.00000E+00
         0.00000E+00
         0.00000E+00
         0.00000E+00
         0.00000E+00
         0.00000E+00
         0.00000E+00
         0.00000E+00
         0.00000E+00
         0.00000E+00
         0.00000E+00
         0.00000E+00
         0.00000E+00
         0.00000E+00
         0.00000E+00
         0.00000E+00
         0.00000E+00
         0.00000E+00
         0.00000E+00
         0.00000E+00
         0.00000E+00
         0.00000E+00
         0.00000E+00
         0.00000E+00
         0.00000E+00
         0.00000E+00
         0.00000E+00
         0.00000E+00
         0.00000E+00
         0.00000E+00
         0.00000E+00
         0.00000E+00
         0.00000E+00
         0.00000E+00
         0.00000E+00
         0.00000E+00
         0.00000E+00
         0.00000E+00
         0.00000E+00
         0.00000E+00
         0.00000E+00
         0.00000E+00
         0.00000E+00
         0.00000E+00
         0.00000E+00
         0.00000E+00
         0.00000E+00
         0.00000E+00
         0.00000E+00
         0.00000E+00
         0.00000E+00
         0.00000E+00
         0.00000E+00
         0.00000E+00
         0.00000E+00
         0.00000E+00
         0.00000E+00
         0.00000E+00
         0.00000E+00
         0.00000E+00
         0.00000E+00
         0.00000E+00
         0.00000E+00
         0.00000E+00
         0.00000E+00
         0.00000E+00
         0.00000E+00
         0.00000E+00
         0.00000E+00
         0.00000E+00
         0.00000E+00
         0.00000E+00
         0.00000E+00
         0.00000E+00
         0.00000E+00
         0.00000E+00
         0.00000E+00
         0.00000E+00
         0.00000E+00
         0.00000E+00
         0.00000E+00
         0.00000E+00
         0.00000E+00
         0.00000E+00
         0.00000E+00
         0.00000E+00
         0.00000E+00
         0.00000E+00
         0.00000E+00
         0.00000E+00
         0.00000E+00
         0.00000E+00
         0.00000E+00
         0.00000E+00
         0.00000E+00
         0.00000E+00
         0.00000E+00
         0.00000E+00
         0.00000E+00
         0.00000E+00
         0.00000E+00
         0.00000E+00
         0.00000E+00
         0.00000E+00
         0.00000E+00
         0.00000E+00
         0.00000E+00
         0.00000E+00
         0.00000E+00
         0.00000E+00
         0.00000E+00
         0.00000E+00
         0.00000E+00
         0.00000E+00
         0.00000E+00
         0.00000E+00
         0.00000E+00
         0.00000E+00
         0.00000E+00
         0.00000E+00
         0.00000E+00
         0.00000E+00
         0.00000E+00
         0.00000E+00
         0.00000E+00
         0.00000E+00
         0.00000E+00
         0.00000E+00
         0.00000E+00
         0.00000E+00
         0.00000E+00
         0.00000E+00
         0.00000E+00
         0.00000E+00
         0.00000E+00
         0.00000E+00
         0.00000E+00
         0.00000E+00
         0.00000E+00
         0.00000E+00
         0.00000E+00
         0.00000E+00
         0.00000E+00
         0.00000E+00
         0.00000E+00
         0.00000E+00
         0.00000E+00
         0.00000E+00
         0.00000E+00
         0.00000E+00
         0.00000E+00
         0.00000E+00
         0.00000E+00
         0.00000E+00
         0.00000E+00
         0.00000E+00
         0.00000E+00
         0.00000E+00
         0.00000E+00
         0.00000E+00
         0.00000E+00
         0.00000E+00
         0.00000E+00
         0.00000E+00
         0.00000E+00
         0.00000E+00
         0.00000E+00
         0.00000E+00
         0.00000E+00
         0.00000E+00
         0.00000E+00
         0.00000E+00
         0.00000E+00
         0.00000E+00
         0.00000E+00
         0.00000E+00
         0.00000E+00
         0.00000E+00
         0.00000E+00
         0.00000E+00
         0.00000E+00
         0.00000E+00
         0.00000E+00
         0.00000E+00
         0.00000E+00
         0.00000E+00
         0.00000E+00
         0.00000E+00
         0.00000E+00
         0.00000E+00
         0.00000E+00
         0.00000E+00
         0.00000E+00
         0.00000E+00
         0.00000E+00
         0.00000E+00
         0.00000E+00
         0.00000E+00
         0.00000E+00
         0.00000E+00
         0.00000E+00
         0.00000E+00
         0.00000E+00
         0.00000E+00
         0.00000E+00
         0.00000E+00
         0.00000E+00
         0.00000E+00
         0.00000E+00
         0.00000E+00
         0.00000E+00
         0.00000E+00
         0.00000E+00
         0.00000E+00
         0.00000E+00
         0.00000E+00
         0.00000E+00
         0.00000E+00
         0.00000E+00
         0.00000E+00
         0.00000E+00
         0.00000E+00
         0.00000E+00
         0.00000E+00
         0.00000E+00
         0.00000E+00
         0.00000E+00
         0.00000E+00
         0.00000E+00
         0.00000E+00
         0.00000E+00
         0.00000E+00
         0.00000E+00
         0.00000E+00
         0.00000E+00
         0.00000E+00
         0.00000E+00
         0.00000E+00
         0.00000E+00
         0.00000E+00
         0.00000E+00
         0.00000E+00
         0.00000E+00
         0.00000E+00
         0.00000E+00
         0.00000E+00
         0.00000E+00
         0.00000E+00
         0.00000E+00
         0.00000E+00
         0.00000E+00
         0.00000E+00
         0.00000E+00
         0.00000E+00
         0.00000E+00
         0.00000E+00
         0.00000E+00
         0.00000E+00
         0.00000E+00
         0.00000E+00
         0.00000E+00
         0.00000E+00
         0.00000E+00
         0.00000E+00
         0.00000E+00
         0.00000E+00
         0.00000E+00
         0.00000E+00
         0.00000E+00
         0.00000E+00
         0.00000E+00
         0.00000E+00
         0.00000E+00
         0.00000E+00
         0.00000E+00
         0.00000E+00
         0.00000E+00
         0.00000E+00
         0.00000E+00
         0.00000E+00
         0.00000E+00
         0.00000E+00
         0.00000E+00
         0.00000E+00
         0.00000E+00
         0.00000E+00
         0.00000E+00
         0.00000E+00
         0.00000E+00
         0.00000E+00
         0.00000E+00
         0.00000E+00
         0.00000E+00
         0.00000E+00
         0.00000E+00
         0.00000E+00
         0.00000E+00
         0.00000E+00
         0.00000E+00
         0.00000E+00
         0.00000E+00
         0.00000E+00
         0.00000E+00
         0.00000E+00
         0.00000E+00
         0.00000E+00
         0.00000E+00
         0.00000E+00
         0.00000E+00
         0.00000E+00
         0.00000E+00
         0.00000E+00
         0.00000E+00
         0.00000E+00
         0.00000E+00
         0.00000E+00
         0.00000E+00
         0.00000E+00
         0.00000E+00
         0.00000E+00
         0.00000E+00
         0.00000E+00
         0.00000E+00
         0.00000E+00
         0.00000E+00
         0.00000E+00
         0.00000E+00
         0.00000E+00
         0.00000E+00
         0.00000E+00
         0.00000E+00
         0.00000E+00
         0.00000E+00
         0.00000E+00
         0.00000E+00
         0.00000E+00
         0.00000E+00
         0.00000E+00
         0.00000E+00
         0.00000E+00
         0.00000E+00
         0.00000E+00
         0.00000E+00
         0.00000E+00
         0.00000E+00
         0.00000E+00
         0.00000E+00
         0.00000E+00
         0.00000E+00
         0.00000E+00
         0.00000E+00
         0.00000E+00
         0.00000E+00
         0.00000E+00
         0.00000E+00
         0.00000E+00
         0.00000E+00
         0.00000E+00
         0.00000E+00
         0.00000E+00
         0.00000E+00
         0.00000E+00
         0.00000E+00
         0.00000E+00
         0.00000E+00
         0.00000E+00
         0.00000E+00
         0.00000E+00
         0.00000E+00
         0.00000E+00
         0.00000E+00
         0.00000E+00
         0.00000E+00
         0.00000E+00
         0.00000E+00
         0.00000E+00
         0.00000E+00
         0.00000E+00
         0.00000E+00
         0.00000E+00
         0.00000E+00
         0.00000E+00
         0.00000E+00
         0.00000E+00
         0.00000E+00
         0.00000E+00
         0.00000E+00
         0.00000E+00
         0.00000E+00
         0.00000E+00
         0.00000E+00
         0.00000E+00
         0.00000E+00
         0.00000E+00
         0.00000E+00
         0.00000E+00
         0.00000E+00
         0.00000E+00
         0.00000E+00
         0.00000E+00
         0.00000E+00
         0.00000E+00
         0.00000E+00
         0.00000E+00
         0.00000E+00
         0.00000E+00
         0.00000E+00
         0.00000E+00
         0.00000E+00
         0.00000E+00
         0.00000E+00
         0.00000E+00
         0.00000E+00
         0.00000E+00
         0.00000E+00
         0.00000E+00
         0.00000E+00
         0.00000E+00
         0.00000E+00
         0.00000E+00
         0.00000E+00
         0.00000E+00
         0.00000E+00
         0.00000E+00
         0.00000E+00
         0.00000E+00
         0.00000E+00
         0.00000E+00
         0.00000E+00
         0.00000E+00
         0.00000E+00
         0.00000E+00
         0.00000E+00
         0.00000E+00
         0.00000E+00
         0.00000E+00
         0.00000E+00
         0.00000E+00
         0.00000E+00
         0.00000E+00
         0.00000E+00
         0.00000E+00
         0.00000E+00
         0.00000E+00
         0.00000E+00
         0.00000E+00
         0.00000E+00
         0.00000E+00
         0.00000E+00
         0.00000E+00
         0.00000E+00
         0.00000E+00
         0.00000E+00
         0.00000E+00
         0.00000E+00
         0.00000E+00
         0.00000E+00
         0.00000E+00
         0.00000E+00
         0.00000E+00
         0.00000E+00
         0.00000E+00
         0.00000E+00
         0.00000E+00
         0.00000E+00
         0.00000E+00
         0.00000E+00
         0.00000E+00
         0.00000E+00
         0.00000E+00
         0.00000E+00
         0.00000E+00
         0.00000E+00
         0.00000E+00
         0.00000E+00
         0.00000E+00
         0.00000E+00
         0.00000E+00
         0.00000E+00
         0.00000E+00
         0.00000E+00
         0.00000E+00
         0.00000E+00
         0.00000E+00
         0.00000E+00
         0.00000E+00
         0.00000E+00
         0.00000E+00
         0.00000E+00
         0.00000E+00
         0.00000E+00
         0.00000E+00
         0.00000E+00
         0.00000E+00
         0.00000E+00
         0.00000E+00
         0.00000E+00
         0.00000E+00
         0.00000E+00
         0.00000E+00
         0.00000E+00
         0.00000E+00
         0.00000E+00
         0.00000E+00
         0.00000E+00
         0.00000E+00
         0.00000E+00
         0.00000E+00
         0.00000E+00
         0.00000E+00
         0.00000E+00
         0.00000E+00
         0.00000E+00
         0.00000E+00
         0.00000E+00
         0.00000E+00
         0.00000E+00
         0.00000E+00
         0.00000E+00
         0.00000E+00
         0.00000E+00
         0.00000E+00
         0.00000E+00
         0.00000E+00
         0.00000E+00
         0.00000E+00
         0.00000E+00
         0.00000E+00
         0.00000E+00
         0.00000E+00
         0.00000E+00
         0.00000E+00
         0.00000E+00
         0.00000E+00
         0.00000E+00
         0.00000E+00
         0.00000E+00
         0.00000E+00
         0.00000E+00
         0.00000E+00
         0.00000E+00
         0.00000E+00
         0.00000E+00
         0.00000E+00
         0.00000E+00
         0.00000E+00
         0.00000E+00
         0.00000E+00
         0.00000E+00
         0.00000E+00
         0.00000E+00
         0.00000E+00
         0.00000E+00
         0.00000E+00
         0.00000E+00
         0.00000E+00
         0.00000E+00
         0.00000E+00
         0.00000E+00
         0.00000E+00
         0.00000E+00
         0.00000E+00
         0.00000E+00
         0.00000E+00
         0.00000E+00
         0.00000E+00
         0.00000E+00
         0.00000E+00
         0.00000E+00
         0.00000E+00
         0.00000E+00
         0.00000E+00
         0.00000E+00
         0.00000E+00
         0.00000E+00
         0.00000E+00
         0.00000E+00
         0.00000E+00
         0.00000E+00
         0.00000E+00
         0.00000E+00
         0.00000E+00
         0.00000E+00
         0.00000E+00
         0.00000E+00
         0.00000E+00
         0.00000E+00
         0.00000E+00
         0.00000E+00
         0.00000E+00
         0.00000E+00
         0.00000E+00
         0.00000E+00
         0.00000E+00
         0.00000E+00
         0.00000E+00
         0.00000E+00
         0.00000E+00
         0.00000E+00
         0.00000E+00
         0.00000E+00
         0.00000E+00
         0.00000E+00
         0.00000E+00
         0.00000E+00
         0.00000E+00
         0.00000E+00
         0.00000E+00
         0.00000E+00
         0.00000E+00
         0.00000E+00
         0.00000E+00
         0.00000E+00
         0.00000E+00
         0.00000E+00
         0.00000E+00
         0.00000E+00
         0.00000E+00
         0.00000E+00
         0.00000E+00
         0.00000E+00
         0.00000E+00
         0.00000E+00
         0.00000E+00
         0.00000E+00
         0.00000E+00
         0.00000E+00
         0.00000E+00
         0.00000E+00
         0.00000E+00
         0.00000E+00
         0.00000E+00
         0.00000E+00
         0.00000E+00
         0.00000E+00
         0.00000E+00
         0.00000E+00
         0.00000E+00
         0.00000E+00
         0.00000E+00
         0.00000E+00
         0.00000E+00
         0.00000E+00
         0.00000E+00
         0.00000E+00
         0.00000E+00
         0.00000E+00
         0.00000E+00
         0.00000E+00
         0.00000E+00
         0.00000E+00
         0.00000E+00
         0.00000E+00
         0.00000E+00
         0.00000E+00
         0.00000E+00
         0.00000E+00
         0.00000E+00
         0.00000E+00
         0.00000E+00
         0.00000E+00
         0.00000E+00
         0.00000E+00
         0.00000E+00
         0.00000E+00
         0.00000E+00
         0.00000E+00
         0.00000E+00
         0.00000E+00
         0.00000E+00
         0.00000E+00
         0.00000E+00
         0.00000E+00
         0.00000E+00
         0.00000E+00
         0.00000E+00
         0.00000E+00
         0.00000E+00
         0.00000E+00
         0.00000E+00
         0.00000E+00
         0.00000E+00
         0.00000E+00
         0.00000E+00
         0.00000E+00
         0.00000E+00
         0.00000E+00
         0.00000E+00
         0.00000E+00
         0.00000E+00
         0.00000E+00
         0.00000E+00
         0.00000E+00
         0.00000E+00
         0.00000E+00
         0.00000E+00
         0.00000E+00
         0.00000E+00
         0.00000E+00
         0.00000E+00
         0.00000E+00
         0.00000E+00
         0.00000E+00
         0.00000E+00
         0.00000E+00
         0.00000E+00
         0.00000E+00
         0.00000E+00
         0.00000E+00
         0.00000E+00
         0.00000E+00
         0.00000E+00
         0.00000E+00
         0.00000E+00
         0.00000E+00
         0.00000E+00
         0.00000E+00
         0.00000E+00
         0.00000E+00
         0.00000E+00
         0.00000E+00
         0.00000E+00
         0.00000E+00
         0.00000E+00
         0.00000E+00
         0.00000E+00
         0.00000E+00
         0.00000E+00
         0.00000E+00
         0.00000E+00
         0.00000E+00
         0.00000E+00
         0.00000E+00
         0.00000E+00
         0.00000E+00
         0.00000E+00
         0.00000E+00
         0.00000E+00
         0.00000E+00
         0.00000E+00
         0.00000E+00
         0.00000E+00
         0.00000E+00
         0.00000E+00
         0.00000E+00
         0.00000E+00
         0.00000E+00
         0.00000E+00
         0.00000E+00
         0.00000E+00
         0.00000E+00
         0.00000E+00
         0.00000E+00
         0.00000E+00
         0.00000E+00
         0.00000E+00
         0.00000E+00
         0.00000E+00
         0.00000E+00
         0.00000E+00
         0.00000E+00
         0.00000E+00
         0.00000E+00
         0.00000E+00
         0.00000E+00
         0.00000E+00
         0.00000E+00
         0.00000E+00
         0.00000E+00
         0.00000E+00
         0.00000E+00
         0.00000E+00
         0.00000E+00
         0.00000E+00
         0.00000E+00
         0.00000E+00
         0.00000E+00
         0.00000E+00
         0.00000E+00
         0.00000E+00
         0.00000E+00
         0.00000E+00
         0.00000E+00
         0.00000E+00
         0.00000E+00
         0.00000E+00
         0.00000E+00
         0.00000E+00
         0.00000E+00
         0.00000E+00
         0.00000E+00
         0.00000E+00
         0.00000E+00
         0.00000E+00
         0.00000E+00
         0.00000E+00
         0.00000E+00
         0.00000E+00
         0.00000E+00
         0.00000E+00
         0.00000E+00
         0.00000E+00
         0.00000E+00
         0.00000E+00
         0.00000E+00
         0.00000E+00
         0.00000E+00
         0.00000E+00
         0.00000E+00
         0.00000E+00
         0.00000E+00
         0.00000E+00
         0.00000E+00
         0.00000E+00
         0.00000E+00
         0.00000E+00
         0.00000E+00
         0.00000E+00
         0.00000E+00
         0.00000E+00
  
SCALARS                     velocity_y  double 1
LOOKUP_TABLE default
         0.00000E+00
         0.00000E+00
         0.00000E+00
         0.00000E+00
         0.00000E+00
         0.00000E+00
         0.00000E+00
         0.00000E+00
         0.00000E+00
         0.00000E+00
         0.00000E+00
         0.00000E+00
         0.00000E+00
         0.00000E+00
         0.00000E+00
         0.00000E+00
         0.00000E+00
         0.00000E+00
         0.00000E+00
         0.00000E+00
         0.00000E+00
         0.00000E+00
         0.00000E+00
         0.00000E+00
         0.00000E+00
         0.00000E+00
         0.00000E+00
         0.00000E+00
         0.00000E+00
         0.00000E+00
         0.00000E+00
         0.00000E+00
         0.00000E+00
         0.00000E+00
         0.00000E+00
         0.00000E+00
         0.00000E+00
         0.00000E+00
         0.00000E+00
         0.00000E+00
         0.00000E+00
         0.00000E+00
         0.00000E+00
         0.00000E+00
         0.00000E+00
         0.00000E+00
         0.00000E+00
         0.00000E+00
         0.00000E+00
         0.00000E+00
         0.00000E+00
         0.00000E+00
         0.00000E+00
         0.00000E+00
         0.00000E+00
         0.00000E+00
         0.00000E+00
         0.00000E+00
         0.00000E+00
         0.00000E+00
         0.00000E+00
         0.00000E+00
         0.00000E+00
         0.00000E+00
         0.00000E+00
         0.00000E+00
         0.00000E+00
         0.00000E+00
         0.00000E+00
         0.00000E+00
         0.00000E+00
         0.00000E+00
         0.00000E+00
         0.00000E+00
         0.00000E+00
         0.00000E+00
         0.00000E+00
         0.00000E+00
         0.00000E+00
         0.00000E+00
         0.00000E+00
         0.00000E+00
         0.00000E+00
         0.00000E+00
         0.00000E+00
         0.00000E+00
         0.00000E+00
         0.00000E+00
         0.00000E+00
         0.00000E+00
         0.00000E+00
         0.00000E+00
         0.00000E+00
         0.00000E+00
         0.00000E+00
         0.00000E+00
         0.00000E+00
         0.00000E+00
         0.00000E+00
         0.00000E+00
         0.00000E+00
         0.00000E+00
         0.00000E+00
         0.00000E+00
         0.00000E+00
         0.00000E+00
         0.00000E+00
         0.00000E+00
         0.00000E+00
         0.00000E+00
         0.00000E+00
         0.00000E+00
         0.00000E+00
         0.00000E+00
         0.00000E+00
         0.00000E+00
         0.00000E+00
         0.00000E+00
         0.00000E+00
         0.00000E+00
         0.00000E+00
         0.00000E+00
         0.00000E+00
         0.00000E+00
         0.00000E+00
         0.00000E+00
         0.00000E+00
         0.00000E+00
         0.00000E+00
         0.00000E+00
         0.00000E+00
         0.00000E+00
         0.00000E+00
         0.00000E+00
         0.00000E+00
         0.00000E+00
         0.00000E+00
         0.00000E+00
         0.00000E+00
         0.00000E+00
         0.00000E+00
         0.00000E+00
         0.00000E+00
         0.00000E+00
         0.00000E+00
         0.00000E+00
         0.00000E+00
         0.00000E+00
         0.00000E+00
         0.00000E+00
         0.00000E+00
         0.00000E+00
         0.00000E+00
         0.00000E+00
         0.00000E+00
         0.00000E+00
         0.00000E+00
         0.00000E+00
         0.00000E+00
         0.00000E+00
         0.00000E+00
         0.00000E+00
         0.00000E+00
         0.00000E+00
         0.00000E+00
         0.00000E+00
         0.00000E+00
         0.00000E+00
         0.00000E+00
         0.00000E+00
         0.00000E+00
         0.00000E+00
         0.00000E+00
         0.00000E+00
         0.00000E+00
         0.00000E+00
         0.00000E+00
         0.00000E+00
         0.00000E+00
         0.00000E+00
         0.00000E+00
         0.00000E+00
         0.00000E+00
         0.00000E+00
         0.00000E+00
         0.00000E+00
         0.00000E+00
         0.00000E+00
         0.00000E+00
         0.00000E+00
         0.00000E+00
         0.00000E+00
         0.00000E+00
         0.00000E+00
         0.00000E+00
         0.00000E+00
         0.00000E+00
         0.00000E+00
         0.00000E+00
         0.00000E+00
         0.00000E+00
         0.00000E+00
         0.00000E+00
         0.00000E+00
         0.00000E+00
         0.00000E+00
         0.00000E+00
         0.00000E+00
         0.00000E+00
         0.00000E+00
         0.00000E+00
         0.00000E+00
         0.00000E+00
         0.00000E+00
         0.00000E+00
         0.00000E+00
         0.00000E+00
         0.00000E+00
         0.00000E+00
         0.00000E+00
         0.00000E+00
         0.00000E+00
         0.00000E+00
         0.00000E+00
         0.00000E+00
         0.00000E+00
         0.00000E+00
         0.00000E+00
         0.00000E+00
         0.00000E+00
         0.00000E+00
         0.00000E+00
         0.00000E+00
         0.00000E+00
         0.00000E+00
         0.00000E+00
         0.00000E+00
         0.00000E+00
         0.00000E+00
         0.00000E+00
         0.00000E+00
         0.00000E+00
         0.00000E+00
         0.00000E+00
         0.00000E+00
         0.00000E+00
         0.00000E+00
         0.00000E+00
         0.00000E+00
         0.00000E+00
         0.00000E+00
         0.00000E+00
         0.00000E+00
         0.00000E+00
         0.00000E+00
         0.00000E+00
         0.00000E+00
         0.00000E+00
         0.00000E+00
         0.00000E+00
         0.00000E+00
         0.00000E+00
         0.00000E+00
         0.00000E+00
         0.00000E+00
         0.00000E+00
         0.00000E+00
         0.00000E+00
         0.00000E+00
         0.00000E+00
         0.00000E+00
         0.00000E+00
         0.00000E+00
         0.00000E+00
         0.00000E+00
         0.00000E+00
         0.00000E+00
         0.00000E+00
         0.00000E+00
         0.00000E+00
         0.00000E+00
         0.00000E+00
         0.00000E+00
         0.00000E+00
         0.00000E+00
         0.00000E+00
         0.00000E+00
         0.00000E+00
         0.00000E+00
         0.00000E+00
         0.00000E+00
         0.00000E+00
         0.00000E+00
         0.00000E+00
         0.00000E+00
         0.00000E+00
         0.00000E+00
         0.00000E+00
         0.00000E+00
         0.00000E+00
         0.00000E+00
         0.00000E+00
         0.00000E+00
         0.00000E+00
         0.00000E+00
         0.00000E+00
         0.00000E+00
         0.00000E+00
         0.00000E+00
         0.00000E+00
         0.00000E+00
         0.00000E+00
         0.00000E+00
         0.00000E+00
         0.00000E+00
         0.00000E+00
         0.00000E+00
         0.00000E+00
         0.00000E+00
         0.00000E+00
         0.00000E+00
         0.00000E+00
         0.00000E+00
         0.00000E+00
         0.00000E+00
         0.00000E+00
         0.00000E+00
         0.00000E+00
         0.00000E+00
         0.00000E+00
         0.00000E+00
         0.00000E+00
         0.00000E+00
         0.00000E+00
         0.00000E+00
         0.00000E+00
         0.00000E+00
         0.00000E+00
         0.00000E+00
         0.00000E+00
         0.00000E+00
         0.00000E+00
         0.00000E+00
         0.00000E+00
         0.00000E+00
         0.00000E+00
         0.00000E+00
         0.00000E+00
         0.00000E+00
         0.00000E+00
         0.00000E+00
         0.00000E+00
         0.00000E+00
         0.00000E+00
         0.00000E+00
         0.00000E+00
         0.00000E+00
         0.00000E+00
         0.00000E+00
         0.00000E+00
         0.00000E+00
         0.00000E+00
         0.00000E+00
         0.00000E+00
         0.00000E+00
         0.00000E+00
         0.00000E+00
         0.00000E+00
         0.00000E+00
         0.00000E+00
         0.00000E+00
         0.00000E+00
         0.00000E+00
         0.00000E+00
         0.00000E+00
         0.00000E+00
         0.00000E+00
         0.00000E+00
         0.00000E+00
         0.00000E+00
         0.00000E+00
         0.00000E+00
         0.00000E+00
         0.00000E+00
         0.00000E+00
         0.00000E+00
         0.00000E+00
         0.00000E+00
         0.00000E+00
         0.00000E+00
         0.00000E+00
         0.00000E+00
         0.00000E+00
         0.00000E+00
         0.00000E+00
         0.00000E+00
         0.00000E+00
         0.00000E+00
         0.00000E+00
         0.00000E+00
         0.00000E+00
         0.00000E+00
         0.00000E+00
         0.00000E+00
         0.00000E+00
         0.00000E+00
         0.00000E+00
         0.00000E+00
         0.00000E+00
         0.00000E+00
         0.00000E+00
         0.00000E+00
         0.00000E+00
         0.00000E+00
         0.00000E+00
         0.00000E+00
         0.00000E+00
         0.00000E+00
         0.00000E+00
         0.00000E+00
         0.00000E+00
         0.00000E+00
         0.00000E+00
         0.00000E+00
         0.00000E+00
         0.00000E+00
         0.00000E+00
         0.00000E+00
         0.00000E+00
         0.00000E+00
         0.00000E+00
         0.00000E+00
         0.00000E+00
         0.00000E+00
         0.00000E+00
         0.00000E+00
         0.00000E+00
         0.00000E+00
         0.00000E+00
         0.00000E+00
         0.00000E+00
         0.00000E+00
         0.00000E+00
         0.00000E+00
         0.00000E+00
         0.00000E+00
         0.00000E+00
         0.00000E+00
         0.00000E+00
         0.00000E+00
         0.00000E+00
         0.00000E+00
         0.00000E+00
         0.00000E+00
         0.00000E+00
         0.00000E+00
         0.00000E+00
         0.00000E+00
         0.00000E+00
         0.00000E+00
         0.00000E+00
         0.00000E+00
         0.00000E+00
         0.00000E+00
         0.00000E+00
         0.00000E+00
         0.00000E+00
         0.00000E+00
         0.00000E+00
         0.00000E+00
         0.00000E+00
         0.00000E+00
         0.00000E+00
         0.00000E+00
         0.00000E+00
         0.00000E+00
         0.00000E+00
         0.00000E+00
         0.00000E+00
         0.00000E+00
         0.00000E+00
         0.00000E+00
         0.00000E+00
         0.00000E+00
         0.00000E+00
         0.00000E+00
         0.00000E+00
         0.00000E+00
         0.00000E+00
         0.00000E+00
         0.00000E+00
         0.00000E+00
         0.00000E+00
         0.00000E+00
         0.00000E+00
         0.00000E+00
         0.00000E+00
         0.00000E+00
         0.00000E+00
         0.00000E+00
         0.00000E+00
         0.00000E+00
         0.00000E+00
         0.00000E+00
         0.00000E+00
         0.00000E+00
         0.00000E+00
         0.00000E+00
         0.00000E+00
         0.00000E+00
         0.00000E+00
         0.00000E+00
         0.00000E+00
         0.00000E+00
         0.00000E+00
         0.00000E+00
         0.00000E+00
         0.00000E+00
         0.00000E+00
         0.00000E+00
         0.00000E+00
         0.00000E+00
         0.00000E+00
         0.00000E+00
         0.00000E+00
         0.00000E+00
         0.00000E+00
         0.00000E+00
         0.00000E+00
         0.00000E+00
         0.00000E+00
         0.00000E+00
         0.00000E+00
         0.00000E+00
         0.00000E+00
         0.00000E+00
         0.00000E+00
         0.00000E+00
         0.00000E+00
         0.00000E+00
         0.00000E+00
         0.00000E+00
         0.00000E+00
         0.00000E+00
         0.00000E+00
         0.00000E+00
         0.00000E+00
         0.00000E+00
         0.00000E+00
         0.00000E+00
         0.00000E+00
         0.00000E+00
         0.00000E+00
         0.00000E+00
         0.00000E+00
         0.00000E+00
         0.00000E+00
         0.00000E+00
         0.00000E+00
         0.00000E+00
         0.00000E+00
         0.00000E+00
         0.00000E+00
         0.00000E+00
         0.00000E+00
         0.00000E+00
         0.00000E+00
         0.00000E+00
         0.00000E+00
         0.00000E+00
         0.00000E+00
         0.00000E+00
         0.00000E+00
         0.00000E+00
         0.00000E+00
         0.00000E+00
         0.00000E+00
         0.00000E+00
         0.00000E+00
         0.00000E+00
         0.00000E+00
         0.00000E+00
         0.00000E+00
         0.00000E+00
         0.00000E+00
         0.00000E+00
         0.00000E+00
         0.00000E+00
         0.00000E+00
         0.00000E+00
         0.00000E+00
         0.00000E+00
         0.00000E+00
         0.00000E+00
         0.00000E+00
         0.00000E+00
         0.00000E+00
         0.00000E+00
         0.00000E+00
         0.00000E+00
         0.00000E+00
         0.00000E+00
         0.00000E+00
         0.00000E+00
         0.00000E+00
         0.00000E+00
         0.00000E+00
         0.00000E+00
         0.00000E+00
         0.00000E+00
         0.00000E+00
         0.00000E+00
         0.00000E+00
         0.00000E+00
         0.00000E+00
         0.00000E+00
         0.00000E+00
         0.00000E+00
         0.00000E+00
         0.00000E+00
         0.00000E+00
         0.00000E+00
         0.00000E+00
         0.00000E+00
         0.00000E+00
         0.00000E+00
         0.00000E+00
         0.00000E+00
         0.00000E+00
         0.00000E+00
         0.00000E+00
         0.00000E+00
         0.00000E+00
         0.00000E+00
         0.00000E+00
         0.00000E+00
         0.00000E+00
         0.00000E+00
         0.00000E+00
         0.00000E+00
         0.00000E+00
         0.00000E+00
         0.00000E+00
         0.00000E+00
         0.00000E+00
         0.00000E+00
         0.00000E+00
         0.00000E+00
         0.00000E+00
         0.00000E+00
         0.00000E+00
         0.00000E+00
         0.00000E+00
         0.00000E+00
         0.00000E+00
         0.00000E+00
         0.00000E+00
         0.00000E+00
         0.00000E+00
         0.00000E+00
         0.00000E+00
         0.00000E+00
         0.00000E+00
         0.00000E+00
         0.00000E+00
         0.00000E+00
         0.00000E+00
         0.00000E+00
         0.00000E+00
         0.00000E+00
         0.00000E+00
         0.00000E+00
         0.00000E+00
         0.00000E+00
         0.00000E+00
         0.00000E+00
         0.00000E+00
         0.00000E+00
         0.00000E+00
         0.00000E+00
         0.00000E+00
         0.00000E+00
         0.00000E+00
         0.00000E+00
         0.00000E+00
         0.00000E+00
         0.00000E+00
         0.00000E+00
         0.00000E+00
         0.00000E+00
         0.00000E+00
         0.00000E+00
         0.00000E+00
         0.00000E+00
         0.00000E+00
         0.00000E+00
         0.00000E+00
         0.00000E+00
         0.00000E+00
         0.00000E+00
         0.00000E+00
         0.00000E+00
         0.00000E+00
         0.00000E+00
         0.00000E+00
         0.00000E+00
         0.00000E+00
         0.00000E+00
         0.00000E+00
         0.00000E+00
         0.00000E+00
         0.00000E+00
         0.00000E+00
         0.00000E+00
         0.00000E+00
         0.00000E+00
         0.00000E+00
         0.00000E+00
         0.00000E+00
         0.00000E+00
         0.00000E+00
         0.00000E+00
         0.00000E+00
         0.00000E+00
         0.00000E+00
         0.00000E+00
         0.00000E+00
         0.00000E+00
         0.00000E+00
         0.00000E+00
         0.00000E+00
         0.00000E+00
         0.00000E+00
         0.00000E+00
         0.00000E+00
         0.00000E+00
         0.00000E+00
         0.00000E+00
         0.00000E+00
         0.00000E+00
         0.00000E+00
         0.00000E+00
         0.00000E+00
         0.00000E+00
         0.00000E+00
         0.00000E+00
         0.00000E+00
         0.00000E+00
         0.00000E+00
         0.00000E+00
         0.00000E+00
         0.00000E+00
         0.00000E+00
         0.00000E+00
         0.00000E+00
         0.00000E+00
         0.00000E+00
         0.00000E+00
         0.00000E+00
         0.00000E+00
         0.00000E+00
         0.00000E+00
         0.00000E+00
         0.00000E+00
         0.00000E+00
         0.00000E+00
         0.00000E+00
         0.00000E+00
         0.00000E+00
         0.00000E+00
         0.00000E+00
         0.00000E+00
         0.00000E+00
         0.00000E+00
         0.00000E+00
         0.00000E+00
         0.00000E+00
         0.00000E+00
         0.00000E+00
         0.00000E+00
         0.00000E+00
         0.00000E+00
         0.00000E+00
         0.00000E+00
         0.00000E+00
         0.00000E+00
         0.00000E+00
         0.00000E+00
         0.00000E+00
         0.00000E+00
         0.00000E+00
         0.00000E+00
         0.00000E+00
         0.00000E+00
         0.00000E+00
         0.00000E+00
         0.00000E+00
         0.00000E+00
         0.00000E+00
         0.00000E+00
         0.00000E+00
         0.00000E+00
         0.00000E+00
         0.00000E+00
         0.00000E+00
         0.00000E+00
         0.00000E+00
         0.00000E+00
         0.00000E+00
         0.00000E+00
         0.00000E+00
         0.00000E+00
         0.00000E+00
         0.00000E+00
         0.00000E+00
         0.00000E+00
         0.00000E+00
         0.00000E+00
         0.00000E+00
         0.00000E+00
         0.00000E+00
         0.00000E+00
         0.00000E+00
         0.00000E+00
         0.00000E+00
         0.00000E+00
         0.00000E+00
         0.00000E+00
         0.00000E+00
         0.00000E+00
         0.00000E+00
         0.00000E+00
         0.00000E+00
         0.00000E+00
         0.00000E+00
         0.00000E+00
         0.00000E+00
         0.00000E+00
         0.00000E+00
         0.00000E+00
         0.00000E+00
         0.00000E+00
         0.00000E+00
         0.00000E+00
         0.00000E+00
         0.00000E+00
         0.00000E+00
         0.00000E+00
         0.00000E+00
         0.00000E+00
         0.00000E+00
         0.00000E+00
         0.00000E+00
         0.00000E+00
         0.00000E+00
         0.00000E+00
         0.00000E+00
         0.00000E+00
         0.00000E+00
         0.00000E+00
         0.00000E+00
         0.00000E+00
         0.00000E+00
         0.00000E+00
         0.00000E+00
         0.00000E+00
         0.00000E+00
         0.00000E+00
         0.00000E+00
         0.00000E+00
         0.00000E+00
         0.00000E+00
         0.00000E+00
         0.00000E+00
         0.00000E+00
         0.00000E+00
         0.00000E+00
         0.00000E+00
         0.00000E+00
         0.00000E+00
         0.00000E+00
         0.00000E+00
         0.00000E+00
         0.00000E+00
         0.00000E+00
         0.00000E+00
         0.00000E+00
         0.00000E+00
         0.00000E+00
         0.00000E+00
         0.00000E+00
         0.00000E+00
         0.00000E+00
         0.00000E+00
         0.00000E+00
         0.00000E+00
         0.00000E+00
         0.00000E+00
         0.00000E+00
         0.00000E+00
         0.00000E+00
         0.00000E+00
         0.00000E+00
         0.00000E+00
         0.00000E+00
         0.00000E+00
         0.00000E+00
         0.00000E+00
         0.00000E+00
         0.00000E+00
         0.00000E+00
         0.00000E+00
         0.00000E+00
         0.00000E+00
         0.00000E+00
         0.00000E+00
         0.00000E+00
         0.00000E+00
         0.00000E+00
         0.00000E+00
         0.00000E+00
         0.00000E+00
         0.00000E+00
         0.00000E+00
         0.00000E+00
         0.00000E+00
         0.00000E+00
         0.00000E+00
         0.00000E+00
         0.00000E+00
         0.00000E+00
         0.00000E+00
         0.00000E+00
         0.00000E+00
         0.00000E+00
         0.00000E+00
         0.00000E+00
         0.00000E+00
         0.00000E+00
         0.00000E+00
         0.00000E+00
         0.00000E+00
         0.00000E+00
         0.00000E+00
         0.00000E+00
         0.00000E+00
         0.00000E+00
         0.00000E+00
         0.00000E+00
         0.00000E+00
         0.00000E+00
         0.00000E+00
         0.00000E+00
         0.00000E+00
         0.00000E+00
         0.00000E+00
         0.00000E+00
         0.00000E+00
         0.00000E+00
         0.00000E+00
         0.00000E+00
         0.00000E+00
         0.00000E+00
         0.00000E+00
         0.00000E+00
         0.00000E+00
         0.00000E+00
         0.00000E+00
         0.00000E+00
         0.00000E+00
         0.00000E+00
         0.00000E+00
         0.00000E+00
         0.00000E+00
         0.00000E+00
         0.00000E+00
         0.00000E+00
         0.00000E+00
         0.00000E+00
         0.00000E+00
         0.00000E+00
         0.00000E+00
         0.00000E+00
         0.00000E+00
         0.00000E+00
         0.00000E+00
         0.00000E+00
         0.00000E+00
         0.00000E+00
         0.00000E+00
         0.00000E+00
         0.00000E+00
         0.00000E+00
         0.00000E+00
         0.00000E+00
         0.00000E+00
         0.00000E+00
         0.00000E+00
         0.00000E+00
         0.00000E+00
         0.00000E+00
         0.00000E+00
         0.00000E+00
         0.00000E+00
         0.00000E+00
         0.00000E+00
         0.00000E+00
         0.00000E+00
         0.00000E+00
         0.00000E+00
         0.00000E+00
         0.00000E+00
         0.00000E+00
         0.00000E+00
         0.00000E+00
         0.00000E+00
         0.00000E+00
         0.00000E+00
         0.00000E+00
         0.00000E+00
         0.00000E+00
         0.00000E+00
         0.00000E+00
         0.00000E+00
         0.00000E+00
         0.00000E+00
         0.00000E+00
         0.00000E+00
         0.00000E+00
         0.00000E+00
         0.00000E+00
         0.00000E+00
         0.00000E+00
         0.00000E+00
         0.00000E+00
         0.00000E+00
         0.00000E+00
         0.00000E+00
         0.00000E+00
         0.00000E+00
         0.00000E+00
         0.00000E+00
         0.00000E+00
         0.00000E+00
         0.00000E+00
         0.00000E+00
         0.00000E+00
         0.00000E+00
         0.00000E+00
         0.00000E+00
         0.00000E+00
         0.00000E+00
         0.00000E+00
         0.00000E+00
         0.00000E+00
         0.00000E+00
         0.00000E+00
         0.00000E+00
         0.00000E+00
         0.00000E+00
         0.00000E+00
         0.00000E+00
         0.00000E+00
         0.00000E+00
         0.00000E+00
         0.00000E+00
         0.00000E+00
         0.00000E+00
         0.00000E+00
         0.00000E+00
         0.00000E+00
         0.00000E+00
         0.00000E+00
         0.00000E+00
         0.00000E+00
         0.00000E+00
         0.00000E+00
         0.00000E+00
         0.00000E+00
         0.00000E+00
         0.00000E+00
         0.00000E+00
         0.00000E+00
         0.00000E+00
         0.00000E+00
         0.00000E+00
         0.00000E+00
         0.00000E+00
         0.00000E+00
         0.00000E+00
         0.00000E+00
         0.00000E+00
         0.00000E+00
         0.00000E+00
         0.00000E+00
         0.00000E+00
         0.00000E+00
         0.00000E+00
         0.00000E+00
         0.00000E+00
         0.00000E+00
         0.00000E+00
         0.00000E+00
         0.00000E+00
         0.00000E+00
         0.00000E+00
         0.00000E+00
         0.00000E+00
         0.00000E+00
         0.00000E+00
         0.00000E+00
         0.00000E+00
         0.00000E+00
         0.00000E+00
         0.00000E+00
         0.00000E+00
         0.00000E+00
         0.00000E+00
         0.00000E+00
         0.00000E+00
         0.00000E+00
         0.00000E+00
         0.00000E+00
         0.00000E+00
         0.00000E+00
         0.00000E+00
         0.00000E+00
         0.00000E+00
         0.00000E+00
         0.00000E+00
         0.00000E+00
         0.00000E+00
         0.00000E+00
         0.00000E+00
         0.00000E+00
         0.00000E+00
         0.00000E+00
         0.00000E+00
         0.00000E+00
         0.00000E+00
         0.00000E+00
         0.00000E+00
         0.00000E+00
         0.00000E+00
         0.00000E+00
         0.00000E+00
         0.00000E+00
         0.00000E+00
         0.00000E+00
         0.00000E+00
         0.00000E+00
         0.00000E+00
         0.00000E+00
         0.00000E+00
         0.00000E+00
         0.00000E+00
         0.00000E+00
         0.00000E+00
         0.00000E+00
         0.00000E+00
         0.00000E+00
         0.00000E+00
         0.00000E+00
         0.00000E+00
         0.00000E+00
         0.00000E+00
         0.00000E+00
         0.00000E+00
         0.00000E+00
         0.00000E+00
         0.00000E+00
         0.00000E+00
         0.00000E+00
         0.00000E+00
         0.00000E+00
         0.00000E+00
         0.00000E+00
         0.00000E+00
         0.00000E+00
         0.00000E+00
         0.00000E+00
         0.00000E+00
         0.00000E+00
         0.00000E+00
         0.00000E+00
         0.00000E+00
         0.00000E+00
         0.00000E+00
         0.00000E+00
         0.00000E+00
         0.00000E+00
         0.00000E+00
         0.00000E+00
         0.00000E+00
         0.00000E+00
         0.00000E+00
         0.00000E+00
         0.00000E+00
         0.00000E+00
         0.00000E+00
         0.00000E+00
         0.00000E+00
         0.00000E+00
         0.00000E+00
         0.00000E+00
         0.00000E+00
         0.00000E+00
         0.00000E+00
         0.00000E+00
         0.00000E+00
         0.00000E+00
         0.00000E+00
         0.00000E+00
         0.00000E+00
         0.00000E+00
         0.00000E+00
         0.00000E+00
         0.00000E+00
         0.00000E+00
         0.00000E+00
         0.00000E+00
         0.00000E+00
         0.00000E+00
         0.00000E+00
         0.00000E+00
         0.00000E+00
         0.00000E+00
         0.00000E+00
         0.00000E+00
         0.00000E+00
         0.00000E+00
         0.00000E+00
         0.00000E+00
         0.00000E+00
         0.00000E+00
         0.00000E+00
         0.00000E+00
         0.00000E+00
         0.00000E+00
         0.00000E+00
         0.00000E+00
         0.00000E+00
         0.00000E+00
         0.00000E+00
         0.00000E+00
         0.00000E+00
         0.00000E+00
         0.00000E+00
         0.00000E+00
         0.00000E+00
         0.00000E+00
         0.00000E+00
         0.00000E+00
         0.00000E+00
         0.00000E+00
         0.00000E+00
         0.00000E+00
         0.00000E+00
         0.00000E+00
         0.00000E+00
         0.00000E+00
         0.00000E+00
         0.00000E+00
         0.00000E+00
         0.00000E+00
         0.00000E+00
         0.00000E+00
         0.00000E+00
         0.00000E+00
         0.00000E+00
         0.00000E+00
         0.00000E+00
         0.00000E+00
         0.00000E+00
         0.00000E+00
         0.00000E+00
         0.00000E+00
         0.00000E+00
         0.00000E+00
         0.00000E+00
         0.00000E+00
         0.00000E+00
         0.00000E+00
         0.00000E+00
         0.00000E+00
         0.00000E+00
         0.00000E+00
         0.00000E+00
         0.00000E+00
         0.00000E+00
         0.00000E+00
         0.00000E+00
         0.00000E+00
         0.00000E+00
         0.00000E+00
         0.00000E+00
         0.00000E+00
         0.00000E+00
         0.00000E+00
         0.00000E+00
         0.00000E+00
         0.00000E+00
         0.00000E+00
         0.00000E+00
         0.00000E+00
         0.00000E+00
         0.00000E+00
         0.00000E+00
         0.00000E+00
         0.00000E+00
         0.00000E+00
         0.00000E+00
         0.00000E+00
         0.00000E+00
         0.00000E+00
         0.00000E+00
         0.00000E+00
         0.00000E+00
         0.00000E+00
         0.00000E+00
         0.00000E+00
         0.00000E+00
         0.00000E+00
         0.00000E+00
         0.00000E+00
         0.00000E+00
         0.00000E+00
         0.00000E+00
         0.00000E+00
         0.00000E+00
         0.00000E+00
         0.00000E+00
         0.00000E+00
         0.00000E+00
         0.00000E+00
         0.00000E+00
         0.00000E+00
         0.00000E+00
         0.00000E+00
         0.00000E+00
         0.00000E+00
         0.00000E+00
         0.00000E+00
         0.00000E+00
         0.00000E+00
         0.00000E+00
         0.00000E+00
         0.00000E+00
         0.00000E+00
         0.00000E+00
         0.00000E+00
         0.00000E+00
         0.00000E+00
         0.00000E+00
         0.00000E+00
         0.00000E+00
         0.00000E+00
         0.00000E+00
         0.00000E+00
         0.00000E+00
         0.00000E+00
         0.00000E+00
         0.00000E+00
         0.00000E+00
         0.00000E+00
         0.00000E+00
         0.00000E+00
         0.00000E+00
         0.00000E+00
         0.00000E+00
         0.00000E+00
         0.00000E+00
         0.00000E+00
         0.00000E+00
         0.00000E+00
         0.00000E+00
         0.00000E+00
         0.00000E+00
         0.00000E+00
         0.00000E+00
         0.00000E+00
         0.00000E+00
         0.00000E+00
         0.00000E+00
         0.00000E+00
         0.00000E+00
         0.00000E+00
         0.00000E+00
         0.00000E+00
         0.00000E+00
         0.00000E+00
         0.00000E+00
         0.00000E+00
         0.00000E+00
         0.00000E+00
         0.00000E+00
         0.00000E+00
         0.00000E+00
         0.00000E+00
         0.00000E+00
         0.00000E+00
         0.00000E+00
         0.00000E+00
         0.00000E+00
         0.00000E+00
         0.00000E+00
         0.00000E+00
         0.00000E+00
         0.00000E+00
         0.00000E+00
         0.00000E+00
         0.00000E+00
         0.00000E+00
         0.00000E+00
         0.00000E+00
         0.00000E+00
         0.00000E+00
         0.00000E+00
         0.00000E+00
         0.00000E+00
         0.00000E+00
         0.00000E+00
         0.00000E+00
         0.00000E+00
         0.00000E+00
         0.00000E+00
         0.00000E+00
         0.00000E+00
         0.00000E+00
         0.00000E+00
         0.00000E+00
         0.00000E+00
         0.00000E+00
         0.00000E+00
         0.00000E+00
         0.00000E+00
         0.00000E+00
         0.00000E+00
         0.00000E+00
         0.00000E+00
         0.00000E+00
         0.00000E+00
         0.00000E+00
         0.00000E+00
         0.00000E+00
         0.00000E+00
         0.00000E+00
         0.00000E+00
         0.00000E+00
         0.00000E+00
         0.00000E+00
         0.00000E+00
         0.00000E+00
         0.00000E+00
         0.00000E+00
         0.00000E+00
         0.00000E+00
         0.00000E+00
         0.00000E+00
         0.00000E+00
         0.00000E+00
         0.00000E+00
         0.00000E+00
         0.00000E+00
         0.00000E+00
         0.00000E+00
         0.00000E+00
         0.00000E+00
         0.00000E+00
         0.00000E+00
         0.00000E+00
         0.00000E+00
         0.00000E+00
         0.00000E+00
         0.00000E+00
         0.00000E+00
         0.00000E+00
         0.00000E+00
         0.00000E+00
         0.00000E+00
         0.00000E+00
         0.00000E+00
         0.00000E+00
         0.00000E+00
         0.00000E+00
         0.00000E+00
         0.00000E+00
         0.00000E+00
         0.00000E+00
         0.00000E+00
         0.00000E+00
         0.00000E+00
         0.00000E+00
         0.00000E+00
         0.00000E+00
         0.00000E+00
         0.00000E+00
         0.00000E+00
         0.00000E+00
         0.00000E+00
         0.00000E+00
         0.00000E+00
         0.00000E+00
         0.00000E+00
         0.00000E+00
         0.00000E+00
         0.00000E+00
         0.00000E+00
         0.00000E+00
         0.00000E+00
         0.00000E+00
         0.00000E+00
         0.00000E+00
         0.00000E+00
         0.00000E+00
         0.00000E+00
         0.00000E+00
         0.00000E+00
         0.00000E+00
         0.00000E+00
         0.00000E+00
         0.00000E+00
         0.00000E+00
         0.00000E+00
         0.00000E+00
         0.00000E+00
         0.00000E+00
         0.00000E+00
         0.00000E+00
         0.00000E+00
         0.00000E+00
         0.00000E+00
         0.00000E+00
         0.00000E+00
         0.00000E+00
         0.00000E+00
         0.00000E+00
         0.00000E+00
         0.00000E+00
         0.00000E+00
         0.00000E+00
         0.00000E+00
         0.00000E+00
         0.00000E+00
         0.00000E+00
         0.00000E+00
         0.00000E+00
         0.00000E+00
         0.00000E+00
         0.00000E+00
         0.00000E+00
         0.00000E+00
         0.00000E+00
         0.00000E+00
         0.00000E+00
         0.00000E+00
         0.00000E+00
         0.00000E+00
         0.00000E+00
         0.00000E+00
         0.00000E+00
         0.00000E+00
         0.00000E+00
         0.00000E+00
         0.00000E+00
         0.00000E+00
         0.00000E+00
         0.00000E+00
         0.00000E+00
         0.00000E+00
         0.00000E+00
         0.00000E+00
         0.00000E+00
         0.00000E+00
         0.00000E+00
         0.00000E+00
         0.00000E+00
         0.00000E+00
         0.00000E+00
         0.00000E+00
         0.00000E+00
         0.00000E+00
         0.00000E+00
         0.00000E+00
         0.00000E+00
         0.00000E+00
         0.00000E+00
         0.00000E+00
         0.00000E+00
         0.00000E+00
         0.00000E+00
         0.00000E+00
         0.00000E+00
         0.00000E+00
         0.00000E+00
         0.00000E+00
         0.00000E+00
         0.00000E+00
         0.00000E+00
         0.00000E+00
         0.00000E+00
         0.00000E+00
         0.00000E+00
         0.00000E+00
         0.00000E+00
         0.00000E+00
         0.00000E+00
         0.00000E+00
         0.00000E+00
         0.00000E+00
         0.00000E+00
         0.00000E+00
         0.00000E+00
         0.00000E+00
         0.00000E+00
         0.00000E+00
         0.00000E+00
         0.00000E+00
         0.00000E+00
         0.00000E+00
         0.00000E+00
         0.00000E+00
         0.00000E+00
         0.00000E+00
         0.00000E+00
         0.00000E+00
         0.00000E+00
         0.00000E+00
         0.00000E+00
         0.00000E+00
         0.00000E+00
         0.00000E+00
         0.00000E+00
         0.00000E+00
         0.00000E+00
         0.00000E+00
         0.00000E+00
         0.00000E+00
         0.00000E+00
         0.00000E+00
         0.00000E+00
         0.00000E+00
         0.00000E+00
         0.00000E+00
         0.00000E+00
         0.00000E+00
         0.00000E+00
         0.00000E+00
         0.00000E+00
         0.00000E+00
         0.00000E+00
         0.00000E+00
         0.00000E+00
         0.00000E+00
         0.00000E+00
         0.00000E+00
         0.00000E+00
         0.00000E+00
         0.00000E+00
         0.00000E+00
         0.00000E+00
         0.00000E+00
         0.00000E+00
         0.00000E+00
         0.00000E+00
         0.00000E+00
         0.00000E+00
         0.00000E+00
         0.00000E+00
         0.00000E+00
         0.00000E+00
         0.00000E+00
         0.00000E+00
         0.00000E+00
         0.00000E+00
         0.00000E+00
         0.00000E+00
         0.00000E+00
         0.00000E+00
         0.00000E+00
         0.00000E+00
         0.00000E+00
         0.00000E+00
         0.00000E+00
         0.00000E+00
         0.00000E+00
         0.00000E+00
         0.00000E+00
         0.00000E+00
         0.00000E+00
         0.00000E+00
         0.00000E+00
         0.00000E+00
         0.00000E+00
         0.00000E+00
         0.00000E+00
         0.00000E+00
         0.00000E+00
         0.00000E+00
         0.00000E+00
         0.00000E+00
         0.00000E+00
         0.00000E+00
         0.00000E+00
         0.00000E+00
         0.00000E+00
         0.00000E+00
         0.00000E+00
         0.00000E+00
         0.00000E+00
         0.00000E+00
         0.00000E+00
         0.00000E+00
         0.00000E+00
         0.00000E+00
         0.00000E+00
         0.00000E+00
         0.00000E+00
         0.00000E+00
         0.00000E+00
         0.00000E+00
         0.00000E+00
         0.00000E+00
         0.00000E+00
         0.00000E+00
         0.00000E+00
         0.00000E+00
         0.00000E+00
         0.00000E+00
         0.00000E+00
         0.00000E+00
         0.00000E+00
         0.00000E+00
         0.00000E+00
         0.00000E+00
         0.00000E+00
         0.00000E+00
         0.00000E+00
         0.00000E+00
         0.00000E+00
         0.00000E+00
         0.00000E+00
         0.00000E+00
         0.00000E+00
         0.00000E+00
         0.00000E+00
         0.00000E+00
         0.00000E+00
         0.00000E+00
         0.00000E+00
         0.00000E+00
         0.00000E+00
         0.00000E+00
         0.00000E+00
         0.00000E+00
         0.00000E+00
         0.00000E+00
         0.00000E+00
         0.00000E+00
         0.00000E+00
         0.00000E+00
         0.00000E+00
         0.00000E+00
         0.00000E+00
         0.00000E+00
         0.00000E+00
         0.00000E+00
         0.00000E+00
         0.00000E+00
         0.00000E+00
         0.00000E+00
         0.00000E+00
         0.00000E+00
         0.00000E+00
         0.00000E+00
         0.00000E+00
         0.00000E+00
         0.00000E+00
         0.00000E+00
         0.00000E+00
         0.00000E+00
         0.00000E+00
         0.00000E+00
         0.00000E+00
         0.00000E+00
         0.00000E+00
         0.00000E+00
         0.00000E+00
         0.00000E+00
         0.00000E+00
         0.00000E+00
         0.00000E+00
         0.00000E+00
         0.00000E+00
         0.00000E+00
         0.00000E+00
         0.00000E+00
         0.00000E+00
         0.00000E+00
         0.00000E+00
         0.00000E+00
         0.00000E+00
         0.00000E+00
         0.00000E+00
         0.00000E+00
         0.00000E+00
         0.00000E+00
         0.00000E+00
         0.00000E+00
         0.00000E+00
         0.00000E+00
         0.00000E+00
         0.00000E+00
         0.00000E+00
         0.00000E+00
         0.00000E+00
         0.00000E+00
         0.00000E+00
         0.00000E+00
         0.00000E+00
         0.00000E+00
         0.00000E+00
         0.00000E+00
         0.00000E+00
         0.00000E+00
         0.00000E+00
         0.00000E+00
         0.00000E+00
         0.00000E+00
         0.00000E+00
         0.00000E+00
         0.00000E+00
         0.00000E+00
         0.00000E+00
         0.00000E+00
         0.00000E+00
         0.00000E+00
         0.00000E+00
         0.00000E+00
         0.00000E+00
         0.00000E+00
         0.00000E+00
         0.00000E+00
         0.00000E+00
         0.00000E+00
         0.00000E+00
         0.00000E+00
         0.00000E+00
         0.00000E+00
         0.00000E+00
         0.00000E+00
         0.00000E+00
         0.00000E+00
         0.00000E+00
         0.00000E+00
         0.00000E+00
         0.00000E+00
         0.00000E+00
         0.00000E+00
         0.00000E+00
         0.00000E+00
         0.00000E+00
         0.00000E+00
         0.00000E+00
         0.00000E+00
         0.00000E+00
         0.00000E+00
         0.00000E+00
         0.00000E+00
         0.00000E+00
         0.00000E+00
         0.00000E+00
         0.00000E+00
         0.00000E+00
         0.00000E+00
         0.00000E+00
         0.00000E+00
         0.00000E+00
         0.00000E+00
         0.00000E+00
         0.00000E+00
         0.00000E+00
         0.00000E+00
         0.00000E+00
         0.00000E+00
         0.00000E+00
         0.00000E+00
         0.00000E+00
         0.00000E+00
         0.00000E+00
         0.00000E+00
         0.00000E+00
         0.00000E+00
         0.00000E+00
         0.00000E+00
         0.00000E+00
         0.00000E+00
         0.00000E+00
         0.00000E+00
         0.00000E+00
         0.00000E+00
         0.00000E+00
         0.00000E+00
         0.00000E+00
         0.00000E+00
         0.00000E+00
         0.00000E+00
         0.00000E+00
         0.00000E+00
         0.00000E+00
         0.00000E+00
         0.00000E+00
         0.00000E+00
         0.00000E+00
         0.00000E+00
         0.00000E+00
         0.00000E+00
         0.00000E+00
         0.00000E+00
         0.00000E+00
         0.00000E+00
         0.00000E+00
         0.00000E+00
         0.00000E+00
         0.00000E+00
         0.00000E+00
         0.00000E+00
         0.00000E+00
         0.00000E+00
         0.00000E+00
         0.00000E+00
         0.00000E+00
         0.00000E+00
         0.00000E+00
         0.00000E+00
         0.00000E+00
         0.00000E+00
         0.00000E+00
         0.00000E+00
         0.00000E+00
         0.00000E+00
         0.00000E+00
         0.00000E+00
         0.00000E+00
         0.00000E+00
         0.00000E+00
         0.00000E+00
         0.00000E+00
         0.00000E+00
         0.00000E+00
  
SCALARS                     velocity_z  double 1
LOOKUP_TABLE default
        -0.37300E+03
        -0.37300E+03
        -0.37300E+03
        -0.37300E+03
         0.00000E+00
         0.00000E+00
         0.00000E+00
         0.00000E+00
        -0.37300E+03
        -0.37300E+03
         0.00000E+00
         0.00000E+00
        -0.37300E+03
        -0.37300E+03
         0.00000E+00
         0.00000E+00
        -0.37300E+03
        -0.37300E+03
         0.00000E+00
         0.00000E+00
        -0.37300E+03
        -0.37300E+03
        -0.37300E+03
         0.00000E+00
         0.00000E+00
         0.00000E+00
        -0.37300E+03
        -0.37300E+03
         0.00000E+00
         0.00000E+00
        -0.37300E+03
        -0.37300E+03
        -0.37300E+03
         0.00000E+00
         0.00000E+00
         0.00000E+00
        -0.37300E+03
        -0.37300E+03
         0.00000E+00
         0.00000E+00
        -0.37300E+03
        -0.37300E+03
         0.00000E+00
         0.00000E+00
        -0.37300E+03
        -0.37300E+03
         0.00000E+00
         0.00000E+00
        -0.37300E+03
         0.00000E+00
        -0.37300E+03
         0.00000E+00
        -0.37300E+03
         0.00000E+00
        -0.37300E+03
         0.00000E+00
        -0.37300E+03
        -0.37300E+03
         0.00000E+00
         0.00000E+00
        -0.37300E+03
        -0.37300E+03
         0.00000E+00
         0.00000E+00
        -0.37300E+03
         0.00000E+00
        -0.37300E+03
         0.00000E+00
        -0.37300E+03
        -0.37300E+03
         0.00000E+00
         0.00000E+00
        -0.37300E+03
         0.00000E+00
        -0.37300E+03
         0.00000E+00
        -0.37300E+03
         0.00000E+00
        -0.37300E+03
         0.00000E+00
        -0.37300E+03
        -0.37300E+03
         0.00000E+00
         0.00000E+00
        -0.37300E+03
         0.00000E+00
        -0.37300E+03
         0.00000E+00
        -0.37300E+03
         0.00000E+00
        -0.37300E+03
        -0.37300E+03
         0.00000E+00
         0.00000E+00
        -0.37300E+03
         0.00000E+00
        -0.37300E+03
         0.00000E+00
        -0.37300E+03
         0.00000E+00
        -0.37300E+03
        -0.37300E+03
         0.00000E+00
         0.00000E+00
        -0.37300E+03
        -0.37300E+03
         0.00000E+00
         0.00000E+00
        -0.37300E+03
         0.00000E+00
        -0.37300E+03
         0.00000E+00
        -0.37300E+03
         0.00000E+00
        -0.37300E+03
         0.00000E+00
        -0.37300E+03
         0.00000E+00
        -0.37300E+03
         0.00000E+00
        -0.37300E+03
         0.00000E+00
        -0.37300E+03
         0.00000E+00
        -0.37300E+03
         0.00000E+00
        -0.37300E+03
         0.00000E+00
        -0.37300E+03
         0.00000E+00
        -0.37300E+03
         0.00000E+00
        -0.37300E+03
         0.00000E+00
        -0.37300E+03
         0.00000E+00
        -0.37300E+03
         0.00000E+00
        -0.37300E+03
         0.00000E+00
        -0.37300E+03
         0.00000E+00
        -0.37300E+03
         0.00000E+00
        -0.37300E+03
         0.00000E+00
        -0.37300E+03
         0.00000E+00
        -0.37300E+03
         0.00000E+00
        -0.37300E+03
         0.00000E+00
        -0.37300E+03
         0.00000E+00
        -0.37300E+03
         0.00000E+00
        -0.37300E+03
        -0.37300E+03
        -0.37300E+03
        -0.37300E+03
        -0.37300E+03
        -0.37300E+03
        -0.37300E+03
        -0.37300E+03
        -0.37300E+03
        -0.37300E+03
        -0.37300E+03
        -0.37300E+03
        -0.37300E+03
        -0.37300E+03
        -0.37300E+03
        -0.37300E+03
        -0.37300E+03
        -0.37300E+03
        -0.37300E+03
        -0.37300E+03
        -0.37300E+03
        -0.37300E+03
        -0.37300E+03
        -0.37300E+03
        -0.37300E+03
        -0.37300E+03
        -0.37300E+03
        -0.37300E+03
        -0.37300E+03
        -0.37300E+03
        -0.37300E+03
        -0.37300E+03
        -0.37300E+03
        -0.37300E+03
        -0.37300E+03
        -0.37300E+03
        -0.37300E+03
        -0.37300E+03
        -0.37300E+03
        -0.37300E+03
        -0.37300E+03
        -0.37300E+03
        -0.37300E+03
        -0.37300E+03
        -0.37300E+03
        -0.37300E+03
        -0.37300E+03
        -0.37300E+03
        -0.37300E+03
        -0.37300E+03
        -0.37300E+03
        -0.37300E+03
        -0.37300E+03
        -0.37300E+03
        -0.37300E+03
        -0.37300E+03
        -0.37300E+03
        -0.37300E+03
        -0.37300E+03
        -0.37300E+03
        -0.37300E+03
        -0.37300E+03
        -0.37300E+03
        -0.37300E+03
        -0.37300E+03
        -0.37300E+03
        -0.37300E+03
        -0.37300E+03
        -0.37300E+03
        -0.37300E+03
        -0.37300E+03
        -0.37300E+03
        -0.37300E+03
        -0.37300E+03
        -0.37300E+03
        -0.37300E+03
        -0.37300E+03
        -0.37300E+03
        -0.37300E+03
        -0.37300E+03
        -0.37300E+03
        -0.37300E+03
        -0.37300E+03
        -0.37300E+03
        -0.37300E+03
        -0.37300E+03
        -0.37300E+03
        -0.37300E+03
        -0.37300E+03
        -0.37300E+03
        -0.37300E+03
        -0.37300E+03
        -0.37300E+03
        -0.37300E+03
        -0.37300E+03
        -0.37300E+03
        -0.37300E+03
        -0.37300E+03
        -0.37300E+03
        -0.37300E+03
        -0.37300E+03
        -0.37300E+03
        -0.37300E+03
        -0.37300E+03
        -0.37300E+03
        -0.37300E+03
        -0.37300E+03
        -0.37300E+03
        -0.37300E+03
        -0.37300E+03
        -0.37300E+03
        -0.37300E+03
        -0.37300E+03
        -0.37300E+03
        -0.37300E+03
        -0.37300E+03
        -0.37300E+03
        -0.37300E+03
        -0.37300E+03
        -0.37300E+03
        -0.37300E+03
        -0.37300E+03
        -0.37300E+03
        -0.37300E+03
        -0.37300E+03
        -0.37300E+03
        -0.37300E+03
        -0.37300E+03
        -0.37300E+03
        -0.37300E+03
        -0.37300E+03
        -0.37300E+03
        -0.37300E+03
        -0.37300E+03
        -0.37300E+03
        -0.37300E+03
        -0.37300E+03
        -0.37300E+03
        -0.37300E+03
        -0.37300E+03
        -0.37300E+03
        -0.37300E+03
        -0.37300E+03
        -0.37300E+03
        -0.37300E+03
        -0.37300E+03
        -0.37300E+03
        -0.37300E+03
        -0.37300E+03
        -0.37300E+03
        -0.37300E+03
        -0.37300E+03
        -0.37300E+03
        -0.37300E+03
        -0.37300E+03
        -0.37300E+03
        -0.37300E+03
        -0.37300E+03
        -0.37300E+03
        -0.37300E+03
        -0.37300E+03
        -0.37300E+03
        -0.37300E+03
        -0.37300E+03
        -0.37300E+03
        -0.37300E+03
        -0.37300E+03
        -0.37300E+03
        -0.37300E+03
        -0.37300E+03
        -0.37300E+03
        -0.37300E+03
        -0.37300E+03
        -0.37300E+03
        -0.37300E+03
        -0.37300E+03
        -0.37300E+03
        -0.37300E+03
        -0.37300E+03
        -0.37300E+03
        -0.37300E+03
        -0.37300E+03
        -0.37300E+03
        -0.37300E+03
        -0.37300E+03
        -0.37300E+03
        -0.37300E+03
        -0.37300E+03
        -0.37300E+03
        -0.37300E+03
        -0.37300E+03
        -0.37300E+03
        -0.37300E+03
        -0.37300E+03
        -0.37300E+03
        -0.37300E+03
        -0.37300E+03
        -0.37300E+03
        -0.37300E+03
        -0.37300E+03
        -0.37300E+03
        -0.37300E+03
        -0.37300E+03
        -0.37300E+03
        -0.37300E+03
        -0.37300E+03
        -0.37300E+03
        -0.37300E+03
        -0.37300E+03
        -0.37300E+03
        -0.37300E+03
        -0.37300E+03
        -0.37300E+03
        -0.37300E+03
        -0.37300E+03
        -0.37300E+03
        -0.37300E+03
        -0.37300E+03
        -0.37300E+03
        -0.37300E+03
        -0.37300E+03
        -0.37300E+03
        -0.37300E+03
        -0.37300E+03
        -0.37300E+03
        -0.37300E+03
        -0.37300E+03
        -0.37300E+03
        -0.37300E+03
        -0.37300E+03
        -0.37300E+03
        -0.37300E+03
        -0.37300E+03
        -0.37300E+03
        -0.37300E+03
        -0.37300E+03
        -0.37300E+03
        -0.37300E+03
        -0.37300E+03
        -0.37300E+03
        -0.37300E+03
        -0.37300E+03
        -0.37300E+03
        -0.37300E+03
        -0.37300E+03
        -0.37300E+03
        -0.37300E+03
        -0.37300E+03
        -0.37300E+03
        -0.37300E+03
        -0.37300E+03
        -0.37300E+03
        -0.37300E+03
        -0.37300E+03
        -0.37300E+03
        -0.37300E+03
        -0.37300E+03
        -0.37300E+03
        -0.37300E+03
        -0.37300E+03
        -0.37300E+03
        -0.37300E+03
        -0.37300E+03
        -0.37300E+03
        -0.37300E+03
        -0.37300E+03
        -0.37300E+03
        -0.37300E+03
        -0.37300E+03
        -0.37300E+03
        -0.37300E+03
        -0.37300E+03
        -0.37300E+03
        -0.37300E+03
        -0.37300E+03
        -0.37300E+03
        -0.37300E+03
        -0.37300E+03
        -0.37300E+03
        -0.37300E+03
        -0.37300E+03
        -0.37300E+03
        -0.37300E+03
        -0.37300E+03
        -0.37300E+03
        -0.37300E+03
        -0.37300E+03
        -0.37300E+03
        -0.37300E+03
        -0.37300E+03
        -0.37300E+03
        -0.37300E+03
        -0.37300E+03
        -0.37300E+03
        -0.37300E+03
        -0.37300E+03
        -0.37300E+03
        -0.37300E+03
        -0.37300E+03
        -0.37300E+03
        -0.37300E+03
        -0.37300E+03
        -0.37300E+03
        -0.37300E+03
        -0.37300E+03
        -0.37300E+03
        -0.37300E+03
        -0.37300E+03
        -0.37300E+03
        -0.37300E+03
        -0.37300E+03
        -0.37300E+03
        -0.37300E+03
        -0.37300E+03
        -0.37300E+03
        -0.37300E+03
        -0.37300E+03
        -0.37300E+03
        -0.37300E+03
        -0.37300E+03
        -0.37300E+03
        -0.37300E+03
        -0.37300E+03
        -0.37300E+03
        -0.37300E+03
        -0.37300E+03
        -0.37300E+03
        -0.37300E+03
        -0.37300E+03
        -0.37300E+03
        -0.37300E+03
        -0.37300E+03
        -0.37300E+03
        -0.37300E+03
        -0.37300E+03
        -0.37300E+03
        -0.37300E+03
        -0.37300E+03
        -0.37300E+03
        -0.37300E+03
        -0.37300E+03
        -0.37300E+03
        -0.37300E+03
        -0.37300E+03
        -0.37300E+03
        -0.37300E+03
        -0.37300E+03
        -0.37300E+03
        -0.37300E+03
        -0.37300E+03
        -0.37300E+03
        -0.37300E+03
        -0.37300E+03
        -0.37300E+03
        -0.37300E+03
        -0.37300E+03
        -0.37300E+03
        -0.37300E+03
        -0.37300E+03
        -0.37300E+03
        -0.37300E+03
        -0.37300E+03
        -0.37300E+03
        -0.37300E+03
        -0.37300E+03
        -0.37300E+03
        -0.37300E+03
        -0.37300E+03
        -0.37300E+03
        -0.37300E+03
        -0.37300E+03
        -0.37300E+03
        -0.37300E+03
        -0.37300E+03
        -0.37300E+03
        -0.37300E+03
        -0.37300E+03
        -0.37300E+03
        -0.37300E+03
        -0.37300E+03
        -0.37300E+03
        -0.37300E+03
        -0.37300E+03
        -0.37300E+03
        -0.37300E+03
        -0.37300E+03
        -0.37300E+03
        -0.37300E+03
        -0.37300E+03
        -0.37300E+03
        -0.37300E+03
        -0.37300E+03
        -0.37300E+03
        -0.37300E+03
        -0.37300E+03
        -0.37300E+03
        -0.37300E+03
        -0.37300E+03
        -0.37300E+03
        -0.37300E+03
        -0.37300E+03
        -0.37300E+03
        -0.37300E+03
        -0.37300E+03
        -0.37300E+03
        -0.37300E+03
        -0.37300E+03
        -0.37300E+03
        -0.37300E+03
        -0.37300E+03
        -0.37300E+03
        -0.37300E+03
        -0.37300E+03
        -0.37300E+03
        -0.37300E+03
        -0.37300E+03
        -0.37300E+03
        -0.37300E+03
        -0.37300E+03
        -0.37300E+03
        -0.37300E+03
        -0.37300E+03
        -0.37300E+03
        -0.37300E+03
        -0.37300E+03
        -0.37300E+03
        -0.37300E+03
        -0.37300E+03
        -0.37300E+03
        -0.37300E+03
        -0.37300E+03
        -0.37300E+03
        -0.37300E+03
        -0.37300E+03
        -0.37300E+03
        -0.37300E+03
        -0.37300E+03
        -0.37300E+03
        -0.37300E+03
        -0.37300E+03
        -0.37300E+03
        -0.37300E+03
        -0.37300E+03
        -0.37300E+03
        -0.37300E+03
        -0.37300E+03
        -0.37300E+03
        -0.37300E+03
        -0.37300E+03
        -0.37300E+03
        -0.37300E+03
        -0.37300E+03
        -0.37300E+03
        -0.37300E+03
        -0.37300E+03
        -0.37300E+03
        -0.37300E+03
        -0.37300E+03
        -0.37300E+03
        -0.37300E+03
        -0.37300E+03
        -0.37300E+03
        -0.37300E+03
        -0.37300E+03
        -0.37300E+03
        -0.37300E+03
        -0.37300E+03
        -0.37300E+03
        -0.37300E+03
        -0.37300E+03
        -0.37300E+03
        -0.37300E+03
        -0.37300E+03
        -0.37300E+03
        -0.37300E+03
        -0.37300E+03
        -0.37300E+03
        -0.37300E+03
        -0.37300E+03
        -0.37300E+03
        -0.37300E+03
        -0.37300E+03
        -0.37300E+03
        -0.37300E+03
        -0.37300E+03
        -0.37300E+03
        -0.37300E+03
        -0.37300E+03
        -0.37300E+03
        -0.37300E+03
        -0.37300E+03
        -0.37300E+03
        -0.37300E+03
        -0.37300E+03
        -0.37300E+03
        -0.37300E+03
        -0.37300E+03
        -0.37300E+03
        -0.37300E+03
        -0.37300E+03
        -0.37300E+03
        -0.37300E+03
        -0.37300E+03
        -0.37300E+03
        -0.37300E+03
        -0.37300E+03
        -0.37300E+03
        -0.37300E+03
        -0.37300E+03
        -0.37300E+03
        -0.37300E+03
        -0.37300E+03
        -0.37300E+03
        -0.37300E+03
        -0.37300E+03
        -0.37300E+03
        -0.37300E+03
        -0.37300E+03
        -0.37300E+03
        -0.37300E+03
        -0.37300E+03
        -0.37300E+03
        -0.37300E+03
        -0.37300E+03
        -0.37300E+03
        -0.37300E+03
        -0.37300E+03
        -0.37300E+03
        -0.37300E+03
        -0.37300E+03
        -0.37300E+03
        -0.37300E+03
        -0.37300E+03
        -0.37300E+03
        -0.37300E+03
        -0.37300E+03
        -0.37300E+03
        -0.37300E+03
        -0.37300E+03
        -0.37300E+03
        -0.37300E+03
        -0.37300E+03
        -0.37300E+03
        -0.37300E+03
        -0.37300E+03
        -0.37300E+03
        -0.37300E+03
        -0.37300E+03
        -0.37300E+03
        -0.37300E+03
        -0.37300E+03
        -0.37300E+03
        -0.37300E+03
        -0.37300E+03
        -0.37300E+03
        -0.37300E+03
        -0.37300E+03
        -0.37300E+03
        -0.37300E+03
        -0.37300E+03
        -0.37300E+03
        -0.37300E+03
        -0.37300E+03
        -0.37300E+03
        -0.37300E+03
        -0.37300E+03
        -0.37300E+03
        -0.37300E+03
        -0.37300E+03
        -0.37300E+03
        -0.37300E+03
        -0.37300E+03
        -0.37300E+03
        -0.37300E+03
        -0.37300E+03
        -0.37300E+03
        -0.37300E+03
        -0.37300E+03
        -0.37300E+03
        -0.37300E+03
        -0.37300E+03
        -0.37300E+03
        -0.37300E+03
        -0.37300E+03
        -0.37300E+03
        -0.37300E+03
        -0.37300E+03
        -0.37300E+03
        -0.37300E+03
        -0.37300E+03
        -0.37300E+03
        -0.37300E+03
        -0.37300E+03
        -0.37300E+03
        -0.37300E+03
        -0.37300E+03
        -0.37300E+03
        -0.37300E+03
        -0.37300E+03
        -0.37300E+03
        -0.37300E+03
        -0.37300E+03
        -0.37300E+03
        -0.37300E+03
        -0.37300E+03
        -0.37300E+03
        -0.37300E+03
        -0.37300E+03
        -0.37300E+03
        -0.37300E+03
        -0.37300E+03
        -0.37300E+03
        -0.37300E+03
        -0.37300E+03
        -0.37300E+03
        -0.37300E+03
        -0.37300E+03
        -0.37300E+03
        -0.37300E+03
        -0.37300E+03
        -0.37300E+03
        -0.37300E+03
        -0.37300E+03
        -0.37300E+03
        -0.37300E+03
        -0.37300E+03
        -0.37300E+03
        -0.37300E+03
        -0.37300E+03
        -0.37300E+03
        -0.37300E+03
        -0.37300E+03
        -0.37300E+03
        -0.37300E+03
        -0.37300E+03
        -0.37300E+03
        -0.37300E+03
        -0.37300E+03
        -0.37300E+03
        -0.37300E+03
        -0.37300E+03
        -0.37300E+03
        -0.37300E+03
        -0.37300E+03
        -0.37300E+03
        -0.37300E+03
        -0.37300E+03
        -0.37300E+03
        -0.37300E+03
        -0.37300E+03
        -0.37300E+03
        -0.37300E+03
        -0.37300E+03
        -0.37300E+03
        -0.37300E+03
        -0.37300E+03
        -0.37300E+03
        -0.37300E+03
        -0.37300E+03
        -0.37300E+03
        -0.37300E+03
        -0.37300E+03
        -0.37300E+03
        -0.37300E+03
        -0.37300E+03
        -0.37300E+03
        -0.37300E+03
        -0.37300E+03
        -0.37300E+03
        -0.37300E+03
        -0.37300E+03
        -0.37300E+03
        -0.37300E+03
        -0.37300E+03
        -0.37300E+03
        -0.37300E+03
        -0.37300E+03
        -0.37300E+03
        -0.37300E+03
        -0.37300E+03
        -0.37300E+03
        -0.37300E+03
        -0.37300E+03
        -0.37300E+03
        -0.37300E+03
        -0.37300E+03
        -0.37300E+03
        -0.37300E+03
        -0.37300E+03
        -0.37300E+03
        -0.37300E+03
        -0.37300E+03
        -0.37300E+03
        -0.37300E+03
        -0.37300E+03
        -0.37300E+03
        -0.37300E+03
        -0.37300E+03
        -0.37300E+03
        -0.37300E+03
        -0.37300E+03
        -0.37300E+03
        -0.37300E+03
        -0.37300E+03
        -0.37300E+03
        -0.37300E+03
        -0.37300E+03
        -0.37300E+03
        -0.37300E+03
        -0.37300E+03
        -0.37300E+03
        -0.37300E+03
        -0.37300E+03
        -0.37300E+03
        -0.37300E+03
        -0.37300E+03
        -0.37300E+03
        -0.37300E+03
        -0.37300E+03
        -0.37300E+03
        -0.37300E+03
        -0.37300E+03
        -0.37300E+03
        -0.37300E+03
        -0.37300E+03
        -0.37300E+03
        -0.37300E+03
        -0.37300E+03
        -0.37300E+03
        -0.37300E+03
        -0.37300E+03
        -0.37300E+03
        -0.37300E+03
        -0.37300E+03
        -0.37300E+03
        -0.37300E+03
        -0.37300E+03
        -0.37300E+03
        -0.37300E+03
        -0.37300E+03
        -0.37300E+03
        -0.37300E+03
        -0.37300E+03
        -0.37300E+03
        -0.37300E+03
        -0.37300E+03
        -0.37300E+03
        -0.37300E+03
        -0.37300E+03
        -0.37300E+03
        -0.37300E+03
        -0.37300E+03
        -0.37300E+03
        -0.37300E+03
        -0.37300E+03
        -0.37300E+03
        -0.37300E+03
        -0.37300E+03
        -0.37300E+03
        -0.37300E+03
        -0.37300E+03
        -0.37300E+03
        -0.37300E+03
        -0.37300E+03
        -0.37300E+03
        -0.37300E+03
        -0.37300E+03
        -0.37300E+03
        -0.37300E+03
        -0.37300E+03
        -0.37300E+03
        -0.37300E+03
        -0.37300E+03
        -0.37300E+03
        -0.37300E+03
        -0.37300E+03
        -0.37300E+03
        -0.37300E+03
        -0.37300E+03
        -0.37300E+03
        -0.37300E+03
        -0.37300E+03
        -0.37300E+03
        -0.37300E+03
        -0.37300E+03
        -0.37300E+03
        -0.37300E+03
        -0.37300E+03
        -0.37300E+03
        -0.37300E+03
        -0.37300E+03
        -0.37300E+03
        -0.37300E+03
        -0.37300E+03
        -0.37300E+03
        -0.37300E+03
        -0.37300E+03
        -0.37300E+03
        -0.37300E+03
        -0.37300E+03
        -0.37300E+03
        -0.37300E+03
        -0.37300E+03
        -0.37300E+03
        -0.37300E+03
        -0.37300E+03
        -0.37300E+03
        -0.37300E+03
        -0.37300E+03
        -0.37300E+03
        -0.37300E+03
        -0.37300E+03
        -0.37300E+03
        -0.37300E+03
        -0.37300E+03
        -0.37300E+03
        -0.37300E+03
        -0.37300E+03
        -0.37300E+03
        -0.37300E+03
        -0.37300E+03
        -0.37300E+03
        -0.37300E+03
        -0.37300E+03
        -0.37300E+03
        -0.37300E+03
        -0.37300E+03
        -0.37300E+03
        -0.37300E+03
        -0.37300E+03
        -0.37300E+03
        -0.37300E+03
        -0.37300E+03
        -0.37300E+03
        -0.37300E+03
        -0.37300E+03
        -0.37300E+03
        -0.37300E+03
        -0.37300E+03
        -0.37300E+03
        -0.37300E+03
        -0.37300E+03
        -0.37300E+03
        -0.37300E+03
        -0.37300E+03
        -0.37300E+03
        -0.37300E+03
        -0.37300E+03
        -0.37300E+03
        -0.37300E+03
        -0.37300E+03
        -0.37300E+03
        -0.37300E+03
        -0.37300E+03
        -0.37300E+03
        -0.37300E+03
        -0.37300E+03
        -0.37300E+03
        -0.37300E+03
        -0.37300E+03
        -0.37300E+03
        -0.37300E+03
        -0.37300E+03
        -0.37300E+03
        -0.37300E+03
        -0.37300E+03
        -0.37300E+03
        -0.37300E+03
        -0.37300E+03
        -0.37300E+03
        -0.37300E+03
        -0.37300E+03
        -0.37300E+03
        -0.37300E+03
        -0.37300E+03
        -0.37300E+03
        -0.37300E+03
        -0.37300E+03
        -0.37300E+03
        -0.37300E+03
        -0.37300E+03
        -0.37300E+03
        -0.37300E+03
        -0.37300E+03
        -0.37300E+03
        -0.37300E+03
        -0.37300E+03
        -0.37300E+03
        -0.37300E+03
        -0.37300E+03
        -0.37300E+03
        -0.37300E+03
        -0.37300E+03
        -0.37300E+03
        -0.37300E+03
        -0.37300E+03
        -0.37300E+03
        -0.37300E+03
        -0.37300E+03
        -0.37300E+03
        -0.37300E+03
        -0.37300E+03
        -0.37300E+03
        -0.37300E+03
        -0.37300E+03
        -0.37300E+03
        -0.37300E+03
        -0.37300E+03
        -0.37300E+03
        -0.37300E+03
        -0.37300E+03
        -0.37300E+03
        -0.37300E+03
        -0.37300E+03
        -0.37300E+03
        -0.37300E+03
        -0.37300E+03
        -0.37300E+03
        -0.37300E+03
        -0.37300E+03
        -0.37300E+03
        -0.37300E+03
        -0.37300E+03
        -0.37300E+03
        -0.37300E+03
        -0.37300E+03
        -0.37300E+03
        -0.37300E+03
        -0.37300E+03
        -0.37300E+03
        -0.37300E+03
        -0.37300E+03
        -0.37300E+03
        -0.37300E+03
        -0.37300E+03
        -0.37300E+03
        -0.37300E+03
        -0.37300E+03
        -0.37300E+03
        -0.37300E+03
        -0.37300E+03
        -0.37300E+03
        -0.37300E+03
        -0.37300E+03
        -0.37300E+03
        -0.37300E+03
        -0.37300E+03
        -0.37300E+03
        -0.37300E+03
        -0.37300E+03
        -0.37300E+03
        -0.37300E+03
        -0.37300E+03
        -0.37300E+03
        -0.37300E+03
        -0.37300E+03
        -0.37300E+03
        -0.37300E+03
        -0.37300E+03
        -0.37300E+03
        -0.37300E+03
        -0.37300E+03
        -0.37300E+03
        -0.37300E+03
        -0.37300E+03
        -0.37300E+03
        -0.37300E+03
        -0.37300E+03
        -0.37300E+03
        -0.37300E+03
        -0.37300E+03
        -0.37300E+03
        -0.37300E+03
        -0.37300E+03
        -0.37300E+03
        -0.37300E+03
        -0.37300E+03
        -0.37300E+03
        -0.37300E+03
        -0.37300E+03
        -0.37300E+03
        -0.37300E+03
        -0.37300E+03
        -0.37300E+03
        -0.37300E+03
        -0.37300E+03
        -0.37300E+03
        -0.37300E+03
        -0.37300E+03
        -0.37300E+03
        -0.37300E+03
        -0.37300E+03
        -0.37300E+03
        -0.37300E+03
        -0.37300E+03
        -0.37300E+03
        -0.37300E+03
        -0.37300E+03
        -0.37300E+03
        -0.37300E+03
        -0.37300E+03
        -0.37300E+03
        -0.37300E+03
        -0.37300E+03
        -0.37300E+03
        -0.37300E+03
        -0.37300E+03
        -0.37300E+03
        -0.37300E+03
        -0.37300E+03
        -0.37300E+03
        -0.37300E+03
        -0.37300E+03
        -0.37300E+03
        -0.37300E+03
        -0.37300E+03
        -0.37300E+03
        -0.37300E+03
        -0.37300E+03
        -0.37300E+03
        -0.37300E+03
        -0.37300E+03
        -0.37300E+03
        -0.37300E+03
        -0.37300E+03
        -0.37300E+03
        -0.37300E+03
        -0.37300E+03
        -0.37300E+03
        -0.37300E+03
        -0.37300E+03
        -0.37300E+03
        -0.37300E+03
        -0.37300E+03
        -0.37300E+03
        -0.37300E+03
        -0.37300E+03
        -0.37300E+03
        -0.37300E+03
        -0.37300E+03
        -0.37300E+03
        -0.37300E+03
        -0.37300E+03
        -0.37300E+03
        -0.37300E+03
        -0.37300E+03
        -0.37300E+03
        -0.37300E+03
        -0.37300E+03
        -0.37300E+03
        -0.37300E+03
        -0.37300E+03
        -0.37300E+03
        -0.37300E+03
        -0.37300E+03
        -0.37300E+03
        -0.37300E+03
        -0.37300E+03
        -0.37300E+03
        -0.37300E+03
        -0.37300E+03
        -0.37300E+03
        -0.37300E+03
        -0.37300E+03
        -0.37300E+03
        -0.37300E+03
        -0.37300E+03
        -0.37300E+03
        -0.37300E+03
        -0.37300E+03
        -0.37300E+03
        -0.37300E+03
        -0.37300E+03
        -0.37300E+03
        -0.37300E+03
        -0.37300E+03
        -0.37300E+03
        -0.37300E+03
        -0.37300E+03
        -0.37300E+03
        -0.37300E+03
        -0.37300E+03
        -0.37300E+03
        -0.37300E+03
        -0.37300E+03
        -0.37300E+03
        -0.37300E+03
        -0.37300E+03
        -0.37300E+03
        -0.37300E+03
        -0.37300E+03
        -0.37300E+03
        -0.37300E+03
        -0.37300E+03
        -0.37300E+03
        -0.37300E+03
        -0.37300E+03
        -0.37300E+03
        -0.37300E+03
        -0.37300E+03
        -0.37300E+03
        -0.37300E+03
        -0.37300E+03
        -0.37300E+03
        -0.37300E+03
        -0.37300E+03
        -0.37300E+03
        -0.37300E+03
        -0.37300E+03
        -0.37300E+03
        -0.37300E+03
        -0.37300E+03
        -0.37300E+03
        -0.37300E+03
        -0.37300E+03
        -0.37300E+03
        -0.37300E+03
        -0.37300E+03
        -0.37300E+03
        -0.37300E+03
        -0.37300E+03
        -0.37300E+03
        -0.37300E+03
        -0.37300E+03
        -0.37300E+03
        -0.37300E+03
        -0.37300E+03
        -0.37300E+03
        -0.37300E+03
        -0.37300E+03
        -0.37300E+03
        -0.37300E+03
        -0.37300E+03
        -0.37300E+03
        -0.37300E+03
        -0.37300E+03
        -0.37300E+03
        -0.37300E+03
        -0.37300E+03
        -0.37300E+03
        -0.37300E+03
        -0.37300E+03
        -0.37300E+03
        -0.37300E+03
        -0.37300E+03
        -0.37300E+03
        -0.37300E+03
        -0.37300E+03
        -0.37300E+03
        -0.37300E+03
        -0.37300E+03
        -0.37300E+03
        -0.37300E+03
        -0.37300E+03
        -0.37300E+03
        -0.37300E+03
        -0.37300E+03
        -0.37300E+03
        -0.37300E+03
        -0.37300E+03
        -0.37300E+03
        -0.37300E+03
        -0.37300E+03
        -0.37300E+03
        -0.37300E+03
        -0.37300E+03
        -0.37300E+03
        -0.37300E+03
        -0.37300E+03
        -0.37300E+03
        -0.37300E+03
        -0.37300E+03
        -0.37300E+03
        -0.37300E+03
        -0.37300E+03
        -0.37300E+03
        -0.37300E+03
        -0.37300E+03
        -0.37300E+03
        -0.37300E+03
        -0.37300E+03
        -0.37300E+03
        -0.37300E+03
        -0.37300E+03
        -0.37300E+03
        -0.37300E+03
        -0.37300E+03
        -0.37300E+03
        -0.37300E+03
        -0.37300E+03
        -0.37300E+03
        -0.37300E+03
        -0.37300E+03
        -0.37300E+03
        -0.37300E+03
        -0.37300E+03
        -0.37300E+03
        -0.37300E+03
        -0.37300E+03
        -0.37300E+03
        -0.37300E+03
        -0.37300E+03
        -0.37300E+03
        -0.37300E+03
        -0.37300E+03
        -0.37300E+03
        -0.37300E+03
        -0.37300E+03
        -0.37300E+03
        -0.37300E+03
        -0.37300E+03
        -0.37300E+03
        -0.37300E+03
        -0.37300E+03
        -0.37300E+03
        -0.37300E+03
        -0.37300E+03
        -0.37300E+03
        -0.37300E+03
        -0.37300E+03
        -0.37300E+03
        -0.37300E+03
        -0.37300E+03
        -0.37300E+03
        -0.37300E+03
        -0.37300E+03
        -0.37300E+03
        -0.37300E+03
        -0.37300E+03
        -0.37300E+03
        -0.37300E+03
        -0.37300E+03
        -0.37300E+03
        -0.37300E+03
        -0.37300E+03
        -0.37300E+03
        -0.37300E+03
        -0.37300E+03
        -0.37300E+03
        -0.37300E+03
        -0.37300E+03
        -0.37300E+03
        -0.37300E+03
        -0.37300E+03
        -0.37300E+03
        -0.37300E+03
        -0.37300E+03
        -0.37300E+03
        -0.37300E+03
        -0.37300E+03
        -0.37300E+03
        -0.37300E+03
        -0.37300E+03
        -0.37300E+03
        -0.37300E+03
        -0.37300E+03
        -0.37300E+03
        -0.37300E+03
        -0.37300E+03
        -0.37300E+03
        -0.37300E+03
        -0.37300E+03
        -0.37300E+03
        -0.37300E+03
        -0.37300E+03
        -0.37300E+03
        -0.37300E+03
        -0.37300E+03
        -0.37300E+03
        -0.37300E+03
        -0.37300E+03
        -0.37300E+03
        -0.37300E+03
        -0.37300E+03
        -0.37300E+03
        -0.37300E+03
        -0.37300E+03
        -0.37300E+03
        -0.37300E+03
        -0.37300E+03
        -0.37300E+03
        -0.37300E+03
        -0.37300E+03
        -0.37300E+03
        -0.37300E+03
        -0.37300E+03
        -0.37300E+03
        -0.37300E+03
        -0.37300E+03
        -0.37300E+03
        -0.37300E+03
        -0.37300E+03
        -0.37300E+03
        -0.37300E+03
        -0.37300E+03
        -0.37300E+03
        -0.37300E+03
        -0.37300E+03
        -0.37300E+03
        -0.37300E+03
        -0.37300E+03
        -0.37300E+03
        -0.37300E+03
        -0.37300E+03
        -0.37300E+03
        -0.37300E+03
        -0.37300E+03
        -0.37300E+03
        -0.37300E+03
        -0.37300E+03
        -0.37300E+03
        -0.37300E+03
        -0.37300E+03
        -0.37300E+03
        -0.37300E+03
        -0.37300E+03
        -0.37300E+03
        -0.37300E+03
        -0.37300E+03
        -0.37300E+03
        -0.37300E+03
        -0.37300E+03
        -0.37300E+03
        -0.37300E+03
        -0.37300E+03
        -0.37300E+03
        -0.37300E+03
        -0.37300E+03
        -0.37300E+03
        -0.37300E+03
        -0.37300E+03
        -0.37300E+03
        -0.37300E+03
        -0.37300E+03
        -0.37300E+03
        -0.37300E+03
        -0.37300E+03
        -0.37300E+03
        -0.37300E+03
        -0.37300E+03
        -0.37300E+03
        -0.37300E+03
        -0.37300E+03
        -0.37300E+03
        -0.37300E+03
        -0.37300E+03
        -0.37300E+03
        -0.37300E+03
        -0.37300E+03
        -0.37300E+03
        -0.37300E+03
        -0.37300E+03
        -0.37300E+03
        -0.37300E+03
        -0.37300E+03
        -0.37300E+03
        -0.37300E+03
        -0.37300E+03
        -0.37300E+03
        -0.37300E+03
        -0.37300E+03
        -0.37300E+03
        -0.37300E+03
        -0.37300E+03
        -0.37300E+03
        -0.37300E+03
        -0.37300E+03
        -0.37300E+03
        -0.37300E+03
        -0.37300E+03
        -0.37300E+03
        -0.37300E+03
        -0.37300E+03
        -0.37300E+03
        -0.37300E+03
        -0.37300E+03
        -0.37300E+03
        -0.37300E+03
        -0.37300E+03
        -0.37300E+03
        -0.37300E+03
        -0.37300E+03
        -0.37300E+03
        -0.37300E+03
        -0.37300E+03
        -0.37300E+03
        -0.37300E+03
        -0.37300E+03
        -0.37300E+03
        -0.37300E+03
        -0.37300E+03
        -0.37300E+03
        -0.37300E+03
        -0.37300E+03
        -0.37300E+03
        -0.37300E+03
        -0.37300E+03
        -0.37300E+03
        -0.37300E+03
        -0.37300E+03
        -0.37300E+03
        -0.37300E+03
        -0.37300E+03
        -0.37300E+03
        -0.37300E+03
        -0.37300E+03
        -0.37300E+03
        -0.37300E+03
        -0.37300E+03
        -0.37300E+03
        -0.37300E+03
        -0.37300E+03
        -0.37300E+03
        -0.37300E+03
        -0.37300E+03
        -0.37300E+03
        -0.37300E+03
        -0.37300E+03
        -0.37300E+03
        -0.37300E+03
        -0.37300E+03
        -0.37300E+03
        -0.37300E+03
        -0.37300E+03
        -0.37300E+03
        -0.37300E+03
        -0.37300E+03
        -0.37300E+03
        -0.37300E+03
        -0.37300E+03
        -0.37300E+03
        -0.37300E+03
        -0.37300E+03
        -0.37300E+03
        -0.37300E+03
        -0.37300E+03
        -0.37300E+03
        -0.37300E+03
        -0.37300E+03
        -0.37300E+03
        -0.37300E+03
        -0.37300E+03
        -0.37300E+03
        -0.37300E+03
        -0.37300E+03
        -0.37300E+03
        -0.37300E+03
        -0.37300E+03
        -0.37300E+03
        -0.37300E+03
        -0.37300E+03
        -0.37300E+03
        -0.37300E+03
        -0.37300E+03
        -0.37300E+03
        -0.37300E+03
        -0.37300E+03
        -0.37300E+03
        -0.37300E+03
        -0.37300E+03
        -0.37300E+03
        -0.37300E+03
        -0.37300E+03
        -0.37300E+03
        -0.37300E+03
        -0.37300E+03
        -0.37300E+03
        -0.37300E+03
        -0.37300E+03
        -0.37300E+03
        -0.37300E+03
        -0.37300E+03
        -0.37300E+03
        -0.37300E+03
        -0.37300E+03
        -0.37300E+03
        -0.37300E+03
        -0.37300E+03
        -0.37300E+03
        -0.37300E+03
        -0.37300E+03
        -0.37300E+03
        -0.37300E+03
        -0.37300E+03
        -0.37300E+03
        -0.37300E+03
        -0.37300E+03
        -0.37300E+03
        -0.37300E+03
        -0.37300E+03
        -0.37300E+03
        -0.37300E+03
        -0.37300E+03
        -0.37300E+03
        -0.37300E+03
        -0.37300E+03
        -0.37300E+03
        -0.37300E+03
        -0.37300E+03
        -0.37300E+03
        -0.37300E+03
        -0.37300E+03
        -0.37300E+03
        -0.37300E+03
        -0.37300E+03
        -0.37300E+03
        -0.37300E+03
        -0.37300E+03
        -0.37300E+03
        -0.37300E+03
        -0.37300E+03
        -0.37300E+03
        -0.37300E+03
        -0.37300E+03
        -0.37300E+03
        -0.37300E+03
        -0.37300E+03
        -0.37300E+03
        -0.37300E+03
        -0.37300E+03
        -0.37300E+03
        -0.37300E+03
        -0.37300E+03
        -0.37300E+03
        -0.37300E+03
        -0.37300E+03
        -0.37300E+03
        -0.37300E+03
        -0.37300E+03
        -0.37300E+03
        -0.37300E+03
        -0.37300E+03
        -0.37300E+03
        -0.37300E+03
        -0.37300E+03
        -0.37300E+03
        -0.37300E+03
        -0.37300E+03
        -0.37300E+03
        -0.37300E+03
        -0.37300E+03
        -0.37300E+03
        -0.37300E+03
        -0.37300E+03
        -0.37300E+03
        -0.37300E+03
        -0.37300E+03
        -0.37300E+03
        -0.37300E+03
        -0.37300E+03
        -0.37300E+03
        -0.37300E+03
        -0.37300E+03
        -0.37300E+03
        -0.37300E+03
        -0.37300E+03
        -0.37300E+03
        -0.37300E+03
        -0.37300E+03
        -0.37300E+03
        -0.37300E+03
        -0.37300E+03
        -0.37300E+03
        -0.37300E+03
        -0.37300E+03
        -0.37300E+03
        -0.37300E+03
        -0.37300E+03
        -0.37300E+03
        -0.37300E+03
        -0.37300E+03
        -0.37300E+03
        -0.37300E+03
        -0.37300E+03
        -0.37300E+03
        -0.37300E+03
        -0.37300E+03
        -0.37300E+03
        -0.37300E+03
        -0.37300E+03
        -0.37300E+03
        -0.37300E+03
        -0.37300E+03
        -0.37300E+03
        -0.37300E+03
        -0.37300E+03
        -0.37300E+03
        -0.37300E+03
        -0.37300E+03
        -0.37300E+03
        -0.37300E+03
        -0.37300E+03
        -0.37300E+03
        -0.37300E+03
        -0.37300E+03
        -0.37300E+03
        -0.37300E+03
        -0.37300E+03
        -0.37300E+03
        -0.37300E+03
        -0.37300E+03
        -0.37300E+03
        -0.37300E+03
        -0.37300E+03
        -0.37300E+03
        -0.37300E+03
        -0.37300E+03
        -0.37300E+03
        -0.37300E+03
        -0.37300E+03
        -0.37300E+03
        -0.37300E+03
        -0.37300E+03
        -0.37300E+03
        -0.37300E+03
        -0.37300E+03
        -0.37300E+03
        -0.37300E+03
        -0.37300E+03
        -0.37300E+03
        -0.37300E+03
        -0.37300E+03
        -0.37300E+03
        -0.37300E+03
        -0.37300E+03
        -0.37300E+03
        -0.37300E+03
        -0.37300E+03
        -0.37300E+03
        -0.37300E+03
        -0.37300E+03
        -0.37300E+03
        -0.37300E+03
        -0.37300E+03
        -0.37300E+03
        -0.37300E+03
        -0.37300E+03
        -0.37300E+03
        -0.37300E+03
        -0.37300E+03
        -0.37300E+03
        -0.37300E+03
        -0.37300E+03
        -0.37300E+03
        -0.37300E+03
        -0.37300E+03
        -0.37300E+03
        -0.37300E+03
        -0.37300E+03
        -0.37300E+03
        -0.37300E+03
        -0.37300E+03
        -0.37300E+03
        -0.37300E+03
        -0.37300E+03
        -0.37300E+03
        -0.37300E+03
        -0.37300E+03
        -0.37300E+03
        -0.37300E+03
        -0.37300E+03
        -0.37300E+03
        -0.37300E+03
        -0.37300E+03
        -0.37300E+03
        -0.37300E+03
        -0.37300E+03
        -0.37300E+03
        -0.37300E+03
        -0.37300E+03
        -0.37300E+03
        -0.37300E+03
        -0.37300E+03
        -0.37300E+03
        -0.37300E+03
        -0.37300E+03
        -0.37300E+03
        -0.37300E+03
        -0.37300E+03
        -0.37300E+03
        -0.37300E+03
        -0.37300E+03
        -0.37300E+03
        -0.37300E+03
        -0.37300E+03
        -0.37300E+03
        -0.37300E+03
        -0.37300E+03
        -0.37300E+03
        -0.37300E+03
        -0.37300E+03
        -0.37300E+03
        -0.37300E+03
        -0.37300E+03
        -0.37300E+03
        -0.37300E+03
        -0.37300E+03
        -0.37300E+03
        -0.37300E+03
        -0.37300E+03
        -0.37300E+03
        -0.37300E+03
        -0.37300E+03
        -0.37300E+03
        -0.37300E+03
        -0.37300E+03
        -0.37300E+03
        -0.37300E+03
        -0.37300E+03
        -0.37300E+03
        -0.37300E+03
        -0.37300E+03
        -0.37300E+03
        -0.37300E+03
        -0.37300E+03
        -0.37300E+03
        -0.37300E+03
        -0.37300E+03
        -0.37300E+03
        -0.37300E+03
        -0.37300E+03
        -0.37300E+03
        -0.37300E+03
        -0.37300E+03
        -0.37300E+03
        -0.37300E+03
        -0.37300E+03
        -0.37300E+03
        -0.37300E+03
        -0.37300E+03
        -0.37300E+03
        -0.37300E+03
        -0.37300E+03
        -0.37300E+03
        -0.37300E+03
        -0.37300E+03
        -0.37300E+03
        -0.37300E+03
        -0.37300E+03
        -0.37300E+03
        -0.37300E+03
        -0.37300E+03
        -0.37300E+03
        -0.37300E+03
        -0.37300E+03
        -0.37300E+03
        -0.37300E+03
        -0.37300E+03
        -0.37300E+03
        -0.37300E+03
        -0.37300E+03
        -0.37300E+03
        -0.37300E+03
        -0.37300E+03
        -0.37300E+03
        -0.37300E+03
        -0.37300E+03
        -0.37300E+03
        -0.37300E+03
        -0.37300E+03
        -0.37300E+03
        -0.37300E+03
        -0.37300E+03
        -0.37300E+03
        -0.37300E+03
        -0.37300E+03
        -0.37300E+03
        -0.37300E+03
        -0.37300E+03
        -0.37300E+03
        -0.37300E+03
        -0.37300E+03
        -0.37300E+03
        -0.37300E+03
        -0.37300E+03
        -0.37300E+03
        -0.37300E+03
        -0.37300E+03
        -0.37300E+03
        -0.37300E+03
        -0.37300E+03
        -0.37300E+03
        -0.37300E+03
        -0.37300E+03
        -0.37300E+03
        -0.37300E+03
        -0.37300E+03
        -0.37300E+03
        -0.37300E+03
        -0.37300E+03
        -0.37300E+03
        -0.37300E+03
        -0.37300E+03
        -0.37300E+03
  
SCALARS                 acceleration_x  double 1
LOOKUP_TABLE default
         0.00000E+00
         0.00000E+00
         0.00000E+00
         0.00000E+00
         0.00000E+00
         0.00000E+00
         0.00000E+00
         0.00000E+00
         0.00000E+00
         0.00000E+00
         0.00000E+00
         0.00000E+00
         0.00000E+00
         0.00000E+00
         0.00000E+00
         0.00000E+00
         0.00000E+00
         0.00000E+00
         0.00000E+00
         0.00000E+00
         0.00000E+00
         0.00000E+00
         0.00000E+00
         0.00000E+00
         0.00000E+00
         0.00000E+00
         0.00000E+00
         0.00000E+00
         0.00000E+00
         0.00000E+00
         0.00000E+00
         0.00000E+00
         0.00000E+00
         0.00000E+00
         0.00000E+00
         0.00000E+00
         0.00000E+00
         0.00000E+00
         0.00000E+00
         0.00000E+00
         0.00000E+00
         0.00000E+00
         0.00000E+00
         0.00000E+00
         0.00000E+00
         0.00000E+00
         0.00000E+00
         0.00000E+00
         0.00000E+00
         0.00000E+00
         0.00000E+00
         0.00000E+00
         0.00000E+00
         0.00000E+00
         0.00000E+00
         0.00000E+00
         0.00000E+00
         0.00000E+00
         0.00000E+00
         0.00000E+00
         0.00000E+00
         0.00000E+00
         0.00000E+00
         0.00000E+00
         0.00000E+00
         0.00000E+00
         0.00000E+00
         0.00000E+00
         0.00000E+00
         0.00000E+00
         0.00000E+00
         0.00000E+00
         0.00000E+00
         0.00000E+00
         0.00000E+00
         0.00000E+00
         0.00000E+00
         0.00000E+00
         0.00000E+00
         0.00000E+00
         0.00000E+00
         0.00000E+00
         0.00000E+00
         0.00000E+00
         0.00000E+00
         0.00000E+00
         0.00000E+00
         0.00000E+00
         0.00000E+00
         0.00000E+00
         0.00000E+00
         0.00000E+00
         0.00000E+00
         0.00000E+00
         0.00000E+00
         0.00000E+00
         0.00000E+00
         0.00000E+00
         0.00000E+00
         0.00000E+00
         0.00000E+00
         0.00000E+00
         0.00000E+00
         0.00000E+00
         0.00000E+00
         0.00000E+00
         0.00000E+00
         0.00000E+00
         0.00000E+00
         0.00000E+00
         0.00000E+00
         0.00000E+00
         0.00000E+00
         0.00000E+00
         0.00000E+00
         0.00000E+00
         0.00000E+00
         0.00000E+00
         0.00000E+00
         0.00000E+00
         0.00000E+00
         0.00000E+00
         0.00000E+00
         0.00000E+00
         0.00000E+00
         0.00000E+00
         0.00000E+00
         0.00000E+00
         0.00000E+00
         0.00000E+00
         0.00000E+00
         0.00000E+00
         0.00000E+00
         0.00000E+00
         0.00000E+00
         0.00000E+00
         0.00000E+00
         0.00000E+00
         0.00000E+00
         0.00000E+00
         0.00000E+00
         0.00000E+00
         0.00000E+00
         0.00000E+00
         0.00000E+00
         0.00000E+00
         0.00000E+00
         0.00000E+00
         0.00000E+00
         0.00000E+00
         0.00000E+00
         0.00000E+00
         0.00000E+00
         0.00000E+00
         0.00000E+00
         0.00000E+00
         0.00000E+00
         0.00000E+00
         0.00000E+00
         0.00000E+00
         0.00000E+00
         0.00000E+00
         0.00000E+00
         0.00000E+00
         0.00000E+00
         0.00000E+00
         0.00000E+00
         0.00000E+00
         0.00000E+00
         0.00000E+00
         0.00000E+00
         0.00000E+00
         0.00000E+00
         0.00000E+00
         0.00000E+00
         0.00000E+00
         0.00000E+00
         0.00000E+00
         0.00000E+00
         0.00000E+00
         0.00000E+00
         0.00000E+00
         0.00000E+00
         0.00000E+00
         0.00000E+00
         0.00000E+00
         0.00000E+00
         0.00000E+00
         0.00000E+00
         0.00000E+00
         0.00000E+00
         0.00000E+00
         0.00000E+00
         0.00000E+00
         0.00000E+00
         0.00000E+00
         0.00000E+00
         0.00000E+00
         0.00000E+00
         0.00000E+00
         0.00000E+00
         0.00000E+00
         0.00000E+00
         0.00000E+00
         0.00000E+00
         0.00000E+00
         0.00000E+00
         0.00000E+00
         0.00000E+00
         0.00000E+00
         0.00000E+00
         0.00000E+00
         0.00000E+00
         0.00000E+00
         0.00000E+00
         0.00000E+00
         0.00000E+00
         0.00000E+00
         0.00000E+00
         0.00000E+00
         0.00000E+00
         0.00000E+00
         0.00000E+00
         0.00000E+00
         0.00000E+00
         0.00000E+00
         0.00000E+00
         0.00000E+00
         0.00000E+00
         0.00000E+00
         0.00000E+00
         0.00000E+00
         0.00000E+00
         0.00000E+00
         0.00000E+00
         0.00000E+00
         0.00000E+00
         0.00000E+00
         0.00000E+00
         0.00000E+00
         0.00000E+00
         0.00000E+00
         0.00000E+00
         0.00000E+00
         0.00000E+00
         0.00000E+00
         0.00000E+00
         0.00000E+00
         0.00000E+00
         0.00000E+00
         0.00000E+00
         0.00000E+00
         0.00000E+00
         0.00000E+00
         0.00000E+00
         0.00000E+00
         0.00000E+00
         0.00000E+00
         0.00000E+00
         0.00000E+00
         0.00000E+00
         0.00000E+00
         0.00000E+00
         0.00000E+00
         0.00000E+00
         0.00000E+00
         0.00000E+00
         0.00000E+00
         0.00000E+00
         0.00000E+00
         0.00000E+00
         0.00000E+00
         0.00000E+00
         0.00000E+00
         0.00000E+00
         0.00000E+00
         0.00000E+00
         0.00000E+00
         0.00000E+00
         0.00000E+00
         0.00000E+00
         0.00000E+00
         0.00000E+00
         0.00000E+00
         0.00000E+00
         0.00000E+00
         0.00000E+00
         0.00000E+00
         0.00000E+00
         0.00000E+00
         0.00000E+00
         0.00000E+00
         0.00000E+00
         0.00000E+00
         0.00000E+00
         0.00000E+00
         0.00000E+00
         0.00000E+00
         0.00000E+00
         0.00000E+00
         0.00000E+00
         0.00000E+00
         0.00000E+00
         0.00000E+00
         0.00000E+00
         0.00000E+00
         0.00000E+00
         0.00000E+00
         0.00000E+00
         0.00000E+00
         0.00000E+00
         0.00000E+00
         0.00000E+00
         0.00000E+00
         0.00000E+00
         0.00000E+00
         0.00000E+00
         0.00000E+00
         0.00000E+00
         0.00000E+00
         0.00000E+00
         0.00000E+00
         0.00000E+00
         0.00000E+00
         0.00000E+00
         0.00000E+00
         0.00000E+00
         0.00000E+00
         0.00000E+00
         0.00000E+00
         0.00000E+00
         0.00000E+00
         0.00000E+00
         0.00000E+00
         0.00000E+00
         0.00000E+00
         0.00000E+00
         0.00000E+00
         0.00000E+00
         0.00000E+00
         0.00000E+00
         0.00000E+00
         0.00000E+00
         0.00000E+00
         0.00000E+00
         0.00000E+00
         0.00000E+00
         0.00000E+00
         0.00000E+00
         0.00000E+00
         0.00000E+00
         0.00000E+00
         0.00000E+00
         0.00000E+00
         0.00000E+00
         0.00000E+00
         0.00000E+00
         0.00000E+00
         0.00000E+00
         0.00000E+00
         0.00000E+00
         0.00000E+00
         0.00000E+00
         0.00000E+00
         0.00000E+00
         0.00000E+00
         0.00000E+00
         0.00000E+00
         0.00000E+00
         0.00000E+00
         0.00000E+00
         0.00000E+00
         0.00000E+00
         0.00000E+00
         0.00000E+00
         0.00000E+00
         0.00000E+00
         0.00000E+00
         0.00000E+00
         0.00000E+00
         0.00000E+00
         0.00000E+00
         0.00000E+00
         0.00000E+00
         0.00000E+00
         0.00000E+00
         0.00000E+00
         0.00000E+00
         0.00000E+00
         0.00000E+00
         0.00000E+00
         0.00000E+00
         0.00000E+00
         0.00000E+00
         0.00000E+00
         0.00000E+00
         0.00000E+00
         0.00000E+00
         0.00000E+00
         0.00000E+00
         0.00000E+00
         0.00000E+00
         0.00000E+00
         0.00000E+00
         0.00000E+00
         0.00000E+00
         0.00000E+00
         0.00000E+00
         0.00000E+00
         0.00000E+00
         0.00000E+00
         0.00000E+00
         0.00000E+00
         0.00000E+00
         0.00000E+00
         0.00000E+00
         0.00000E+00
         0.00000E+00
         0.00000E+00
         0.00000E+00
         0.00000E+00
         0.00000E+00
         0.00000E+00
         0.00000E+00
         0.00000E+00
         0.00000E+00
         0.00000E+00
         0.00000E+00
         0.00000E+00
         0.00000E+00
         0.00000E+00
         0.00000E+00
         0.00000E+00
         0.00000E+00
         0.00000E+00
         0.00000E+00
         0.00000E+00
         0.00000E+00
         0.00000E+00
         0.00000E+00
         0.00000E+00
         0.00000E+00
         0.00000E+00
         0.00000E+00
         0.00000E+00
         0.00000E+00
         0.00000E+00
         0.00000E+00
         0.00000E+00
         0.00000E+00
         0.00000E+00
         0.00000E+00
         0.00000E+00
         0.00000E+00
         0.00000E+00
         0.00000E+00
         0.00000E+00
         0.00000E+00
         0.00000E+00
         0.00000E+00
         0.00000E+00
         0.00000E+00
         0.00000E+00
         0.00000E+00
         0.00000E+00
         0.00000E+00
         0.00000E+00
         0.00000E+00
         0.00000E+00
         0.00000E+00
         0.00000E+00
         0.00000E+00
         0.00000E+00
         0.00000E+00
         0.00000E+00
         0.00000E+00
         0.00000E+00
         0.00000E+00
         0.00000E+00
         0.00000E+00
         0.00000E+00
         0.00000E+00
         0.00000E+00
         0.00000E+00
         0.00000E+00
         0.00000E+00
         0.00000E+00
         0.00000E+00
         0.00000E+00
         0.00000E+00
         0.00000E+00
         0.00000E+00
         0.00000E+00
         0.00000E+00
         0.00000E+00
         0.00000E+00
         0.00000E+00
         0.00000E+00
         0.00000E+00
         0.00000E+00
         0.00000E+00
         0.00000E+00
         0.00000E+00
         0.00000E+00
         0.00000E+00
         0.00000E+00
         0.00000E+00
         0.00000E+00
         0.00000E+00
         0.00000E+00
         0.00000E+00
         0.00000E+00
         0.00000E+00
         0.00000E+00
         0.00000E+00
         0.00000E+00
         0.00000E+00
         0.00000E+00
         0.00000E+00
         0.00000E+00
         0.00000E+00
         0.00000E+00
         0.00000E+00
         0.00000E+00
         0.00000E+00
         0.00000E+00
         0.00000E+00
         0.00000E+00
         0.00000E+00
         0.00000E+00
         0.00000E+00
         0.00000E+00
         0.00000E+00
         0.00000E+00
         0.00000E+00
         0.00000E+00
         0.00000E+00
         0.00000E+00
         0.00000E+00
         0.00000E+00
         0.00000E+00
         0.00000E+00
         0.00000E+00
         0.00000E+00
         0.00000E+00
         0.00000E+00
         0.00000E+00
         0.00000E+00
         0.00000E+00
         0.00000E+00
         0.00000E+00
         0.00000E+00
         0.00000E+00
         0.00000E+00
         0.00000E+00
         0.00000E+00
         0.00000E+00
         0.00000E+00
         0.00000E+00
         0.00000E+00
         0.00000E+00
         0.00000E+00
         0.00000E+00
         0.00000E+00
         0.00000E+00
         0.00000E+00
         0.00000E+00
         0.00000E+00
         0.00000E+00
         0.00000E+00
         0.00000E+00
         0.00000E+00
         0.00000E+00
         0.00000E+00
         0.00000E+00
         0.00000E+00
         0.00000E+00
         0.00000E+00
         0.00000E+00
         0.00000E+00
         0.00000E+00
         0.00000E+00
         0.00000E+00
         0.00000E+00
         0.00000E+00
         0.00000E+00
         0.00000E+00
         0.00000E+00
         0.00000E+00
         0.00000E+00
         0.00000E+00
         0.00000E+00
         0.00000E+00
         0.00000E+00
         0.00000E+00
         0.00000E+00
         0.00000E+00
         0.00000E+00
         0.00000E+00
         0.00000E+00
         0.00000E+00
         0.00000E+00
         0.00000E+00
         0.00000E+00
         0.00000E+00
         0.00000E+00
         0.00000E+00
         0.00000E+00
         0.00000E+00
         0.00000E+00
         0.00000E+00
         0.00000E+00
         0.00000E+00
         0.00000E+00
         0.00000E+00
         0.00000E+00
         0.00000E+00
         0.00000E+00
         0.00000E+00
         0.00000E+00
         0.00000E+00
         0.00000E+00
         0.00000E+00
         0.00000E+00
         0.00000E+00
         0.00000E+00
         0.00000E+00
         0.00000E+00
         0.00000E+00
         0.00000E+00
         0.00000E+00
         0.00000E+00
         0.00000E+00
         0.00000E+00
         0.00000E+00
         0.00000E+00
         0.00000E+00
         0.00000E+00
         0.00000E+00
         0.00000E+00
         0.00000E+00
         0.00000E+00
         0.00000E+00
         0.00000E+00
         0.00000E+00
         0.00000E+00
         0.00000E+00
         0.00000E+00
         0.00000E+00
         0.00000E+00
         0.00000E+00
         0.00000E+00
         0.00000E+00
         0.00000E+00
         0.00000E+00
         0.00000E+00
         0.00000E+00
         0.00000E+00
         0.00000E+00
         0.00000E+00
         0.00000E+00
         0.00000E+00
         0.00000E+00
         0.00000E+00
         0.00000E+00
         0.00000E+00
         0.00000E+00
         0.00000E+00
         0.00000E+00
         0.00000E+00
         0.00000E+00
         0.00000E+00
         0.00000E+00
         0.00000E+00
         0.00000E+00
         0.00000E+00
         0.00000E+00
         0.00000E+00
         0.00000E+00
         0.00000E+00
         0.00000E+00
         0.00000E+00
         0.00000E+00
         0.00000E+00
         0.00000E+00
         0.00000E+00
         0.00000E+00
         0.00000E+00
         0.00000E+00
         0.00000E+00
         0.00000E+00
         0.00000E+00
         0.00000E+00
         0.00000E+00
         0.00000E+00
         0.00000E+00
         0.00000E+00
         0.00000E+00
         0.00000E+00
         0.00000E+00
         0.00000E+00
         0.00000E+00
         0.00000E+00
         0.00000E+00
         0.00000E+00
         0.00000E+00
         0.00000E+00
         0.00000E+00
         0.00000E+00
         0.00000E+00
         0.00000E+00
         0.00000E+00
         0.00000E+00
         0.00000E+00
         0.00000E+00
         0.00000E+00
         0.00000E+00
         0.00000E+00
         0.00000E+00
         0.00000E+00
         0.00000E+00
         0.00000E+00
         0.00000E+00
         0.00000E+00
         0.00000E+00
         0.00000E+00
         0.00000E+00
         0.00000E+00
         0.00000E+00
         0.00000E+00
         0.00000E+00
         0.00000E+00
         0.00000E+00
         0.00000E+00
         0.00000E+00
         0.00000E+00
         0.00000E+00
         0.00000E+00
         0.00000E+00
         0.00000E+00
         0.00000E+00
         0.00000E+00
         0.00000E+00
         0.00000E+00
         0.00000E+00
         0.00000E+00
         0.00000E+00
         0.00000E+00
         0.00000E+00
         0.00000E+00
         0.00000E+00
         0.00000E+00
         0.00000E+00
         0.00000E+00
         0.00000E+00
         0.00000E+00
         0.00000E+00
         0.00000E+00
         0.00000E+00
         0.00000E+00
         0.00000E+00
         0.00000E+00
         0.00000E+00
         0.00000E+00
         0.00000E+00
         0.00000E+00
         0.00000E+00
         0.00000E+00
         0.00000E+00
         0.00000E+00
         0.00000E+00
         0.00000E+00
         0.00000E+00
         0.00000E+00
         0.00000E+00
         0.00000E+00
         0.00000E+00
         0.00000E+00
         0.00000E+00
         0.00000E+00
         0.00000E+00
         0.00000E+00
         0.00000E+00
         0.00000E+00
         0.00000E+00
         0.00000E+00
         0.00000E+00
         0.00000E+00
         0.00000E+00
         0.00000E+00
         0.00000E+00
         0.00000E+00
         0.00000E+00
         0.00000E+00
         0.00000E+00
         0.00000E+00
         0.00000E+00
         0.00000E+00
         0.00000E+00
         0.00000E+00
         0.00000E+00
         0.00000E+00
         0.00000E+00
         0.00000E+00
         0.00000E+00
         0.00000E+00
         0.00000E+00
         0.00000E+00
         0.00000E+00
         0.00000E+00
         0.00000E+00
         0.00000E+00
         0.00000E+00
         0.00000E+00
         0.00000E+00
         0.00000E+00
         0.00000E+00
         0.00000E+00
         0.00000E+00
         0.00000E+00
         0.00000E+00
         0.00000E+00
         0.00000E+00
         0.00000E+00
         0.00000E+00
         0.00000E+00
         0.00000E+00
         0.00000E+00
         0.00000E+00
         0.00000E+00
         0.00000E+00
         0.00000E+00
         0.00000E+00
         0.00000E+00
         0.00000E+00
         0.00000E+00
         0.00000E+00
         0.00000E+00
         0.00000E+00
         0.00000E+00
         0.00000E+00
         0.00000E+00
         0.00000E+00
         0.00000E+00
         0.00000E+00
         0.00000E+00
         0.00000E+00
         0.00000E+00
         0.00000E+00
         0.00000E+00
         0.00000E+00
         0.00000E+00
         0.00000E+00
         0.00000E+00
         0.00000E+00
         0.00000E+00
         0.00000E+00
         0.00000E+00
         0.00000E+00
         0.00000E+00
         0.00000E+00
         0.00000E+00
         0.00000E+00
         0.00000E+00
         0.00000E+00
         0.00000E+00
         0.00000E+00
         0.00000E+00
         0.00000E+00
         0.00000E+00
         0.00000E+00
         0.00000E+00
         0.00000E+00
         0.00000E+00
         0.00000E+00
         0.00000E+00
         0.00000E+00
         0.00000E+00
         0.00000E+00
         0.00000E+00
         0.00000E+00
         0.00000E+00
         0.00000E+00
         0.00000E+00
         0.00000E+00
         0.00000E+00
         0.00000E+00
         0.00000E+00
         0.00000E+00
         0.00000E+00
         0.00000E+00
         0.00000E+00
         0.00000E+00
         0.00000E+00
         0.00000E+00
         0.00000E+00
         0.00000E+00
         0.00000E+00
         0.00000E+00
         0.00000E+00
         0.00000E+00
         0.00000E+00
         0.00000E+00
         0.00000E+00
         0.00000E+00
         0.00000E+00
         0.00000E+00
         0.00000E+00
         0.00000E+00
         0.00000E+00
         0.00000E+00
         0.00000E+00
         0.00000E+00
         0.00000E+00
         0.00000E+00
         0.00000E+00
         0.00000E+00
         0.00000E+00
         0.00000E+00
         0.00000E+00
         0.00000E+00
         0.00000E+00
         0.00000E+00
         0.00000E+00
         0.00000E+00
         0.00000E+00
         0.00000E+00
         0.00000E+00
         0.00000E+00
         0.00000E+00
         0.00000E+00
         0.00000E+00
         0.00000E+00
         0.00000E+00
         0.00000E+00
         0.00000E+00
         0.00000E+00
         0.00000E+00
         0.00000E+00
         0.00000E+00
         0.00000E+00
         0.00000E+00
         0.00000E+00
         0.00000E+00
         0.00000E+00
         0.00000E+00
         0.00000E+00
         0.00000E+00
         0.00000E+00
         0.00000E+00
         0.00000E+00
         0.00000E+00
         0.00000E+00
         0.00000E+00
         0.00000E+00
         0.00000E+00
         0.00000E+00
         0.00000E+00
         0.00000E+00
         0.00000E+00
         0.00000E+00
         0.00000E+00
         0.00000E+00
         0.00000E+00
         0.00000E+00
         0.00000E+00
         0.00000E+00
         0.00000E+00
         0.00000E+00
         0.00000E+00
         0.00000E+00
         0.00000E+00
         0.00000E+00
         0.00000E+00
         0.00000E+00
         0.00000E+00
         0.00000E+00
         0.00000E+00
         0.00000E+00
         0.00000E+00
         0.00000E+00
         0.00000E+00
         0.00000E+00
         0.00000E+00
         0.00000E+00
         0.00000E+00
         0.00000E+00
         0.00000E+00
         0.00000E+00
         0.00000E+00
         0.00000E+00
         0.00000E+00
         0.00000E+00
         0.00000E+00
         0.00000E+00
         0.00000E+00
         0.00000E+00
         0.00000E+00
         0.00000E+00
         0.00000E+00
         0.00000E+00
         0.00000E+00
         0.00000E+00
         0.00000E+00
         0.00000E+00
         0.00000E+00
         0.00000E+00
         0.00000E+00
         0.00000E+00
         0.00000E+00
         0.00000E+00
         0.00000E+00
         0.00000E+00
         0.00000E+00
         0.00000E+00
         0.00000E+00
         0.00000E+00
         0.00000E+00
         0.00000E+00
         0.00000E+00
         0.00000E+00
         0.00000E+00
         0.00000E+00
         0.00000E+00
         0.00000E+00
         0.00000E+00
         0.00000E+00
         0.00000E+00
         0.00000E+00
         0.00000E+00
         0.00000E+00
         0.00000E+00
         0.00000E+00
         0.00000E+00
         0.00000E+00
         0.00000E+00
         0.00000E+00
         0.00000E+00
         0.00000E+00
         0.00000E+00
         0.00000E+00
         0.00000E+00
         0.00000E+00
         0.00000E+00
         0.00000E+00
         0.00000E+00
         0.00000E+00
         0.00000E+00
         0.00000E+00
         0.00000E+00
         0.00000E+00
         0.00000E+00
         0.00000E+00
         0.00000E+00
         0.00000E+00
         0.00000E+00
         0.00000E+00
         0.00000E+00
         0.00000E+00
         0.00000E+00
         0.00000E+00
         0.00000E+00
         0.00000E+00
         0.00000E+00
         0.00000E+00
         0.00000E+00
         0.00000E+00
         0.00000E+00
         0.00000E+00
         0.00000E+00
         0.00000E+00
         0.00000E+00
         0.00000E+00
         0.00000E+00
         0.00000E+00
         0.00000E+00
         0.00000E+00
         0.00000E+00
         0.00000E+00
         0.00000E+00
         0.00000E+00
         0.00000E+00
         0.00000E+00
         0.00000E+00
         0.00000E+00
         0.00000E+00
         0.00000E+00
         0.00000E+00
         0.00000E+00
         0.00000E+00
         0.00000E+00
         0.00000E+00
         0.00000E+00
         0.00000E+00
         0.00000E+00
         0.00000E+00
         0.00000E+00
         0.00000E+00
         0.00000E+00
         0.00000E+00
         0.00000E+00
         0.00000E+00
         0.00000E+00
         0.00000E+00
         0.00000E+00
         0.00000E+00
         0.00000E+00
         0.00000E+00
         0.00000E+00
         0.00000E+00
         0.00000E+00
         0.00000E+00
         0.00000E+00
         0.00000E+00
         0.00000E+00
         0.00000E+00
         0.00000E+00
         0.00000E+00
         0.00000E+00
         0.00000E+00
         0.00000E+00
         0.00000E+00
         0.00000E+00
         0.00000E+00
         0.00000E+00
         0.00000E+00
         0.00000E+00
         0.00000E+00
         0.00000E+00
         0.00000E+00
         0.00000E+00
         0.00000E+00
         0.00000E+00
         0.00000E+00
         0.00000E+00
         0.00000E+00
         0.00000E+00
         0.00000E+00
         0.00000E+00
         0.00000E+00
         0.00000E+00
         0.00000E+00
         0.00000E+00
         0.00000E+00
         0.00000E+00
         0.00000E+00
         0.00000E+00
         0.00000E+00
         0.00000E+00
         0.00000E+00
         0.00000E+00
         0.00000E+00
         0.00000E+00
         0.00000E+00
         0.00000E+00
         0.00000E+00
         0.00000E+00
         0.00000E+00
         0.00000E+00
         0.00000E+00
         0.00000E+00
         0.00000E+00
         0.00000E+00
         0.00000E+00
         0.00000E+00
         0.00000E+00
         0.00000E+00
         0.00000E+00
         0.00000E+00
         0.00000E+00
         0.00000E+00
         0.00000E+00
         0.00000E+00
         0.00000E+00
         0.00000E+00
         0.00000E+00
         0.00000E+00
         0.00000E+00
         0.00000E+00
         0.00000E+00
         0.00000E+00
         0.00000E+00
         0.00000E+00
         0.00000E+00
         0.00000E+00
         0.00000E+00
         0.00000E+00
         0.00000E+00
         0.00000E+00
         0.00000E+00
         0.00000E+00
         0.00000E+00
         0.00000E+00
         0.00000E+00
         0.00000E+00
         0.00000E+00
         0.00000E+00
         0.00000E+00
         0.00000E+00
         0.00000E+00
         0.00000E+00
         0.00000E+00
         0.00000E+00
         0.00000E+00
         0.00000E+00
         0.00000E+00
         0.00000E+00
         0.00000E+00
         0.00000E+00
         0.00000E+00
         0.00000E+00
         0.00000E+00
         0.00000E+00
         0.00000E+00
         0.00000E+00
         0.00000E+00
         0.00000E+00
         0.00000E+00
         0.00000E+00
         0.00000E+00
         0.00000E+00
         0.00000E+00
         0.00000E+00
         0.00000E+00
         0.00000E+00
         0.00000E+00
         0.00000E+00
         0.00000E+00
         0.00000E+00
         0.00000E+00
         0.00000E+00
         0.00000E+00
         0.00000E+00
         0.00000E+00
         0.00000E+00
         0.00000E+00
         0.00000E+00
         0.00000E+00
         0.00000E+00
         0.00000E+00
         0.00000E+00
         0.00000E+00
         0.00000E+00
         0.00000E+00
         0.00000E+00
         0.00000E+00
         0.00000E+00
         0.00000E+00
         0.00000E+00
         0.00000E+00
         0.00000E+00
         0.00000E+00
         0.00000E+00
         0.00000E+00
         0.00000E+00
         0.00000E+00
         0.00000E+00
         0.00000E+00
         0.00000E+00
         0.00000E+00
         0.00000E+00
         0.00000E+00
         0.00000E+00
         0.00000E+00
         0.00000E+00
         0.00000E+00
         0.00000E+00
         0.00000E+00
         0.00000E+00
         0.00000E+00
         0.00000E+00
         0.00000E+00
         0.00000E+00
         0.00000E+00
         0.00000E+00
         0.00000E+00
         0.00000E+00
         0.00000E+00
         0.00000E+00
         0.00000E+00
         0.00000E+00
         0.00000E+00
         0.00000E+00
         0.00000E+00
         0.00000E+00
         0.00000E+00
         0.00000E+00
         0.00000E+00
         0.00000E+00
         0.00000E+00
         0.00000E+00
         0.00000E+00
         0.00000E+00
         0.00000E+00
         0.00000E+00
         0.00000E+00
         0.00000E+00
         0.00000E+00
         0.00000E+00
         0.00000E+00
         0.00000E+00
         0.00000E+00
         0.00000E+00
         0.00000E+00
         0.00000E+00
         0.00000E+00
         0.00000E+00
         0.00000E+00
         0.00000E+00
         0.00000E+00
         0.00000E+00
         0.00000E+00
         0.00000E+00
         0.00000E+00
         0.00000E+00
         0.00000E+00
         0.00000E+00
         0.00000E+00
         0.00000E+00
         0.00000E+00
         0.00000E+00
         0.00000E+00
         0.00000E+00
         0.00000E+00
         0.00000E+00
         0.00000E+00
         0.00000E+00
         0.00000E+00
         0.00000E+00
         0.00000E+00
         0.00000E+00
         0.00000E+00
         0.00000E+00
         0.00000E+00
         0.00000E+00
         0.00000E+00
         0.00000E+00
         0.00000E+00
         0.00000E+00
         0.00000E+00
         0.00000E+00
         0.00000E+00
         0.00000E+00
         0.00000E+00
         0.00000E+00
         0.00000E+00
         0.00000E+00
         0.00000E+00
         0.00000E+00
         0.00000E+00
         0.00000E+00
         0.00000E+00
         0.00000E+00
         0.00000E+00
         0.00000E+00
         0.00000E+00
         0.00000E+00
         0.00000E+00
         0.00000E+00
         0.00000E+00
         0.00000E+00
         0.00000E+00
         0.00000E+00
         0.00000E+00
         0.00000E+00
         0.00000E+00
         0.00000E+00
         0.00000E+00
         0.00000E+00
         0.00000E+00
         0.00000E+00
         0.00000E+00
         0.00000E+00
         0.00000E+00
         0.00000E+00
         0.00000E+00
         0.00000E+00
         0.00000E+00
         0.00000E+00
         0.00000E+00
         0.00000E+00
         0.00000E+00
         0.00000E+00
         0.00000E+00
         0.00000E+00
         0.00000E+00
         0.00000E+00
         0.00000E+00
         0.00000E+00
         0.00000E+00
         0.00000E+00
         0.00000E+00
         0.00000E+00
         0.00000E+00
         0.00000E+00
         0.00000E+00
         0.00000E+00
         0.00000E+00
         0.00000E+00
         0.00000E+00
         0.00000E+00
         0.00000E+00
         0.00000E+00
         0.00000E+00
         0.00000E+00
         0.00000E+00
         0.00000E+00
         0.00000E+00
         0.00000E+00
         0.00000E+00
         0.00000E+00
         0.00000E+00
         0.00000E+00
         0.00000E+00
         0.00000E+00
         0.00000E+00
         0.00000E+00
         0.00000E+00
         0.00000E+00
         0.00000E+00
         0.00000E+00
         0.00000E+00
         0.00000E+00
         0.00000E+00
         0.00000E+00
         0.00000E+00
         0.00000E+00
         0.00000E+00
         0.00000E+00
         0.00000E+00
         0.00000E+00
         0.00000E+00
         0.00000E+00
         0.00000E+00
         0.00000E+00
         0.00000E+00
         0.00000E+00
         0.00000E+00
         0.00000E+00
         0.00000E+00
         0.00000E+00
         0.00000E+00
         0.00000E+00
         0.00000E+00
         0.00000E+00
         0.00000E+00
         0.00000E+00
         0.00000E+00
         0.00000E+00
         0.00000E+00
         0.00000E+00
         0.00000E+00
         0.00000E+00
         0.00000E+00
         0.00000E+00
         0.00000E+00
         0.00000E+00
         0.00000E+00
         0.00000E+00
         0.00000E+00
         0.00000E+00
         0.00000E+00
         0.00000E+00
         0.00000E+00
         0.00000E+00
         0.00000E+00
         0.00000E+00
         0.00000E+00
         0.00000E+00
         0.00000E+00
         0.00000E+00
         0.00000E+00
         0.00000E+00
         0.00000E+00
         0.00000E+00
         0.00000E+00
         0.00000E+00
         0.00000E+00
         0.00000E+00
         0.00000E+00
         0.00000E+00
         0.00000E+00
         0.00000E+00
         0.00000E+00
         0.00000E+00
         0.00000E+00
         0.00000E+00
         0.00000E+00
         0.00000E+00
         0.00000E+00
         0.00000E+00
         0.00000E+00
         0.00000E+00
         0.00000E+00
         0.00000E+00
         0.00000E+00
         0.00000E+00
         0.00000E+00
         0.00000E+00
         0.00000E+00
         0.00000E+00
         0.00000E+00
         0.00000E+00
         0.00000E+00
         0.00000E+00
         0.00000E+00
         0.00000E+00
         0.00000E+00
         0.00000E+00
         0.00000E+00
         0.00000E+00
         0.00000E+00
         0.00000E+00
         0.00000E+00
         0.00000E+00
         0.00000E+00
         0.00000E+00
         0.00000E+00
         0.00000E+00
         0.00000E+00
         0.00000E+00
         0.00000E+00
         0.00000E+00
         0.00000E+00
         0.00000E+00
         0.00000E+00
         0.00000E+00
         0.00000E+00
         0.00000E+00
         0.00000E+00
         0.00000E+00
         0.00000E+00
         0.00000E+00
         0.00000E+00
         0.00000E+00
         0.00000E+00
         0.00000E+00
         0.00000E+00
         0.00000E+00
         0.00000E+00
         0.00000E+00
         0.00000E+00
         0.00000E+00
         0.00000E+00
         0.00000E+00
         0.00000E+00
         0.00000E+00
         0.00000E+00
         0.00000E+00
         0.00000E+00
         0.00000E+00
         0.00000E+00
         0.00000E+00
         0.00000E+00
         0.00000E+00
         0.00000E+00
         0.00000E+00
         0.00000E+00
         0.00000E+00
         0.00000E+00
         0.00000E+00
         0.00000E+00
         0.00000E+00
         0.00000E+00
         0.00000E+00
         0.00000E+00
         0.00000E+00
         0.00000E+00
         0.00000E+00
         0.00000E+00
         0.00000E+00
         0.00000E+00
         0.00000E+00
         0.00000E+00
         0.00000E+00
         0.00000E+00
         0.00000E+00
         0.00000E+00
         0.00000E+00
         0.00000E+00
         0.00000E+00
         0.00000E+00
         0.00000E+00
         0.00000E+00
         0.00000E+00
         0.00000E+00
         0.00000E+00
         0.00000E+00
         0.00000E+00
         0.00000E+00
         0.00000E+00
         0.00000E+00
         0.00000E+00
         0.00000E+00
         0.00000E+00
         0.00000E+00
         0.00000E+00
         0.00000E+00
         0.00000E+00
         0.00000E+00
         0.00000E+00
         0.00000E+00
         0.00000E+00
         0.00000E+00
         0.00000E+00
         0.00000E+00
         0.00000E+00
         0.00000E+00
         0.00000E+00
         0.00000E+00
         0.00000E+00
         0.00000E+00
         0.00000E+00
         0.00000E+00
         0.00000E+00
         0.00000E+00
         0.00000E+00
         0.00000E+00
         0.00000E+00
         0.00000E+00
         0.00000E+00
         0.00000E+00
         0.00000E+00
         0.00000E+00
         0.00000E+00
         0.00000E+00
         0.00000E+00
         0.00000E+00
         0.00000E+00
         0.00000E+00
         0.00000E+00
         0.00000E+00
         0.00000E+00
         0.00000E+00
         0.00000E+00
         0.00000E+00
         0.00000E+00
         0.00000E+00
         0.00000E+00
         0.00000E+00
         0.00000E+00
         0.00000E+00
         0.00000E+00
         0.00000E+00
         0.00000E+00
         0.00000E+00
         0.00000E+00
         0.00000E+00
         0.00000E+00
         0.00000E+00
         0.00000E+00
         0.00000E+00
         0.00000E+00
         0.00000E+00
         0.00000E+00
         0.00000E+00
         0.00000E+00
         0.00000E+00
         0.00000E+00
         0.00000E+00
         0.00000E+00
         0.00000E+00
         0.00000E+00
         0.00000E+00
         0.00000E+00
         0.00000E+00
         0.00000E+00
         0.00000E+00
         0.00000E+00
         0.00000E+00
         0.00000E+00
         0.00000E+00
         0.00000E+00
         0.00000E+00
         0.00000E+00
         0.00000E+00
         0.00000E+00
         0.00000E+00
         0.00000E+00
         0.00000E+00
         0.00000E+00
         0.00000E+00
         0.00000E+00
         0.00000E+00
         0.00000E+00
         0.00000E+00
         0.00000E+00
         0.00000E+00
         0.00000E+00
         0.00000E+00
         0.00000E+00
         0.00000E+00
         0.00000E+00
         0.00000E+00
         0.00000E+00
         0.00000E+00
         0.00000E+00
         0.00000E+00
         0.00000E+00
         0.00000E+00
         0.00000E+00
         0.00000E+00
         0.00000E+00
         0.00000E+00
         0.00000E+00
         0.00000E+00
         0.00000E+00
         0.00000E+00
         0.00000E+00
         0.00000E+00
         0.00000E+00
         0.00000E+00
         0.00000E+00
         0.00000E+00
         0.00000E+00
         0.00000E+00
         0.00000E+00
         0.00000E+00
         0.00000E+00
         0.00000E+00
         0.00000E+00
         0.00000E+00
         0.00000E+00
         0.00000E+00
         0.00000E+00
         0.00000E+00
         0.00000E+00
         0.00000E+00
         0.00000E+00
         0.00000E+00
         0.00000E+00
         0.00000E+00
         0.00000E+00
         0.00000E+00
         0.00000E+00
         0.00000E+00
         0.00000E+00
         0.00000E+00
         0.00000E+00
         0.00000E+00
         0.00000E+00
         0.00000E+00
         0.00000E+00
         0.00000E+00
         0.00000E+00
         0.00000E+00
         0.00000E+00
         0.00000E+00
         0.00000E+00
         0.00000E+00
         0.00000E+00
         0.00000E+00
         0.00000E+00
         0.00000E+00
         0.00000E+00
         0.00000E+00
         0.00000E+00
         0.00000E+00
         0.00000E+00
         0.00000E+00
         0.00000E+00
         0.00000E+00
         0.00000E+00
         0.00000E+00
         0.00000E+00
         0.00000E+00
         0.00000E+00
         0.00000E+00
         0.00000E+00
         0.00000E+00
         0.00000E+00
         0.00000E+00
         0.00000E+00
         0.00000E+00
         0.00000E+00
         0.00000E+00
         0.00000E+00
         0.00000E+00
         0.00000E+00
         0.00000E+00
         0.00000E+00
         0.00000E+00
         0.00000E+00
         0.00000E+00
         0.00000E+00
         0.00000E+00
         0.00000E+00
         0.00000E+00
         0.00000E+00
         0.00000E+00
         0.00000E+00
         0.00000E+00
         0.00000E+00
         0.00000E+00
         0.00000E+00
         0.00000E+00
         0.00000E+00
         0.00000E+00
         0.00000E+00
         0.00000E+00
         0.00000E+00
         0.00000E+00
         0.00000E+00
         0.00000E+00
         0.00000E+00
         0.00000E+00
         0.00000E+00
         0.00000E+00
         0.00000E+00
         0.00000E+00
         0.00000E+00
         0.00000E+00
         0.00000E+00
         0.00000E+00
         0.00000E+00
         0.00000E+00
         0.00000E+00
         0.00000E+00
         0.00000E+00
         0.00000E+00
         0.00000E+00
         0.00000E+00
         0.00000E+00
         0.00000E+00
         0.00000E+00
         0.00000E+00
         0.00000E+00
         0.00000E+00
         0.00000E+00
         0.00000E+00
         0.00000E+00
         0.00000E+00
         0.00000E+00
         0.00000E+00
         0.00000E+00
         0.00000E+00
         0.00000E+00
         0.00000E+00
         0.00000E+00
         0.00000E+00
         0.00000E+00
         0.00000E+00
         0.00000E+00
         0.00000E+00
         0.00000E+00
         0.00000E+00
         0.00000E+00
         0.00000E+00
         0.00000E+00
         0.00000E+00
         0.00000E+00
         0.00000E+00
         0.00000E+00
         0.00000E+00
         0.00000E+00
         0.00000E+00
         0.00000E+00
         0.00000E+00
         0.00000E+00
         0.00000E+00
         0.00000E+00
         0.00000E+00
         0.00000E+00
         0.00000E+00
         0.00000E+00
         0.00000E+00
         0.00000E+00
         0.00000E+00
         0.00000E+00
         0.00000E+00
         0.00000E+00
         0.00000E+00
         0.00000E+00
         0.00000E+00
         0.00000E+00
         0.00000E+00
         0.00000E+00
         0.00000E+00
         0.00000E+00
         0.00000E+00
         0.00000E+00
         0.00000E+00
         0.00000E+00
         0.00000E+00
         0.00000E+00
         0.00000E+00
         0.00000E+00
         0.00000E+00
         0.00000E+00
         0.00000E+00
         0.00000E+00
         0.00000E+00
         0.00000E+00
         0.00000E+00
         0.00000E+00
         0.00000E+00
         0.00000E+00
         0.00000E+00
         0.00000E+00
         0.00000E+00
         0.00000E+00
         0.00000E+00
         0.00000E+00
         0.00000E+00
         0.00000E+00
         0.00000E+00
         0.00000E+00
         0.00000E+00
         0.00000E+00
         0.00000E+00
         0.00000E+00
         0.00000E+00
         0.00000E+00
         0.00000E+00
         0.00000E+00
         0.00000E+00
         0.00000E+00
         0.00000E+00
         0.00000E+00
         0.00000E+00
         0.00000E+00
         0.00000E+00
         0.00000E+00
         0.00000E+00
         0.00000E+00
         0.00000E+00
         0.00000E+00
         0.00000E+00
         0.00000E+00
         0.00000E+00
         0.00000E+00
         0.00000E+00
         0.00000E+00
         0.00000E+00
         0.00000E+00
         0.00000E+00
         0.00000E+00
         0.00000E+00
         0.00000E+00
         0.00000E+00
         0.00000E+00
         0.00000E+00
         0.00000E+00
         0.00000E+00
         0.00000E+00
         0.00000E+00
         0.00000E+00
         0.00000E+00
         0.00000E+00
         0.00000E+00
  
SCALARS                 acceleration_y  double 1
LOOKUP_TABLE default
         0.00000E+00
         0.00000E+00
         0.00000E+00
         0.00000E+00
         0.00000E+00
         0.00000E+00
         0.00000E+00
         0.00000E+00
         0.00000E+00
         0.00000E+00
         0.00000E+00
         0.00000E+00
         0.00000E+00
         0.00000E+00
         0.00000E+00
         0.00000E+00
         0.00000E+00
         0.00000E+00
         0.00000E+00
         0.00000E+00
         0.00000E+00
         0.00000E+00
         0.00000E+00
         0.00000E+00
         0.00000E+00
         0.00000E+00
         0.00000E+00
         0.00000E+00
         0.00000E+00
         0.00000E+00
         0.00000E+00
         0.00000E+00
         0.00000E+00
         0.00000E+00
         0.00000E+00
         0.00000E+00
         0.00000E+00
         0.00000E+00
         0.00000E+00
         0.00000E+00
         0.00000E+00
         0.00000E+00
         0.00000E+00
         0.00000E+00
         0.00000E+00
         0.00000E+00
         0.00000E+00
         0.00000E+00
         0.00000E+00
         0.00000E+00
         0.00000E+00
         0.00000E+00
         0.00000E+00
         0.00000E+00
         0.00000E+00
         0.00000E+00
         0.00000E+00
         0.00000E+00
         0.00000E+00
         0.00000E+00
         0.00000E+00
         0.00000E+00
         0.00000E+00
         0.00000E+00
         0.00000E+00
         0.00000E+00
         0.00000E+00
         0.00000E+00
         0.00000E+00
         0.00000E+00
         0.00000E+00
         0.00000E+00
         0.00000E+00
         0.00000E+00
         0.00000E+00
         0.00000E+00
         0.00000E+00
         0.00000E+00
         0.00000E+00
         0.00000E+00
         0.00000E+00
         0.00000E+00
         0.00000E+00
         0.00000E+00
         0.00000E+00
         0.00000E+00
         0.00000E+00
         0.00000E+00
         0.00000E+00
         0.00000E+00
         0.00000E+00
         0.00000E+00
         0.00000E+00
         0.00000E+00
         0.00000E+00
         0.00000E+00
         0.00000E+00
         0.00000E+00
         0.00000E+00
         0.00000E+00
         0.00000E+00
         0.00000E+00
         0.00000E+00
         0.00000E+00
         0.00000E+00
         0.00000E+00
         0.00000E+00
         0.00000E+00
         0.00000E+00
         0.00000E+00
         0.00000E+00
         0.00000E+00
         0.00000E+00
         0.00000E+00
         0.00000E+00
         0.00000E+00
         0.00000E+00
         0.00000E+00
         0.00000E+00
         0.00000E+00
         0.00000E+00
         0.00000E+00
         0.00000E+00
         0.00000E+00
         0.00000E+00
         0.00000E+00
         0.00000E+00
         0.00000E+00
         0.00000E+00
         0.00000E+00
         0.00000E+00
         0.00000E+00
         0.00000E+00
         0.00000E+00
         0.00000E+00
         0.00000E+00
         0.00000E+00
         0.00000E+00
         0.00000E+00
         0.00000E+00
         0.00000E+00
         0.00000E+00
         0.00000E+00
         0.00000E+00
         0.00000E+00
         0.00000E+00
         0.00000E+00
         0.00000E+00
         0.00000E+00
         0.00000E+00
         0.00000E+00
         0.00000E+00
         0.00000E+00
         0.00000E+00
         0.00000E+00
         0.00000E+00
         0.00000E+00
         0.00000E+00
         0.00000E+00
         0.00000E+00
         0.00000E+00
         0.00000E+00
         0.00000E+00
         0.00000E+00
         0.00000E+00
         0.00000E+00
         0.00000E+00
         0.00000E+00
         0.00000E+00
         0.00000E+00
         0.00000E+00
         0.00000E+00
         0.00000E+00
         0.00000E+00
         0.00000E+00
         0.00000E+00
         0.00000E+00
         0.00000E+00
         0.00000E+00
         0.00000E+00
         0.00000E+00
         0.00000E+00
         0.00000E+00
         0.00000E+00
         0.00000E+00
         0.00000E+00
         0.00000E+00
         0.00000E+00
         0.00000E+00
         0.00000E+00
         0.00000E+00
         0.00000E+00
         0.00000E+00
         0.00000E+00
         0.00000E+00
         0.00000E+00
         0.00000E+00
         0.00000E+00
         0.00000E+00
         0.00000E+00
         0.00000E+00
         0.00000E+00
         0.00000E+00
         0.00000E+00
         0.00000E+00
         0.00000E+00
         0.00000E+00
         0.00000E+00
         0.00000E+00
         0.00000E+00
         0.00000E+00
         0.00000E+00
         0.00000E+00
         0.00000E+00
         0.00000E+00
         0.00000E+00
         0.00000E+00
         0.00000E+00
         0.00000E+00
         0.00000E+00
         0.00000E+00
         0.00000E+00
         0.00000E+00
         0.00000E+00
         0.00000E+00
         0.00000E+00
         0.00000E+00
         0.00000E+00
         0.00000E+00
         0.00000E+00
         0.00000E+00
         0.00000E+00
         0.00000E+00
         0.00000E+00
         0.00000E+00
         0.00000E+00
         0.00000E+00
         0.00000E+00
         0.00000E+00
         0.00000E+00
         0.00000E+00
         0.00000E+00
         0.00000E+00
         0.00000E+00
         0.00000E+00
         0.00000E+00
         0.00000E+00
         0.00000E+00
         0.00000E+00
         0.00000E+00
         0.00000E+00
         0.00000E+00
         0.00000E+00
         0.00000E+00
         0.00000E+00
         0.00000E+00
         0.00000E+00
         0.00000E+00
         0.00000E+00
         0.00000E+00
         0.00000E+00
         0.00000E+00
         0.00000E+00
         0.00000E+00
         0.00000E+00
         0.00000E+00
         0.00000E+00
         0.00000E+00
         0.00000E+00
         0.00000E+00
         0.00000E+00
         0.00000E+00
         0.00000E+00
         0.00000E+00
         0.00000E+00
         0.00000E+00
         0.00000E+00
         0.00000E+00
         0.00000E+00
         0.00000E+00
         0.00000E+00
         0.00000E+00
         0.00000E+00
         0.00000E+00
         0.00000E+00
         0.00000E+00
         0.00000E+00
         0.00000E+00
         0.00000E+00
         0.00000E+00
         0.00000E+00
         0.00000E+00
         0.00000E+00
         0.00000E+00
         0.00000E+00
         0.00000E+00
         0.00000E+00
         0.00000E+00
         0.00000E+00
         0.00000E+00
         0.00000E+00
         0.00000E+00
         0.00000E+00
         0.00000E+00
         0.00000E+00
         0.00000E+00
         0.00000E+00
         0.00000E+00
         0.00000E+00
         0.00000E+00
         0.00000E+00
         0.00000E+00
         0.00000E+00
         0.00000E+00
         0.00000E+00
         0.00000E+00
         0.00000E+00
         0.00000E+00
         0.00000E+00
         0.00000E+00
         0.00000E+00
         0.00000E+00
         0.00000E+00
         0.00000E+00
         0.00000E+00
         0.00000E+00
         0.00000E+00
         0.00000E+00
         0.00000E+00
         0.00000E+00
         0.00000E+00
         0.00000E+00
         0.00000E+00
         0.00000E+00
         0.00000E+00
         0.00000E+00
         0.00000E+00
         0.00000E+00
         0.00000E+00
         0.00000E+00
         0.00000E+00
         0.00000E+00
         0.00000E+00
         0.00000E+00
         0.00000E+00
         0.00000E+00
         0.00000E+00
         0.00000E+00
         0.00000E+00
         0.00000E+00
         0.00000E+00
         0.00000E+00
         0.00000E+00
         0.00000E+00
         0.00000E+00
         0.00000E+00
         0.00000E+00
         0.00000E+00
         0.00000E+00
         0.00000E+00
         0.00000E+00
         0.00000E+00
         0.00000E+00
         0.00000E+00
         0.00000E+00
         0.00000E+00
         0.00000E+00
         0.00000E+00
         0.00000E+00
         0.00000E+00
         0.00000E+00
         0.00000E+00
         0.00000E+00
         0.00000E+00
         0.00000E+00
         0.00000E+00
         0.00000E+00
         0.00000E+00
         0.00000E+00
         0.00000E+00
         0.00000E+00
         0.00000E+00
         0.00000E+00
         0.00000E+00
         0.00000E+00
         0.00000E+00
         0.00000E+00
         0.00000E+00
         0.00000E+00
         0.00000E+00
         0.00000E+00
         0.00000E+00
         0.00000E+00
         0.00000E+00
         0.00000E+00
         0.00000E+00
         0.00000E+00
         0.00000E+00
         0.00000E+00
         0.00000E+00
         0.00000E+00
         0.00000E+00
         0.00000E+00
         0.00000E+00
         0.00000E+00
         0.00000E+00
         0.00000E+00
         0.00000E+00
         0.00000E+00
         0.00000E+00
         0.00000E+00
         0.00000E+00
         0.00000E+00
         0.00000E+00
         0.00000E+00
         0.00000E+00
         0.00000E+00
         0.00000E+00
         0.00000E+00
         0.00000E+00
         0.00000E+00
         0.00000E+00
         0.00000E+00
         0.00000E+00
         0.00000E+00
         0.00000E+00
         0.00000E+00
         0.00000E+00
         0.00000E+00
         0.00000E+00
         0.00000E+00
         0.00000E+00
         0.00000E+00
         0.00000E+00
         0.00000E+00
         0.00000E+00
         0.00000E+00
         0.00000E+00
         0.00000E+00
         0.00000E+00
         0.00000E+00
         0.00000E+00
         0.00000E+00
         0.00000E+00
         0.00000E+00
         0.00000E+00
         0.00000E+00
         0.00000E+00
         0.00000E+00
         0.00000E+00
         0.00000E+00
         0.00000E+00
         0.00000E+00
         0.00000E+00
         0.00000E+00
         0.00000E+00
         0.00000E+00
         0.00000E+00
         0.00000E+00
         0.00000E+00
         0.00000E+00
         0.00000E+00
         0.00000E+00
         0.00000E+00
         0.00000E+00
         0.00000E+00
         0.00000E+00
         0.00000E+00
         0.00000E+00
         0.00000E+00
         0.00000E+00
         0.00000E+00
         0.00000E+00
         0.00000E+00
         0.00000E+00
         0.00000E+00
         0.00000E+00
         0.00000E+00
         0.00000E+00
         0.00000E+00
         0.00000E+00
         0.00000E+00
         0.00000E+00
         0.00000E+00
         0.00000E+00
         0.00000E+00
         0.00000E+00
         0.00000E+00
         0.00000E+00
         0.00000E+00
         0.00000E+00
         0.00000E+00
         0.00000E+00
         0.00000E+00
         0.00000E+00
         0.00000E+00
         0.00000E+00
         0.00000E+00
         0.00000E+00
         0.00000E+00
         0.00000E+00
         0.00000E+00
         0.00000E+00
         0.00000E+00
         0.00000E+00
         0.00000E+00
         0.00000E+00
         0.00000E+00
         0.00000E+00
         0.00000E+00
         0.00000E+00
         0.00000E+00
         0.00000E+00
         0.00000E+00
         0.00000E+00
         0.00000E+00
         0.00000E+00
         0.00000E+00
         0.00000E+00
         0.00000E+00
         0.00000E+00
         0.00000E+00
         0.00000E+00
         0.00000E+00
         0.00000E+00
         0.00000E+00
         0.00000E+00
         0.00000E+00
         0.00000E+00
         0.00000E+00
         0.00000E+00
         0.00000E+00
         0.00000E+00
         0.00000E+00
         0.00000E+00
         0.00000E+00
         0.00000E+00
         0.00000E+00
         0.00000E+00
         0.00000E+00
         0.00000E+00
         0.00000E+00
         0.00000E+00
         0.00000E+00
         0.00000E+00
         0.00000E+00
         0.00000E+00
         0.00000E+00
         0.00000E+00
         0.00000E+00
         0.00000E+00
         0.00000E+00
         0.00000E+00
         0.00000E+00
         0.00000E+00
         0.00000E+00
         0.00000E+00
         0.00000E+00
         0.00000E+00
         0.00000E+00
         0.00000E+00
         0.00000E+00
         0.00000E+00
         0.00000E+00
         0.00000E+00
         0.00000E+00
         0.00000E+00
         0.00000E+00
         0.00000E+00
         0.00000E+00
         0.00000E+00
         0.00000E+00
         0.00000E+00
         0.00000E+00
         0.00000E+00
         0.00000E+00
         0.00000E+00
         0.00000E+00
         0.00000E+00
         0.00000E+00
         0.00000E+00
         0.00000E+00
         0.00000E+00
         0.00000E+00
         0.00000E+00
         0.00000E+00
         0.00000E+00
         0.00000E+00
         0.00000E+00
         0.00000E+00
         0.00000E+00
         0.00000E+00
         0.00000E+00
         0.00000E+00
         0.00000E+00
         0.00000E+00
         0.00000E+00
         0.00000E+00
         0.00000E+00
         0.00000E+00
         0.00000E+00
         0.00000E+00
         0.00000E+00
         0.00000E+00
         0.00000E+00
         0.00000E+00
         0.00000E+00
         0.00000E+00
         0.00000E+00
         0.00000E+00
         0.00000E+00
         0.00000E+00
         0.00000E+00
         0.00000E+00
         0.00000E+00
         0.00000E+00
         0.00000E+00
         0.00000E+00
         0.00000E+00
         0.00000E+00
         0.00000E+00
         0.00000E+00
         0.00000E+00
         0.00000E+00
         0.00000E+00
         0.00000E+00
         0.00000E+00
         0.00000E+00
         0.00000E+00
         0.00000E+00
         0.00000E+00
         0.00000E+00
         0.00000E+00
         0.00000E+00
         0.00000E+00
         0.00000E+00
         0.00000E+00
         0.00000E+00
         0.00000E+00
         0.00000E+00
         0.00000E+00
         0.00000E+00
         0.00000E+00
         0.00000E+00
         0.00000E+00
         0.00000E+00
         0.00000E+00
         0.00000E+00
         0.00000E+00
         0.00000E+00
         0.00000E+00
         0.00000E+00
         0.00000E+00
         0.00000E+00
         0.00000E+00
         0.00000E+00
         0.00000E+00
         0.00000E+00
         0.00000E+00
         0.00000E+00
         0.00000E+00
         0.00000E+00
         0.00000E+00
         0.00000E+00
         0.00000E+00
         0.00000E+00
         0.00000E+00
         0.00000E+00
         0.00000E+00
         0.00000E+00
         0.00000E+00
         0.00000E+00
         0.00000E+00
         0.00000E+00
         0.00000E+00
         0.00000E+00
         0.00000E+00
         0.00000E+00
         0.00000E+00
         0.00000E+00
         0.00000E+00
         0.00000E+00
         0.00000E+00
         0.00000E+00
         0.00000E+00
         0.00000E+00
         0.00000E+00
         0.00000E+00
         0.00000E+00
         0.00000E+00
         0.00000E+00
         0.00000E+00
         0.00000E+00
         0.00000E+00
         0.00000E+00
         0.00000E+00
         0.00000E+00
         0.00000E+00
         0.00000E+00
         0.00000E+00
         0.00000E+00
         0.00000E+00
         0.00000E+00
         0.00000E+00
         0.00000E+00
         0.00000E+00
         0.00000E+00
         0.00000E+00
         0.00000E+00
         0.00000E+00
         0.00000E+00
         0.00000E+00
         0.00000E+00
         0.00000E+00
         0.00000E+00
         0.00000E+00
         0.00000E+00
         0.00000E+00
         0.00000E+00
         0.00000E+00
         0.00000E+00
         0.00000E+00
         0.00000E+00
         0.00000E+00
         0.00000E+00
         0.00000E+00
         0.00000E+00
         0.00000E+00
         0.00000E+00
         0.00000E+00
         0.00000E+00
         0.00000E+00
         0.00000E+00
         0.00000E+00
         0.00000E+00
         0.00000E+00
         0.00000E+00
         0.00000E+00
         0.00000E+00
         0.00000E+00
         0.00000E+00
         0.00000E+00
         0.00000E+00
         0.00000E+00
         0.00000E+00
         0.00000E+00
         0.00000E+00
         0.00000E+00
         0.00000E+00
         0.00000E+00
         0.00000E+00
         0.00000E+00
         0.00000E+00
         0.00000E+00
         0.00000E+00
         0.00000E+00
         0.00000E+00
         0.00000E+00
         0.00000E+00
         0.00000E+00
         0.00000E+00
         0.00000E+00
         0.00000E+00
         0.00000E+00
         0.00000E+00
         0.00000E+00
         0.00000E+00
         0.00000E+00
         0.00000E+00
         0.00000E+00
         0.00000E+00
         0.00000E+00
         0.00000E+00
         0.00000E+00
         0.00000E+00
         0.00000E+00
         0.00000E+00
         0.00000E+00
         0.00000E+00
         0.00000E+00
         0.00000E+00
         0.00000E+00
         0.00000E+00
         0.00000E+00
         0.00000E+00
         0.00000E+00
         0.00000E+00
         0.00000E+00
         0.00000E+00
         0.00000E+00
         0.00000E+00
         0.00000E+00
         0.00000E+00
         0.00000E+00
         0.00000E+00
         0.00000E+00
         0.00000E+00
         0.00000E+00
         0.00000E+00
         0.00000E+00
         0.00000E+00
         0.00000E+00
         0.00000E+00
         0.00000E+00
         0.00000E+00
         0.00000E+00
         0.00000E+00
         0.00000E+00
         0.00000E+00
         0.00000E+00
         0.00000E+00
         0.00000E+00
         0.00000E+00
         0.00000E+00
         0.00000E+00
         0.00000E+00
         0.00000E+00
         0.00000E+00
         0.00000E+00
         0.00000E+00
         0.00000E+00
         0.00000E+00
         0.00000E+00
         0.00000E+00
         0.00000E+00
         0.00000E+00
         0.00000E+00
         0.00000E+00
         0.00000E+00
         0.00000E+00
         0.00000E+00
         0.00000E+00
         0.00000E+00
         0.00000E+00
         0.00000E+00
         0.00000E+00
         0.00000E+00
         0.00000E+00
         0.00000E+00
         0.00000E+00
         0.00000E+00
         0.00000E+00
         0.00000E+00
         0.00000E+00
         0.00000E+00
         0.00000E+00
         0.00000E+00
         0.00000E+00
         0.00000E+00
         0.00000E+00
         0.00000E+00
         0.00000E+00
         0.00000E+00
         0.00000E+00
         0.00000E+00
         0.00000E+00
         0.00000E+00
         0.00000E+00
         0.00000E+00
         0.00000E+00
         0.00000E+00
         0.00000E+00
         0.00000E+00
         0.00000E+00
         0.00000E+00
         0.00000E+00
         0.00000E+00
         0.00000E+00
         0.00000E+00
         0.00000E+00
         0.00000E+00
         0.00000E+00
         0.00000E+00
         0.00000E+00
         0.00000E+00
         0.00000E+00
         0.00000E+00
         0.00000E+00
         0.00000E+00
         0.00000E+00
         0.00000E+00
         0.00000E+00
         0.00000E+00
         0.00000E+00
         0.00000E+00
         0.00000E+00
         0.00000E+00
         0.00000E+00
         0.00000E+00
         0.00000E+00
         0.00000E+00
         0.00000E+00
         0.00000E+00
         0.00000E+00
         0.00000E+00
         0.00000E+00
         0.00000E+00
         0.00000E+00
         0.00000E+00
         0.00000E+00
         0.00000E+00
         0.00000E+00
         0.00000E+00
         0.00000E+00
         0.00000E+00
         0.00000E+00
         0.00000E+00
         0.00000E+00
         0.00000E+00
         0.00000E+00
         0.00000E+00
         0.00000E+00
         0.00000E+00
         0.00000E+00
         0.00000E+00
         0.00000E+00
         0.00000E+00
         0.00000E+00
         0.00000E+00
         0.00000E+00
         0.00000E+00
         0.00000E+00
         0.00000E+00
         0.00000E+00
         0.00000E+00
         0.00000E+00
         0.00000E+00
         0.00000E+00
         0.00000E+00
         0.00000E+00
         0.00000E+00
         0.00000E+00
         0.00000E+00
         0.00000E+00
         0.00000E+00
         0.00000E+00
         0.00000E+00
         0.00000E+00
         0.00000E+00
         0.00000E+00
         0.00000E+00
         0.00000E+00
         0.00000E+00
         0.00000E+00
         0.00000E+00
         0.00000E+00
         0.00000E+00
         0.00000E+00
         0.00000E+00
         0.00000E+00
         0.00000E+00
         0.00000E+00
         0.00000E+00
         0.00000E+00
         0.00000E+00
         0.00000E+00
         0.00000E+00
         0.00000E+00
         0.00000E+00
         0.00000E+00
         0.00000E+00
         0.00000E+00
         0.00000E+00
         0.00000E+00
         0.00000E+00
         0.00000E+00
         0.00000E+00
         0.00000E+00
         0.00000E+00
         0.00000E+00
         0.00000E+00
         0.00000E+00
         0.00000E+00
         0.00000E+00
         0.00000E+00
         0.00000E+00
         0.00000E+00
         0.00000E+00
         0.00000E+00
         0.00000E+00
         0.00000E+00
         0.00000E+00
         0.00000E+00
         0.00000E+00
         0.00000E+00
         0.00000E+00
         0.00000E+00
         0.00000E+00
         0.00000E+00
         0.00000E+00
         0.00000E+00
         0.00000E+00
         0.00000E+00
         0.00000E+00
         0.00000E+00
         0.00000E+00
         0.00000E+00
         0.00000E+00
         0.00000E+00
         0.00000E+00
         0.00000E+00
         0.00000E+00
         0.00000E+00
         0.00000E+00
         0.00000E+00
         0.00000E+00
         0.00000E+00
         0.00000E+00
         0.00000E+00
         0.00000E+00
         0.00000E+00
         0.00000E+00
         0.00000E+00
         0.00000E+00
         0.00000E+00
         0.00000E+00
         0.00000E+00
         0.00000E+00
         0.00000E+00
         0.00000E+00
         0.00000E+00
         0.00000E+00
         0.00000E+00
         0.00000E+00
         0.00000E+00
         0.00000E+00
         0.00000E+00
         0.00000E+00
         0.00000E+00
         0.00000E+00
         0.00000E+00
         0.00000E+00
         0.00000E+00
         0.00000E+00
         0.00000E+00
         0.00000E+00
         0.00000E+00
         0.00000E+00
         0.00000E+00
         0.00000E+00
         0.00000E+00
         0.00000E+00
         0.00000E+00
         0.00000E+00
         0.00000E+00
         0.00000E+00
         0.00000E+00
         0.00000E+00
         0.00000E+00
         0.00000E+00
         0.00000E+00
         0.00000E+00
         0.00000E+00
         0.00000E+00
         0.00000E+00
         0.00000E+00
         0.00000E+00
         0.00000E+00
         0.00000E+00
         0.00000E+00
         0.00000E+00
         0.00000E+00
         0.00000E+00
         0.00000E+00
         0.00000E+00
         0.00000E+00
         0.00000E+00
         0.00000E+00
         0.00000E+00
         0.00000E+00
         0.00000E+00
         0.00000E+00
         0.00000E+00
         0.00000E+00
         0.00000E+00
         0.00000E+00
         0.00000E+00
         0.00000E+00
         0.00000E+00
         0.00000E+00
         0.00000E+00
         0.00000E+00
         0.00000E+00
         0.00000E+00
         0.00000E+00
         0.00000E+00
         0.00000E+00
         0.00000E+00
         0.00000E+00
         0.00000E+00
         0.00000E+00
         0.00000E+00
         0.00000E+00
         0.00000E+00
         0.00000E+00
         0.00000E+00
         0.00000E+00
         0.00000E+00
         0.00000E+00
         0.00000E+00
         0.00000E+00
         0.00000E+00
         0.00000E+00
         0.00000E+00
         0.00000E+00
         0.00000E+00
         0.00000E+00
         0.00000E+00
         0.00000E+00
         0.00000E+00
         0.00000E+00
         0.00000E+00
         0.00000E+00
         0.00000E+00
         0.00000E+00
         0.00000E+00
         0.00000E+00
         0.00000E+00
         0.00000E+00
         0.00000E+00
         0.00000E+00
         0.00000E+00
         0.00000E+00
         0.00000E+00
         0.00000E+00
         0.00000E+00
         0.00000E+00
         0.00000E+00
         0.00000E+00
         0.00000E+00
         0.00000E+00
         0.00000E+00
         0.00000E+00
         0.00000E+00
         0.00000E+00
         0.00000E+00
         0.00000E+00
         0.00000E+00
         0.00000E+00
         0.00000E+00
         0.00000E+00
         0.00000E+00
         0.00000E+00
         0.00000E+00
         0.00000E+00
         0.00000E+00
         0.00000E+00
         0.00000E+00
         0.00000E+00
         0.00000E+00
         0.00000E+00
         0.00000E+00
         0.00000E+00
         0.00000E+00
         0.00000E+00
         0.00000E+00
         0.00000E+00
         0.00000E+00
         0.00000E+00
         0.00000E+00
         0.00000E+00
         0.00000E+00
         0.00000E+00
         0.00000E+00
         0.00000E+00
         0.00000E+00
         0.00000E+00
         0.00000E+00
         0.00000E+00
         0.00000E+00
         0.00000E+00
         0.00000E+00
         0.00000E+00
         0.00000E+00
         0.00000E+00
         0.00000E+00
         0.00000E+00
         0.00000E+00
         0.00000E+00
         0.00000E+00
         0.00000E+00
         0.00000E+00
         0.00000E+00
         0.00000E+00
         0.00000E+00
         0.00000E+00
         0.00000E+00
         0.00000E+00
         0.00000E+00
         0.00000E+00
         0.00000E+00
         0.00000E+00
         0.00000E+00
         0.00000E+00
         0.00000E+00
         0.00000E+00
         0.00000E+00
         0.00000E+00
         0.00000E+00
         0.00000E+00
         0.00000E+00
         0.00000E+00
         0.00000E+00
         0.00000E+00
         0.00000E+00
         0.00000E+00
         0.00000E+00
         0.00000E+00
         0.00000E+00
         0.00000E+00
         0.00000E+00
         0.00000E+00
         0.00000E+00
         0.00000E+00
         0.00000E+00
         0.00000E+00
         0.00000E+00
         0.00000E+00
         0.00000E+00
         0.00000E+00
         0.00000E+00
         0.00000E+00
         0.00000E+00
         0.00000E+00
         0.00000E+00
         0.00000E+00
         0.00000E+00
         0.00000E+00
         0.00000E+00
         0.00000E+00
         0.00000E+00
         0.00000E+00
         0.00000E+00
         0.00000E+00
         0.00000E+00
         0.00000E+00
         0.00000E+00
         0.00000E+00
         0.00000E+00
         0.00000E+00
         0.00000E+00
         0.00000E+00
         0.00000E+00
         0.00000E+00
         0.00000E+00
         0.00000E+00
         0.00000E+00
         0.00000E+00
         0.00000E+00
         0.00000E+00
         0.00000E+00
         0.00000E+00
         0.00000E+00
         0.00000E+00
         0.00000E+00
         0.00000E+00
         0.00000E+00
         0.00000E+00
         0.00000E+00
         0.00000E+00
         0.00000E+00
         0.00000E+00
         0.00000E+00
         0.00000E+00
         0.00000E+00
         0.00000E+00
         0.00000E+00
         0.00000E+00
         0.00000E+00
         0.00000E+00
         0.00000E+00
         0.00000E+00
         0.00000E+00
         0.00000E+00
         0.00000E+00
         0.00000E+00
         0.00000E+00
         0.00000E+00
         0.00000E+00
         0.00000E+00
         0.00000E+00
         0.00000E+00
         0.00000E+00
         0.00000E+00
         0.00000E+00
         0.00000E+00
         0.00000E+00
         0.00000E+00
         0.00000E+00
         0.00000E+00
         0.00000E+00
         0.00000E+00
         0.00000E+00
         0.00000E+00
         0.00000E+00
         0.00000E+00
         0.00000E+00
         0.00000E+00
         0.00000E+00
         0.00000E+00
         0.00000E+00
         0.00000E+00
         0.00000E+00
         0.00000E+00
         0.00000E+00
         0.00000E+00
         0.00000E+00
         0.00000E+00
         0.00000E+00
         0.00000E+00
         0.00000E+00
         0.00000E+00
         0.00000E+00
         0.00000E+00
         0.00000E+00
         0.00000E+00
         0.00000E+00
         0.00000E+00
         0.00000E+00
         0.00000E+00
         0.00000E+00
         0.00000E+00
         0.00000E+00
         0.00000E+00
         0.00000E+00
         0.00000E+00
         0.00000E+00
         0.00000E+00
         0.00000E+00
         0.00000E+00
         0.00000E+00
         0.00000E+00
         0.00000E+00
         0.00000E+00
         0.00000E+00
         0.00000E+00
         0.00000E+00
         0.00000E+00
         0.00000E+00
         0.00000E+00
         0.00000E+00
         0.00000E+00
         0.00000E+00
         0.00000E+00
         0.00000E+00
         0.00000E+00
         0.00000E+00
         0.00000E+00
         0.00000E+00
         0.00000E+00
         0.00000E+00
         0.00000E+00
         0.00000E+00
         0.00000E+00
         0.00000E+00
         0.00000E+00
         0.00000E+00
         0.00000E+00
         0.00000E+00
         0.00000E+00
         0.00000E+00
         0.00000E+00
         0.00000E+00
         0.00000E+00
         0.00000E+00
         0.00000E+00
         0.00000E+00
         0.00000E+00
         0.00000E+00
         0.00000E+00
         0.00000E+00
         0.00000E+00
         0.00000E+00
         0.00000E+00
         0.00000E+00
         0.00000E+00
         0.00000E+00
         0.00000E+00
         0.00000E+00
         0.00000E+00
         0.00000E+00
         0.00000E+00
         0.00000E+00
         0.00000E+00
         0.00000E+00
         0.00000E+00
         0.00000E+00
         0.00000E+00
         0.00000E+00
         0.00000E+00
         0.00000E+00
         0.00000E+00
         0.00000E+00
         0.00000E+00
         0.00000E+00
         0.00000E+00
         0.00000E+00
         0.00000E+00
         0.00000E+00
         0.00000E+00
         0.00000E+00
         0.00000E+00
         0.00000E+00
         0.00000E+00
         0.00000E+00
         0.00000E+00
         0.00000E+00
         0.00000E+00
         0.00000E+00
         0.00000E+00
         0.00000E+00
         0.00000E+00
         0.00000E+00
         0.00000E+00
         0.00000E+00
         0.00000E+00
         0.00000E+00
         0.00000E+00
         0.00000E+00
         0.00000E+00
         0.00000E+00
         0.00000E+00
         0.00000E+00
         0.00000E+00
         0.00000E+00
         0.00000E+00
         0.00000E+00
         0.00000E+00
         0.00000E+00
         0.00000E+00
         0.00000E+00
         0.00000E+00
         0.00000E+00
         0.00000E+00
         0.00000E+00
         0.00000E+00
         0.00000E+00
         0.00000E+00
         0.00000E+00
         0.00000E+00
         0.00000E+00
         0.00000E+00
         0.00000E+00
         0.00000E+00
         0.00000E+00
         0.00000E+00
         0.00000E+00
         0.00000E+00
         0.00000E+00
         0.00000E+00
         0.00000E+00
         0.00000E+00
         0.00000E+00
         0.00000E+00
         0.00000E+00
         0.00000E+00
         0.00000E+00
         0.00000E+00
         0.00000E+00
         0.00000E+00
         0.00000E+00
         0.00000E+00
         0.00000E+00
         0.00000E+00
         0.00000E+00
         0.00000E+00
         0.00000E+00
         0.00000E+00
         0.00000E+00
         0.00000E+00
         0.00000E+00
         0.00000E+00
         0.00000E+00
         0.00000E+00
         0.00000E+00
         0.00000E+00
         0.00000E+00
         0.00000E+00
         0.00000E+00
         0.00000E+00
         0.00000E+00
         0.00000E+00
         0.00000E+00
         0.00000E+00
         0.00000E+00
         0.00000E+00
         0.00000E+00
         0.00000E+00
         0.00000E+00
         0.00000E+00
         0.00000E+00
         0.00000E+00
         0.00000E+00
         0.00000E+00
         0.00000E+00
         0.00000E+00
         0.00000E+00
         0.00000E+00
         0.00000E+00
         0.00000E+00
         0.00000E+00
         0.00000E+00
         0.00000E+00
         0.00000E+00
         0.00000E+00
         0.00000E+00
         0.00000E+00
         0.00000E+00
         0.00000E+00
         0.00000E+00
         0.00000E+00
         0.00000E+00
         0.00000E+00
         0.00000E+00
         0.00000E+00
         0.00000E+00
         0.00000E+00
         0.00000E+00
         0.00000E+00
         0.00000E+00
         0.00000E+00
         0.00000E+00
         0.00000E+00
         0.00000E+00
         0.00000E+00
         0.00000E+00
         0.00000E+00
         0.00000E+00
         0.00000E+00
         0.00000E+00
         0.00000E+00
         0.00000E+00
         0.00000E+00
         0.00000E+00
         0.00000E+00
         0.00000E+00
         0.00000E+00
         0.00000E+00
         0.00000E+00
         0.00000E+00
         0.00000E+00
         0.00000E+00
         0.00000E+00
         0.00000E+00
         0.00000E+00
         0.00000E+00
         0.00000E+00
         0.00000E+00
         0.00000E+00
         0.00000E+00
         0.00000E+00
         0.00000E+00
         0.00000E+00
         0.00000E+00
         0.00000E+00
         0.00000E+00
         0.00000E+00
         0.00000E+00
         0.00000E+00
         0.00000E+00
         0.00000E+00
         0.00000E+00
         0.00000E+00
         0.00000E+00
         0.00000E+00
         0.00000E+00
         0.00000E+00
         0.00000E+00
         0.00000E+00
         0.00000E+00
         0.00000E+00
         0.00000E+00
         0.00000E+00
         0.00000E+00
         0.00000E+00
         0.00000E+00
         0.00000E+00
         0.00000E+00
         0.00000E+00
         0.00000E+00
         0.00000E+00
         0.00000E+00
         0.00000E+00
         0.00000E+00
         0.00000E+00
         0.00000E+00
         0.00000E+00
         0.00000E+00
         0.00000E+00
         0.00000E+00
         0.00000E+00
         0.00000E+00
         0.00000E+00
         0.00000E+00
         0.00000E+00
         0.00000E+00
         0.00000E+00
         0.00000E+00
         0.00000E+00
         0.00000E+00
         0.00000E+00
         0.00000E+00
         0.00000E+00
         0.00000E+00
         0.00000E+00
         0.00000E+00
         0.00000E+00
         0.00000E+00
         0.00000E+00
         0.00000E+00
         0.00000E+00
         0.00000E+00
         0.00000E+00
         0.00000E+00
         0.00000E+00
         0.00000E+00
         0.00000E+00
         0.00000E+00
         0.00000E+00
         0.00000E+00
         0.00000E+00
         0.00000E+00
         0.00000E+00
         0.00000E+00
         0.00000E+00
         0.00000E+00
         0.00000E+00
         0.00000E+00
         0.00000E+00
         0.00000E+00
         0.00000E+00
         0.00000E+00
         0.00000E+00
         0.00000E+00
         0.00000E+00
         0.00000E+00
         0.00000E+00
         0.00000E+00
         0.00000E+00
         0.00000E+00
         0.00000E+00
         0.00000E+00
         0.00000E+00
         0.00000E+00
         0.00000E+00
         0.00000E+00
         0.00000E+00
         0.00000E+00
         0.00000E+00
         0.00000E+00
         0.00000E+00
         0.00000E+00
         0.00000E+00
         0.00000E+00
         0.00000E+00
         0.00000E+00
         0.00000E+00
         0.00000E+00
         0.00000E+00
         0.00000E+00
         0.00000E+00
         0.00000E+00
         0.00000E+00
         0.00000E+00
         0.00000E+00
         0.00000E+00
         0.00000E+00
         0.00000E+00
         0.00000E+00
         0.00000E+00
         0.00000E+00
         0.00000E+00
         0.00000E+00
         0.00000E+00
         0.00000E+00
         0.00000E+00
         0.00000E+00
         0.00000E+00
         0.00000E+00
         0.00000E+00
         0.00000E+00
         0.00000E+00
         0.00000E+00
         0.00000E+00
         0.00000E+00
         0.00000E+00
         0.00000E+00
         0.00000E+00
         0.00000E+00
         0.00000E+00
         0.00000E+00
         0.00000E+00
         0.00000E+00
         0.00000E+00
         0.00000E+00
         0.00000E+00
         0.00000E+00
         0.00000E+00
         0.00000E+00
         0.00000E+00
         0.00000E+00
         0.00000E+00
         0.00000E+00
         0.00000E+00
         0.00000E+00
         0.00000E+00
         0.00000E+00
         0.00000E+00
         0.00000E+00
         0.00000E+00
         0.00000E+00
         0.00000E+00
         0.00000E+00
         0.00000E+00
         0.00000E+00
         0.00000E+00
         0.00000E+00
         0.00000E+00
         0.00000E+00
         0.00000E+00
         0.00000E+00
         0.00000E+00
         0.00000E+00
         0.00000E+00
         0.00000E+00
         0.00000E+00
         0.00000E+00
         0.00000E+00
         0.00000E+00
         0.00000E+00
         0.00000E+00
         0.00000E+00
         0.00000E+00
         0.00000E+00
         0.00000E+00
         0.00000E+00
         0.00000E+00
         0.00000E+00
         0.00000E+00
         0.00000E+00
         0.00000E+00
         0.00000E+00
         0.00000E+00
         0.00000E+00
         0.00000E+00
         0.00000E+00
         0.00000E+00
         0.00000E+00
         0.00000E+00
         0.00000E+00
         0.00000E+00
         0.00000E+00
         0.00000E+00
         0.00000E+00
         0.00000E+00
         0.00000E+00
         0.00000E+00
         0.00000E+00
         0.00000E+00
         0.00000E+00
         0.00000E+00
         0.00000E+00
         0.00000E+00
         0.00000E+00
         0.00000E+00
         0.00000E+00
         0.00000E+00
         0.00000E+00
         0.00000E+00
         0.00000E+00
         0.00000E+00
         0.00000E+00
         0.00000E+00
         0.00000E+00
         0.00000E+00
         0.00000E+00
         0.00000E+00
         0.00000E+00
         0.00000E+00
         0.00000E+00
         0.00000E+00
         0.00000E+00
         0.00000E+00
         0.00000E+00
         0.00000E+00
         0.00000E+00
         0.00000E+00
         0.00000E+00
         0.00000E+00
         0.00000E+00
         0.00000E+00
         0.00000E+00
         0.00000E+00
         0.00000E+00
         0.00000E+00
         0.00000E+00
         0.00000E+00
         0.00000E+00
         0.00000E+00
         0.00000E+00
         0.00000E+00
         0.00000E+00
         0.00000E+00
         0.00000E+00
         0.00000E+00
         0.00000E+00
         0.00000E+00
         0.00000E+00
         0.00000E+00
         0.00000E+00
         0.00000E+00
         0.00000E+00
         0.00000E+00
         0.00000E+00
         0.00000E+00
         0.00000E+00
         0.00000E+00
         0.00000E+00
         0.00000E+00
         0.00000E+00
         0.00000E+00
         0.00000E+00
         0.00000E+00
         0.00000E+00
         0.00000E+00
         0.00000E+00
         0.00000E+00
         0.00000E+00
         0.00000E+00
         0.00000E+00
         0.00000E+00
         0.00000E+00
         0.00000E+00
         0.00000E+00
         0.00000E+00
         0.00000E+00
         0.00000E+00
         0.00000E+00
         0.00000E+00
         0.00000E+00
         0.00000E+00
         0.00000E+00
         0.00000E+00
         0.00000E+00
         0.00000E+00
         0.00000E+00
         0.00000E+00
         0.00000E+00
         0.00000E+00
         0.00000E+00
         0.00000E+00
         0.00000E+00
         0.00000E+00
         0.00000E+00
         0.00000E+00
         0.00000E+00
         0.00000E+00
         0.00000E+00
         0.00000E+00
         0.00000E+00
         0.00000E+00
         0.00000E+00
         0.00000E+00
         0.00000E+00
         0.00000E+00
         0.00000E+00
         0.00000E+00
         0.00000E+00
         0.00000E+00
         0.00000E+00
         0.00000E+00
         0.00000E+00
         0.00000E+00
         0.00000E+00
         0.00000E+00
         0.00000E+00
         0.00000E+00
         0.00000E+00
         0.00000E+00
         0.00000E+00
         0.00000E+00
         0.00000E+00
         0.00000E+00
         0.00000E+00
         0.00000E+00
         0.00000E+00
         0.00000E+00
         0.00000E+00
         0.00000E+00
         0.00000E+00
         0.00000E+00
         0.00000E+00
         0.00000E+00
         0.00000E+00
         0.00000E+00
         0.00000E+00
         0.00000E+00
         0.00000E+00
         0.00000E+00
         0.00000E+00
         0.00000E+00
         0.00000E+00
         0.00000E+00
         0.00000E+00
         0.00000E+00
         0.00000E+00
         0.00000E+00
         0.00000E+00
         0.00000E+00
         0.00000E+00
         0.00000E+00
         0.00000E+00
         0.00000E+00
         0.00000E+00
         0.00000E+00
         0.00000E+00
         0.00000E+00
         0.00000E+00
         0.00000E+00
         0.00000E+00
         0.00000E+00
         0.00000E+00
         0.00000E+00
         0.00000E+00
         0.00000E+00
         0.00000E+00
         0.00000E+00
         0.00000E+00
         0.00000E+00
         0.00000E+00
         0.00000E+00
         0.00000E+00
         0.00000E+00
         0.00000E+00
         0.00000E+00
         0.00000E+00
         0.00000E+00
         0.00000E+00
         0.00000E+00
         0.00000E+00
         0.00000E+00
         0.00000E+00
         0.00000E+00
         0.00000E+00
         0.00000E+00
         0.00000E+00
         0.00000E+00
         0.00000E+00
         0.00000E+00
         0.00000E+00
  
SCALARS                 acceleration_z  double 1
LOOKUP_TABLE default
         0.00000E+00
         0.00000E+00
         0.00000E+00
         0.00000E+00
         0.00000E+00
         0.00000E+00
         0.00000E+00
         0.00000E+00
         0.00000E+00
         0.00000E+00
         0.00000E+00
         0.00000E+00
         0.00000E+00
         0.00000E+00
         0.00000E+00
         0.00000E+00
         0.00000E+00
         0.00000E+00
         0.00000E+00
         0.00000E+00
         0.00000E+00
         0.00000E+00
         0.00000E+00
         0.00000E+00
         0.00000E+00
         0.00000E+00
         0.00000E+00
         0.00000E+00
         0.00000E+00
         0.00000E+00
         0.00000E+00
         0.00000E+00
         0.00000E+00
         0.00000E+00
         0.00000E+00
         0.00000E+00
         0.00000E+00
         0.00000E+00
         0.00000E+00
         0.00000E+00
         0.00000E+00
         0.00000E+00
         0.00000E+00
         0.00000E+00
         0.00000E+00
         0.00000E+00
         0.00000E+00
         0.00000E+00
         0.00000E+00
         0.00000E+00
         0.00000E+00
         0.00000E+00
         0.00000E+00
         0.00000E+00
         0.00000E+00
         0.00000E+00
         0.00000E+00
         0.00000E+00
         0.00000E+00
         0.00000E+00
         0.00000E+00
         0.00000E+00
         0.00000E+00
         0.00000E+00
         0.00000E+00
         0.00000E+00
         0.00000E+00
         0.00000E+00
         0.00000E+00
         0.00000E+00
         0.00000E+00
         0.00000E+00
         0.00000E+00
         0.00000E+00
         0.00000E+00
         0.00000E+00
         0.00000E+00
         0.00000E+00
         0.00000E+00
         0.00000E+00
         0.00000E+00
         0.00000E+00
         0.00000E+00
         0.00000E+00
         0.00000E+00
         0.00000E+00
         0.00000E+00
         0.00000E+00
         0.00000E+00
         0.00000E+00
         0.00000E+00
         0.00000E+00
         0.00000E+00
         0.00000E+00
         0.00000E+00
         0.00000E+00
         0.00000E+00
         0.00000E+00
         0.00000E+00
         0.00000E+00
         0.00000E+00
         0.00000E+00
         0.00000E+00
         0.00000E+00
         0.00000E+00
         0.00000E+00
         0.00000E+00
         0.00000E+00
         0.00000E+00
         0.00000E+00
         0.00000E+00
         0.00000E+00
         0.00000E+00
         0.00000E+00
         0.00000E+00
         0.00000E+00
         0.00000E+00
         0.00000E+00
         0.00000E+00
         0.00000E+00
         0.00000E+00
         0.00000E+00
         0.00000E+00
         0.00000E+00
         0.00000E+00
         0.00000E+00
         0.00000E+00
         0.00000E+00
         0.00000E+00
         0.00000E+00
         0.00000E+00
         0.00000E+00
         0.00000E+00
         0.00000E+00
         0.00000E+00
         0.00000E+00
         0.00000E+00
         0.00000E+00
         0.00000E+00
         0.00000E+00
         0.00000E+00
         0.00000E+00
         0.00000E+00
         0.00000E+00
         0.00000E+00
         0.00000E+00
         0.00000E+00
         0.00000E+00
         0.00000E+00
         0.00000E+00
         0.00000E+00
         0.00000E+00
         0.00000E+00
         0.00000E+00
         0.00000E+00
         0.00000E+00
         0.00000E+00
         0.00000E+00
         0.00000E+00
         0.00000E+00
         0.00000E+00
         0.00000E+00
         0.00000E+00
         0.00000E+00
         0.00000E+00
         0.00000E+00
         0.00000E+00
         0.00000E+00
         0.00000E+00
         0.00000E+00
         0.00000E+00
         0.00000E+00
         0.00000E+00
         0.00000E+00
         0.00000E+00
         0.00000E+00
         0.00000E+00
         0.00000E+00
         0.00000E+00
         0.00000E+00
         0.00000E+00
         0.00000E+00
         0.00000E+00
         0.00000E+00
         0.00000E+00
         0.00000E+00
         0.00000E+00
         0.00000E+00
         0.00000E+00
         0.00000E+00
         0.00000E+00
         0.00000E+00
         0.00000E+00
         0.00000E+00
         0.00000E+00
         0.00000E+00
         0.00000E+00
         0.00000E+00
         0.00000E+00
         0.00000E+00
         0.00000E+00
         0.00000E+00
         0.00000E+00
         0.00000E+00
         0.00000E+00
         0.00000E+00
         0.00000E+00
         0.00000E+00
         0.00000E+00
         0.00000E+00
         0.00000E+00
         0.00000E+00
         0.00000E+00
         0.00000E+00
         0.00000E+00
         0.00000E+00
         0.00000E+00
         0.00000E+00
         0.00000E+00
         0.00000E+00
         0.00000E+00
         0.00000E+00
         0.00000E+00
         0.00000E+00
         0.00000E+00
         0.00000E+00
         0.00000E+00
         0.00000E+00
         0.00000E+00
         0.00000E+00
         0.00000E+00
         0.00000E+00
         0.00000E+00
         0.00000E+00
         0.00000E+00
         0.00000E+00
         0.00000E+00
         0.00000E+00
         0.00000E+00
         0.00000E+00
         0.00000E+00
         0.00000E+00
         0.00000E+00
         0.00000E+00
         0.00000E+00
         0.00000E+00
         0.00000E+00
         0.00000E+00
         0.00000E+00
         0.00000E+00
         0.00000E+00
         0.00000E+00
         0.00000E+00
         0.00000E+00
         0.00000E+00
         0.00000E+00
         0.00000E+00
         0.00000E+00
         0.00000E+00
         0.00000E+00
         0.00000E+00
         0.00000E+00
         0.00000E+00
         0.00000E+00
         0.00000E+00
         0.00000E+00
         0.00000E+00
         0.00000E+00
         0.00000E+00
         0.00000E+00
         0.00000E+00
         0.00000E+00
         0.00000E+00
         0.00000E+00
         0.00000E+00
         0.00000E+00
         0.00000E+00
         0.00000E+00
         0.00000E+00
         0.00000E+00
         0.00000E+00
         0.00000E+00
         0.00000E+00
         0.00000E+00
         0.00000E+00
         0.00000E+00
         0.00000E+00
         0.00000E+00
         0.00000E+00
         0.00000E+00
         0.00000E+00
         0.00000E+00
         0.00000E+00
         0.00000E+00
         0.00000E+00
         0.00000E+00
         0.00000E+00
         0.00000E+00
         0.00000E+00
         0.00000E+00
         0.00000E+00
         0.00000E+00
         0.00000E+00
         0.00000E+00
         0.00000E+00
         0.00000E+00
         0.00000E+00
         0.00000E+00
         0.00000E+00
         0.00000E+00
         0.00000E+00
         0.00000E+00
         0.00000E+00
         0.00000E+00
         0.00000E+00
         0.00000E+00
         0.00000E+00
         0.00000E+00
         0.00000E+00
         0.00000E+00
         0.00000E+00
         0.00000E+00
         0.00000E+00
         0.00000E+00
         0.00000E+00
         0.00000E+00
         0.00000E+00
         0.00000E+00
         0.00000E+00
         0.00000E+00
         0.00000E+00
         0.00000E+00
         0.00000E+00
         0.00000E+00
         0.00000E+00
         0.00000E+00
         0.00000E+00
         0.00000E+00
         0.00000E+00
         0.00000E+00
         0.00000E+00
         0.00000E+00
         0.00000E+00
         0.00000E+00
         0.00000E+00
         0.00000E+00
         0.00000E+00
         0.00000E+00
         0.00000E+00
         0.00000E+00
         0.00000E+00
         0.00000E+00
         0.00000E+00
         0.00000E+00
         0.00000E+00
         0.00000E+00
         0.00000E+00
         0.00000E+00
         0.00000E+00
         0.00000E+00
         0.00000E+00
         0.00000E+00
         0.00000E+00
         0.00000E+00
         0.00000E+00
         0.00000E+00
         0.00000E+00
         0.00000E+00
         0.00000E+00
         0.00000E+00
         0.00000E+00
         0.00000E+00
         0.00000E+00
         0.00000E+00
         0.00000E+00
         0.00000E+00
         0.00000E+00
         0.00000E+00
         0.00000E+00
         0.00000E+00
         0.00000E+00
         0.00000E+00
         0.00000E+00
         0.00000E+00
         0.00000E+00
         0.00000E+00
         0.00000E+00
         0.00000E+00
         0.00000E+00
         0.00000E+00
         0.00000E+00
         0.00000E+00
         0.00000E+00
         0.00000E+00
         0.00000E+00
         0.00000E+00
         0.00000E+00
         0.00000E+00
         0.00000E+00
         0.00000E+00
         0.00000E+00
         0.00000E+00
         0.00000E+00
         0.00000E+00
         0.00000E+00
         0.00000E+00
         0.00000E+00
         0.00000E+00
         0.00000E+00
         0.00000E+00
         0.00000E+00
         0.00000E+00
         0.00000E+00
         0.00000E+00
         0.00000E+00
         0.00000E+00
         0.00000E+00
         0.00000E+00
         0.00000E+00
         0.00000E+00
         0.00000E+00
         0.00000E+00
         0.00000E+00
         0.00000E+00
         0.00000E+00
         0.00000E+00
         0.00000E+00
         0.00000E+00
         0.00000E+00
         0.00000E+00
         0.00000E+00
         0.00000E+00
         0.00000E+00
         0.00000E+00
         0.00000E+00
         0.00000E+00
         0.00000E+00
         0.00000E+00
         0.00000E+00
         0.00000E+00
         0.00000E+00
         0.00000E+00
         0.00000E+00
         0.00000E+00
         0.00000E+00
         0.00000E+00
         0.00000E+00
         0.00000E+00
         0.00000E+00
         0.00000E+00
         0.00000E+00
         0.00000E+00
         0.00000E+00
         0.00000E+00
         0.00000E+00
         0.00000E+00
         0.00000E+00
         0.00000E+00
         0.00000E+00
         0.00000E+00
         0.00000E+00
         0.00000E+00
         0.00000E+00
         0.00000E+00
         0.00000E+00
         0.00000E+00
         0.00000E+00
         0.00000E+00
         0.00000E+00
         0.00000E+00
         0.00000E+00
         0.00000E+00
         0.00000E+00
         0.00000E+00
         0.00000E+00
         0.00000E+00
         0.00000E+00
         0.00000E+00
         0.00000E+00
         0.00000E+00
         0.00000E+00
         0.00000E+00
         0.00000E+00
         0.00000E+00
         0.00000E+00
         0.00000E+00
         0.00000E+00
         0.00000E+00
         0.00000E+00
         0.00000E+00
         0.00000E+00
         0.00000E+00
         0.00000E+00
         0.00000E+00
         0.00000E+00
         0.00000E+00
         0.00000E+00
         0.00000E+00
         0.00000E+00
         0.00000E+00
         0.00000E+00
         0.00000E+00
         0.00000E+00
         0.00000E+00
         0.00000E+00
         0.00000E+00
         0.00000E+00
         0.00000E+00
         0.00000E+00
         0.00000E+00
         0.00000E+00
         0.00000E+00
         0.00000E+00
         0.00000E+00
         0.00000E+00
         0.00000E+00
         0.00000E+00
         0.00000E+00
         0.00000E+00
         0.00000E+00
         0.00000E+00
         0.00000E+00
         0.00000E+00
         0.00000E+00
         0.00000E+00
         0.00000E+00
         0.00000E+00
         0.00000E+00
         0.00000E+00
         0.00000E+00
         0.00000E+00
         0.00000E+00
         0.00000E+00
         0.00000E+00
         0.00000E+00
         0.00000E+00
         0.00000E+00
         0.00000E+00
         0.00000E+00
         0.00000E+00
         0.00000E+00
         0.00000E+00
         0.00000E+00
         0.00000E+00
         0.00000E+00
         0.00000E+00
         0.00000E+00
         0.00000E+00
         0.00000E+00
         0.00000E+00
         0.00000E+00
         0.00000E+00
         0.00000E+00
         0.00000E+00
         0.00000E+00
         0.00000E+00
         0.00000E+00
         0.00000E+00
         0.00000E+00
         0.00000E+00
         0.00000E+00
         0.00000E+00
         0.00000E+00
         0.00000E+00
         0.00000E+00
         0.00000E+00
         0.00000E+00
         0.00000E+00
         0.00000E+00
         0.00000E+00
         0.00000E+00
         0.00000E+00
         0.00000E+00
         0.00000E+00
         0.00000E+00
         0.00000E+00
         0.00000E+00
         0.00000E+00
         0.00000E+00
         0.00000E+00
         0.00000E+00
         0.00000E+00
         0.00000E+00
         0.00000E+00
         0.00000E+00
         0.00000E+00
         0.00000E+00
         0.00000E+00
         0.00000E+00
         0.00000E+00
         0.00000E+00
         0.00000E+00
         0.00000E+00
         0.00000E+00
         0.00000E+00
         0.00000E+00
         0.00000E+00
         0.00000E+00
         0.00000E+00
         0.00000E+00
         0.00000E+00
         0.00000E+00
         0.00000E+00
         0.00000E+00
         0.00000E+00
         0.00000E+00
         0.00000E+00
         0.00000E+00
         0.00000E+00
         0.00000E+00
         0.00000E+00
         0.00000E+00
         0.00000E+00
         0.00000E+00
         0.00000E+00
         0.00000E+00
         0.00000E+00
         0.00000E+00
         0.00000E+00
         0.00000E+00
         0.00000E+00
         0.00000E+00
         0.00000E+00
         0.00000E+00
         0.00000E+00
         0.00000E+00
         0.00000E+00
         0.00000E+00
         0.00000E+00
         0.00000E+00
         0.00000E+00
         0.00000E+00
         0.00000E+00
         0.00000E+00
         0.00000E+00
         0.00000E+00
         0.00000E+00
         0.00000E+00
         0.00000E+00
         0.00000E+00
         0.00000E+00
         0.00000E+00
         0.00000E+00
         0.00000E+00
         0.00000E+00
         0.00000E+00
         0.00000E+00
         0.00000E+00
         0.00000E+00
         0.00000E+00
         0.00000E+00
         0.00000E+00
         0.00000E+00
         0.00000E+00
         0.00000E+00
         0.00000E+00
         0.00000E+00
         0.00000E+00
         0.00000E+00
         0.00000E+00
         0.00000E+00
         0.00000E+00
         0.00000E+00
         0.00000E+00
         0.00000E+00
         0.00000E+00
         0.00000E+00
         0.00000E+00
         0.00000E+00
         0.00000E+00
         0.00000E+00
         0.00000E+00
         0.00000E+00
         0.00000E+00
         0.00000E+00
         0.00000E+00
         0.00000E+00
         0.00000E+00
         0.00000E+00
         0.00000E+00
         0.00000E+00
         0.00000E+00
         0.00000E+00
         0.00000E+00
         0.00000E+00
         0.00000E+00
         0.00000E+00
         0.00000E+00
         0.00000E+00
         0.00000E+00
         0.00000E+00
         0.00000E+00
         0.00000E+00
         0.00000E+00
         0.00000E+00
         0.00000E+00
         0.00000E+00
         0.00000E+00
         0.00000E+00
         0.00000E+00
         0.00000E+00
         0.00000E+00
         0.00000E+00
         0.00000E+00
         0.00000E+00
         0.00000E+00
         0.00000E+00
         0.00000E+00
         0.00000E+00
         0.00000E+00
         0.00000E+00
         0.00000E+00
         0.00000E+00
         0.00000E+00
         0.00000E+00
         0.00000E+00
         0.00000E+00
         0.00000E+00
         0.00000E+00
         0.00000E+00
         0.00000E+00
         0.00000E+00
         0.00000E+00
         0.00000E+00
         0.00000E+00
         0.00000E+00
         0.00000E+00
         0.00000E+00
         0.00000E+00
         0.00000E+00
         0.00000E+00
         0.00000E+00
         0.00000E+00
         0.00000E+00
         0.00000E+00
         0.00000E+00
         0.00000E+00
         0.00000E+00
         0.00000E+00
         0.00000E+00
         0.00000E+00
         0.00000E+00
         0.00000E+00
         0.00000E+00
         0.00000E+00
         0.00000E+00
         0.00000E+00
         0.00000E+00
         0.00000E+00
         0.00000E+00
         0.00000E+00
         0.00000E+00
         0.00000E+00
         0.00000E+00
         0.00000E+00
         0.00000E+00
         0.00000E+00
         0.00000E+00
         0.00000E+00
         0.00000E+00
         0.00000E+00
         0.00000E+00
         0.00000E+00
         0.00000E+00
         0.00000E+00
         0.00000E+00
         0.00000E+00
         0.00000E+00
         0.00000E+00
         0.00000E+00
         0.00000E+00
         0.00000E+00
         0.00000E+00
         0.00000E+00
         0.00000E+00
         0.00000E+00
         0.00000E+00
         0.00000E+00
         0.00000E+00
         0.00000E+00
         0.00000E+00
         0.00000E+00
         0.00000E+00
         0.00000E+00
         0.00000E+00
         0.00000E+00
         0.00000E+00
         0.00000E+00
         0.00000E+00
         0.00000E+00
         0.00000E+00
         0.00000E+00
         0.00000E+00
         0.00000E+00
         0.00000E+00
         0.00000E+00
         0.00000E+00
         0.00000E+00
         0.00000E+00
         0.00000E+00
         0.00000E+00
         0.00000E+00
         0.00000E+00
         0.00000E+00
         0.00000E+00
         0.00000E+00
         0.00000E+00
         0.00000E+00
         0.00000E+00
         0.00000E+00
         0.00000E+00
         0.00000E+00
         0.00000E+00
         0.00000E+00
         0.00000E+00
         0.00000E+00
         0.00000E+00
         0.00000E+00
         0.00000E+00
         0.00000E+00
         0.00000E+00
         0.00000E+00
         0.00000E+00
         0.00000E+00
         0.00000E+00
         0.00000E+00
         0.00000E+00
         0.00000E+00
         0.00000E+00
         0.00000E+00
         0.00000E+00
         0.00000E+00
         0.00000E+00
         0.00000E+00
         0.00000E+00
         0.00000E+00
         0.00000E+00
         0.00000E+00
         0.00000E+00
         0.00000E+00
         0.00000E+00
         0.00000E+00
         0.00000E+00
         0.00000E+00
         0.00000E+00
         0.00000E+00
         0.00000E+00
         0.00000E+00
         0.00000E+00
         0.00000E+00
         0.00000E+00
         0.00000E+00
         0.00000E+00
         0.00000E+00
         0.00000E+00
         0.00000E+00
         0.00000E+00
         0.00000E+00
         0.00000E+00
         0.00000E+00
         0.00000E+00
         0.00000E+00
         0.00000E+00
         0.00000E+00
         0.00000E+00
         0.00000E+00
         0.00000E+00
         0.00000E+00
         0.00000E+00
         0.00000E+00
         0.00000E+00
         0.00000E+00
         0.00000E+00
         0.00000E+00
         0.00000E+00
         0.00000E+00
         0.00000E+00
         0.00000E+00
         0.00000E+00
         0.00000E+00
         0.00000E+00
         0.00000E+00
         0.00000E+00
         0.00000E+00
         0.00000E+00
         0.00000E+00
         0.00000E+00
         0.00000E+00
         0.00000E+00
         0.00000E+00
         0.00000E+00
         0.00000E+00
         0.00000E+00
         0.00000E+00
         0.00000E+00
         0.00000E+00
         0.00000E+00
         0.00000E+00
         0.00000E+00
         0.00000E+00
         0.00000E+00
         0.00000E+00
         0.00000E+00
         0.00000E+00
         0.00000E+00
         0.00000E+00
         0.00000E+00
         0.00000E+00
         0.00000E+00
         0.00000E+00
         0.00000E+00
         0.00000E+00
         0.00000E+00
         0.00000E+00
         0.00000E+00
         0.00000E+00
         0.00000E+00
         0.00000E+00
         0.00000E+00
         0.00000E+00
         0.00000E+00
         0.00000E+00
         0.00000E+00
         0.00000E+00
         0.00000E+00
         0.00000E+00
         0.00000E+00
         0.00000E+00
         0.00000E+00
         0.00000E+00
         0.00000E+00
         0.00000E+00
         0.00000E+00
         0.00000E+00
         0.00000E+00
         0.00000E+00
         0.00000E+00
         0.00000E+00
         0.00000E+00
         0.00000E+00
         0.00000E+00
         0.00000E+00
         0.00000E+00
         0.00000E+00
         0.00000E+00
         0.00000E+00
         0.00000E+00
         0.00000E+00
         0.00000E+00
         0.00000E+00
         0.00000E+00
         0.00000E+00
         0.00000E+00
         0.00000E+00
         0.00000E+00
         0.00000E+00
         0.00000E+00
         0.00000E+00
         0.00000E+00
         0.00000E+00
         0.00000E+00
         0.00000E+00
         0.00000E+00
         0.00000E+00
         0.00000E+00
         0.00000E+00
         0.00000E+00
         0.00000E+00
         0.00000E+00
         0.00000E+00
         0.00000E+00
         0.00000E+00
         0.00000E+00
         0.00000E+00
         0.00000E+00
         0.00000E+00
         0.00000E+00
         0.00000E+00
         0.00000E+00
         0.00000E+00
         0.00000E+00
         0.00000E+00
         0.00000E+00
         0.00000E+00
         0.00000E+00
         0.00000E+00
         0.00000E+00
         0.00000E+00
         0.00000E+00
         0.00000E+00
         0.00000E+00
         0.00000E+00
         0.00000E+00
         0.00000E+00
         0.00000E+00
         0.00000E+00
         0.00000E+00
         0.00000E+00
         0.00000E+00
         0.00000E+00
         0.00000E+00
         0.00000E+00
         0.00000E+00
         0.00000E+00
         0.00000E+00
         0.00000E+00
         0.00000E+00
         0.00000E+00
         0.00000E+00
         0.00000E+00
         0.00000E+00
         0.00000E+00
         0.00000E+00
         0.00000E+00
         0.00000E+00
         0.00000E+00
         0.00000E+00
         0.00000E+00
         0.00000E+00
         0.00000E+00
         0.00000E+00
         0.00000E+00
         0.00000E+00
         0.00000E+00
         0.00000E+00
         0.00000E+00
         0.00000E+00
         0.00000E+00
         0.00000E+00
         0.00000E+00
         0.00000E+00
         0.00000E+00
         0.00000E+00
         0.00000E+00
         0.00000E+00
         0.00000E+00
         0.00000E+00
         0.00000E+00
         0.00000E+00
         0.00000E+00
         0.00000E+00
         0.00000E+00
         0.00000E+00
         0.00000E+00
         0.00000E+00
         0.00000E+00
         0.00000E+00
         0.00000E+00
         0.00000E+00
         0.00000E+00
         0.00000E+00
         0.00000E+00
         0.00000E+00
         0.00000E+00
         0.00000E+00
         0.00000E+00
         0.00000E+00
         0.00000E+00
         0.00000E+00
         0.00000E+00
         0.00000E+00
         0.00000E+00
         0.00000E+00
         0.00000E+00
         0.00000E+00
         0.00000E+00
         0.00000E+00
         0.00000E+00
         0.00000E+00
         0.00000E+00
         0.00000E+00
         0.00000E+00
         0.00000E+00
         0.00000E+00
         0.00000E+00
         0.00000E+00
         0.00000E+00
         0.00000E+00
         0.00000E+00
         0.00000E+00
         0.00000E+00
         0.00000E+00
         0.00000E+00
         0.00000E+00
         0.00000E+00
         0.00000E+00
         0.00000E+00
         0.00000E+00
         0.00000E+00
         0.00000E+00
         0.00000E+00
         0.00000E+00
         0.00000E+00
         0.00000E+00
         0.00000E+00
         0.00000E+00
         0.00000E+00
         0.00000E+00
         0.00000E+00
         0.00000E+00
         0.00000E+00
         0.00000E+00
         0.00000E+00
         0.00000E+00
         0.00000E+00
         0.00000E+00
         0.00000E+00
         0.00000E+00
         0.00000E+00
         0.00000E+00
         0.00000E+00
         0.00000E+00
         0.00000E+00
         0.00000E+00
         0.00000E+00
         0.00000E+00
         0.00000E+00
         0.00000E+00
         0.00000E+00
         0.00000E+00
         0.00000E+00
         0.00000E+00
         0.00000E+00
         0.00000E+00
         0.00000E+00
         0.00000E+00
         0.00000E+00
         0.00000E+00
         0.00000E+00
         0.00000E+00
         0.00000E+00
         0.00000E+00
         0.00000E+00
         0.00000E+00
         0.00000E+00
         0.00000E+00
         0.00000E+00
         0.00000E+00
         0.00000E+00
         0.00000E+00
         0.00000E+00
         0.00000E+00
         0.00000E+00
         0.00000E+00
         0.00000E+00
         0.00000E+00
         0.00000E+00
         0.00000E+00
         0.00000E+00
         0.00000E+00
         0.00000E+00
         0.00000E+00
         0.00000E+00
         0.00000E+00
         0.00000E+00
         0.00000E+00
         0.00000E+00
         0.00000E+00
         0.00000E+00
         0.00000E+00
         0.00000E+00
         0.00000E+00
         0.00000E+00
         0.00000E+00
         0.00000E+00
         0.00000E+00
         0.00000E+00
         0.00000E+00
         0.00000E+00
         0.00000E+00
         0.00000E+00
         0.00000E+00
         0.00000E+00
         0.00000E+00
         0.00000E+00
         0.00000E+00
         0.00000E+00
         0.00000E+00
         0.00000E+00
         0.00000E+00
         0.00000E+00
         0.00000E+00
         0.00000E+00
         0.00000E+00
         0.00000E+00
         0.00000E+00
         0.00000E+00
         0.00000E+00
         0.00000E+00
         0.00000E+00
         0.00000E+00
         0.00000E+00
         0.00000E+00
         0.00000E+00
         0.00000E+00
         0.00000E+00
         0.00000E+00
         0.00000E+00
         0.00000E+00
         0.00000E+00
         0.00000E+00
         0.00000E+00
         0.00000E+00
         0.00000E+00
         0.00000E+00
         0.00000E+00
         0.00000E+00
         0.00000E+00
         0.00000E+00
         0.00000E+00
         0.00000E+00
         0.00000E+00
         0.00000E+00
         0.00000E+00
         0.00000E+00
         0.00000E+00
         0.00000E+00
         0.00000E+00
         0.00000E+00
         0.00000E+00
         0.00000E+00
         0.00000E+00
         0.00000E+00
         0.00000E+00
         0.00000E+00
         0.00000E+00
         0.00000E+00
         0.00000E+00
         0.00000E+00
         0.00000E+00
         0.00000E+00
         0.00000E+00
         0.00000E+00
         0.00000E+00
         0.00000E+00
         0.00000E+00
         0.00000E+00
         0.00000E+00
         0.00000E+00
         0.00000E+00
         0.00000E+00
         0.00000E+00
         0.00000E+00
         0.00000E+00
         0.00000E+00
         0.00000E+00
         0.00000E+00
         0.00000E+00
         0.00000E+00
         0.00000E+00
         0.00000E+00
         0.00000E+00
         0.00000E+00
         0.00000E+00
         0.00000E+00
         0.00000E+00
         0.00000E+00
         0.00000E+00
         0.00000E+00
         0.00000E+00
         0.00000E+00
         0.00000E+00
         0.00000E+00
         0.00000E+00
         0.00000E+00
         0.00000E+00
         0.00000E+00
         0.00000E+00
         0.00000E+00
         0.00000E+00
         0.00000E+00
         0.00000E+00
         0.00000E+00
         0.00000E+00
         0.00000E+00
         0.00000E+00
         0.00000E+00
         0.00000E+00
         0.00000E+00
         0.00000E+00
         0.00000E+00
         0.00000E+00
         0.00000E+00
         0.00000E+00
         0.00000E+00
         0.00000E+00
         0.00000E+00
         0.00000E+00
         0.00000E+00
         0.00000E+00
         0.00000E+00
         0.00000E+00
         0.00000E+00
         0.00000E+00
         0.00000E+00
         0.00000E+00
         0.00000E+00
         0.00000E+00
         0.00000E+00
         0.00000E+00
         0.00000E+00
         0.00000E+00
         0.00000E+00
         0.00000E+00
         0.00000E+00
         0.00000E+00
         0.00000E+00
         0.00000E+00
         0.00000E+00
         0.00000E+00
         0.00000E+00
         0.00000E+00
         0.00000E+00
         0.00000E+00
         0.00000E+00
         0.00000E+00
         0.00000E+00
         0.00000E+00
         0.00000E+00
         0.00000E+00
         0.00000E+00
         0.00000E+00
         0.00000E+00
         0.00000E+00
         0.00000E+00
         0.00000E+00
         0.00000E+00
         0.00000E+00
         0.00000E+00
         0.00000E+00
         0.00000E+00
         0.00000E+00
         0.00000E+00
         0.00000E+00
         0.00000E+00
         0.00000E+00
         0.00000E+00
         0.00000E+00
         0.00000E+00
         0.00000E+00
         0.00000E+00
         0.00000E+00
         0.00000E+00
         0.00000E+00
         0.00000E+00
         0.00000E+00
         0.00000E+00
         0.00000E+00
         0.00000E+00
         0.00000E+00
         0.00000E+00
         0.00000E+00
         0.00000E+00
         0.00000E+00
         0.00000E+00
         0.00000E+00
         0.00000E+00
         0.00000E+00
         0.00000E+00
         0.00000E+00
         0.00000E+00
         0.00000E+00
         0.00000E+00
         0.00000E+00
         0.00000E+00
         0.00000E+00
         0.00000E+00
         0.00000E+00
         0.00000E+00
         0.00000E+00
         0.00000E+00
         0.00000E+00
         0.00000E+00
         0.00000E+00
         0.00000E+00
         0.00000E+00
         0.00000E+00
         0.00000E+00
         0.00000E+00
         0.00000E+00
         0.00000E+00
         0.00000E+00
         0.00000E+00
         0.00000E+00
         0.00000E+00
         0.00000E+00
         0.00000E+00
         0.00000E+00
         0.00000E+00
         0.00000E+00
         0.00000E+00
         0.00000E+00
         0.00000E+00
         0.00000E+00
         0.00000E+00
         0.00000E+00
         0.00000E+00
         0.00000E+00
         0.00000E+00
         0.00000E+00
         0.00000E+00
         0.00000E+00
         0.00000E+00
         0.00000E+00
         0.00000E+00
         0.00000E+00
         0.00000E+00
         0.00000E+00
         0.00000E+00
         0.00000E+00
         0.00000E+00
         0.00000E+00
         0.00000E+00
         0.00000E+00
         0.00000E+00
         0.00000E+00
         0.00000E+00
         0.00000E+00
         0.00000E+00
         0.00000E+00
         0.00000E+00
         0.00000E+00
         0.00000E+00
         0.00000E+00
         0.00000E+00
         0.00000E+00
         0.00000E+00
         0.00000E+00
         0.00000E+00
         0.00000E+00
         0.00000E+00
         0.00000E+00
         0.00000E+00
         0.00000E+00
         0.00000E+00
         0.00000E+00
         0.00000E+00
         0.00000E+00
         0.00000E+00
         0.00000E+00
         0.00000E+00
         0.00000E+00
         0.00000E+00
         0.00000E+00
         0.00000E+00
         0.00000E+00
         0.00000E+00
         0.00000E+00
         0.00000E+00
         0.00000E+00
         0.00000E+00
         0.00000E+00
         0.00000E+00
         0.00000E+00
         0.00000E+00
         0.00000E+00
         0.00000E+00
         0.00000E+00
         0.00000E+00
         0.00000E+00
         0.00000E+00
         0.00000E+00
         0.00000E+00
         0.00000E+00
         0.00000E+00
         0.00000E+00
         0.00000E+00
         0.00000E+00
         0.00000E+00
         0.00000E+00
         0.00000E+00
         0.00000E+00
         0.00000E+00
         0.00000E+00
         0.00000E+00
         0.00000E+00
         0.00000E+00
         0.00000E+00
         0.00000E+00
         0.00000E+00
         0.00000E+00
         0.00000E+00
         0.00000E+00
         0.00000E+00
         0.00000E+00
         0.00000E+00
         0.00000E+00
         0.00000E+00
         0.00000E+00
         0.00000E+00
         0.00000E+00
         0.00000E+00
         0.00000E+00
         0.00000E+00
         0.00000E+00
         0.00000E+00
         0.00000E+00
         0.00000E+00
         0.00000E+00
         0.00000E+00
         0.00000E+00
         0.00000E+00
         0.00000E+00
         0.00000E+00
         0.00000E+00
         0.00000E+00
         0.00000E+00
         0.00000E+00
         0.00000E+00
         0.00000E+00
         0.00000E+00
         0.00000E+00
         0.00000E+00
         0.00000E+00
         0.00000E+00
         0.00000E+00
         0.00000E+00
         0.00000E+00
         0.00000E+00
         0.00000E+00
         0.00000E+00
         0.00000E+00
         0.00000E+00
         0.00000E+00
         0.00000E+00
         0.00000E+00
         0.00000E+00
         0.00000E+00
         0.00000E+00
         0.00000E+00
         0.00000E+00
         0.00000E+00
         0.00000E+00
         0.00000E+00
         0.00000E+00
         0.00000E+00
         0.00000E+00
         0.00000E+00
         0.00000E+00
         0.00000E+00
         0.00000E+00
         0.00000E+00
         0.00000E+00
         0.00000E+00
         0.00000E+00
         0.00000E+00
         0.00000E+00
         0.00000E+00
         0.00000E+00
         0.00000E+00
         0.00000E+00
         0.00000E+00
         0.00000E+00
         0.00000E+00
         0.00000E+00
         0.00000E+00
         0.00000E+00
         0.00000E+00
         0.00000E+00
         0.00000E+00
         0.00000E+00
         0.00000E+00
         0.00000E+00
         0.00000E+00
         0.00000E+00
         0.00000E+00
         0.00000E+00
         0.00000E+00
         0.00000E+00
         0.00000E+00
         0.00000E+00
         0.00000E+00
         0.00000E+00
         0.00000E+00
         0.00000E+00
         0.00000E+00
         0.00000E+00
         0.00000E+00
         0.00000E+00
         0.00000E+00
         0.00000E+00
         0.00000E+00
         0.00000E+00
         0.00000E+00
         0.00000E+00
         0.00000E+00
         0.00000E+00
         0.00000E+00
         0.00000E+00
         0.00000E+00
         0.00000E+00
         0.00000E+00
         0.00000E+00
         0.00000E+00
         0.00000E+00
         0.00000E+00
         0.00000E+00
         0.00000E+00
         0.00000E+00
         0.00000E+00
         0.00000E+00
         0.00000E+00
         0.00000E+00
         0.00000E+00
         0.00000E+00
         0.00000E+00
         0.00000E+00
         0.00000E+00
         0.00000E+00
         0.00000E+00
         0.00000E+00
         0.00000E+00
         0.00000E+00
         0.00000E+00
         0.00000E+00
         0.00000E+00
         0.00000E+00
         0.00000E+00
         0.00000E+00
         0.00000E+00
         0.00000E+00
         0.00000E+00
         0.00000E+00
         0.00000E+00
         0.00000E+00
         0.00000E+00
         0.00000E+00
         0.00000E+00
         0.00000E+00
         0.00000E+00
         0.00000E+00
         0.00000E+00
         0.00000E+00
         0.00000E+00
         0.00000E+00
         0.00000E+00
         0.00000E+00
         0.00000E+00
         0.00000E+00
         0.00000E+00
         0.00000E+00
         0.00000E+00
         0.00000E+00
         0.00000E+00
         0.00000E+00
         0.00000E+00
         0.00000E+00
         0.00000E+00
         0.00000E+00
         0.00000E+00
         0.00000E+00
         0.00000E+00
         0.00000E+00
         0.00000E+00
         0.00000E+00
         0.00000E+00
         0.00000E+00
         0.00000E+00
         0.00000E+00
         0.00000E+00
         0.00000E+00
         0.00000E+00
         0.00000E+00
         0.00000E+00
         0.00000E+00
         0.00000E+00
         0.00000E+00
         0.00000E+00
         0.00000E+00
         0.00000E+00
         0.00000E+00
         0.00000E+00
         0.00000E+00
         0.00000E+00
         0.00000E+00
         0.00000E+00
         0.00000E+00
         0.00000E+00
         0.00000E+00
         0.00000E+00
         0.00000E+00
         0.00000E+00
         0.00000E+00
         0.00000E+00
         0.00000E+00
         0.00000E+00
         0.00000E+00
         0.00000E+00
         0.00000E+00
         0.00000E+00
         0.00000E+00
         0.00000E+00
         0.00000E+00
         0.00000E+00
         0.00000E+00
         0.00000E+00
         0.00000E+00
         0.00000E+00
         0.00000E+00
         0.00000E+00
         0.00000E+00
         0.00000E+00
         0.00000E+00
         0.00000E+00
         0.00000E+00
         0.00000E+00
         0.00000E+00
         0.00000E+00
         0.00000E+00
         0.00000E+00
         0.00000E+00
         0.00000E+00
         0.00000E+00
         0.00000E+00
         0.00000E+00
         0.00000E+00
         0.00000E+00
         0.00000E+00
         0.00000E+00
         0.00000E+00
         0.00000E+00
         0.00000E+00
         0.00000E+00
         0.00000E+00
         0.00000E+00
         0.00000E+00
         0.00000E+00
         0.00000E+00
         0.00000E+00
         0.00000E+00
         0.00000E+00
         0.00000E+00
         0.00000E+00
         0.00000E+00
         0.00000E+00
         0.00000E+00
         0.00000E+00
         0.00000E+00
         0.00000E+00
         0.00000E+00
         0.00000E+00
         0.00000E+00
         0.00000E+00
         0.00000E+00
         0.00000E+00
         0.00000E+00
         0.00000E+00
         0.00000E+00
         0.00000E+00
         0.00000E+00
         0.00000E+00
         0.00000E+00
         0.00000E+00
         0.00000E+00
         0.00000E+00
         0.00000E+00
         0.00000E+00
         0.00000E+00
         0.00000E+00
         0.00000E+00
         0.00000E+00
         0.00000E+00
         0.00000E+00
         0.00000E+00
         0.00000E+00
         0.00000E+00
         0.00000E+00
         0.00000E+00
         0.00000E+00
         0.00000E+00
         0.00000E+00
         0.00000E+00
         0.00000E+00
         0.00000E+00
         0.00000E+00
         0.00000E+00
         0.00000E+00
         0.00000E+00
         0.00000E+00
         0.00000E+00
         0.00000E+00
         0.00000E+00
         0.00000E+00
         0.00000E+00
         0.00000E+00
         0.00000E+00
         0.00000E+00
         0.00000E+00
         0.00000E+00
         0.00000E+00
         0.00000E+00
         0.00000E+00
         0.00000E+00
         0.00000E+00
         0.00000E+00
         0.00000E+00
         0.00000E+00
         0.00000E+00
         0.00000E+00
         0.00000E+00
         0.00000E+00
         0.00000E+00
         0.00000E+00
         0.00000E+00
         0.00000E+00
         0.00000E+00
         0.00000E+00
         0.00000E+00
         0.00000E+00
         0.00000E+00
         0.00000E+00
         0.00000E+00
         0.00000E+00
         0.00000E+00
         0.00000E+00
         0.00000E+00
         0.00000E+00
         0.00000E+00
         0.00000E+00
         0.00000E+00
         0.00000E+00
         0.00000E+00
         0.00000E+00
         0.00000E+00
         0.00000E+00
         0.00000E+00
         0.00000E+00
         0.00000E+00
         0.00000E+00
         0.00000E+00
         0.00000E+00
         0.00000E+00
         0.00000E+00
         0.00000E+00
         0.00000E+00
         0.00000E+00
         0.00000E+00
         0.00000E+00
         0.00000E+00
         0.00000E+00
         0.00000E+00
         0.00000E+00
         0.00000E+00
         0.00000E+00
         0.00000E+00
         0.00000E+00
         0.00000E+00
         0.00000E+00
         0.00000E+00
         0.00000E+00
         0.00000E+00
         0.00000E+00
         0.00000E+00
         0.00000E+00
         0.00000E+00
         0.00000E+00
         0.00000E+00
         0.00000E+00
         0.00000E+00
         0.00000E+00
         0.00000E+00
         0.00000E+00
         0.00000E+00
         0.00000E+00
         0.00000E+00
         0.00000E+00
         0.00000E+00
         0.00000E+00
         0.00000E+00
         0.00000E+00
         0.00000E+00
         0.00000E+00
         0.00000E+00
         0.00000E+00
         0.00000E+00
         0.00000E+00
         0.00000E+00
         0.00000E+00
         0.00000E+00
         0.00000E+00
         0.00000E+00
         0.00000E+00
         0.00000E+00
         0.00000E+00
         0.00000E+00
         0.00000E+00
         0.00000E+00
         0.00000E+00
         0.00000E+00
         0.00000E+00
         0.00000E+00
         0.00000E+00
         0.00000E+00
         0.00000E+00
         0.00000E+00
         0.00000E+00
         0.00000E+00
         0.00000E+00
         0.00000E+00
         0.00000E+00
         0.00000E+00
         0.00000E+00
         0.00000E+00
         0.00000E+00
         0.00000E+00
         0.00000E+00
         0.00000E+00
         0.00000E+00
         0.00000E+00
         0.00000E+00
         0.00000E+00
         0.00000E+00
         0.00000E+00
         0.00000E+00
         0.00000E+00
         0.00000E+00
         0.00000E+00
         0.00000E+00
         0.00000E+00
         0.00000E+00
         0.00000E+00
         0.00000E+00
         0.00000E+00
         0.00000E+00
         0.00000E+00
         0.00000E+00
         0.00000E+00
         0.00000E+00
         0.00000E+00
         0.00000E+00
         0.00000E+00
         0.00000E+00
         0.00000E+00
         0.00000E+00
         0.00000E+00
         0.00000E+00
         0.00000E+00
         0.00000E+00
         0.00000E+00
         0.00000E+00
         0.00000E+00
         0.00000E+00
         0.00000E+00
         0.00000E+00
         0.00000E+00
         0.00000E+00
         0.00000E+00
         0.00000E+00
         0.00000E+00
         0.00000E+00
  
SCALARS                         fint_x  double 1
LOOKUP_TABLE default
         0.00000E+00
         0.00000E+00
         0.00000E+00
         0.00000E+00
         0.00000E+00
         0.00000E+00
         0.00000E+00
         0.00000E+00
         0.00000E+00
         0.00000E+00
         0.00000E+00
         0.00000E+00
         0.00000E+00
         0.00000E+00
         0.00000E+00
         0.00000E+00
         0.00000E+00
         0.00000E+00
         0.00000E+00
         0.00000E+00
         0.00000E+00
         0.00000E+00
         0.00000E+00
         0.00000E+00
         0.00000E+00
         0.00000E+00
         0.00000E+00
         0.00000E+00
         0.00000E+00
         0.00000E+00
         0.00000E+00
         0.00000E+00
         0.00000E+00
         0.00000E+00
         0.00000E+00
         0.00000E+00
         0.00000E+00
         0.00000E+00
         0.00000E+00
         0.00000E+00
         0.00000E+00
         0.00000E+00
         0.00000E+00
         0.00000E+00
         0.00000E+00
         0.00000E+00
         0.00000E+00
         0.00000E+00
         0.00000E+00
         0.00000E+00
         0.00000E+00
         0.00000E+00
         0.00000E+00
         0.00000E+00
         0.00000E+00
         0.00000E+00
         0.00000E+00
         0.00000E+00
         0.00000E+00
         0.00000E+00
         0.00000E+00
         0.00000E+00
         0.00000E+00
         0.00000E+00
         0.00000E+00
         0.00000E+00
         0.00000E+00
         0.00000E+00
         0.00000E+00
         0.00000E+00
         0.00000E+00
         0.00000E+00
         0.00000E+00
         0.00000E+00
         0.00000E+00
         0.00000E+00
         0.00000E+00
         0.00000E+00
         0.00000E+00
         0.00000E+00
         0.00000E+00
         0.00000E+00
         0.00000E+00
         0.00000E+00
         0.00000E+00
         0.00000E+00
         0.00000E+00
         0.00000E+00
         0.00000E+00
         0.00000E+00
         0.00000E+00
         0.00000E+00
         0.00000E+00
         0.00000E+00
         0.00000E+00
         0.00000E+00
         0.00000E+00
         0.00000E+00
         0.00000E+00
         0.00000E+00
         0.00000E+00
         0.00000E+00
         0.00000E+00
         0.00000E+00
         0.00000E+00
         0.00000E+00
         0.00000E+00
         0.00000E+00
         0.00000E+00
         0.00000E+00
         0.00000E+00
         0.00000E+00
         0.00000E+00
         0.00000E+00
         0.00000E+00
         0.00000E+00
         0.00000E+00
         0.00000E+00
         0.00000E+00
         0.00000E+00
         0.00000E+00
         0.00000E+00
         0.00000E+00
         0.00000E+00
         0.00000E+00
         0.00000E+00
         0.00000E+00
         0.00000E+00
         0.00000E+00
         0.00000E+00
         0.00000E+00
         0.00000E+00
         0.00000E+00
         0.00000E+00
         0.00000E+00
         0.00000E+00
         0.00000E+00
         0.00000E+00
         0.00000E+00
         0.00000E+00
         0.00000E+00
         0.00000E+00
         0.00000E+00
         0.00000E+00
         0.00000E+00
         0.00000E+00
         0.00000E+00
         0.00000E+00
         0.00000E+00
         0.00000E+00
         0.00000E+00
         0.00000E+00
         0.00000E+00
         0.00000E+00
         0.00000E+00
         0.00000E+00
         0.00000E+00
         0.00000E+00
         0.00000E+00
         0.00000E+00
         0.00000E+00
         0.00000E+00
         0.00000E+00
         0.00000E+00
         0.00000E+00
         0.00000E+00
         0.00000E+00
         0.00000E+00
         0.00000E+00
         0.00000E+00
         0.00000E+00
         0.00000E+00
         0.00000E+00
         0.00000E+00
         0.00000E+00
         0.00000E+00
         0.00000E+00
         0.00000E+00
         0.00000E+00
         0.00000E+00
         0.00000E+00
         0.00000E+00
         0.00000E+00
         0.00000E+00
         0.00000E+00
         0.00000E+00
         0.00000E+00
         0.00000E+00
         0.00000E+00
         0.00000E+00
         0.00000E+00
         0.00000E+00
         0.00000E+00
         0.00000E+00
         0.00000E+00
         0.00000E+00
         0.00000E+00
         0.00000E+00
         0.00000E+00
         0.00000E+00
         0.00000E+00
         0.00000E+00
         0.00000E+00
         0.00000E+00
         0.00000E+00
         0.00000E+00
         0.00000E+00
         0.00000E+00
         0.00000E+00
         0.00000E+00
         0.00000E+00
         0.00000E+00
         0.00000E+00
         0.00000E+00
         0.00000E+00
         0.00000E+00
         0.00000E+00
         0.00000E+00
         0.00000E+00
         0.00000E+00
         0.00000E+00
         0.00000E+00
         0.00000E+00
         0.00000E+00
         0.00000E+00
         0.00000E+00
         0.00000E+00
         0.00000E+00
         0.00000E+00
         0.00000E+00
         0.00000E+00
         0.00000E+00
         0.00000E+00
         0.00000E+00
         0.00000E+00
         0.00000E+00
         0.00000E+00
         0.00000E+00
         0.00000E+00
         0.00000E+00
         0.00000E+00
         0.00000E+00
         0.00000E+00
         0.00000E+00
         0.00000E+00
         0.00000E+00
         0.00000E+00
         0.00000E+00
         0.00000E+00
         0.00000E+00
         0.00000E+00
         0.00000E+00
         0.00000E+00
         0.00000E+00
         0.00000E+00
         0.00000E+00
         0.00000E+00
         0.00000E+00
         0.00000E+00
         0.00000E+00
         0.00000E+00
         0.00000E+00
         0.00000E+00
         0.00000E+00
         0.00000E+00
         0.00000E+00
         0.00000E+00
         0.00000E+00
         0.00000E+00
         0.00000E+00
         0.00000E+00
         0.00000E+00
         0.00000E+00
         0.00000E+00
         0.00000E+00
         0.00000E+00
         0.00000E+00
         0.00000E+00
         0.00000E+00
         0.00000E+00
         0.00000E+00
         0.00000E+00
         0.00000E+00
         0.00000E+00
         0.00000E+00
         0.00000E+00
         0.00000E+00
         0.00000E+00
         0.00000E+00
         0.00000E+00
         0.00000E+00
         0.00000E+00
         0.00000E+00
         0.00000E+00
         0.00000E+00
         0.00000E+00
         0.00000E+00
         0.00000E+00
         0.00000E+00
         0.00000E+00
         0.00000E+00
         0.00000E+00
         0.00000E+00
         0.00000E+00
         0.00000E+00
         0.00000E+00
         0.00000E+00
         0.00000E+00
         0.00000E+00
         0.00000E+00
         0.00000E+00
         0.00000E+00
         0.00000E+00
         0.00000E+00
         0.00000E+00
         0.00000E+00
         0.00000E+00
         0.00000E+00
         0.00000E+00
         0.00000E+00
         0.00000E+00
         0.00000E+00
         0.00000E+00
         0.00000E+00
         0.00000E+00
         0.00000E+00
         0.00000E+00
         0.00000E+00
         0.00000E+00
         0.00000E+00
         0.00000E+00
         0.00000E+00
         0.00000E+00
         0.00000E+00
         0.00000E+00
         0.00000E+00
         0.00000E+00
         0.00000E+00
         0.00000E+00
         0.00000E+00
         0.00000E+00
         0.00000E+00
         0.00000E+00
         0.00000E+00
         0.00000E+00
         0.00000E+00
         0.00000E+00
         0.00000E+00
         0.00000E+00
         0.00000E+00
         0.00000E+00
         0.00000E+00
         0.00000E+00
         0.00000E+00
         0.00000E+00
         0.00000E+00
         0.00000E+00
         0.00000E+00
         0.00000E+00
         0.00000E+00
         0.00000E+00
         0.00000E+00
         0.00000E+00
         0.00000E+00
         0.00000E+00
         0.00000E+00
         0.00000E+00
         0.00000E+00
         0.00000E+00
         0.00000E+00
         0.00000E+00
         0.00000E+00
         0.00000E+00
         0.00000E+00
         0.00000E+00
         0.00000E+00
         0.00000E+00
         0.00000E+00
         0.00000E+00
         0.00000E+00
         0.00000E+00
         0.00000E+00
         0.00000E+00
         0.00000E+00
         0.00000E+00
         0.00000E+00
         0.00000E+00
         0.00000E+00
         0.00000E+00
         0.00000E+00
         0.00000E+00
         0.00000E+00
         0.00000E+00
         0.00000E+00
         0.00000E+00
         0.00000E+00
         0.00000E+00
         0.00000E+00
         0.00000E+00
         0.00000E+00
         0.00000E+00
         0.00000E+00
         0.00000E+00
         0.00000E+00
         0.00000E+00
         0.00000E+00
         0.00000E+00
         0.00000E+00
         0.00000E+00
         0.00000E+00
         0.00000E+00
         0.00000E+00
         0.00000E+00
         0.00000E+00
         0.00000E+00
         0.00000E+00
         0.00000E+00
         0.00000E+00
         0.00000E+00
         0.00000E+00
         0.00000E+00
         0.00000E+00
         0.00000E+00
         0.00000E+00
         0.00000E+00
         0.00000E+00
         0.00000E+00
         0.00000E+00
         0.00000E+00
         0.00000E+00
         0.00000E+00
         0.00000E+00
         0.00000E+00
         0.00000E+00
         0.00000E+00
         0.00000E+00
         0.00000E+00
         0.00000E+00
         0.00000E+00
         0.00000E+00
         0.00000E+00
         0.00000E+00
         0.00000E+00
         0.00000E+00
         0.00000E+00
         0.00000E+00
         0.00000E+00
         0.00000E+00
         0.00000E+00
         0.00000E+00
         0.00000E+00
         0.00000E+00
         0.00000E+00
         0.00000E+00
         0.00000E+00
         0.00000E+00
         0.00000E+00
         0.00000E+00
         0.00000E+00
         0.00000E+00
         0.00000E+00
         0.00000E+00
         0.00000E+00
         0.00000E+00
         0.00000E+00
         0.00000E+00
         0.00000E+00
         0.00000E+00
         0.00000E+00
         0.00000E+00
         0.00000E+00
         0.00000E+00
         0.00000E+00
         0.00000E+00
         0.00000E+00
         0.00000E+00
         0.00000E+00
         0.00000E+00
         0.00000E+00
         0.00000E+00
         0.00000E+00
         0.00000E+00
         0.00000E+00
         0.00000E+00
         0.00000E+00
         0.00000E+00
         0.00000E+00
         0.00000E+00
         0.00000E+00
         0.00000E+00
         0.00000E+00
         0.00000E+00
         0.00000E+00
         0.00000E+00
         0.00000E+00
         0.00000E+00
         0.00000E+00
         0.00000E+00
         0.00000E+00
         0.00000E+00
         0.00000E+00
         0.00000E+00
         0.00000E+00
         0.00000E+00
         0.00000E+00
         0.00000E+00
         0.00000E+00
         0.00000E+00
         0.00000E+00
         0.00000E+00
         0.00000E+00
         0.00000E+00
         0.00000E+00
         0.00000E+00
         0.00000E+00
         0.00000E+00
         0.00000E+00
         0.00000E+00
         0.00000E+00
         0.00000E+00
         0.00000E+00
         0.00000E+00
         0.00000E+00
         0.00000E+00
         0.00000E+00
         0.00000E+00
         0.00000E+00
         0.00000E+00
         0.00000E+00
         0.00000E+00
         0.00000E+00
         0.00000E+00
         0.00000E+00
         0.00000E+00
         0.00000E+00
         0.00000E+00
         0.00000E+00
         0.00000E+00
         0.00000E+00
         0.00000E+00
         0.00000E+00
         0.00000E+00
         0.00000E+00
         0.00000E+00
         0.00000E+00
         0.00000E+00
         0.00000E+00
         0.00000E+00
         0.00000E+00
         0.00000E+00
         0.00000E+00
         0.00000E+00
         0.00000E+00
         0.00000E+00
         0.00000E+00
         0.00000E+00
         0.00000E+00
         0.00000E+00
         0.00000E+00
         0.00000E+00
         0.00000E+00
         0.00000E+00
         0.00000E+00
         0.00000E+00
         0.00000E+00
         0.00000E+00
         0.00000E+00
         0.00000E+00
         0.00000E+00
         0.00000E+00
         0.00000E+00
         0.00000E+00
         0.00000E+00
         0.00000E+00
         0.00000E+00
         0.00000E+00
         0.00000E+00
         0.00000E+00
         0.00000E+00
         0.00000E+00
         0.00000E+00
         0.00000E+00
         0.00000E+00
         0.00000E+00
         0.00000E+00
         0.00000E+00
         0.00000E+00
         0.00000E+00
         0.00000E+00
         0.00000E+00
         0.00000E+00
         0.00000E+00
         0.00000E+00
         0.00000E+00
         0.00000E+00
         0.00000E+00
         0.00000E+00
         0.00000E+00
         0.00000E+00
         0.00000E+00
         0.00000E+00
         0.00000E+00
         0.00000E+00
         0.00000E+00
         0.00000E+00
         0.00000E+00
         0.00000E+00
         0.00000E+00
         0.00000E+00
         0.00000E+00
         0.00000E+00
         0.00000E+00
         0.00000E+00
         0.00000E+00
         0.00000E+00
         0.00000E+00
         0.00000E+00
         0.00000E+00
         0.00000E+00
         0.00000E+00
         0.00000E+00
         0.00000E+00
         0.00000E+00
         0.00000E+00
         0.00000E+00
         0.00000E+00
         0.00000E+00
         0.00000E+00
         0.00000E+00
         0.00000E+00
         0.00000E+00
         0.00000E+00
         0.00000E+00
         0.00000E+00
         0.00000E+00
         0.00000E+00
         0.00000E+00
         0.00000E+00
         0.00000E+00
         0.00000E+00
         0.00000E+00
         0.00000E+00
         0.00000E+00
         0.00000E+00
         0.00000E+00
         0.00000E+00
         0.00000E+00
         0.00000E+00
         0.00000E+00
         0.00000E+00
         0.00000E+00
         0.00000E+00
         0.00000E+00
         0.00000E+00
         0.00000E+00
         0.00000E+00
         0.00000E+00
         0.00000E+00
         0.00000E+00
         0.00000E+00
         0.00000E+00
         0.00000E+00
         0.00000E+00
         0.00000E+00
         0.00000E+00
         0.00000E+00
         0.00000E+00
         0.00000E+00
         0.00000E+00
         0.00000E+00
         0.00000E+00
         0.00000E+00
         0.00000E+00
         0.00000E+00
         0.00000E+00
         0.00000E+00
         0.00000E+00
         0.00000E+00
         0.00000E+00
         0.00000E+00
         0.00000E+00
         0.00000E+00
         0.00000E+00
         0.00000E+00
         0.00000E+00
         0.00000E+00
         0.00000E+00
         0.00000E+00
         0.00000E+00
         0.00000E+00
         0.00000E+00
         0.00000E+00
         0.00000E+00
         0.00000E+00
         0.00000E+00
         0.00000E+00
         0.00000E+00
         0.00000E+00
         0.00000E+00
         0.00000E+00
         0.00000E+00
         0.00000E+00
         0.00000E+00
         0.00000E+00
         0.00000E+00
         0.00000E+00
         0.00000E+00
         0.00000E+00
         0.00000E+00
         0.00000E+00
         0.00000E+00
         0.00000E+00
         0.00000E+00
         0.00000E+00
         0.00000E+00
         0.00000E+00
         0.00000E+00
         0.00000E+00
         0.00000E+00
         0.00000E+00
         0.00000E+00
         0.00000E+00
         0.00000E+00
         0.00000E+00
         0.00000E+00
         0.00000E+00
         0.00000E+00
         0.00000E+00
         0.00000E+00
         0.00000E+00
         0.00000E+00
         0.00000E+00
         0.00000E+00
         0.00000E+00
         0.00000E+00
         0.00000E+00
         0.00000E+00
         0.00000E+00
         0.00000E+00
         0.00000E+00
         0.00000E+00
         0.00000E+00
         0.00000E+00
         0.00000E+00
         0.00000E+00
         0.00000E+00
         0.00000E+00
         0.00000E+00
         0.00000E+00
         0.00000E+00
         0.00000E+00
         0.00000E+00
         0.00000E+00
         0.00000E+00
         0.00000E+00
         0.00000E+00
         0.00000E+00
         0.00000E+00
         0.00000E+00
         0.00000E+00
         0.00000E+00
         0.00000E+00
         0.00000E+00
         0.00000E+00
         0.00000E+00
         0.00000E+00
         0.00000E+00
         0.00000E+00
         0.00000E+00
         0.00000E+00
         0.00000E+00
         0.00000E+00
         0.00000E+00
         0.00000E+00
         0.00000E+00
         0.00000E+00
         0.00000E+00
         0.00000E+00
         0.00000E+00
         0.00000E+00
         0.00000E+00
         0.00000E+00
         0.00000E+00
         0.00000E+00
         0.00000E+00
         0.00000E+00
         0.00000E+00
         0.00000E+00
         0.00000E+00
         0.00000E+00
         0.00000E+00
         0.00000E+00
         0.00000E+00
         0.00000E+00
         0.00000E+00
         0.00000E+00
         0.00000E+00
         0.00000E+00
         0.00000E+00
         0.00000E+00
         0.00000E+00
         0.00000E+00
         0.00000E+00
         0.00000E+00
         0.00000E+00
         0.00000E+00
         0.00000E+00
         0.00000E+00
         0.00000E+00
         0.00000E+00
         0.00000E+00
         0.00000E+00
         0.00000E+00
         0.00000E+00
         0.00000E+00
         0.00000E+00
         0.00000E+00
         0.00000E+00
         0.00000E+00
         0.00000E+00
         0.00000E+00
         0.00000E+00
         0.00000E+00
         0.00000E+00
         0.00000E+00
         0.00000E+00
         0.00000E+00
         0.00000E+00
         0.00000E+00
         0.00000E+00
         0.00000E+00
         0.00000E+00
         0.00000E+00
         0.00000E+00
         0.00000E+00
         0.00000E+00
         0.00000E+00
         0.00000E+00
         0.00000E+00
         0.00000E+00
         0.00000E+00
         0.00000E+00
         0.00000E+00
         0.00000E+00
         0.00000E+00
         0.00000E+00
         0.00000E+00
         0.00000E+00
         0.00000E+00
         0.00000E+00
         0.00000E+00
         0.00000E+00
         0.00000E+00
         0.00000E+00
         0.00000E+00
         0.00000E+00
         0.00000E+00
         0.00000E+00
         0.00000E+00
         0.00000E+00
         0.00000E+00
         0.00000E+00
         0.00000E+00
         0.00000E+00
         0.00000E+00
         0.00000E+00
         0.00000E+00
         0.00000E+00
         0.00000E+00
         0.00000E+00
         0.00000E+00
         0.00000E+00
         0.00000E+00
         0.00000E+00
         0.00000E+00
         0.00000E+00
         0.00000E+00
         0.00000E+00
         0.00000E+00
         0.00000E+00
         0.00000E+00
         0.00000E+00
         0.00000E+00
         0.00000E+00
         0.00000E+00
         0.00000E+00
         0.00000E+00
         0.00000E+00
         0.00000E+00
         0.00000E+00
         0.00000E+00
         0.00000E+00
         0.00000E+00
         0.00000E+00
         0.00000E+00
         0.00000E+00
         0.00000E+00
         0.00000E+00
         0.00000E+00
         0.00000E+00
         0.00000E+00
         0.00000E+00
         0.00000E+00
         0.00000E+00
         0.00000E+00
         0.00000E+00
         0.00000E+00
         0.00000E+00
         0.00000E+00
         0.00000E+00
         0.00000E+00
         0.00000E+00
         0.00000E+00
         0.00000E+00
         0.00000E+00
         0.00000E+00
         0.00000E+00
         0.00000E+00
         0.00000E+00
         0.00000E+00
         0.00000E+00
         0.00000E+00
         0.00000E+00
         0.00000E+00
         0.00000E+00
         0.00000E+00
         0.00000E+00
         0.00000E+00
         0.00000E+00
         0.00000E+00
         0.00000E+00
         0.00000E+00
         0.00000E+00
         0.00000E+00
         0.00000E+00
         0.00000E+00
         0.00000E+00
         0.00000E+00
         0.00000E+00
         0.00000E+00
         0.00000E+00
         0.00000E+00
         0.00000E+00
         0.00000E+00
         0.00000E+00
         0.00000E+00
         0.00000E+00
         0.00000E+00
         0.00000E+00
         0.00000E+00
         0.00000E+00
         0.00000E+00
         0.00000E+00
         0.00000E+00
         0.00000E+00
         0.00000E+00
         0.00000E+00
         0.00000E+00
         0.00000E+00
         0.00000E+00
         0.00000E+00
         0.00000E+00
         0.00000E+00
         0.00000E+00
         0.00000E+00
         0.00000E+00
         0.00000E+00
         0.00000E+00
         0.00000E+00
         0.00000E+00
         0.00000E+00
         0.00000E+00
         0.00000E+00
         0.00000E+00
         0.00000E+00
         0.00000E+00
         0.00000E+00
         0.00000E+00
         0.00000E+00
         0.00000E+00
         0.00000E+00
         0.00000E+00
         0.00000E+00
         0.00000E+00
         0.00000E+00
         0.00000E+00
         0.00000E+00
         0.00000E+00
         0.00000E+00
         0.00000E+00
         0.00000E+00
         0.00000E+00
         0.00000E+00
         0.00000E+00
         0.00000E+00
         0.00000E+00
         0.00000E+00
         0.00000E+00
         0.00000E+00
         0.00000E+00
         0.00000E+00
         0.00000E+00
         0.00000E+00
         0.00000E+00
         0.00000E+00
         0.00000E+00
         0.00000E+00
         0.00000E+00
         0.00000E+00
         0.00000E+00
         0.00000E+00
         0.00000E+00
         0.00000E+00
         0.00000E+00
         0.00000E+00
         0.00000E+00
         0.00000E+00
         0.00000E+00
         0.00000E+00
         0.00000E+00
         0.00000E+00
         0.00000E+00
         0.00000E+00
         0.00000E+00
         0.00000E+00
         0.00000E+00
         0.00000E+00
         0.00000E+00
         0.00000E+00
         0.00000E+00
         0.00000E+00
         0.00000E+00
         0.00000E+00
         0.00000E+00
         0.00000E+00
         0.00000E+00
         0.00000E+00
         0.00000E+00
         0.00000E+00
         0.00000E+00
         0.00000E+00
         0.00000E+00
         0.00000E+00
         0.00000E+00
         0.00000E+00
         0.00000E+00
         0.00000E+00
         0.00000E+00
         0.00000E+00
         0.00000E+00
         0.00000E+00
         0.00000E+00
         0.00000E+00
         0.00000E+00
         0.00000E+00
         0.00000E+00
         0.00000E+00
         0.00000E+00
         0.00000E+00
         0.00000E+00
         0.00000E+00
         0.00000E+00
         0.00000E+00
         0.00000E+00
         0.00000E+00
         0.00000E+00
         0.00000E+00
         0.00000E+00
         0.00000E+00
         0.00000E+00
         0.00000E+00
         0.00000E+00
         0.00000E+00
         0.00000E+00
         0.00000E+00
         0.00000E+00
         0.00000E+00
         0.00000E+00
         0.00000E+00
         0.00000E+00
         0.00000E+00
         0.00000E+00
         0.00000E+00
         0.00000E+00
         0.00000E+00
         0.00000E+00
         0.00000E+00
         0.00000E+00
         0.00000E+00
         0.00000E+00
         0.00000E+00
         0.00000E+00
         0.00000E+00
         0.00000E+00
         0.00000E+00
         0.00000E+00
         0.00000E+00
         0.00000E+00
         0.00000E+00
         0.00000E+00
         0.00000E+00
         0.00000E+00
         0.00000E+00
         0.00000E+00
         0.00000E+00
         0.00000E+00
         0.00000E+00
         0.00000E+00
         0.00000E+00
         0.00000E+00
         0.00000E+00
         0.00000E+00
         0.00000E+00
         0.00000E+00
         0.00000E+00
         0.00000E+00
         0.00000E+00
         0.00000E+00
         0.00000E+00
         0.00000E+00
         0.00000E+00
         0.00000E+00
         0.00000E+00
         0.00000E+00
         0.00000E+00
         0.00000E+00
         0.00000E+00
         0.00000E+00
         0.00000E+00
         0.00000E+00
         0.00000E+00
         0.00000E+00
         0.00000E+00
         0.00000E+00
         0.00000E+00
         0.00000E+00
         0.00000E+00
         0.00000E+00
         0.00000E+00
         0.00000E+00
         0.00000E+00
         0.00000E+00
         0.00000E+00
         0.00000E+00
         0.00000E+00
         0.00000E+00
         0.00000E+00
         0.00000E+00
         0.00000E+00
         0.00000E+00
         0.00000E+00
         0.00000E+00
         0.00000E+00
         0.00000E+00
         0.00000E+00
         0.00000E+00
         0.00000E+00
         0.00000E+00
         0.00000E+00
         0.00000E+00
         0.00000E+00
         0.00000E+00
         0.00000E+00
         0.00000E+00
         0.00000E+00
         0.00000E+00
         0.00000E+00
         0.00000E+00
         0.00000E+00
         0.00000E+00
         0.00000E+00
         0.00000E+00
         0.00000E+00
         0.00000E+00
         0.00000E+00
         0.00000E+00
         0.00000E+00
         0.00000E+00
         0.00000E+00
         0.00000E+00
         0.00000E+00
         0.00000E+00
         0.00000E+00
         0.00000E+00
         0.00000E+00
         0.00000E+00
         0.00000E+00
         0.00000E+00
         0.00000E+00
         0.00000E+00
         0.00000E+00
         0.00000E+00
         0.00000E+00
         0.00000E+00
         0.00000E+00
         0.00000E+00
         0.00000E+00
         0.00000E+00
         0.00000E+00
         0.00000E+00
         0.00000E+00
         0.00000E+00
         0.00000E+00
         0.00000E+00
         0.00000E+00
         0.00000E+00
         0.00000E+00
         0.00000E+00
         0.00000E+00
         0.00000E+00
         0.00000E+00
         0.00000E+00
         0.00000E+00
         0.00000E+00
         0.00000E+00
         0.00000E+00
         0.00000E+00
         0.00000E+00
         0.00000E+00
         0.00000E+00
         0.00000E+00
         0.00000E+00
         0.00000E+00
         0.00000E+00
         0.00000E+00
         0.00000E+00
         0.00000E+00
         0.00000E+00
         0.00000E+00
         0.00000E+00
         0.00000E+00
         0.00000E+00
         0.00000E+00
         0.00000E+00
         0.00000E+00
         0.00000E+00
         0.00000E+00
         0.00000E+00
         0.00000E+00
         0.00000E+00
         0.00000E+00
         0.00000E+00
         0.00000E+00
         0.00000E+00
         0.00000E+00
         0.00000E+00
         0.00000E+00
         0.00000E+00
         0.00000E+00
         0.00000E+00
         0.00000E+00
         0.00000E+00
         0.00000E+00
         0.00000E+00
         0.00000E+00
         0.00000E+00
         0.00000E+00
         0.00000E+00
         0.00000E+00
         0.00000E+00
         0.00000E+00
         0.00000E+00
         0.00000E+00
         0.00000E+00
         0.00000E+00
         0.00000E+00
         0.00000E+00
         0.00000E+00
         0.00000E+00
         0.00000E+00
         0.00000E+00
         0.00000E+00
         0.00000E+00
         0.00000E+00
         0.00000E+00
         0.00000E+00
         0.00000E+00
         0.00000E+00
         0.00000E+00
         0.00000E+00
         0.00000E+00
         0.00000E+00
         0.00000E+00
         0.00000E+00
         0.00000E+00
         0.00000E+00
         0.00000E+00
         0.00000E+00
         0.00000E+00
         0.00000E+00
         0.00000E+00
         0.00000E+00
         0.00000E+00
         0.00000E+00
         0.00000E+00
         0.00000E+00
         0.00000E+00
         0.00000E+00
         0.00000E+00
         0.00000E+00
         0.00000E+00
         0.00000E+00
         0.00000E+00
         0.00000E+00
         0.00000E+00
         0.00000E+00
         0.00000E+00
         0.00000E+00
         0.00000E+00
         0.00000E+00
         0.00000E+00
         0.00000E+00
         0.00000E+00
         0.00000E+00
         0.00000E+00
         0.00000E+00
         0.00000E+00
         0.00000E+00
         0.00000E+00
         0.00000E+00
         0.00000E+00
         0.00000E+00
         0.00000E+00
         0.00000E+00
         0.00000E+00
         0.00000E+00
         0.00000E+00
         0.00000E+00
         0.00000E+00
         0.00000E+00
         0.00000E+00
         0.00000E+00
         0.00000E+00
         0.00000E+00
         0.00000E+00
         0.00000E+00
         0.00000E+00
         0.00000E+00
         0.00000E+00
         0.00000E+00
         0.00000E+00
         0.00000E+00
         0.00000E+00
         0.00000E+00
         0.00000E+00
         0.00000E+00
         0.00000E+00
         0.00000E+00
         0.00000E+00
         0.00000E+00
         0.00000E+00
         0.00000E+00
         0.00000E+00
         0.00000E+00
         0.00000E+00
         0.00000E+00
         0.00000E+00
         0.00000E+00
         0.00000E+00
         0.00000E+00
         0.00000E+00
         0.00000E+00
         0.00000E+00
         0.00000E+00
         0.00000E+00
         0.00000E+00
         0.00000E+00
         0.00000E+00
         0.00000E+00
         0.00000E+00
         0.00000E+00
         0.00000E+00
         0.00000E+00
         0.00000E+00
         0.00000E+00
         0.00000E+00
         0.00000E+00
         0.00000E+00
         0.00000E+00
         0.00000E+00
         0.00000E+00
         0.00000E+00
         0.00000E+00
         0.00000E+00
         0.00000E+00
         0.00000E+00
         0.00000E+00
         0.00000E+00
         0.00000E+00
         0.00000E+00
         0.00000E+00
         0.00000E+00
         0.00000E+00
         0.00000E+00
         0.00000E+00
         0.00000E+00
         0.00000E+00
         0.00000E+00
         0.00000E+00
         0.00000E+00
         0.00000E+00
         0.00000E+00
         0.00000E+00
         0.00000E+00
         0.00000E+00
         0.00000E+00
         0.00000E+00
         0.00000E+00
         0.00000E+00
         0.00000E+00
         0.00000E+00
         0.00000E+00
         0.00000E+00
         0.00000E+00
         0.00000E+00
         0.00000E+00
         0.00000E+00
         0.00000E+00
         0.00000E+00
         0.00000E+00
         0.00000E+00
         0.00000E+00
         0.00000E+00
         0.00000E+00
         0.00000E+00
         0.00000E+00
         0.00000E+00
         0.00000E+00
         0.00000E+00
         0.00000E+00
         0.00000E+00
         0.00000E+00
         0.00000E+00
         0.00000E+00
         0.00000E+00
         0.00000E+00
         0.00000E+00
         0.00000E+00
         0.00000E+00
         0.00000E+00
         0.00000E+00
         0.00000E+00
         0.00000E+00
         0.00000E+00
         0.00000E+00
         0.00000E+00
         0.00000E+00
         0.00000E+00
         0.00000E+00
         0.00000E+00
         0.00000E+00
         0.00000E+00
         0.00000E+00
         0.00000E+00
         0.00000E+00
         0.00000E+00
         0.00000E+00
         0.00000E+00
         0.00000E+00
         0.00000E+00
         0.00000E+00
         0.00000E+00
         0.00000E+00
         0.00000E+00
         0.00000E+00
         0.00000E+00
         0.00000E+00
         0.00000E+00
         0.00000E+00
         0.00000E+00
         0.00000E+00
         0.00000E+00
         0.00000E+00
         0.00000E+00
         0.00000E+00
         0.00000E+00
         0.00000E+00
         0.00000E+00
         0.00000E+00
         0.00000E+00
         0.00000E+00
         0.00000E+00
         0.00000E+00
         0.00000E+00
         0.00000E+00
         0.00000E+00
         0.00000E+00
         0.00000E+00
         0.00000E+00
         0.00000E+00
         0.00000E+00
         0.00000E+00
         0.00000E+00
         0.00000E+00
         0.00000E+00
         0.00000E+00
         0.00000E+00
         0.00000E+00
         0.00000E+00
         0.00000E+00
         0.00000E+00
         0.00000E+00
         0.00000E+00
         0.00000E+00
         0.00000E+00
         0.00000E+00
         0.00000E+00
         0.00000E+00
         0.00000E+00
         0.00000E+00
         0.00000E+00
         0.00000E+00
         0.00000E+00
         0.00000E+00
         0.00000E+00
         0.00000E+00
         0.00000E+00
         0.00000E+00
         0.00000E+00
         0.00000E+00
         0.00000E+00
         0.00000E+00
         0.00000E+00
         0.00000E+00
         0.00000E+00
         0.00000E+00
         0.00000E+00
         0.00000E+00
         0.00000E+00
         0.00000E+00
         0.00000E+00
         0.00000E+00
         0.00000E+00
         0.00000E+00
         0.00000E+00
         0.00000E+00
         0.00000E+00
         0.00000E+00
         0.00000E+00
         0.00000E+00
         0.00000E+00
         0.00000E+00
         0.00000E+00
         0.00000E+00
         0.00000E+00
         0.00000E+00
         0.00000E+00
         0.00000E+00
         0.00000E+00
         0.00000E+00
         0.00000E+00
         0.00000E+00
         0.00000E+00
         0.00000E+00
         0.00000E+00
         0.00000E+00
         0.00000E+00
         0.00000E+00
         0.00000E+00
         0.00000E+00
         0.00000E+00
         0.00000E+00
         0.00000E+00
         0.00000E+00
         0.00000E+00
         0.00000E+00
         0.00000E+00
         0.00000E+00
         0.00000E+00
         0.00000E+00
         0.00000E+00
         0.00000E+00
         0.00000E+00
         0.00000E+00
         0.00000E+00
         0.00000E+00
         0.00000E+00
         0.00000E+00
         0.00000E+00
         0.00000E+00
         0.00000E+00
         0.00000E+00
         0.00000E+00
         0.00000E+00
         0.00000E+00
         0.00000E+00
         0.00000E+00
         0.00000E+00
         0.00000E+00
         0.00000E+00
         0.00000E+00
         0.00000E+00
         0.00000E+00
         0.00000E+00
         0.00000E+00
         0.00000E+00
         0.00000E+00
         0.00000E+00
         0.00000E+00
         0.00000E+00
         0.00000E+00
         0.00000E+00
         0.00000E+00
         0.00000E+00
         0.00000E+00
         0.00000E+00
         0.00000E+00
         0.00000E+00
         0.00000E+00
         0.00000E+00
         0.00000E+00
         0.00000E+00
         0.00000E+00
         0.00000E+00
         0.00000E+00
         0.00000E+00
         0.00000E+00
         0.00000E+00
         0.00000E+00
         0.00000E+00
         0.00000E+00
         0.00000E+00
         0.00000E+00
         0.00000E+00
         0.00000E+00
         0.00000E+00
         0.00000E+00
         0.00000E+00
         0.00000E+00
         0.00000E+00
         0.00000E+00
         0.00000E+00
         0.00000E+00
         0.00000E+00
         0.00000E+00
         0.00000E+00
         0.00000E+00
         0.00000E+00
         0.00000E+00
         0.00000E+00
         0.00000E+00
         0.00000E+00
         0.00000E+00
         0.00000E+00
         0.00000E+00
         0.00000E+00
         0.00000E+00
         0.00000E+00
         0.00000E+00
         0.00000E+00
         0.00000E+00
         0.00000E+00
         0.00000E+00
         0.00000E+00
         0.00000E+00
         0.00000E+00
         0.00000E+00
         0.00000E+00
         0.00000E+00
         0.00000E+00
         0.00000E+00
         0.00000E+00
         0.00000E+00
         0.00000E+00
         0.00000E+00
         0.00000E+00
         0.00000E+00
         0.00000E+00
         0.00000E+00
         0.00000E+00
         0.00000E+00
         0.00000E+00
         0.00000E+00
         0.00000E+00
         0.00000E+00
         0.00000E+00
         0.00000E+00
         0.00000E+00
         0.00000E+00
         0.00000E+00
         0.00000E+00
         0.00000E+00
         0.00000E+00
         0.00000E+00
         0.00000E+00
         0.00000E+00
         0.00000E+00
         0.00000E+00
         0.00000E+00
         0.00000E+00
         0.00000E+00
         0.00000E+00
         0.00000E+00
         0.00000E+00
         0.00000E+00
         0.00000E+00
         0.00000E+00
         0.00000E+00
         0.00000E+00
         0.00000E+00
         0.00000E+00
         0.00000E+00
         0.00000E+00
         0.00000E+00
         0.00000E+00
         0.00000E+00
         0.00000E+00
         0.00000E+00
         0.00000E+00
         0.00000E+00
         0.00000E+00
         0.00000E+00
         0.00000E+00
         0.00000E+00
         0.00000E+00
         0.00000E+00
         0.00000E+00
         0.00000E+00
         0.00000E+00
         0.00000E+00
         0.00000E+00
         0.00000E+00
         0.00000E+00
         0.00000E+00
         0.00000E+00
         0.00000E+00
         0.00000E+00
         0.00000E+00
         0.00000E+00
         0.00000E+00
         0.00000E+00
         0.00000E+00
         0.00000E+00
         0.00000E+00
         0.00000E+00
         0.00000E+00
         0.00000E+00
         0.00000E+00
         0.00000E+00
         0.00000E+00
         0.00000E+00
         0.00000E+00
         0.00000E+00
         0.00000E+00
         0.00000E+00
         0.00000E+00
         0.00000E+00
         0.00000E+00
         0.00000E+00
         0.00000E+00
         0.00000E+00
         0.00000E+00
         0.00000E+00
         0.00000E+00
         0.00000E+00
         0.00000E+00
         0.00000E+00
         0.00000E+00
         0.00000E+00
         0.00000E+00
         0.00000E+00
         0.00000E+00
         0.00000E+00
         0.00000E+00
         0.00000E+00
         0.00000E+00
         0.00000E+00
         0.00000E+00
         0.00000E+00
         0.00000E+00
         0.00000E+00
         0.00000E+00
         0.00000E+00
         0.00000E+00
         0.00000E+00
         0.00000E+00
         0.00000E+00
         0.00000E+00
         0.00000E+00
         0.00000E+00
         0.00000E+00
         0.00000E+00
         0.00000E+00
         0.00000E+00
         0.00000E+00
         0.00000E+00
         0.00000E+00
         0.00000E+00
         0.00000E+00
         0.00000E+00
         0.00000E+00
         0.00000E+00
         0.00000E+00
         0.00000E+00
         0.00000E+00
         0.00000E+00
         0.00000E+00
         0.00000E+00
         0.00000E+00
         0.00000E+00
         0.00000E+00
         0.00000E+00
         0.00000E+00
         0.00000E+00
         0.00000E+00
         0.00000E+00
         0.00000E+00
         0.00000E+00
         0.00000E+00
         0.00000E+00
         0.00000E+00
         0.00000E+00
         0.00000E+00
         0.00000E+00
         0.00000E+00
         0.00000E+00
         0.00000E+00
         0.00000E+00
         0.00000E+00
         0.00000E+00
         0.00000E+00
         0.00000E+00
         0.00000E+00
         0.00000E+00
         0.00000E+00
         0.00000E+00
         0.00000E+00
         0.00000E+00
         0.00000E+00
         0.00000E+00
         0.00000E+00
         0.00000E+00
         0.00000E+00
         0.00000E+00
         0.00000E+00
         0.00000E+00
         0.00000E+00
         0.00000E+00
         0.00000E+00
         0.00000E+00
         0.00000E+00
         0.00000E+00
         0.00000E+00
         0.00000E+00
         0.00000E+00
         0.00000E+00
         0.00000E+00
         0.00000E+00
         0.00000E+00
         0.00000E+00
         0.00000E+00
         0.00000E+00
         0.00000E+00
         0.00000E+00
         0.00000E+00
         0.00000E+00
         0.00000E+00
         0.00000E+00
         0.00000E+00
         0.00000E+00
         0.00000E+00
         0.00000E+00
         0.00000E+00
         0.00000E+00
         0.00000E+00
         0.00000E+00
         0.00000E+00
         0.00000E+00
         0.00000E+00
         0.00000E+00
         0.00000E+00
         0.00000E+00
         0.00000E+00
         0.00000E+00
         0.00000E+00
         0.00000E+00
         0.00000E+00
         0.00000E+00
         0.00000E+00
         0.00000E+00
         0.00000E+00
         0.00000E+00
         0.00000E+00
         0.00000E+00
         0.00000E+00
         0.00000E+00
         0.00000E+00
         0.00000E+00
         0.00000E+00
         0.00000E+00
         0.00000E+00
         0.00000E+00
         0.00000E+00
         0.00000E+00
         0.00000E+00
         0.00000E+00
         0.00000E+00
         0.00000E+00
         0.00000E+00
         0.00000E+00
         0.00000E+00
         0.00000E+00
         0.00000E+00
         0.00000E+00
         0.00000E+00
         0.00000E+00
         0.00000E+00
         0.00000E+00
         0.00000E+00
         0.00000E+00
         0.00000E+00
         0.00000E+00
         0.00000E+00
         0.00000E+00
         0.00000E+00
         0.00000E+00
         0.00000E+00
         0.00000E+00
         0.00000E+00
         0.00000E+00
         0.00000E+00
         0.00000E+00
         0.00000E+00
         0.00000E+00
         0.00000E+00
         0.00000E+00
         0.00000E+00
         0.00000E+00
         0.00000E+00
         0.00000E+00
         0.00000E+00
         0.00000E+00
         0.00000E+00
         0.00000E+00
         0.00000E+00
         0.00000E+00
         0.00000E+00
         0.00000E+00
         0.00000E+00
         0.00000E+00
         0.00000E+00
         0.00000E+00
         0.00000E+00
         0.00000E+00
         0.00000E+00
         0.00000E+00
         0.00000E+00
         0.00000E+00
         0.00000E+00
         0.00000E+00
  
SCALARS                         fint_y  double 1
LOOKUP_TABLE default
         0.00000E+00
         0.00000E+00
         0.00000E+00
         0.00000E+00
         0.00000E+00
         0.00000E+00
         0.00000E+00
         0.00000E+00
         0.00000E+00
         0.00000E+00
         0.00000E+00
         0.00000E+00
         0.00000E+00
         0.00000E+00
         0.00000E+00
         0.00000E+00
         0.00000E+00
         0.00000E+00
         0.00000E+00
         0.00000E+00
         0.00000E+00
         0.00000E+00
         0.00000E+00
         0.00000E+00
         0.00000E+00
         0.00000E+00
         0.00000E+00
         0.00000E+00
         0.00000E+00
         0.00000E+00
         0.00000E+00
         0.00000E+00
         0.00000E+00
         0.00000E+00
         0.00000E+00
         0.00000E+00
         0.00000E+00
         0.00000E+00
         0.00000E+00
         0.00000E+00
         0.00000E+00
         0.00000E+00
         0.00000E+00
         0.00000E+00
         0.00000E+00
         0.00000E+00
         0.00000E+00
         0.00000E+00
         0.00000E+00
         0.00000E+00
         0.00000E+00
         0.00000E+00
         0.00000E+00
         0.00000E+00
         0.00000E+00
         0.00000E+00
         0.00000E+00
         0.00000E+00
         0.00000E+00
         0.00000E+00
         0.00000E+00
         0.00000E+00
         0.00000E+00
         0.00000E+00
         0.00000E+00
         0.00000E+00
         0.00000E+00
         0.00000E+00
         0.00000E+00
         0.00000E+00
         0.00000E+00
         0.00000E+00
         0.00000E+00
         0.00000E+00
         0.00000E+00
         0.00000E+00
         0.00000E+00
         0.00000E+00
         0.00000E+00
         0.00000E+00
         0.00000E+00
         0.00000E+00
         0.00000E+00
         0.00000E+00
         0.00000E+00
         0.00000E+00
         0.00000E+00
         0.00000E+00
         0.00000E+00
         0.00000E+00
         0.00000E+00
         0.00000E+00
         0.00000E+00
         0.00000E+00
         0.00000E+00
         0.00000E+00
         0.00000E+00
         0.00000E+00
         0.00000E+00
         0.00000E+00
         0.00000E+00
         0.00000E+00
         0.00000E+00
         0.00000E+00
         0.00000E+00
         0.00000E+00
         0.00000E+00
         0.00000E+00
         0.00000E+00
         0.00000E+00
         0.00000E+00
         0.00000E+00
         0.00000E+00
         0.00000E+00
         0.00000E+00
         0.00000E+00
         0.00000E+00
         0.00000E+00
         0.00000E+00
         0.00000E+00
         0.00000E+00
         0.00000E+00
         0.00000E+00
         0.00000E+00
         0.00000E+00
         0.00000E+00
         0.00000E+00
         0.00000E+00
         0.00000E+00
         0.00000E+00
         0.00000E+00
         0.00000E+00
         0.00000E+00
         0.00000E+00
         0.00000E+00
         0.00000E+00
         0.00000E+00
         0.00000E+00
         0.00000E+00
         0.00000E+00
         0.00000E+00
         0.00000E+00
         0.00000E+00
         0.00000E+00
         0.00000E+00
         0.00000E+00
         0.00000E+00
         0.00000E+00
         0.00000E+00
         0.00000E+00
         0.00000E+00
         0.00000E+00
         0.00000E+00
         0.00000E+00
         0.00000E+00
         0.00000E+00
         0.00000E+00
         0.00000E+00
         0.00000E+00
         0.00000E+00
         0.00000E+00
         0.00000E+00
         0.00000E+00
         0.00000E+00
         0.00000E+00
         0.00000E+00
         0.00000E+00
         0.00000E+00
         0.00000E+00
         0.00000E+00
         0.00000E+00
         0.00000E+00
         0.00000E+00
         0.00000E+00
         0.00000E+00
         0.00000E+00
         0.00000E+00
         0.00000E+00
         0.00000E+00
         0.00000E+00
         0.00000E+00
         0.00000E+00
         0.00000E+00
         0.00000E+00
         0.00000E+00
         0.00000E+00
         0.00000E+00
         0.00000E+00
         0.00000E+00
         0.00000E+00
         0.00000E+00
         0.00000E+00
         0.00000E+00
         0.00000E+00
         0.00000E+00
         0.00000E+00
         0.00000E+00
         0.00000E+00
         0.00000E+00
         0.00000E+00
         0.00000E+00
         0.00000E+00
         0.00000E+00
         0.00000E+00
         0.00000E+00
         0.00000E+00
         0.00000E+00
         0.00000E+00
         0.00000E+00
         0.00000E+00
         0.00000E+00
         0.00000E+00
         0.00000E+00
         0.00000E+00
         0.00000E+00
         0.00000E+00
         0.00000E+00
         0.00000E+00
         0.00000E+00
         0.00000E+00
         0.00000E+00
         0.00000E+00
         0.00000E+00
         0.00000E+00
         0.00000E+00
         0.00000E+00
         0.00000E+00
         0.00000E+00
         0.00000E+00
         0.00000E+00
         0.00000E+00
         0.00000E+00
         0.00000E+00
         0.00000E+00
         0.00000E+00
         0.00000E+00
         0.00000E+00
         0.00000E+00
         0.00000E+00
         0.00000E+00
         0.00000E+00
         0.00000E+00
         0.00000E+00
         0.00000E+00
         0.00000E+00
         0.00000E+00
         0.00000E+00
         0.00000E+00
         0.00000E+00
         0.00000E+00
         0.00000E+00
         0.00000E+00
         0.00000E+00
         0.00000E+00
         0.00000E+00
         0.00000E+00
         0.00000E+00
         0.00000E+00
         0.00000E+00
         0.00000E+00
         0.00000E+00
         0.00000E+00
         0.00000E+00
         0.00000E+00
         0.00000E+00
         0.00000E+00
         0.00000E+00
         0.00000E+00
         0.00000E+00
         0.00000E+00
         0.00000E+00
         0.00000E+00
         0.00000E+00
         0.00000E+00
         0.00000E+00
         0.00000E+00
         0.00000E+00
         0.00000E+00
         0.00000E+00
         0.00000E+00
         0.00000E+00
         0.00000E+00
         0.00000E+00
         0.00000E+00
         0.00000E+00
         0.00000E+00
         0.00000E+00
         0.00000E+00
         0.00000E+00
         0.00000E+00
         0.00000E+00
         0.00000E+00
         0.00000E+00
         0.00000E+00
         0.00000E+00
         0.00000E+00
         0.00000E+00
         0.00000E+00
         0.00000E+00
         0.00000E+00
         0.00000E+00
         0.00000E+00
         0.00000E+00
         0.00000E+00
         0.00000E+00
         0.00000E+00
         0.00000E+00
         0.00000E+00
         0.00000E+00
         0.00000E+00
         0.00000E+00
         0.00000E+00
         0.00000E+00
         0.00000E+00
         0.00000E+00
         0.00000E+00
         0.00000E+00
         0.00000E+00
         0.00000E+00
         0.00000E+00
         0.00000E+00
         0.00000E+00
         0.00000E+00
         0.00000E+00
         0.00000E+00
         0.00000E+00
         0.00000E+00
         0.00000E+00
         0.00000E+00
         0.00000E+00
         0.00000E+00
         0.00000E+00
         0.00000E+00
         0.00000E+00
         0.00000E+00
         0.00000E+00
         0.00000E+00
         0.00000E+00
         0.00000E+00
         0.00000E+00
         0.00000E+00
         0.00000E+00
         0.00000E+00
         0.00000E+00
         0.00000E+00
         0.00000E+00
         0.00000E+00
         0.00000E+00
         0.00000E+00
         0.00000E+00
         0.00000E+00
         0.00000E+00
         0.00000E+00
         0.00000E+00
         0.00000E+00
         0.00000E+00
         0.00000E+00
         0.00000E+00
         0.00000E+00
         0.00000E+00
         0.00000E+00
         0.00000E+00
         0.00000E+00
         0.00000E+00
         0.00000E+00
         0.00000E+00
         0.00000E+00
         0.00000E+00
         0.00000E+00
         0.00000E+00
         0.00000E+00
         0.00000E+00
         0.00000E+00
         0.00000E+00
         0.00000E+00
         0.00000E+00
         0.00000E+00
         0.00000E+00
         0.00000E+00
         0.00000E+00
         0.00000E+00
         0.00000E+00
         0.00000E+00
         0.00000E+00
         0.00000E+00
         0.00000E+00
         0.00000E+00
         0.00000E+00
         0.00000E+00
         0.00000E+00
         0.00000E+00
         0.00000E+00
         0.00000E+00
         0.00000E+00
         0.00000E+00
         0.00000E+00
         0.00000E+00
         0.00000E+00
         0.00000E+00
         0.00000E+00
         0.00000E+00
         0.00000E+00
         0.00000E+00
         0.00000E+00
         0.00000E+00
         0.00000E+00
         0.00000E+00
         0.00000E+00
         0.00000E+00
         0.00000E+00
         0.00000E+00
         0.00000E+00
         0.00000E+00
         0.00000E+00
         0.00000E+00
         0.00000E+00
         0.00000E+00
         0.00000E+00
         0.00000E+00
         0.00000E+00
         0.00000E+00
         0.00000E+00
         0.00000E+00
         0.00000E+00
         0.00000E+00
         0.00000E+00
         0.00000E+00
         0.00000E+00
         0.00000E+00
         0.00000E+00
         0.00000E+00
         0.00000E+00
         0.00000E+00
         0.00000E+00
         0.00000E+00
         0.00000E+00
         0.00000E+00
         0.00000E+00
         0.00000E+00
         0.00000E+00
         0.00000E+00
         0.00000E+00
         0.00000E+00
         0.00000E+00
         0.00000E+00
         0.00000E+00
         0.00000E+00
         0.00000E+00
         0.00000E+00
         0.00000E+00
         0.00000E+00
         0.00000E+00
         0.00000E+00
         0.00000E+00
         0.00000E+00
         0.00000E+00
         0.00000E+00
         0.00000E+00
         0.00000E+00
         0.00000E+00
         0.00000E+00
         0.00000E+00
         0.00000E+00
         0.00000E+00
         0.00000E+00
         0.00000E+00
         0.00000E+00
         0.00000E+00
         0.00000E+00
         0.00000E+00
         0.00000E+00
         0.00000E+00
         0.00000E+00
         0.00000E+00
         0.00000E+00
         0.00000E+00
         0.00000E+00
         0.00000E+00
         0.00000E+00
         0.00000E+00
         0.00000E+00
         0.00000E+00
         0.00000E+00
         0.00000E+00
         0.00000E+00
         0.00000E+00
         0.00000E+00
         0.00000E+00
         0.00000E+00
         0.00000E+00
         0.00000E+00
         0.00000E+00
         0.00000E+00
         0.00000E+00
         0.00000E+00
         0.00000E+00
         0.00000E+00
         0.00000E+00
         0.00000E+00
         0.00000E+00
         0.00000E+00
         0.00000E+00
         0.00000E+00
         0.00000E+00
         0.00000E+00
         0.00000E+00
         0.00000E+00
         0.00000E+00
         0.00000E+00
         0.00000E+00
         0.00000E+00
         0.00000E+00
         0.00000E+00
         0.00000E+00
         0.00000E+00
         0.00000E+00
         0.00000E+00
         0.00000E+00
         0.00000E+00
         0.00000E+00
         0.00000E+00
         0.00000E+00
         0.00000E+00
         0.00000E+00
         0.00000E+00
         0.00000E+00
         0.00000E+00
         0.00000E+00
         0.00000E+00
         0.00000E+00
         0.00000E+00
         0.00000E+00
         0.00000E+00
         0.00000E+00
         0.00000E+00
         0.00000E+00
         0.00000E+00
         0.00000E+00
         0.00000E+00
         0.00000E+00
         0.00000E+00
         0.00000E+00
         0.00000E+00
         0.00000E+00
         0.00000E+00
         0.00000E+00
         0.00000E+00
         0.00000E+00
         0.00000E+00
         0.00000E+00
         0.00000E+00
         0.00000E+00
         0.00000E+00
         0.00000E+00
         0.00000E+00
         0.00000E+00
         0.00000E+00
         0.00000E+00
         0.00000E+00
         0.00000E+00
         0.00000E+00
         0.00000E+00
         0.00000E+00
         0.00000E+00
         0.00000E+00
         0.00000E+00
         0.00000E+00
         0.00000E+00
         0.00000E+00
         0.00000E+00
         0.00000E+00
         0.00000E+00
         0.00000E+00
         0.00000E+00
         0.00000E+00
         0.00000E+00
         0.00000E+00
         0.00000E+00
         0.00000E+00
         0.00000E+00
         0.00000E+00
         0.00000E+00
         0.00000E+00
         0.00000E+00
         0.00000E+00
         0.00000E+00
         0.00000E+00
         0.00000E+00
         0.00000E+00
         0.00000E+00
         0.00000E+00
         0.00000E+00
         0.00000E+00
         0.00000E+00
         0.00000E+00
         0.00000E+00
         0.00000E+00
         0.00000E+00
         0.00000E+00
         0.00000E+00
         0.00000E+00
         0.00000E+00
         0.00000E+00
         0.00000E+00
         0.00000E+00
         0.00000E+00
         0.00000E+00
         0.00000E+00
         0.00000E+00
         0.00000E+00
         0.00000E+00
         0.00000E+00
         0.00000E+00
         0.00000E+00
         0.00000E+00
         0.00000E+00
         0.00000E+00
         0.00000E+00
         0.00000E+00
         0.00000E+00
         0.00000E+00
         0.00000E+00
         0.00000E+00
         0.00000E+00
         0.00000E+00
         0.00000E+00
         0.00000E+00
         0.00000E+00
         0.00000E+00
         0.00000E+00
         0.00000E+00
         0.00000E+00
         0.00000E+00
         0.00000E+00
         0.00000E+00
         0.00000E+00
         0.00000E+00
         0.00000E+00
         0.00000E+00
         0.00000E+00
         0.00000E+00
         0.00000E+00
         0.00000E+00
         0.00000E+00
         0.00000E+00
         0.00000E+00
         0.00000E+00
         0.00000E+00
         0.00000E+00
         0.00000E+00
         0.00000E+00
         0.00000E+00
         0.00000E+00
         0.00000E+00
         0.00000E+00
         0.00000E+00
         0.00000E+00
         0.00000E+00
         0.00000E+00
         0.00000E+00
         0.00000E+00
         0.00000E+00
         0.00000E+00
         0.00000E+00
         0.00000E+00
         0.00000E+00
         0.00000E+00
         0.00000E+00
         0.00000E+00
         0.00000E+00
         0.00000E+00
         0.00000E+00
         0.00000E+00
         0.00000E+00
         0.00000E+00
         0.00000E+00
         0.00000E+00
         0.00000E+00
         0.00000E+00
         0.00000E+00
         0.00000E+00
         0.00000E+00
         0.00000E+00
         0.00000E+00
         0.00000E+00
         0.00000E+00
         0.00000E+00
         0.00000E+00
         0.00000E+00
         0.00000E+00
         0.00000E+00
         0.00000E+00
         0.00000E+00
         0.00000E+00
         0.00000E+00
         0.00000E+00
         0.00000E+00
         0.00000E+00
         0.00000E+00
         0.00000E+00
         0.00000E+00
         0.00000E+00
         0.00000E+00
         0.00000E+00
         0.00000E+00
         0.00000E+00
         0.00000E+00
         0.00000E+00
         0.00000E+00
         0.00000E+00
         0.00000E+00
         0.00000E+00
         0.00000E+00
         0.00000E+00
         0.00000E+00
         0.00000E+00
         0.00000E+00
         0.00000E+00
         0.00000E+00
         0.00000E+00
         0.00000E+00
         0.00000E+00
         0.00000E+00
         0.00000E+00
         0.00000E+00
         0.00000E+00
         0.00000E+00
         0.00000E+00
         0.00000E+00
         0.00000E+00
         0.00000E+00
         0.00000E+00
         0.00000E+00
         0.00000E+00
         0.00000E+00
         0.00000E+00
         0.00000E+00
         0.00000E+00
         0.00000E+00
         0.00000E+00
         0.00000E+00
         0.00000E+00
         0.00000E+00
         0.00000E+00
         0.00000E+00
         0.00000E+00
         0.00000E+00
         0.00000E+00
         0.00000E+00
         0.00000E+00
         0.00000E+00
         0.00000E+00
         0.00000E+00
         0.00000E+00
         0.00000E+00
         0.00000E+00
         0.00000E+00
         0.00000E+00
         0.00000E+00
         0.00000E+00
         0.00000E+00
         0.00000E+00
         0.00000E+00
         0.00000E+00
         0.00000E+00
         0.00000E+00
         0.00000E+00
         0.00000E+00
         0.00000E+00
         0.00000E+00
         0.00000E+00
         0.00000E+00
         0.00000E+00
         0.00000E+00
         0.00000E+00
         0.00000E+00
         0.00000E+00
         0.00000E+00
         0.00000E+00
         0.00000E+00
         0.00000E+00
         0.00000E+00
         0.00000E+00
         0.00000E+00
         0.00000E+00
         0.00000E+00
         0.00000E+00
         0.00000E+00
         0.00000E+00
         0.00000E+00
         0.00000E+00
         0.00000E+00
         0.00000E+00
         0.00000E+00
         0.00000E+00
         0.00000E+00
         0.00000E+00
         0.00000E+00
         0.00000E+00
         0.00000E+00
         0.00000E+00
         0.00000E+00
         0.00000E+00
         0.00000E+00
         0.00000E+00
         0.00000E+00
         0.00000E+00
         0.00000E+00
         0.00000E+00
         0.00000E+00
         0.00000E+00
         0.00000E+00
         0.00000E+00
         0.00000E+00
         0.00000E+00
         0.00000E+00
         0.00000E+00
         0.00000E+00
         0.00000E+00
         0.00000E+00
         0.00000E+00
         0.00000E+00
         0.00000E+00
         0.00000E+00
         0.00000E+00
         0.00000E+00
         0.00000E+00
         0.00000E+00
         0.00000E+00
         0.00000E+00
         0.00000E+00
         0.00000E+00
         0.00000E+00
         0.00000E+00
         0.00000E+00
         0.00000E+00
         0.00000E+00
         0.00000E+00
         0.00000E+00
         0.00000E+00
         0.00000E+00
         0.00000E+00
         0.00000E+00
         0.00000E+00
         0.00000E+00
         0.00000E+00
         0.00000E+00
         0.00000E+00
         0.00000E+00
         0.00000E+00
         0.00000E+00
         0.00000E+00
         0.00000E+00
         0.00000E+00
         0.00000E+00
         0.00000E+00
         0.00000E+00
         0.00000E+00
         0.00000E+00
         0.00000E+00
         0.00000E+00
         0.00000E+00
         0.00000E+00
         0.00000E+00
         0.00000E+00
         0.00000E+00
         0.00000E+00
         0.00000E+00
         0.00000E+00
         0.00000E+00
         0.00000E+00
         0.00000E+00
         0.00000E+00
         0.00000E+00
         0.00000E+00
         0.00000E+00
         0.00000E+00
         0.00000E+00
         0.00000E+00
         0.00000E+00
         0.00000E+00
         0.00000E+00
         0.00000E+00
         0.00000E+00
         0.00000E+00
         0.00000E+00
         0.00000E+00
         0.00000E+00
         0.00000E+00
         0.00000E+00
         0.00000E+00
         0.00000E+00
         0.00000E+00
         0.00000E+00
         0.00000E+00
         0.00000E+00
         0.00000E+00
         0.00000E+00
         0.00000E+00
         0.00000E+00
         0.00000E+00
         0.00000E+00
         0.00000E+00
         0.00000E+00
         0.00000E+00
         0.00000E+00
         0.00000E+00
         0.00000E+00
         0.00000E+00
         0.00000E+00
         0.00000E+00
         0.00000E+00
         0.00000E+00
         0.00000E+00
         0.00000E+00
         0.00000E+00
         0.00000E+00
         0.00000E+00
         0.00000E+00
         0.00000E+00
         0.00000E+00
         0.00000E+00
         0.00000E+00
         0.00000E+00
         0.00000E+00
         0.00000E+00
         0.00000E+00
         0.00000E+00
         0.00000E+00
         0.00000E+00
         0.00000E+00
         0.00000E+00
         0.00000E+00
         0.00000E+00
         0.00000E+00
         0.00000E+00
         0.00000E+00
         0.00000E+00
         0.00000E+00
         0.00000E+00
         0.00000E+00
         0.00000E+00
         0.00000E+00
         0.00000E+00
         0.00000E+00
         0.00000E+00
         0.00000E+00
         0.00000E+00
         0.00000E+00
         0.00000E+00
         0.00000E+00
         0.00000E+00
         0.00000E+00
         0.00000E+00
         0.00000E+00
         0.00000E+00
         0.00000E+00
         0.00000E+00
         0.00000E+00
         0.00000E+00
         0.00000E+00
         0.00000E+00
         0.00000E+00
         0.00000E+00
         0.00000E+00
         0.00000E+00
         0.00000E+00
         0.00000E+00
         0.00000E+00
         0.00000E+00
         0.00000E+00
         0.00000E+00
         0.00000E+00
         0.00000E+00
         0.00000E+00
         0.00000E+00
         0.00000E+00
         0.00000E+00
         0.00000E+00
         0.00000E+00
         0.00000E+00
         0.00000E+00
         0.00000E+00
         0.00000E+00
         0.00000E+00
         0.00000E+00
         0.00000E+00
         0.00000E+00
         0.00000E+00
         0.00000E+00
         0.00000E+00
         0.00000E+00
         0.00000E+00
         0.00000E+00
         0.00000E+00
         0.00000E+00
         0.00000E+00
         0.00000E+00
         0.00000E+00
         0.00000E+00
         0.00000E+00
         0.00000E+00
         0.00000E+00
         0.00000E+00
         0.00000E+00
         0.00000E+00
         0.00000E+00
         0.00000E+00
         0.00000E+00
         0.00000E+00
         0.00000E+00
         0.00000E+00
         0.00000E+00
         0.00000E+00
         0.00000E+00
         0.00000E+00
         0.00000E+00
         0.00000E+00
         0.00000E+00
         0.00000E+00
         0.00000E+00
         0.00000E+00
         0.00000E+00
         0.00000E+00
         0.00000E+00
         0.00000E+00
         0.00000E+00
         0.00000E+00
         0.00000E+00
         0.00000E+00
         0.00000E+00
         0.00000E+00
         0.00000E+00
         0.00000E+00
         0.00000E+00
         0.00000E+00
         0.00000E+00
         0.00000E+00
         0.00000E+00
         0.00000E+00
         0.00000E+00
         0.00000E+00
         0.00000E+00
         0.00000E+00
         0.00000E+00
         0.00000E+00
         0.00000E+00
         0.00000E+00
         0.00000E+00
         0.00000E+00
         0.00000E+00
         0.00000E+00
         0.00000E+00
         0.00000E+00
         0.00000E+00
         0.00000E+00
         0.00000E+00
         0.00000E+00
         0.00000E+00
         0.00000E+00
         0.00000E+00
         0.00000E+00
         0.00000E+00
         0.00000E+00
         0.00000E+00
         0.00000E+00
         0.00000E+00
         0.00000E+00
         0.00000E+00
         0.00000E+00
         0.00000E+00
         0.00000E+00
         0.00000E+00
         0.00000E+00
         0.00000E+00
         0.00000E+00
         0.00000E+00
         0.00000E+00
         0.00000E+00
         0.00000E+00
         0.00000E+00
         0.00000E+00
         0.00000E+00
         0.00000E+00
         0.00000E+00
         0.00000E+00
         0.00000E+00
         0.00000E+00
         0.00000E+00
         0.00000E+00
         0.00000E+00
         0.00000E+00
         0.00000E+00
         0.00000E+00
         0.00000E+00
         0.00000E+00
         0.00000E+00
         0.00000E+00
         0.00000E+00
         0.00000E+00
         0.00000E+00
         0.00000E+00
         0.00000E+00
         0.00000E+00
         0.00000E+00
         0.00000E+00
         0.00000E+00
         0.00000E+00
         0.00000E+00
         0.00000E+00
         0.00000E+00
         0.00000E+00
         0.00000E+00
         0.00000E+00
         0.00000E+00
         0.00000E+00
         0.00000E+00
         0.00000E+00
         0.00000E+00
         0.00000E+00
         0.00000E+00
         0.00000E+00
         0.00000E+00
         0.00000E+00
         0.00000E+00
         0.00000E+00
         0.00000E+00
         0.00000E+00
         0.00000E+00
         0.00000E+00
         0.00000E+00
         0.00000E+00
         0.00000E+00
         0.00000E+00
         0.00000E+00
         0.00000E+00
         0.00000E+00
         0.00000E+00
         0.00000E+00
         0.00000E+00
         0.00000E+00
         0.00000E+00
         0.00000E+00
         0.00000E+00
         0.00000E+00
         0.00000E+00
         0.00000E+00
         0.00000E+00
         0.00000E+00
         0.00000E+00
         0.00000E+00
         0.00000E+00
         0.00000E+00
         0.00000E+00
         0.00000E+00
         0.00000E+00
         0.00000E+00
         0.00000E+00
         0.00000E+00
         0.00000E+00
         0.00000E+00
         0.00000E+00
         0.00000E+00
         0.00000E+00
         0.00000E+00
         0.00000E+00
         0.00000E+00
         0.00000E+00
         0.00000E+00
         0.00000E+00
         0.00000E+00
         0.00000E+00
         0.00000E+00
         0.00000E+00
         0.00000E+00
         0.00000E+00
         0.00000E+00
         0.00000E+00
         0.00000E+00
         0.00000E+00
         0.00000E+00
         0.00000E+00
         0.00000E+00
         0.00000E+00
         0.00000E+00
         0.00000E+00
         0.00000E+00
         0.00000E+00
         0.00000E+00
         0.00000E+00
         0.00000E+00
         0.00000E+00
         0.00000E+00
         0.00000E+00
         0.00000E+00
         0.00000E+00
         0.00000E+00
         0.00000E+00
         0.00000E+00
         0.00000E+00
         0.00000E+00
         0.00000E+00
         0.00000E+00
         0.00000E+00
         0.00000E+00
         0.00000E+00
         0.00000E+00
         0.00000E+00
         0.00000E+00
         0.00000E+00
         0.00000E+00
         0.00000E+00
         0.00000E+00
         0.00000E+00
         0.00000E+00
         0.00000E+00
         0.00000E+00
         0.00000E+00
         0.00000E+00
         0.00000E+00
         0.00000E+00
         0.00000E+00
         0.00000E+00
         0.00000E+00
         0.00000E+00
         0.00000E+00
         0.00000E+00
         0.00000E+00
         0.00000E+00
         0.00000E+00
         0.00000E+00
         0.00000E+00
         0.00000E+00
         0.00000E+00
         0.00000E+00
         0.00000E+00
         0.00000E+00
         0.00000E+00
         0.00000E+00
         0.00000E+00
         0.00000E+00
         0.00000E+00
         0.00000E+00
         0.00000E+00
         0.00000E+00
         0.00000E+00
         0.00000E+00
         0.00000E+00
         0.00000E+00
         0.00000E+00
         0.00000E+00
         0.00000E+00
         0.00000E+00
         0.00000E+00
         0.00000E+00
         0.00000E+00
         0.00000E+00
         0.00000E+00
         0.00000E+00
         0.00000E+00
         0.00000E+00
         0.00000E+00
         0.00000E+00
         0.00000E+00
         0.00000E+00
         0.00000E+00
         0.00000E+00
         0.00000E+00
         0.00000E+00
         0.00000E+00
         0.00000E+00
         0.00000E+00
         0.00000E+00
         0.00000E+00
         0.00000E+00
         0.00000E+00
         0.00000E+00
         0.00000E+00
         0.00000E+00
         0.00000E+00
         0.00000E+00
         0.00000E+00
         0.00000E+00
         0.00000E+00
         0.00000E+00
         0.00000E+00
         0.00000E+00
         0.00000E+00
         0.00000E+00
         0.00000E+00
         0.00000E+00
         0.00000E+00
         0.00000E+00
         0.00000E+00
         0.00000E+00
         0.00000E+00
         0.00000E+00
         0.00000E+00
         0.00000E+00
         0.00000E+00
         0.00000E+00
         0.00000E+00
         0.00000E+00
         0.00000E+00
         0.00000E+00
         0.00000E+00
         0.00000E+00
         0.00000E+00
         0.00000E+00
         0.00000E+00
         0.00000E+00
         0.00000E+00
         0.00000E+00
         0.00000E+00
         0.00000E+00
         0.00000E+00
         0.00000E+00
         0.00000E+00
         0.00000E+00
         0.00000E+00
         0.00000E+00
         0.00000E+00
         0.00000E+00
         0.00000E+00
         0.00000E+00
         0.00000E+00
         0.00000E+00
         0.00000E+00
         0.00000E+00
         0.00000E+00
         0.00000E+00
         0.00000E+00
         0.00000E+00
         0.00000E+00
         0.00000E+00
         0.00000E+00
         0.00000E+00
         0.00000E+00
         0.00000E+00
         0.00000E+00
         0.00000E+00
         0.00000E+00
         0.00000E+00
         0.00000E+00
         0.00000E+00
         0.00000E+00
         0.00000E+00
         0.00000E+00
         0.00000E+00
         0.00000E+00
         0.00000E+00
         0.00000E+00
         0.00000E+00
         0.00000E+00
         0.00000E+00
         0.00000E+00
         0.00000E+00
         0.00000E+00
         0.00000E+00
         0.00000E+00
         0.00000E+00
         0.00000E+00
         0.00000E+00
         0.00000E+00
         0.00000E+00
         0.00000E+00
         0.00000E+00
         0.00000E+00
         0.00000E+00
         0.00000E+00
         0.00000E+00
         0.00000E+00
         0.00000E+00
         0.00000E+00
         0.00000E+00
         0.00000E+00
         0.00000E+00
         0.00000E+00
         0.00000E+00
         0.00000E+00
         0.00000E+00
         0.00000E+00
         0.00000E+00
         0.00000E+00
         0.00000E+00
         0.00000E+00
         0.00000E+00
         0.00000E+00
         0.00000E+00
         0.00000E+00
         0.00000E+00
         0.00000E+00
         0.00000E+00
         0.00000E+00
         0.00000E+00
         0.00000E+00
         0.00000E+00
         0.00000E+00
         0.00000E+00
         0.00000E+00
         0.00000E+00
         0.00000E+00
         0.00000E+00
         0.00000E+00
         0.00000E+00
         0.00000E+00
         0.00000E+00
         0.00000E+00
         0.00000E+00
         0.00000E+00
         0.00000E+00
         0.00000E+00
         0.00000E+00
         0.00000E+00
         0.00000E+00
         0.00000E+00
         0.00000E+00
         0.00000E+00
         0.00000E+00
         0.00000E+00
         0.00000E+00
         0.00000E+00
         0.00000E+00
         0.00000E+00
         0.00000E+00
         0.00000E+00
         0.00000E+00
         0.00000E+00
         0.00000E+00
         0.00000E+00
         0.00000E+00
         0.00000E+00
         0.00000E+00
         0.00000E+00
         0.00000E+00
         0.00000E+00
         0.00000E+00
         0.00000E+00
         0.00000E+00
         0.00000E+00
         0.00000E+00
         0.00000E+00
         0.00000E+00
         0.00000E+00
         0.00000E+00
         0.00000E+00
         0.00000E+00
         0.00000E+00
         0.00000E+00
         0.00000E+00
         0.00000E+00
         0.00000E+00
         0.00000E+00
         0.00000E+00
         0.00000E+00
         0.00000E+00
         0.00000E+00
         0.00000E+00
         0.00000E+00
         0.00000E+00
         0.00000E+00
         0.00000E+00
         0.00000E+00
         0.00000E+00
         0.00000E+00
         0.00000E+00
         0.00000E+00
         0.00000E+00
         0.00000E+00
         0.00000E+00
         0.00000E+00
         0.00000E+00
         0.00000E+00
         0.00000E+00
         0.00000E+00
         0.00000E+00
         0.00000E+00
         0.00000E+00
         0.00000E+00
         0.00000E+00
         0.00000E+00
         0.00000E+00
         0.00000E+00
         0.00000E+00
         0.00000E+00
         0.00000E+00
         0.00000E+00
         0.00000E+00
         0.00000E+00
         0.00000E+00
         0.00000E+00
         0.00000E+00
         0.00000E+00
         0.00000E+00
         0.00000E+00
         0.00000E+00
         0.00000E+00
         0.00000E+00
         0.00000E+00
         0.00000E+00
         0.00000E+00
         0.00000E+00
         0.00000E+00
         0.00000E+00
         0.00000E+00
         0.00000E+00
         0.00000E+00
         0.00000E+00
         0.00000E+00
         0.00000E+00
         0.00000E+00
         0.00000E+00
         0.00000E+00
         0.00000E+00
         0.00000E+00
         0.00000E+00
         0.00000E+00
         0.00000E+00
         0.00000E+00
         0.00000E+00
         0.00000E+00
         0.00000E+00
         0.00000E+00
         0.00000E+00
         0.00000E+00
         0.00000E+00
         0.00000E+00
         0.00000E+00
         0.00000E+00
         0.00000E+00
         0.00000E+00
         0.00000E+00
         0.00000E+00
         0.00000E+00
         0.00000E+00
         0.00000E+00
         0.00000E+00
         0.00000E+00
         0.00000E+00
         0.00000E+00
         0.00000E+00
         0.00000E+00
         0.00000E+00
         0.00000E+00
         0.00000E+00
         0.00000E+00
         0.00000E+00
         0.00000E+00
         0.00000E+00
         0.00000E+00
         0.00000E+00
         0.00000E+00
         0.00000E+00
         0.00000E+00
         0.00000E+00
         0.00000E+00
         0.00000E+00
         0.00000E+00
         0.00000E+00
         0.00000E+00
         0.00000E+00
         0.00000E+00
         0.00000E+00
         0.00000E+00
         0.00000E+00
         0.00000E+00
         0.00000E+00
         0.00000E+00
         0.00000E+00
         0.00000E+00
         0.00000E+00
         0.00000E+00
         0.00000E+00
         0.00000E+00
         0.00000E+00
         0.00000E+00
         0.00000E+00
         0.00000E+00
         0.00000E+00
         0.00000E+00
         0.00000E+00
         0.00000E+00
         0.00000E+00
         0.00000E+00
         0.00000E+00
         0.00000E+00
         0.00000E+00
         0.00000E+00
         0.00000E+00
         0.00000E+00
         0.00000E+00
         0.00000E+00
         0.00000E+00
         0.00000E+00
         0.00000E+00
         0.00000E+00
         0.00000E+00
         0.00000E+00
         0.00000E+00
         0.00000E+00
         0.00000E+00
         0.00000E+00
         0.00000E+00
         0.00000E+00
         0.00000E+00
         0.00000E+00
         0.00000E+00
         0.00000E+00
         0.00000E+00
         0.00000E+00
         0.00000E+00
         0.00000E+00
         0.00000E+00
         0.00000E+00
         0.00000E+00
         0.00000E+00
         0.00000E+00
         0.00000E+00
         0.00000E+00
         0.00000E+00
         0.00000E+00
         0.00000E+00
         0.00000E+00
         0.00000E+00
         0.00000E+00
         0.00000E+00
         0.00000E+00
         0.00000E+00
         0.00000E+00
         0.00000E+00
         0.00000E+00
         0.00000E+00
         0.00000E+00
         0.00000E+00
         0.00000E+00
         0.00000E+00
         0.00000E+00
         0.00000E+00
         0.00000E+00
         0.00000E+00
         0.00000E+00
         0.00000E+00
         0.00000E+00
         0.00000E+00
         0.00000E+00
         0.00000E+00
         0.00000E+00
         0.00000E+00
         0.00000E+00
         0.00000E+00
         0.00000E+00
         0.00000E+00
         0.00000E+00
         0.00000E+00
         0.00000E+00
         0.00000E+00
         0.00000E+00
         0.00000E+00
         0.00000E+00
         0.00000E+00
         0.00000E+00
         0.00000E+00
         0.00000E+00
         0.00000E+00
         0.00000E+00
         0.00000E+00
         0.00000E+00
         0.00000E+00
         0.00000E+00
         0.00000E+00
         0.00000E+00
         0.00000E+00
         0.00000E+00
         0.00000E+00
         0.00000E+00
         0.00000E+00
         0.00000E+00
         0.00000E+00
         0.00000E+00
         0.00000E+00
         0.00000E+00
         0.00000E+00
         0.00000E+00
         0.00000E+00
         0.00000E+00
         0.00000E+00
         0.00000E+00
         0.00000E+00
         0.00000E+00
         0.00000E+00
         0.00000E+00
         0.00000E+00
         0.00000E+00
         0.00000E+00
         0.00000E+00
         0.00000E+00
         0.00000E+00
         0.00000E+00
         0.00000E+00
         0.00000E+00
         0.00000E+00
         0.00000E+00
         0.00000E+00
         0.00000E+00
         0.00000E+00
         0.00000E+00
         0.00000E+00
         0.00000E+00
         0.00000E+00
         0.00000E+00
         0.00000E+00
         0.00000E+00
         0.00000E+00
         0.00000E+00
         0.00000E+00
         0.00000E+00
         0.00000E+00
         0.00000E+00
         0.00000E+00
         0.00000E+00
         0.00000E+00
         0.00000E+00
         0.00000E+00
         0.00000E+00
         0.00000E+00
         0.00000E+00
         0.00000E+00
         0.00000E+00
         0.00000E+00
         0.00000E+00
         0.00000E+00
         0.00000E+00
         0.00000E+00
         0.00000E+00
         0.00000E+00
         0.00000E+00
         0.00000E+00
         0.00000E+00
         0.00000E+00
         0.00000E+00
         0.00000E+00
         0.00000E+00
         0.00000E+00
         0.00000E+00
         0.00000E+00
         0.00000E+00
         0.00000E+00
         0.00000E+00
         0.00000E+00
         0.00000E+00
         0.00000E+00
         0.00000E+00
         0.00000E+00
         0.00000E+00
         0.00000E+00
         0.00000E+00
         0.00000E+00
         0.00000E+00
         0.00000E+00
         0.00000E+00
         0.00000E+00
         0.00000E+00
         0.00000E+00
         0.00000E+00
         0.00000E+00
         0.00000E+00
         0.00000E+00
         0.00000E+00
         0.00000E+00
         0.00000E+00
         0.00000E+00
         0.00000E+00
         0.00000E+00
         0.00000E+00
         0.00000E+00
         0.00000E+00
         0.00000E+00
         0.00000E+00
         0.00000E+00
         0.00000E+00
         0.00000E+00
         0.00000E+00
         0.00000E+00
         0.00000E+00
         0.00000E+00
         0.00000E+00
         0.00000E+00
         0.00000E+00
         0.00000E+00
         0.00000E+00
         0.00000E+00
         0.00000E+00
         0.00000E+00
         0.00000E+00
         0.00000E+00
         0.00000E+00
         0.00000E+00
         0.00000E+00
         0.00000E+00
         0.00000E+00
         0.00000E+00
         0.00000E+00
         0.00000E+00
         0.00000E+00
         0.00000E+00
         0.00000E+00
         0.00000E+00
         0.00000E+00
         0.00000E+00
         0.00000E+00
         0.00000E+00
         0.00000E+00
         0.00000E+00
         0.00000E+00
         0.00000E+00
         0.00000E+00
         0.00000E+00
         0.00000E+00
         0.00000E+00
         0.00000E+00
         0.00000E+00
         0.00000E+00
         0.00000E+00
         0.00000E+00
         0.00000E+00
         0.00000E+00
         0.00000E+00
         0.00000E+00
         0.00000E+00
         0.00000E+00
         0.00000E+00
         0.00000E+00
         0.00000E+00
         0.00000E+00
         0.00000E+00
         0.00000E+00
         0.00000E+00
         0.00000E+00
         0.00000E+00
         0.00000E+00
         0.00000E+00
         0.00000E+00
         0.00000E+00
         0.00000E+00
         0.00000E+00
         0.00000E+00
         0.00000E+00
         0.00000E+00
         0.00000E+00
         0.00000E+00
         0.00000E+00
         0.00000E+00
         0.00000E+00
         0.00000E+00
         0.00000E+00
         0.00000E+00
         0.00000E+00
         0.00000E+00
         0.00000E+00
         0.00000E+00
         0.00000E+00
         0.00000E+00
         0.00000E+00
         0.00000E+00
         0.00000E+00
         0.00000E+00
         0.00000E+00
         0.00000E+00
         0.00000E+00
         0.00000E+00
         0.00000E+00
         0.00000E+00
         0.00000E+00
         0.00000E+00
         0.00000E+00
         0.00000E+00
         0.00000E+00
         0.00000E+00
         0.00000E+00
         0.00000E+00
         0.00000E+00
         0.00000E+00
         0.00000E+00
         0.00000E+00
         0.00000E+00
         0.00000E+00
         0.00000E+00
         0.00000E+00
         0.00000E+00
         0.00000E+00
         0.00000E+00
         0.00000E+00
         0.00000E+00
         0.00000E+00
         0.00000E+00
         0.00000E+00
         0.00000E+00
         0.00000E+00
         0.00000E+00
         0.00000E+00
         0.00000E+00
         0.00000E+00
         0.00000E+00
         0.00000E+00
         0.00000E+00
         0.00000E+00
         0.00000E+00
         0.00000E+00
         0.00000E+00
         0.00000E+00
         0.00000E+00
         0.00000E+00
         0.00000E+00
         0.00000E+00
         0.00000E+00
         0.00000E+00
         0.00000E+00
         0.00000E+00
         0.00000E+00
         0.00000E+00
         0.00000E+00
         0.00000E+00
         0.00000E+00
         0.00000E+00
         0.00000E+00
         0.00000E+00
         0.00000E+00
         0.00000E+00
         0.00000E+00
         0.00000E+00
         0.00000E+00
         0.00000E+00
         0.00000E+00
         0.00000E+00
         0.00000E+00
         0.00000E+00
         0.00000E+00
         0.00000E+00
         0.00000E+00
         0.00000E+00
         0.00000E+00
         0.00000E+00
         0.00000E+00
         0.00000E+00
         0.00000E+00
         0.00000E+00
         0.00000E+00
         0.00000E+00
         0.00000E+00
         0.00000E+00
  
SCALARS                         fint_z  double 1
LOOKUP_TABLE default
         0.00000E+00
         0.00000E+00
         0.00000E+00
         0.00000E+00
         0.00000E+00
         0.00000E+00
         0.00000E+00
         0.00000E+00
         0.00000E+00
         0.00000E+00
         0.00000E+00
         0.00000E+00
         0.00000E+00
         0.00000E+00
         0.00000E+00
         0.00000E+00
         0.00000E+00
         0.00000E+00
         0.00000E+00
         0.00000E+00
         0.00000E+00
         0.00000E+00
         0.00000E+00
         0.00000E+00
         0.00000E+00
         0.00000E+00
         0.00000E+00
         0.00000E+00
         0.00000E+00
         0.00000E+00
         0.00000E+00
         0.00000E+00
         0.00000E+00
         0.00000E+00
         0.00000E+00
         0.00000E+00
         0.00000E+00
         0.00000E+00
         0.00000E+00
         0.00000E+00
         0.00000E+00
         0.00000E+00
         0.00000E+00
         0.00000E+00
         0.00000E+00
         0.00000E+00
         0.00000E+00
         0.00000E+00
         0.00000E+00
         0.00000E+00
         0.00000E+00
         0.00000E+00
         0.00000E+00
         0.00000E+00
         0.00000E+00
         0.00000E+00
         0.00000E+00
         0.00000E+00
         0.00000E+00
         0.00000E+00
         0.00000E+00
         0.00000E+00
         0.00000E+00
         0.00000E+00
         0.00000E+00
         0.00000E+00
         0.00000E+00
         0.00000E+00
         0.00000E+00
         0.00000E+00
         0.00000E+00
         0.00000E+00
         0.00000E+00
         0.00000E+00
         0.00000E+00
         0.00000E+00
         0.00000E+00
         0.00000E+00
         0.00000E+00
         0.00000E+00
         0.00000E+00
         0.00000E+00
         0.00000E+00
         0.00000E+00
         0.00000E+00
         0.00000E+00
         0.00000E+00
         0.00000E+00
         0.00000E+00
         0.00000E+00
         0.00000E+00
         0.00000E+00
         0.00000E+00
         0.00000E+00
         0.00000E+00
         0.00000E+00
         0.00000E+00
         0.00000E+00
         0.00000E+00
         0.00000E+00
         0.00000E+00
         0.00000E+00
         0.00000E+00
         0.00000E+00
         0.00000E+00
         0.00000E+00
         0.00000E+00
         0.00000E+00
         0.00000E+00
         0.00000E+00
         0.00000E+00
         0.00000E+00
         0.00000E+00
         0.00000E+00
         0.00000E+00
         0.00000E+00
         0.00000E+00
         0.00000E+00
         0.00000E+00
         0.00000E+00
         0.00000E+00
         0.00000E+00
         0.00000E+00
         0.00000E+00
         0.00000E+00
         0.00000E+00
         0.00000E+00
         0.00000E+00
         0.00000E+00
         0.00000E+00
         0.00000E+00
         0.00000E+00
         0.00000E+00
         0.00000E+00
         0.00000E+00
         0.00000E+00
         0.00000E+00
         0.00000E+00
         0.00000E+00
         0.00000E+00
         0.00000E+00
         0.00000E+00
         0.00000E+00
         0.00000E+00
         0.00000E+00
         0.00000E+00
         0.00000E+00
         0.00000E+00
         0.00000E+00
         0.00000E+00
         0.00000E+00
         0.00000E+00
         0.00000E+00
         0.00000E+00
         0.00000E+00
         0.00000E+00
         0.00000E+00
         0.00000E+00
         0.00000E+00
         0.00000E+00
         0.00000E+00
         0.00000E+00
         0.00000E+00
         0.00000E+00
         0.00000E+00
         0.00000E+00
         0.00000E+00
         0.00000E+00
         0.00000E+00
         0.00000E+00
         0.00000E+00
         0.00000E+00
         0.00000E+00
         0.00000E+00
         0.00000E+00
         0.00000E+00
         0.00000E+00
         0.00000E+00
         0.00000E+00
         0.00000E+00
         0.00000E+00
         0.00000E+00
         0.00000E+00
         0.00000E+00
         0.00000E+00
         0.00000E+00
         0.00000E+00
         0.00000E+00
         0.00000E+00
         0.00000E+00
         0.00000E+00
         0.00000E+00
         0.00000E+00
         0.00000E+00
         0.00000E+00
         0.00000E+00
         0.00000E+00
         0.00000E+00
         0.00000E+00
         0.00000E+00
         0.00000E+00
         0.00000E+00
         0.00000E+00
         0.00000E+00
         0.00000E+00
         0.00000E+00
         0.00000E+00
         0.00000E+00
         0.00000E+00
         0.00000E+00
         0.00000E+00
         0.00000E+00
         0.00000E+00
         0.00000E+00
         0.00000E+00
         0.00000E+00
         0.00000E+00
         0.00000E+00
         0.00000E+00
         0.00000E+00
         0.00000E+00
         0.00000E+00
         0.00000E+00
         0.00000E+00
         0.00000E+00
         0.00000E+00
         0.00000E+00
         0.00000E+00
         0.00000E+00
         0.00000E+00
         0.00000E+00
         0.00000E+00
         0.00000E+00
         0.00000E+00
         0.00000E+00
         0.00000E+00
         0.00000E+00
         0.00000E+00
         0.00000E+00
         0.00000E+00
         0.00000E+00
         0.00000E+00
         0.00000E+00
         0.00000E+00
         0.00000E+00
         0.00000E+00
         0.00000E+00
         0.00000E+00
         0.00000E+00
         0.00000E+00
         0.00000E+00
         0.00000E+00
         0.00000E+00
         0.00000E+00
         0.00000E+00
         0.00000E+00
         0.00000E+00
         0.00000E+00
         0.00000E+00
         0.00000E+00
         0.00000E+00
         0.00000E+00
         0.00000E+00
         0.00000E+00
         0.00000E+00
         0.00000E+00
         0.00000E+00
         0.00000E+00
         0.00000E+00
         0.00000E+00
         0.00000E+00
         0.00000E+00
         0.00000E+00
         0.00000E+00
         0.00000E+00
         0.00000E+00
         0.00000E+00
         0.00000E+00
         0.00000E+00
         0.00000E+00
         0.00000E+00
         0.00000E+00
         0.00000E+00
         0.00000E+00
         0.00000E+00
         0.00000E+00
         0.00000E+00
         0.00000E+00
         0.00000E+00
         0.00000E+00
         0.00000E+00
         0.00000E+00
         0.00000E+00
         0.00000E+00
         0.00000E+00
         0.00000E+00
         0.00000E+00
         0.00000E+00
         0.00000E+00
         0.00000E+00
         0.00000E+00
         0.00000E+00
         0.00000E+00
         0.00000E+00
         0.00000E+00
         0.00000E+00
         0.00000E+00
         0.00000E+00
         0.00000E+00
         0.00000E+00
         0.00000E+00
         0.00000E+00
         0.00000E+00
         0.00000E+00
         0.00000E+00
         0.00000E+00
         0.00000E+00
         0.00000E+00
         0.00000E+00
         0.00000E+00
         0.00000E+00
         0.00000E+00
         0.00000E+00
         0.00000E+00
         0.00000E+00
         0.00000E+00
         0.00000E+00
         0.00000E+00
         0.00000E+00
         0.00000E+00
         0.00000E+00
         0.00000E+00
         0.00000E+00
         0.00000E+00
         0.00000E+00
         0.00000E+00
         0.00000E+00
         0.00000E+00
         0.00000E+00
         0.00000E+00
         0.00000E+00
         0.00000E+00
         0.00000E+00
         0.00000E+00
         0.00000E+00
         0.00000E+00
         0.00000E+00
         0.00000E+00
         0.00000E+00
         0.00000E+00
         0.00000E+00
         0.00000E+00
         0.00000E+00
         0.00000E+00
         0.00000E+00
         0.00000E+00
         0.00000E+00
         0.00000E+00
         0.00000E+00
         0.00000E+00
         0.00000E+00
         0.00000E+00
         0.00000E+00
         0.00000E+00
         0.00000E+00
         0.00000E+00
         0.00000E+00
         0.00000E+00
         0.00000E+00
         0.00000E+00
         0.00000E+00
         0.00000E+00
         0.00000E+00
         0.00000E+00
         0.00000E+00
         0.00000E+00
         0.00000E+00
         0.00000E+00
         0.00000E+00
         0.00000E+00
         0.00000E+00
         0.00000E+00
         0.00000E+00
         0.00000E+00
         0.00000E+00
         0.00000E+00
         0.00000E+00
         0.00000E+00
         0.00000E+00
         0.00000E+00
         0.00000E+00
         0.00000E+00
         0.00000E+00
         0.00000E+00
         0.00000E+00
         0.00000E+00
         0.00000E+00
         0.00000E+00
         0.00000E+00
         0.00000E+00
         0.00000E+00
         0.00000E+00
         0.00000E+00
         0.00000E+00
         0.00000E+00
         0.00000E+00
         0.00000E+00
         0.00000E+00
         0.00000E+00
         0.00000E+00
         0.00000E+00
         0.00000E+00
         0.00000E+00
         0.00000E+00
         0.00000E+00
         0.00000E+00
         0.00000E+00
         0.00000E+00
         0.00000E+00
         0.00000E+00
         0.00000E+00
         0.00000E+00
         0.00000E+00
         0.00000E+00
         0.00000E+00
         0.00000E+00
         0.00000E+00
         0.00000E+00
         0.00000E+00
         0.00000E+00
         0.00000E+00
         0.00000E+00
         0.00000E+00
         0.00000E+00
         0.00000E+00
         0.00000E+00
         0.00000E+00
         0.00000E+00
         0.00000E+00
         0.00000E+00
         0.00000E+00
         0.00000E+00
         0.00000E+00
         0.00000E+00
         0.00000E+00
         0.00000E+00
         0.00000E+00
         0.00000E+00
         0.00000E+00
         0.00000E+00
         0.00000E+00
         0.00000E+00
         0.00000E+00
         0.00000E+00
         0.00000E+00
         0.00000E+00
         0.00000E+00
         0.00000E+00
         0.00000E+00
         0.00000E+00
         0.00000E+00
         0.00000E+00
         0.00000E+00
         0.00000E+00
         0.00000E+00
         0.00000E+00
         0.00000E+00
         0.00000E+00
         0.00000E+00
         0.00000E+00
         0.00000E+00
         0.00000E+00
         0.00000E+00
         0.00000E+00
         0.00000E+00
         0.00000E+00
         0.00000E+00
         0.00000E+00
         0.00000E+00
         0.00000E+00
         0.00000E+00
         0.00000E+00
         0.00000E+00
         0.00000E+00
         0.00000E+00
         0.00000E+00
         0.00000E+00
         0.00000E+00
         0.00000E+00
         0.00000E+00
         0.00000E+00
         0.00000E+00
         0.00000E+00
         0.00000E+00
         0.00000E+00
         0.00000E+00
         0.00000E+00
         0.00000E+00
         0.00000E+00
         0.00000E+00
         0.00000E+00
         0.00000E+00
         0.00000E+00
         0.00000E+00
         0.00000E+00
         0.00000E+00
         0.00000E+00
         0.00000E+00
         0.00000E+00
         0.00000E+00
         0.00000E+00
         0.00000E+00
         0.00000E+00
         0.00000E+00
         0.00000E+00
         0.00000E+00
         0.00000E+00
         0.00000E+00
         0.00000E+00
         0.00000E+00
         0.00000E+00
         0.00000E+00
         0.00000E+00
         0.00000E+00
         0.00000E+00
         0.00000E+00
         0.00000E+00
         0.00000E+00
         0.00000E+00
         0.00000E+00
         0.00000E+00
         0.00000E+00
         0.00000E+00
         0.00000E+00
         0.00000E+00
         0.00000E+00
         0.00000E+00
         0.00000E+00
         0.00000E+00
         0.00000E+00
         0.00000E+00
         0.00000E+00
         0.00000E+00
         0.00000E+00
         0.00000E+00
         0.00000E+00
         0.00000E+00
         0.00000E+00
         0.00000E+00
         0.00000E+00
         0.00000E+00
         0.00000E+00
         0.00000E+00
         0.00000E+00
         0.00000E+00
         0.00000E+00
         0.00000E+00
         0.00000E+00
         0.00000E+00
         0.00000E+00
         0.00000E+00
         0.00000E+00
         0.00000E+00
         0.00000E+00
         0.00000E+00
         0.00000E+00
         0.00000E+00
         0.00000E+00
         0.00000E+00
         0.00000E+00
         0.00000E+00
         0.00000E+00
         0.00000E+00
         0.00000E+00
         0.00000E+00
         0.00000E+00
         0.00000E+00
         0.00000E+00
         0.00000E+00
         0.00000E+00
         0.00000E+00
         0.00000E+00
         0.00000E+00
         0.00000E+00
         0.00000E+00
         0.00000E+00
         0.00000E+00
         0.00000E+00
         0.00000E+00
         0.00000E+00
         0.00000E+00
         0.00000E+00
         0.00000E+00
         0.00000E+00
         0.00000E+00
         0.00000E+00
         0.00000E+00
         0.00000E+00
         0.00000E+00
         0.00000E+00
         0.00000E+00
         0.00000E+00
         0.00000E+00
         0.00000E+00
         0.00000E+00
         0.00000E+00
         0.00000E+00
         0.00000E+00
         0.00000E+00
         0.00000E+00
         0.00000E+00
         0.00000E+00
         0.00000E+00
         0.00000E+00
         0.00000E+00
         0.00000E+00
         0.00000E+00
         0.00000E+00
         0.00000E+00
         0.00000E+00
         0.00000E+00
         0.00000E+00
         0.00000E+00
         0.00000E+00
         0.00000E+00
         0.00000E+00
         0.00000E+00
         0.00000E+00
         0.00000E+00
         0.00000E+00
         0.00000E+00
         0.00000E+00
         0.00000E+00
         0.00000E+00
         0.00000E+00
         0.00000E+00
         0.00000E+00
         0.00000E+00
         0.00000E+00
         0.00000E+00
         0.00000E+00
         0.00000E+00
         0.00000E+00
         0.00000E+00
         0.00000E+00
         0.00000E+00
         0.00000E+00
         0.00000E+00
         0.00000E+00
         0.00000E+00
         0.00000E+00
         0.00000E+00
         0.00000E+00
         0.00000E+00
         0.00000E+00
         0.00000E+00
         0.00000E+00
         0.00000E+00
         0.00000E+00
         0.00000E+00
         0.00000E+00
         0.00000E+00
         0.00000E+00
         0.00000E+00
         0.00000E+00
         0.00000E+00
         0.00000E+00
         0.00000E+00
         0.00000E+00
         0.00000E+00
         0.00000E+00
         0.00000E+00
         0.00000E+00
         0.00000E+00
         0.00000E+00
         0.00000E+00
         0.00000E+00
         0.00000E+00
         0.00000E+00
         0.00000E+00
         0.00000E+00
         0.00000E+00
         0.00000E+00
         0.00000E+00
         0.00000E+00
         0.00000E+00
         0.00000E+00
         0.00000E+00
         0.00000E+00
         0.00000E+00
         0.00000E+00
         0.00000E+00
         0.00000E+00
         0.00000E+00
         0.00000E+00
         0.00000E+00
         0.00000E+00
         0.00000E+00
         0.00000E+00
         0.00000E+00
         0.00000E+00
         0.00000E+00
         0.00000E+00
         0.00000E+00
         0.00000E+00
         0.00000E+00
         0.00000E+00
         0.00000E+00
         0.00000E+00
         0.00000E+00
         0.00000E+00
         0.00000E+00
         0.00000E+00
         0.00000E+00
         0.00000E+00
         0.00000E+00
         0.00000E+00
         0.00000E+00
         0.00000E+00
         0.00000E+00
         0.00000E+00
         0.00000E+00
         0.00000E+00
         0.00000E+00
         0.00000E+00
         0.00000E+00
         0.00000E+00
         0.00000E+00
         0.00000E+00
         0.00000E+00
         0.00000E+00
         0.00000E+00
         0.00000E+00
         0.00000E+00
         0.00000E+00
         0.00000E+00
         0.00000E+00
         0.00000E+00
         0.00000E+00
         0.00000E+00
         0.00000E+00
         0.00000E+00
         0.00000E+00
         0.00000E+00
         0.00000E+00
         0.00000E+00
         0.00000E+00
         0.00000E+00
         0.00000E+00
         0.00000E+00
         0.00000E+00
         0.00000E+00
         0.00000E+00
         0.00000E+00
         0.00000E+00
         0.00000E+00
         0.00000E+00
         0.00000E+00
         0.00000E+00
         0.00000E+00
         0.00000E+00
         0.00000E+00
         0.00000E+00
         0.00000E+00
         0.00000E+00
         0.00000E+00
         0.00000E+00
         0.00000E+00
         0.00000E+00
         0.00000E+00
         0.00000E+00
         0.00000E+00
         0.00000E+00
         0.00000E+00
         0.00000E+00
         0.00000E+00
         0.00000E+00
         0.00000E+00
         0.00000E+00
         0.00000E+00
         0.00000E+00
         0.00000E+00
         0.00000E+00
         0.00000E+00
         0.00000E+00
         0.00000E+00
         0.00000E+00
         0.00000E+00
         0.00000E+00
         0.00000E+00
         0.00000E+00
         0.00000E+00
         0.00000E+00
         0.00000E+00
         0.00000E+00
         0.00000E+00
         0.00000E+00
         0.00000E+00
         0.00000E+00
         0.00000E+00
         0.00000E+00
         0.00000E+00
         0.00000E+00
         0.00000E+00
         0.00000E+00
         0.00000E+00
         0.00000E+00
         0.00000E+00
         0.00000E+00
         0.00000E+00
         0.00000E+00
         0.00000E+00
         0.00000E+00
         0.00000E+00
         0.00000E+00
         0.00000E+00
         0.00000E+00
         0.00000E+00
         0.00000E+00
         0.00000E+00
         0.00000E+00
         0.00000E+00
         0.00000E+00
         0.00000E+00
         0.00000E+00
         0.00000E+00
         0.00000E+00
         0.00000E+00
         0.00000E+00
         0.00000E+00
         0.00000E+00
         0.00000E+00
         0.00000E+00
         0.00000E+00
         0.00000E+00
         0.00000E+00
         0.00000E+00
         0.00000E+00
         0.00000E+00
         0.00000E+00
         0.00000E+00
         0.00000E+00
         0.00000E+00
         0.00000E+00
         0.00000E+00
         0.00000E+00
         0.00000E+00
         0.00000E+00
         0.00000E+00
         0.00000E+00
         0.00000E+00
         0.00000E+00
         0.00000E+00
         0.00000E+00
         0.00000E+00
         0.00000E+00
         0.00000E+00
         0.00000E+00
         0.00000E+00
         0.00000E+00
         0.00000E+00
         0.00000E+00
         0.00000E+00
         0.00000E+00
         0.00000E+00
         0.00000E+00
         0.00000E+00
         0.00000E+00
         0.00000E+00
         0.00000E+00
         0.00000E+00
         0.00000E+00
         0.00000E+00
         0.00000E+00
         0.00000E+00
         0.00000E+00
         0.00000E+00
         0.00000E+00
         0.00000E+00
         0.00000E+00
         0.00000E+00
         0.00000E+00
         0.00000E+00
         0.00000E+00
         0.00000E+00
         0.00000E+00
         0.00000E+00
         0.00000E+00
         0.00000E+00
         0.00000E+00
         0.00000E+00
         0.00000E+00
         0.00000E+00
         0.00000E+00
         0.00000E+00
         0.00000E+00
         0.00000E+00
         0.00000E+00
         0.00000E+00
         0.00000E+00
         0.00000E+00
         0.00000E+00
         0.00000E+00
         0.00000E+00
         0.00000E+00
         0.00000E+00
         0.00000E+00
         0.00000E+00
         0.00000E+00
         0.00000E+00
         0.00000E+00
         0.00000E+00
         0.00000E+00
         0.00000E+00
         0.00000E+00
         0.00000E+00
         0.00000E+00
         0.00000E+00
         0.00000E+00
         0.00000E+00
         0.00000E+00
         0.00000E+00
         0.00000E+00
         0.00000E+00
         0.00000E+00
         0.00000E+00
         0.00000E+00
         0.00000E+00
         0.00000E+00
         0.00000E+00
         0.00000E+00
         0.00000E+00
         0.00000E+00
         0.00000E+00
         0.00000E+00
         0.00000E+00
         0.00000E+00
         0.00000E+00
         0.00000E+00
         0.00000E+00
         0.00000E+00
         0.00000E+00
         0.00000E+00
         0.00000E+00
         0.00000E+00
         0.00000E+00
         0.00000E+00
         0.00000E+00
         0.00000E+00
         0.00000E+00
         0.00000E+00
         0.00000E+00
         0.00000E+00
         0.00000E+00
         0.00000E+00
         0.00000E+00
         0.00000E+00
         0.00000E+00
         0.00000E+00
         0.00000E+00
         0.00000E+00
         0.00000E+00
         0.00000E+00
         0.00000E+00
         0.00000E+00
         0.00000E+00
         0.00000E+00
         0.00000E+00
         0.00000E+00
         0.00000E+00
         0.00000E+00
         0.00000E+00
         0.00000E+00
         0.00000E+00
         0.00000E+00
         0.00000E+00
         0.00000E+00
         0.00000E+00
         0.00000E+00
         0.00000E+00
         0.00000E+00
         0.00000E+00
         0.00000E+00
         0.00000E+00
         0.00000E+00
         0.00000E+00
         0.00000E+00
         0.00000E+00
         0.00000E+00
         0.00000E+00
         0.00000E+00
         0.00000E+00
         0.00000E+00
         0.00000E+00
         0.00000E+00
         0.00000E+00
         0.00000E+00
         0.00000E+00
         0.00000E+00
         0.00000E+00
         0.00000E+00
         0.00000E+00
         0.00000E+00
         0.00000E+00
         0.00000E+00
         0.00000E+00
         0.00000E+00
         0.00000E+00
         0.00000E+00
         0.00000E+00
         0.00000E+00
         0.00000E+00
         0.00000E+00
         0.00000E+00
         0.00000E+00
         0.00000E+00
         0.00000E+00
         0.00000E+00
         0.00000E+00
         0.00000E+00
         0.00000E+00
         0.00000E+00
         0.00000E+00
         0.00000E+00
         0.00000E+00
         0.00000E+00
         0.00000E+00
         0.00000E+00
         0.00000E+00
         0.00000E+00
         0.00000E+00
         0.00000E+00
         0.00000E+00
         0.00000E+00
         0.00000E+00
         0.00000E+00
         0.00000E+00
         0.00000E+00
         0.00000E+00
         0.00000E+00
         0.00000E+00
         0.00000E+00
         0.00000E+00
         0.00000E+00
         0.00000E+00
         0.00000E+00
         0.00000E+00
         0.00000E+00
         0.00000E+00
         0.00000E+00
         0.00000E+00
         0.00000E+00
         0.00000E+00
         0.00000E+00
         0.00000E+00
         0.00000E+00
         0.00000E+00
         0.00000E+00
         0.00000E+00
         0.00000E+00
         0.00000E+00
         0.00000E+00
         0.00000E+00
         0.00000E+00
         0.00000E+00
         0.00000E+00
         0.00000E+00
         0.00000E+00
         0.00000E+00
         0.00000E+00
         0.00000E+00
         0.00000E+00
         0.00000E+00
         0.00000E+00
         0.00000E+00
         0.00000E+00
         0.00000E+00
         0.00000E+00
         0.00000E+00
         0.00000E+00
         0.00000E+00
         0.00000E+00
         0.00000E+00
         0.00000E+00
         0.00000E+00
         0.00000E+00
         0.00000E+00
         0.00000E+00
         0.00000E+00
         0.00000E+00
         0.00000E+00
         0.00000E+00
         0.00000E+00
         0.00000E+00
         0.00000E+00
         0.00000E+00
         0.00000E+00
         0.00000E+00
         0.00000E+00
         0.00000E+00
         0.00000E+00
         0.00000E+00
         0.00000E+00
         0.00000E+00
         0.00000E+00
         0.00000E+00
         0.00000E+00
         0.00000E+00
         0.00000E+00
         0.00000E+00
         0.00000E+00
         0.00000E+00
         0.00000E+00
         0.00000E+00
         0.00000E+00
         0.00000E+00
         0.00000E+00
         0.00000E+00
         0.00000E+00
         0.00000E+00
         0.00000E+00
         0.00000E+00
         0.00000E+00
         0.00000E+00
         0.00000E+00
         0.00000E+00
         0.00000E+00
         0.00000E+00
         0.00000E+00
         0.00000E+00
         0.00000E+00
         0.00000E+00
         0.00000E+00
         0.00000E+00
         0.00000E+00
         0.00000E+00
         0.00000E+00
         0.00000E+00
         0.00000E+00
         0.00000E+00
         0.00000E+00
         0.00000E+00
         0.00000E+00
         0.00000E+00
         0.00000E+00
         0.00000E+00
         0.00000E+00
         0.00000E+00
         0.00000E+00
         0.00000E+00
         0.00000E+00
         0.00000E+00
         0.00000E+00
         0.00000E+00
         0.00000E+00
         0.00000E+00
         0.00000E+00
         0.00000E+00
         0.00000E+00
         0.00000E+00
         0.00000E+00
         0.00000E+00
         0.00000E+00
         0.00000E+00
         0.00000E+00
         0.00000E+00
         0.00000E+00
         0.00000E+00
         0.00000E+00
         0.00000E+00
         0.00000E+00
         0.00000E+00
         0.00000E+00
         0.00000E+00
         0.00000E+00
         0.00000E+00
         0.00000E+00
         0.00000E+00
         0.00000E+00
         0.00000E+00
         0.00000E+00
         0.00000E+00
         0.00000E+00
         0.00000E+00
         0.00000E+00
         0.00000E+00
         0.00000E+00
         0.00000E+00
         0.00000E+00
         0.00000E+00
         0.00000E+00
         0.00000E+00
         0.00000E+00
         0.00000E+00
         0.00000E+00
         0.00000E+00
         0.00000E+00
         0.00000E+00
         0.00000E+00
         0.00000E+00
         0.00000E+00
         0.00000E+00
         0.00000E+00
         0.00000E+00
         0.00000E+00
         0.00000E+00
         0.00000E+00
         0.00000E+00
         0.00000E+00
         0.00000E+00
         0.00000E+00
         0.00000E+00
         0.00000E+00
         0.00000E+00
         0.00000E+00
         0.00000E+00
         0.00000E+00
         0.00000E+00
         0.00000E+00
         0.00000E+00
         0.00000E+00
         0.00000E+00
         0.00000E+00
         0.00000E+00
         0.00000E+00
         0.00000E+00
         0.00000E+00
         0.00000E+00
         0.00000E+00
         0.00000E+00
         0.00000E+00
         0.00000E+00
         0.00000E+00
         0.00000E+00
         0.00000E+00
         0.00000E+00
         0.00000E+00
         0.00000E+00
         0.00000E+00
         0.00000E+00
         0.00000E+00
         0.00000E+00
         0.00000E+00
         0.00000E+00
         0.00000E+00
         0.00000E+00
         0.00000E+00
         0.00000E+00
         0.00000E+00
         0.00000E+00
         0.00000E+00
         0.00000E+00
         0.00000E+00
         0.00000E+00
         0.00000E+00
         0.00000E+00
         0.00000E+00
         0.00000E+00
         0.00000E+00
         0.00000E+00
         0.00000E+00
         0.00000E+00
         0.00000E+00
         0.00000E+00
         0.00000E+00
         0.00000E+00
         0.00000E+00
         0.00000E+00
         0.00000E+00
         0.00000E+00
         0.00000E+00
         0.00000E+00
         0.00000E+00
         0.00000E+00
         0.00000E+00
         0.00000E+00
         0.00000E+00
         0.00000E+00
         0.00000E+00
         0.00000E+00
         0.00000E+00
         0.00000E+00
         0.00000E+00
         0.00000E+00
         0.00000E+00
         0.00000E+00
         0.00000E+00
         0.00000E+00
         0.00000E+00
         0.00000E+00
         0.00000E+00
         0.00000E+00
         0.00000E+00
         0.00000E+00
         0.00000E+00
         0.00000E+00
         0.00000E+00
         0.00000E+00
         0.00000E+00
         0.00000E+00
         0.00000E+00
         0.00000E+00
         0.00000E+00
         0.00000E+00
         0.00000E+00
         0.00000E+00
         0.00000E+00
         0.00000E+00
         0.00000E+00
         0.00000E+00
         0.00000E+00
         0.00000E+00
         0.00000E+00
         0.00000E+00
         0.00000E+00
         0.00000E+00
         0.00000E+00
         0.00000E+00
         0.00000E+00
         0.00000E+00
         0.00000E+00
         0.00000E+00
         0.00000E+00
         0.00000E+00
         0.00000E+00
         0.00000E+00
         0.00000E+00
         0.00000E+00
         0.00000E+00
         0.00000E+00
         0.00000E+00
         0.00000E+00
         0.00000E+00
         0.00000E+00
         0.00000E+00
         0.00000E+00
         0.00000E+00
         0.00000E+00
         0.00000E+00
         0.00000E+00
         0.00000E+00
         0.00000E+00
         0.00000E+00
         0.00000E+00
         0.00000E+00
         0.00000E+00
         0.00000E+00
         0.00000E+00
         0.00000E+00
         0.00000E+00
         0.00000E+00
         0.00000E+00
         0.00000E+00
         0.00000E+00
         0.00000E+00
         0.00000E+00
         0.00000E+00
         0.00000E+00
         0.00000E+00
         0.00000E+00
         0.00000E+00
         0.00000E+00
         0.00000E+00
         0.00000E+00
         0.00000E+00
         0.00000E+00
         0.00000E+00
         0.00000E+00
         0.00000E+00
         0.00000E+00
         0.00000E+00
         0.00000E+00
         0.00000E+00
         0.00000E+00
         0.00000E+00
         0.00000E+00
         0.00000E+00
         0.00000E+00
         0.00000E+00
         0.00000E+00
         0.00000E+00
         0.00000E+00
         0.00000E+00
         0.00000E+00
         0.00000E+00
         0.00000E+00
         0.00000E+00
         0.00000E+00
         0.00000E+00
         0.00000E+00
         0.00000E+00
         0.00000E+00
         0.00000E+00
         0.00000E+00
         0.00000E+00
         0.00000E+00
         0.00000E+00
         0.00000E+00
         0.00000E+00
         0.00000E+00
         0.00000E+00
         0.00000E+00
         0.00000E+00
         0.00000E+00
         0.00000E+00
         0.00000E+00
         0.00000E+00
         0.00000E+00
         0.00000E+00
         0.00000E+00
         0.00000E+00
         0.00000E+00
         0.00000E+00
         0.00000E+00
         0.00000E+00
         0.00000E+00
         0.00000E+00
         0.00000E+00
         0.00000E+00
         0.00000E+00
         0.00000E+00
         0.00000E+00
         0.00000E+00
         0.00000E+00
         0.00000E+00
         0.00000E+00
         0.00000E+00
         0.00000E+00
         0.00000E+00
         0.00000E+00
         0.00000E+00
         0.00000E+00
         0.00000E+00
         0.00000E+00
         0.00000E+00
         0.00000E+00
         0.00000E+00
         0.00000E+00
         0.00000E+00
         0.00000E+00
         0.00000E+00
         0.00000E+00
         0.00000E+00
         0.00000E+00
         0.00000E+00
         0.00000E+00
         0.00000E+00
         0.00000E+00
         0.00000E+00
         0.00000E+00
         0.00000E+00
         0.00000E+00
         0.00000E+00
         0.00000E+00
         0.00000E+00
         0.00000E+00
         0.00000E+00
         0.00000E+00
         0.00000E+00
         0.00000E+00
         0.00000E+00
         0.00000E+00
         0.00000E+00
         0.00000E+00
         0.00000E+00
         0.00000E+00
         0.00000E+00
         0.00000E+00
         0.00000E+00
         0.00000E+00
         0.00000E+00
         0.00000E+00
         0.00000E+00
         0.00000E+00
         0.00000E+00
         0.00000E+00
         0.00000E+00
         0.00000E+00
         0.00000E+00
         0.00000E+00
         0.00000E+00
         0.00000E+00
         0.00000E+00
         0.00000E+00
         0.00000E+00
         0.00000E+00
         0.00000E+00
         0.00000E+00
         0.00000E+00
         0.00000E+00
         0.00000E+00
         0.00000E+00
         0.00000E+00
         0.00000E+00
         0.00000E+00
         0.00000E+00
         0.00000E+00
         0.00000E+00
         0.00000E+00
         0.00000E+00
         0.00000E+00
         0.00000E+00
         0.00000E+00
         0.00000E+00
         0.00000E+00
         0.00000E+00
         0.00000E+00
         0.00000E+00
         0.00000E+00
         0.00000E+00
         0.00000E+00
         0.00000E+00
         0.00000E+00
         0.00000E+00
         0.00000E+00
         0.00000E+00
         0.00000E+00
         0.00000E+00
         0.00000E+00
         0.00000E+00
         0.00000E+00
         0.00000E+00
         0.00000E+00
         0.00000E+00
         0.00000E+00
         0.00000E+00
         0.00000E+00
         0.00000E+00
         0.00000E+00
         0.00000E+00
         0.00000E+00
         0.00000E+00
         0.00000E+00
         0.00000E+00
         0.00000E+00
         0.00000E+00
         0.00000E+00
         0.00000E+00
         0.00000E+00
         0.00000E+00
         0.00000E+00
         0.00000E+00
         0.00000E+00
         0.00000E+00
         0.00000E+00
         0.00000E+00
         0.00000E+00
         0.00000E+00
         0.00000E+00
         0.00000E+00
         0.00000E+00
         0.00000E+00
         0.00000E+00
         0.00000E+00
         0.00000E+00
         0.00000E+00
         0.00000E+00
         0.00000E+00
         0.00000E+00
         0.00000E+00
         0.00000E+00
         0.00000E+00
         0.00000E+00
         0.00000E+00
         0.00000E+00
         0.00000E+00
         0.00000E+00
         0.00000E+00
         0.00000E+00
         0.00000E+00
         0.00000E+00
         0.00000E+00
         0.00000E+00
         0.00000E+00
         0.00000E+00
         0.00000E+00
         0.00000E+00
         0.00000E+00
         0.00000E+00
         0.00000E+00
         0.00000E+00
         0.00000E+00
         0.00000E+00
         0.00000E+00
         0.00000E+00
         0.00000E+00
         0.00000E+00
         0.00000E+00
         0.00000E+00
         0.00000E+00
         0.00000E+00
         0.00000E+00
         0.00000E+00
         0.00000E+00
         0.00000E+00
         0.00000E+00
         0.00000E+00
         0.00000E+00
         0.00000E+00
         0.00000E+00
         0.00000E+00
         0.00000E+00
         0.00000E+00
         0.00000E+00
         0.00000E+00
         0.00000E+00
         0.00000E+00
         0.00000E+00
         0.00000E+00
         0.00000E+00
         0.00000E+00
         0.00000E+00
         0.00000E+00
         0.00000E+00
         0.00000E+00
         0.00000E+00
         0.00000E+00
         0.00000E+00
         0.00000E+00
         0.00000E+00
         0.00000E+00
         0.00000E+00
         0.00000E+00
         0.00000E+00
         0.00000E+00
         0.00000E+00
         0.00000E+00
         0.00000E+00
         0.00000E+00
         0.00000E+00
         0.00000E+00
         0.00000E+00
         0.00000E+00
         0.00000E+00
         0.00000E+00
         0.00000E+00
         0.00000E+00
         0.00000E+00
         0.00000E+00
         0.00000E+00
         0.00000E+00
         0.00000E+00
         0.00000E+00
         0.00000E+00
         0.00000E+00
         0.00000E+00
         0.00000E+00
         0.00000E+00
         0.00000E+00
         0.00000E+00
         0.00000E+00
         0.00000E+00
         0.00000E+00
         0.00000E+00
         0.00000E+00
         0.00000E+00
         0.00000E+00
         0.00000E+00
         0.00000E+00
         0.00000E+00
         0.00000E+00
         0.00000E+00
         0.00000E+00
         0.00000E+00
         0.00000E+00
         0.00000E+00
         0.00000E+00
         0.00000E+00
         0.00000E+00
         0.00000E+00
         0.00000E+00
         0.00000E+00
         0.00000E+00
         0.00000E+00
         0.00000E+00
         0.00000E+00
         0.00000E+00
         0.00000E+00
         0.00000E+00
         0.00000E+00
         0.00000E+00
         0.00000E+00
         0.00000E+00
         0.00000E+00
         0.00000E+00
         0.00000E+00
         0.00000E+00
         0.00000E+00
         0.00000E+00
         0.00000E+00
         0.00000E+00
         0.00000E+00
         0.00000E+00
         0.00000E+00
         0.00000E+00
         0.00000E+00
         0.00000E+00
         0.00000E+00
         0.00000E+00
         0.00000E+00
         0.00000E+00
         0.00000E+00
         0.00000E+00
         0.00000E+00
         0.00000E+00
         0.00000E+00
         0.00000E+00
         0.00000E+00
         0.00000E+00
         0.00000E+00
         0.00000E+00
         0.00000E+00
         0.00000E+00
         0.00000E+00
         0.00000E+00
         0.00000E+00
         0.00000E+00
         0.00000E+00
         0.00000E+00
         0.00000E+00
         0.00000E+00
         0.00000E+00
         0.00000E+00
         0.00000E+00
         0.00000E+00
         0.00000E+00
         0.00000E+00
         0.00000E+00
         0.00000E+00
         0.00000E+00
         0.00000E+00
         0.00000E+00
         0.00000E+00
         0.00000E+00
         0.00000E+00
         0.00000E+00
         0.00000E+00
         0.00000E+00
         0.00000E+00
         0.00000E+00
         0.00000E+00
         0.00000E+00
         0.00000E+00
         0.00000E+00
         0.00000E+00
         0.00000E+00
         0.00000E+00
         0.00000E+00
         0.00000E+00
         0.00000E+00
         0.00000E+00
         0.00000E+00
         0.00000E+00
         0.00000E+00
         0.00000E+00
         0.00000E+00
         0.00000E+00
         0.00000E+00
         0.00000E+00
         0.00000E+00
         0.00000E+00
         0.00000E+00
         0.00000E+00
         0.00000E+00
         0.00000E+00
         0.00000E+00
         0.00000E+00
         0.00000E+00
         0.00000E+00
         0.00000E+00
         0.00000E+00
         0.00000E+00
         0.00000E+00
         0.00000E+00
         0.00000E+00
         0.00000E+00
         0.00000E+00
         0.00000E+00
         0.00000E+00
         0.00000E+00
         0.00000E+00
         0.00000E+00
         0.00000E+00
         0.00000E+00
         0.00000E+00
         0.00000E+00
         0.00000E+00
         0.00000E+00
         0.00000E+00
         0.00000E+00
         0.00000E+00
         0.00000E+00
         0.00000E+00
         0.00000E+00
         0.00000E+00
         0.00000E+00
         0.00000E+00
         0.00000E+00
         0.00000E+00
         0.00000E+00
         0.00000E+00
         0.00000E+00
         0.00000E+00
         0.00000E+00
         0.00000E+00
         0.00000E+00
         0.00000E+00
         0.00000E+00
         0.00000E+00
         0.00000E+00
         0.00000E+00
         0.00000E+00
         0.00000E+00
         0.00000E+00
         0.00000E+00
         0.00000E+00
         0.00000E+00
         0.00000E+00
         0.00000E+00
         0.00000E+00
         0.00000E+00
         0.00000E+00
         0.00000E+00
         0.00000E+00
         0.00000E+00
         0.00000E+00
         0.00000E+00
         0.00000E+00
         0.00000E+00
         0.00000E+00
         0.00000E+00
         0.00000E+00
         0.00000E+00
         0.00000E+00
         0.00000E+00
         0.00000E+00
         0.00000E+00
         0.00000E+00
         0.00000E+00
         0.00000E+00
         0.00000E+00
         0.00000E+00
         0.00000E+00
         0.00000E+00
         0.00000E+00
         0.00000E+00
         0.00000E+00
         0.00000E+00
         0.00000E+00
         0.00000E+00
         0.00000E+00
         0.00000E+00
         0.00000E+00
         0.00000E+00
         0.00000E+00
         0.00000E+00
         0.00000E+00
         0.00000E+00
         0.00000E+00
         0.00000E+00
         0.00000E+00
         0.00000E+00
         0.00000E+00
         0.00000E+00
         0.00000E+00
         0.00000E+00
         0.00000E+00
         0.00000E+00
         0.00000E+00
         0.00000E+00
         0.00000E+00
         0.00000E+00
         0.00000E+00
         0.00000E+00
         0.00000E+00
         0.00000E+00
         0.00000E+00
         0.00000E+00
         0.00000E+00
         0.00000E+00
         0.00000E+00
         0.00000E+00
         0.00000E+00
         0.00000E+00
         0.00000E+00
         0.00000E+00
         0.00000E+00
         0.00000E+00
         0.00000E+00
         0.00000E+00
         0.00000E+00
         0.00000E+00
         0.00000E+00
         0.00000E+00
         0.00000E+00
         0.00000E+00
         0.00000E+00
         0.00000E+00
         0.00000E+00
         0.00000E+00
         0.00000E+00
         0.00000E+00
         0.00000E+00
         0.00000E+00
         0.00000E+00
         0.00000E+00
         0.00000E+00
         0.00000E+00
         0.00000E+00
         0.00000E+00
         0.00000E+00
         0.00000E+00
         0.00000E+00
         0.00000E+00
         0.00000E+00
         0.00000E+00
         0.00000E+00
         0.00000E+00
         0.00000E+00
         0.00000E+00
         0.00000E+00
         0.00000E+00
         0.00000E+00
         0.00000E+00
         0.00000E+00
         0.00000E+00
         0.00000E+00
         0.00000E+00
         0.00000E+00
         0.00000E+00
         0.00000E+00
         0.00000E+00
         0.00000E+00
         0.00000E+00
         0.00000E+00
         0.00000E+00
         0.00000E+00
         0.00000E+00
         0.00000E+00
         0.00000E+00
         0.00000E+00
         0.00000E+00
         0.00000E+00
         0.00000E+00
         0.00000E+00
         0.00000E+00
         0.00000E+00
         0.00000E+00
         0.00000E+00
         0.00000E+00
  
SCALARS        characteristic_distance  double 1
LOOKUP_TABLE default
         0.00000E+00
         0.00000E+00
         0.00000E+00
         0.00000E+00
         0.00000E+00
         0.00000E+00
         0.00000E+00
         0.00000E+00
         0.00000E+00
         0.00000E+00
         0.00000E+00
         0.00000E+00
         0.00000E+00
         0.00000E+00
         0.00000E+00
         0.00000E+00
         0.00000E+00
         0.00000E+00
         0.00000E+00
         0.00000E+00
         0.00000E+00
         0.00000E+00
         0.00000E+00
         0.00000E+00
         0.00000E+00
         0.00000E+00
         0.00000E+00
         0.00000E+00
         0.00000E+00
         0.00000E+00
         0.00000E+00
         0.00000E+00
         0.00000E+00
         0.00000E+00
         0.00000E+00
         0.00000E+00
         0.00000E+00
         0.00000E+00
         0.00000E+00
         0.00000E+00
         0.00000E+00
         0.00000E+00
         0.00000E+00
         0.00000E+00
         0.00000E+00
         0.00000E+00
         0.00000E+00
         0.00000E+00
         0.00000E+00
         0.00000E+00
         0.00000E+00
         0.00000E+00
         0.00000E+00
         0.00000E+00
         0.00000E+00
         0.00000E+00
         0.00000E+00
         0.00000E+00
         0.00000E+00
         0.00000E+00
         0.00000E+00
         0.00000E+00
         0.00000E+00
         0.00000E+00
         0.00000E+00
         0.00000E+00
         0.00000E+00
         0.00000E+00
         0.00000E+00
         0.00000E+00
         0.00000E+00
         0.00000E+00
         0.00000E+00
         0.00000E+00
         0.00000E+00
         0.00000E+00
         0.00000E+00
         0.00000E+00
         0.00000E+00
         0.00000E+00
         0.00000E+00
         0.00000E+00
         0.00000E+00
         0.00000E+00
         0.00000E+00
         0.00000E+00
         0.00000E+00
         0.00000E+00
         0.00000E+00
         0.00000E+00
         0.00000E+00
         0.00000E+00
         0.00000E+00
         0.00000E+00
         0.00000E+00
         0.00000E+00
         0.00000E+00
         0.00000E+00
         0.00000E+00
         0.00000E+00
         0.00000E+00
         0.00000E+00
         0.00000E+00
         0.00000E+00
         0.00000E+00
         0.00000E+00
         0.00000E+00
         0.00000E+00
         0.00000E+00
         0.00000E+00
         0.00000E+00
         0.00000E+00
         0.00000E+00
         0.00000E+00
         0.00000E+00
         0.00000E+00
         0.00000E+00
         0.00000E+00
         0.00000E+00
         0.00000E+00
         0.00000E+00
         0.00000E+00
         0.00000E+00
         0.00000E+00
         0.00000E+00
         0.00000E+00
         0.00000E+00
         0.00000E+00
         0.00000E+00
         0.00000E+00
         0.00000E+00
         0.00000E+00
         0.00000E+00
         0.00000E+00
         0.00000E+00
         0.00000E+00
         0.00000E+00
         0.00000E+00
         0.00000E+00
         0.00000E+00
         0.00000E+00
         0.00000E+00
         0.00000E+00
         0.00000E+00
         0.00000E+00
         0.00000E+00
         0.00000E+00
         0.00000E+00
         0.00000E+00
         0.00000E+00
         0.00000E+00
         0.00000E+00
         0.00000E+00
         0.00000E+00
         0.00000E+00
         0.00000E+00
         0.00000E+00
         0.00000E+00
         0.00000E+00
         0.00000E+00
         0.00000E+00
         0.00000E+00
         0.00000E+00
         0.00000E+00
         0.00000E+00
         0.00000E+00
         0.00000E+00
         0.00000E+00
         0.00000E+00
         0.00000E+00
         0.00000E+00
         0.00000E+00
         0.00000E+00
         0.00000E+00
         0.00000E+00
         0.00000E+00
         0.00000E+00
         0.00000E+00
         0.00000E+00
         0.00000E+00
         0.00000E+00
         0.00000E+00
         0.00000E+00
         0.00000E+00
         0.00000E+00
         0.00000E+00
         0.00000E+00
         0.00000E+00
         0.00000E+00
         0.00000E+00
         0.00000E+00
         0.00000E+00
         0.00000E+00
         0.00000E+00
         0.00000E+00
         0.00000E+00
         0.00000E+00
         0.00000E+00
         0.00000E+00
         0.00000E+00
         0.00000E+00
         0.00000E+00
         0.00000E+00
         0.00000E+00
         0.00000E+00
         0.00000E+00
         0.00000E+00
         0.00000E+00
         0.00000E+00
         0.00000E+00
         0.00000E+00
         0.00000E+00
         0.00000E+00
         0.00000E+00
         0.00000E+00
         0.00000E+00
         0.00000E+00
         0.00000E+00
         0.00000E+00
         0.00000E+00
         0.00000E+00
         0.00000E+00
         0.00000E+00
         0.00000E+00
         0.00000E+00
         0.00000E+00
         0.00000E+00
         0.00000E+00
         0.00000E+00
         0.00000E+00
         0.00000E+00
         0.00000E+00
         0.00000E+00
         0.00000E+00
         0.00000E+00
         0.00000E+00
         0.00000E+00
         0.00000E+00
         0.00000E+00
         0.00000E+00
         0.00000E+00
         0.00000E+00
         0.00000E+00
         0.00000E+00
         0.00000E+00
         0.00000E+00
         0.00000E+00
         0.00000E+00
         0.00000E+00
         0.00000E+00
         0.00000E+00
         0.00000E+00
         0.00000E+00
         0.00000E+00
         0.00000E+00
         0.00000E+00
         0.00000E+00
         0.00000E+00
         0.00000E+00
         0.00000E+00
         0.00000E+00
         0.00000E+00
         0.00000E+00
         0.00000E+00
         0.00000E+00
         0.00000E+00
         0.00000E+00
         0.00000E+00
         0.00000E+00
         0.00000E+00
         0.00000E+00
         0.00000E+00
         0.00000E+00
         0.00000E+00
         0.00000E+00
         0.00000E+00
         0.00000E+00
         0.00000E+00
         0.00000E+00
         0.00000E+00
         0.00000E+00
         0.00000E+00
         0.00000E+00
         0.00000E+00
         0.00000E+00
         0.00000E+00
         0.00000E+00
         0.00000E+00
         0.00000E+00
         0.00000E+00
         0.00000E+00
         0.00000E+00
         0.00000E+00
         0.00000E+00
         0.00000E+00
         0.00000E+00
         0.00000E+00
         0.00000E+00
         0.00000E+00
         0.00000E+00
         0.00000E+00
         0.00000E+00
         0.00000E+00
         0.00000E+00
         0.00000E+00
         0.00000E+00
         0.00000E+00
         0.00000E+00
         0.00000E+00
         0.00000E+00
         0.00000E+00
         0.00000E+00
         0.00000E+00
         0.00000E+00
         0.00000E+00
         0.00000E+00
         0.00000E+00
         0.00000E+00
         0.00000E+00
         0.00000E+00
         0.00000E+00
         0.00000E+00
         0.00000E+00
         0.00000E+00
         0.00000E+00
         0.00000E+00
         0.00000E+00
         0.00000E+00
         0.00000E+00
         0.00000E+00
         0.00000E+00
         0.00000E+00
         0.00000E+00
         0.00000E+00
         0.00000E+00
         0.00000E+00
         0.00000E+00
         0.00000E+00
         0.00000E+00
         0.00000E+00
         0.00000E+00
         0.00000E+00
         0.00000E+00
         0.00000E+00
         0.00000E+00
         0.00000E+00
         0.00000E+00
         0.00000E+00
         0.00000E+00
         0.00000E+00
         0.00000E+00
         0.00000E+00
         0.00000E+00
         0.00000E+00
         0.00000E+00
         0.00000E+00
         0.00000E+00
         0.00000E+00
         0.00000E+00
         0.00000E+00
         0.00000E+00
         0.00000E+00
         0.00000E+00
         0.00000E+00
         0.00000E+00
         0.00000E+00
         0.00000E+00
         0.00000E+00
         0.00000E+00
         0.00000E+00
         0.00000E+00
         0.00000E+00
         0.00000E+00
         0.00000E+00
         0.00000E+00
         0.00000E+00
         0.00000E+00
         0.00000E+00
         0.00000E+00
         0.00000E+00
         0.00000E+00
         0.00000E+00
         0.00000E+00
         0.00000E+00
         0.00000E+00
         0.00000E+00
         0.00000E+00
         0.00000E+00
         0.00000E+00
         0.00000E+00
         0.00000E+00
         0.00000E+00
         0.00000E+00
         0.00000E+00
         0.00000E+00
         0.00000E+00
         0.00000E+00
         0.00000E+00
         0.00000E+00
         0.00000E+00
         0.00000E+00
         0.00000E+00
         0.00000E+00
         0.00000E+00
         0.00000E+00
         0.00000E+00
         0.00000E+00
         0.00000E+00
         0.00000E+00
         0.00000E+00
         0.00000E+00
         0.00000E+00
         0.00000E+00
         0.00000E+00
         0.00000E+00
         0.00000E+00
         0.00000E+00
         0.00000E+00
         0.00000E+00
         0.00000E+00
         0.00000E+00
         0.00000E+00
         0.00000E+00
         0.00000E+00
         0.00000E+00
         0.00000E+00
         0.00000E+00
         0.00000E+00
         0.00000E+00
         0.00000E+00
         0.00000E+00
         0.00000E+00
         0.00000E+00
         0.00000E+00
         0.00000E+00
         0.00000E+00
         0.00000E+00
         0.00000E+00
         0.00000E+00
         0.00000E+00
         0.00000E+00
         0.00000E+00
         0.00000E+00
         0.00000E+00
         0.00000E+00
         0.00000E+00
         0.00000E+00
         0.00000E+00
         0.00000E+00
         0.00000E+00
         0.00000E+00
         0.00000E+00
         0.00000E+00
         0.00000E+00
         0.00000E+00
         0.00000E+00
         0.00000E+00
         0.00000E+00
         0.00000E+00
         0.00000E+00
         0.00000E+00
         0.00000E+00
         0.00000E+00
         0.00000E+00
         0.00000E+00
         0.00000E+00
         0.00000E+00
         0.00000E+00
         0.00000E+00
         0.00000E+00
         0.00000E+00
         0.00000E+00
         0.00000E+00
         0.00000E+00
         0.00000E+00
         0.00000E+00
         0.00000E+00
         0.00000E+00
         0.00000E+00
         0.00000E+00
         0.00000E+00
         0.00000E+00
         0.00000E+00
         0.00000E+00
         0.00000E+00
         0.00000E+00
         0.00000E+00
         0.00000E+00
         0.00000E+00
         0.00000E+00
         0.00000E+00
         0.00000E+00
         0.00000E+00
         0.00000E+00
         0.00000E+00
         0.00000E+00
         0.00000E+00
         0.00000E+00
         0.00000E+00
         0.00000E+00
         0.00000E+00
         0.00000E+00
         0.00000E+00
         0.00000E+00
         0.00000E+00
         0.00000E+00
         0.00000E+00
         0.00000E+00
         0.00000E+00
         0.00000E+00
         0.00000E+00
         0.00000E+00
         0.00000E+00
         0.00000E+00
         0.00000E+00
         0.00000E+00
         0.00000E+00
         0.00000E+00
         0.00000E+00
         0.00000E+00
         0.00000E+00
         0.00000E+00
         0.00000E+00
         0.00000E+00
         0.00000E+00
         0.00000E+00
         0.00000E+00
         0.00000E+00
         0.00000E+00
         0.00000E+00
         0.00000E+00
         0.00000E+00
         0.00000E+00
         0.00000E+00
         0.00000E+00
         0.00000E+00
         0.00000E+00
         0.00000E+00
         0.00000E+00
         0.00000E+00
         0.00000E+00
         0.00000E+00
         0.00000E+00
         0.00000E+00
         0.00000E+00
         0.00000E+00
         0.00000E+00
         0.00000E+00
         0.00000E+00
         0.00000E+00
         0.00000E+00
         0.00000E+00
         0.00000E+00
         0.00000E+00
         0.00000E+00
         0.00000E+00
         0.00000E+00
         0.00000E+00
         0.00000E+00
         0.00000E+00
         0.00000E+00
         0.00000E+00
         0.00000E+00
         0.00000E+00
         0.00000E+00
         0.00000E+00
         0.00000E+00
         0.00000E+00
         0.00000E+00
         0.00000E+00
         0.00000E+00
         0.00000E+00
         0.00000E+00
         0.00000E+00
         0.00000E+00
         0.00000E+00
         0.00000E+00
         0.00000E+00
         0.00000E+00
         0.00000E+00
         0.00000E+00
         0.00000E+00
         0.00000E+00
         0.00000E+00
         0.00000E+00
         0.00000E+00
         0.00000E+00
         0.00000E+00
         0.00000E+00
         0.00000E+00
         0.00000E+00
         0.00000E+00
         0.00000E+00
         0.00000E+00
         0.00000E+00
         0.00000E+00
         0.00000E+00
         0.00000E+00
         0.00000E+00
         0.00000E+00
         0.00000E+00
         0.00000E+00
         0.00000E+00
         0.00000E+00
         0.00000E+00
         0.00000E+00
         0.00000E+00
         0.00000E+00
         0.00000E+00
         0.00000E+00
         0.00000E+00
         0.00000E+00
         0.00000E+00
         0.00000E+00
         0.00000E+00
         0.00000E+00
         0.00000E+00
         0.00000E+00
         0.00000E+00
         0.00000E+00
         0.00000E+00
         0.00000E+00
         0.00000E+00
         0.00000E+00
         0.00000E+00
         0.00000E+00
         0.00000E+00
         0.00000E+00
         0.00000E+00
         0.00000E+00
         0.00000E+00
         0.00000E+00
         0.00000E+00
         0.00000E+00
         0.00000E+00
         0.00000E+00
         0.00000E+00
         0.00000E+00
         0.00000E+00
         0.00000E+00
         0.00000E+00
         0.00000E+00
         0.00000E+00
         0.00000E+00
         0.00000E+00
         0.00000E+00
         0.00000E+00
         0.00000E+00
         0.00000E+00
         0.00000E+00
         0.00000E+00
         0.00000E+00
         0.00000E+00
         0.00000E+00
         0.00000E+00
         0.00000E+00
         0.00000E+00
         0.00000E+00
         0.00000E+00
         0.00000E+00
         0.00000E+00
         0.00000E+00
         0.00000E+00
         0.00000E+00
         0.00000E+00
         0.00000E+00
         0.00000E+00
         0.00000E+00
         0.00000E+00
         0.00000E+00
         0.00000E+00
         0.00000E+00
         0.00000E+00
         0.00000E+00
         0.00000E+00
         0.00000E+00
         0.00000E+00
         0.00000E+00
         0.00000E+00
         0.00000E+00
         0.00000E+00
         0.00000E+00
         0.00000E+00
         0.00000E+00
         0.00000E+00
         0.00000E+00
         0.00000E+00
         0.00000E+00
         0.00000E+00
         0.00000E+00
         0.00000E+00
         0.00000E+00
         0.00000E+00
         0.00000E+00
         0.00000E+00
         0.00000E+00
         0.00000E+00
         0.00000E+00
         0.00000E+00
         0.00000E+00
         0.00000E+00
         0.00000E+00
         0.00000E+00
         0.00000E+00
         0.00000E+00
         0.00000E+00
         0.00000E+00
         0.00000E+00
         0.00000E+00
         0.00000E+00
         0.00000E+00
         0.00000E+00
         0.00000E+00
         0.00000E+00
         0.00000E+00
         0.00000E+00
         0.00000E+00
         0.00000E+00
         0.00000E+00
         0.00000E+00
         0.00000E+00
         0.00000E+00
         0.00000E+00
         0.00000E+00
         0.00000E+00
         0.00000E+00
         0.00000E+00
         0.00000E+00
         0.00000E+00
         0.00000E+00
         0.00000E+00
         0.00000E+00
         0.00000E+00
         0.00000E+00
         0.00000E+00
         0.00000E+00
         0.00000E+00
         0.00000E+00
         0.00000E+00
         0.00000E+00
         0.00000E+00
         0.00000E+00
         0.00000E+00
         0.00000E+00
         0.00000E+00
         0.00000E+00
         0.00000E+00
         0.00000E+00
         0.00000E+00
         0.00000E+00
         0.00000E+00
         0.00000E+00
         0.00000E+00
         0.00000E+00
         0.00000E+00
         0.00000E+00
         0.00000E+00
         0.00000E+00
         0.00000E+00
         0.00000E+00
         0.00000E+00
         0.00000E+00
         0.00000E+00
         0.00000E+00
         0.00000E+00
         0.00000E+00
         0.00000E+00
         0.00000E+00
         0.00000E+00
         0.00000E+00
         0.00000E+00
         0.00000E+00
         0.00000E+00
         0.00000E+00
         0.00000E+00
         0.00000E+00
         0.00000E+00
         0.00000E+00
         0.00000E+00
         0.00000E+00
         0.00000E+00
         0.00000E+00
         0.00000E+00
         0.00000E+00
         0.00000E+00
         0.00000E+00
         0.00000E+00
         0.00000E+00
         0.00000E+00
         0.00000E+00
         0.00000E+00
         0.00000E+00
         0.00000E+00
         0.00000E+00
         0.00000E+00
         0.00000E+00
         0.00000E+00
         0.00000E+00
         0.00000E+00
         0.00000E+00
         0.00000E+00
         0.00000E+00
         0.00000E+00
         0.00000E+00
         0.00000E+00
         0.00000E+00
         0.00000E+00
         0.00000E+00
         0.00000E+00
         0.00000E+00
         0.00000E+00
         0.00000E+00
         0.00000E+00
         0.00000E+00
         0.00000E+00
         0.00000E+00
         0.00000E+00
         0.00000E+00
         0.00000E+00
         0.00000E+00
         0.00000E+00
         0.00000E+00
         0.00000E+00
         0.00000E+00
         0.00000E+00
         0.00000E+00
         0.00000E+00
         0.00000E+00
         0.00000E+00
         0.00000E+00
         0.00000E+00
         0.00000E+00
         0.00000E+00
         0.00000E+00
         0.00000E+00
         0.00000E+00
         0.00000E+00
         0.00000E+00
         0.00000E+00
         0.00000E+00
         0.00000E+00
         0.00000E+00
         0.00000E+00
         0.00000E+00
         0.00000E+00
         0.00000E+00
         0.00000E+00
         0.00000E+00
         0.00000E+00
         0.00000E+00
         0.00000E+00
         0.00000E+00
         0.00000E+00
         0.00000E+00
         0.00000E+00
         0.00000E+00
         0.00000E+00
         0.00000E+00
         0.00000E+00
         0.00000E+00
         0.00000E+00
         0.00000E+00
         0.00000E+00
         0.00000E+00
         0.00000E+00
         0.00000E+00
         0.00000E+00
         0.00000E+00
         0.00000E+00
         0.00000E+00
         0.00000E+00
         0.00000E+00
         0.00000E+00
         0.00000E+00
         0.00000E+00
         0.00000E+00
         0.00000E+00
         0.00000E+00
         0.00000E+00
         0.00000E+00
         0.00000E+00
         0.00000E+00
         0.00000E+00
         0.00000E+00
         0.00000E+00
         0.00000E+00
         0.00000E+00
         0.00000E+00
         0.00000E+00
         0.00000E+00
         0.00000E+00
         0.00000E+00
         0.00000E+00
         0.00000E+00
         0.00000E+00
         0.00000E+00
         0.00000E+00
         0.00000E+00
         0.00000E+00
         0.00000E+00
         0.00000E+00
         0.00000E+00
         0.00000E+00
         0.00000E+00
         0.00000E+00
         0.00000E+00
         0.00000E+00
         0.00000E+00
         0.00000E+00
         0.00000E+00
         0.00000E+00
         0.00000E+00
         0.00000E+00
         0.00000E+00
         0.00000E+00
         0.00000E+00
         0.00000E+00
         0.00000E+00
         0.00000E+00
         0.00000E+00
         0.00000E+00
         0.00000E+00
         0.00000E+00
         0.00000E+00
         0.00000E+00
         0.00000E+00
         0.00000E+00
         0.00000E+00
         0.00000E+00
         0.00000E+00
         0.00000E+00
         0.00000E+00
         0.00000E+00
         0.00000E+00
         0.00000E+00
         0.00000E+00
         0.00000E+00
         0.00000E+00
         0.00000E+00
         0.00000E+00
         0.00000E+00
         0.00000E+00
         0.00000E+00
         0.00000E+00
         0.00000E+00
         0.00000E+00
         0.00000E+00
         0.00000E+00
         0.00000E+00
         0.00000E+00
         0.00000E+00
         0.00000E+00
         0.00000E+00
         0.00000E+00
         0.00000E+00
         0.00000E+00
         0.00000E+00
         0.00000E+00
         0.00000E+00
         0.00000E+00
         0.00000E+00
         0.00000E+00
         0.00000E+00
         0.00000E+00
         0.00000E+00
         0.00000E+00
         0.00000E+00
         0.00000E+00
         0.00000E+00
         0.00000E+00
         0.00000E+00
         0.00000E+00
         0.00000E+00
         0.00000E+00
         0.00000E+00
         0.00000E+00
         0.00000E+00
         0.00000E+00
         0.00000E+00
         0.00000E+00
         0.00000E+00
         0.00000E+00
         0.00000E+00
         0.00000E+00
         0.00000E+00
         0.00000E+00
         0.00000E+00
         0.00000E+00
         0.00000E+00
         0.00000E+00
         0.00000E+00
         0.00000E+00
         0.00000E+00
         0.00000E+00
         0.00000E+00
         0.00000E+00
         0.00000E+00
         0.00000E+00
         0.00000E+00
         0.00000E+00
         0.00000E+00
         0.00000E+00
         0.00000E+00
         0.00000E+00
         0.00000E+00
         0.00000E+00
         0.00000E+00
         0.00000E+00
         0.00000E+00
         0.00000E+00
         0.00000E+00
         0.00000E+00
         0.00000E+00
         0.00000E+00
         0.00000E+00
         0.00000E+00
         0.00000E+00
         0.00000E+00
         0.00000E+00
         0.00000E+00
         0.00000E+00
         0.00000E+00
         0.00000E+00
         0.00000E+00
         0.00000E+00
         0.00000E+00
         0.00000E+00
         0.00000E+00
         0.00000E+00
         0.00000E+00
         0.00000E+00
         0.00000E+00
         0.00000E+00
         0.00000E+00
         0.00000E+00
         0.00000E+00
         0.00000E+00
         0.00000E+00
         0.00000E+00
         0.00000E+00
         0.00000E+00
         0.00000E+00
         0.00000E+00
         0.00000E+00
         0.00000E+00
         0.00000E+00
         0.00000E+00
         0.00000E+00
         0.00000E+00
         0.00000E+00
         0.00000E+00
         0.00000E+00
         0.00000E+00
         0.00000E+00
         0.00000E+00
         0.00000E+00
         0.00000E+00
         0.00000E+00
         0.00000E+00
         0.00000E+00
         0.00000E+00
         0.00000E+00
         0.00000E+00
         0.00000E+00
         0.00000E+00
         0.00000E+00
         0.00000E+00
         0.00000E+00
         0.00000E+00
         0.00000E+00
         0.00000E+00
         0.00000E+00
         0.00000E+00
         0.00000E+00
         0.00000E+00
         0.00000E+00
         0.00000E+00
         0.00000E+00
         0.00000E+00
         0.00000E+00
         0.00000E+00
         0.00000E+00
         0.00000E+00
         0.00000E+00
         0.00000E+00
         0.00000E+00
         0.00000E+00
         0.00000E+00
         0.00000E+00
         0.00000E+00
         0.00000E+00
         0.00000E+00
         0.00000E+00
         0.00000E+00
         0.00000E+00
         0.00000E+00
         0.00000E+00
         0.00000E+00
         0.00000E+00
         0.00000E+00
         0.00000E+00
         0.00000E+00
         0.00000E+00
         0.00000E+00
         0.00000E+00
         0.00000E+00
         0.00000E+00
         0.00000E+00
         0.00000E+00
         0.00000E+00
         0.00000E+00
         0.00000E+00
         0.00000E+00
         0.00000E+00
         0.00000E+00
         0.00000E+00
         0.00000E+00
         0.00000E+00
         0.00000E+00
         0.00000E+00
         0.00000E+00
         0.00000E+00
         0.00000E+00
         0.00000E+00
         0.00000E+00
         0.00000E+00
         0.00000E+00
         0.00000E+00
         0.00000E+00
         0.00000E+00
         0.00000E+00
         0.00000E+00
         0.00000E+00
         0.00000E+00
         0.00000E+00
         0.00000E+00
         0.00000E+00
         0.00000E+00
         0.00000E+00
         0.00000E+00
         0.00000E+00
         0.00000E+00
         0.00000E+00
         0.00000E+00
         0.00000E+00
         0.00000E+00
         0.00000E+00
         0.00000E+00
         0.00000E+00
         0.00000E+00
         0.00000E+00
         0.00000E+00
         0.00000E+00
         0.00000E+00
         0.00000E+00
         0.00000E+00
         0.00000E+00
         0.00000E+00
         0.00000E+00
         0.00000E+00
         0.00000E+00
         0.00000E+00
         0.00000E+00
         0.00000E+00
         0.00000E+00
         0.00000E+00
         0.00000E+00
         0.00000E+00
         0.00000E+00
         0.00000E+00
         0.00000E+00
         0.00000E+00
         0.00000E+00
         0.00000E+00
         0.00000E+00
         0.00000E+00
         0.00000E+00
         0.00000E+00
         0.00000E+00
         0.00000E+00
         0.00000E+00
         0.00000E+00
         0.00000E+00
         0.00000E+00
         0.00000E+00
         0.00000E+00
         0.00000E+00
         0.00000E+00
         0.00000E+00
         0.00000E+00
         0.00000E+00
         0.00000E+00
         0.00000E+00
         0.00000E+00
         0.00000E+00
         0.00000E+00
         0.00000E+00
         0.00000E+00
         0.00000E+00
         0.00000E+00
         0.00000E+00
         0.00000E+00
         0.00000E+00
         0.00000E+00
         0.00000E+00
         0.00000E+00
         0.00000E+00
         0.00000E+00
         0.00000E+00
         0.00000E+00
         0.00000E+00
         0.00000E+00
         0.00000E+00
         0.00000E+00
         0.00000E+00
         0.00000E+00
         0.00000E+00
         0.00000E+00
         0.00000E+00
         0.00000E+00
         0.00000E+00
         0.00000E+00
         0.00000E+00
         0.00000E+00
         0.00000E+00
         0.00000E+00
         0.00000E+00
         0.00000E+00
         0.00000E+00
         0.00000E+00
         0.00000E+00
         0.00000E+00
         0.00000E+00
         0.00000E+00
         0.00000E+00
         0.00000E+00
         0.00000E+00
         0.00000E+00
         0.00000E+00
         0.00000E+00
         0.00000E+00
         0.00000E+00
         0.00000E+00
         0.00000E+00
         0.00000E+00
         0.00000E+00
         0.00000E+00
         0.00000E+00
         0.00000E+00
         0.00000E+00
         0.00000E+00
         0.00000E+00
         0.00000E+00
         0.00000E+00
         0.00000E+00
         0.00000E+00
         0.00000E+00
         0.00000E+00
         0.00000E+00
         0.00000E+00
         0.00000E+00
         0.00000E+00
         0.00000E+00
         0.00000E+00
         0.00000E+00
         0.00000E+00
         0.00000E+00
         0.00000E+00
         0.00000E+00
         0.00000E+00
         0.00000E+00
         0.00000E+00
         0.00000E+00
         0.00000E+00
         0.00000E+00
         0.00000E+00
         0.00000E+00
         0.00000E+00
         0.00000E+00
         0.00000E+00
         0.00000E+00
         0.00000E+00
         0.00000E+00
         0.00000E+00
         0.00000E+00
         0.00000E+00
         0.00000E+00
         0.00000E+00
         0.00000E+00
         0.00000E+00
         0.00000E+00
         0.00000E+00
         0.00000E+00
         0.00000E+00
         0.00000E+00
         0.00000E+00
         0.00000E+00
         0.00000E+00
         0.00000E+00
         0.00000E+00
         0.00000E+00
         0.00000E+00
         0.00000E+00
         0.00000E+00
         0.00000E+00
         0.00000E+00
         0.00000E+00
         0.00000E+00
         0.00000E+00
         0.00000E+00
         0.00000E+00
         0.00000E+00
         0.00000E+00
         0.00000E+00
         0.00000E+00
         0.00000E+00
         0.00000E+00
         0.00000E+00
         0.00000E+00
         0.00000E+00
         0.00000E+00
         0.00000E+00
         0.00000E+00
         0.00000E+00
         0.00000E+00
         0.00000E+00
         0.00000E+00
         0.00000E+00
         0.00000E+00
         0.00000E+00
         0.00000E+00
         0.00000E+00
         0.00000E+00
         0.00000E+00
         0.00000E+00
         0.00000E+00
         0.00000E+00
         0.00000E+00
         0.00000E+00
         0.00000E+00
         0.00000E+00
         0.00000E+00
         0.00000E+00
         0.00000E+00
         0.00000E+00
         0.00000E+00
         0.00000E+00
         0.00000E+00
         0.00000E+00
         0.00000E+00
         0.00000E+00
         0.00000E+00
         0.00000E+00
         0.00000E+00
         0.00000E+00
         0.00000E+00
         0.00000E+00
         0.00000E+00
         0.00000E+00
         0.00000E+00
         0.00000E+00
         0.00000E+00
         0.00000E+00
         0.00000E+00
         0.00000E+00
         0.00000E+00
         0.00000E+00
         0.00000E+00
         0.00000E+00
         0.00000E+00
         0.00000E+00
         0.00000E+00
         0.00000E+00
         0.00000E+00
         0.00000E+00
         0.00000E+00
         0.00000E+00
         0.00000E+00
         0.00000E+00
         0.00000E+00
         0.00000E+00
         0.00000E+00
         0.00000E+00
         0.00000E+00
         0.00000E+00
         0.00000E+00
         0.00000E+00
         0.00000E+00
         0.00000E+00
         0.00000E+00
         0.00000E+00
         0.00000E+00
         0.00000E+00
         0.00000E+00
         0.00000E+00
         0.00000E+00
         0.00000E+00
         0.00000E+00
         0.00000E+00
         0.00000E+00
         0.00000E+00
         0.00000E+00
         0.00000E+00
         0.00000E+00
         0.00000E+00
         0.00000E+00
         0.00000E+00
         0.00000E+00
         0.00000E+00
         0.00000E+00
         0.00000E+00
         0.00000E+00
         0.00000E+00
         0.00000E+00
         0.00000E+00
         0.00000E+00
         0.00000E+00
         0.00000E+00
         0.00000E+00
         0.00000E+00
         0.00000E+00
         0.00000E+00
         0.00000E+00
         0.00000E+00
         0.00000E+00
         0.00000E+00
         0.00000E+00
         0.00000E+00
         0.00000E+00
         0.00000E+00
         0.00000E+00
         0.00000E+00
         0.00000E+00
         0.00000E+00
         0.00000E+00
         0.00000E+00
         0.00000E+00
         0.00000E+00
         0.00000E+00
         0.00000E+00
         0.00000E+00
         0.00000E+00
         0.00000E+00
         0.00000E+00
         0.00000E+00
         0.00000E+00
         0.00000E+00
         0.00000E+00
         0.00000E+00
         0.00000E+00
         0.00000E+00
         0.00000E+00
         0.00000E+00
         0.00000E+00
         0.00000E+00
         0.00000E+00
         0.00000E+00
         0.00000E+00
         0.00000E+00
         0.00000E+00
         0.00000E+00
         0.00000E+00
         0.00000E+00
         0.00000E+00
         0.00000E+00
         0.00000E+00
         0.00000E+00
         0.00000E+00
         0.00000E+00
         0.00000E+00
         0.00000E+00
         0.00000E+00
         0.00000E+00
         0.00000E+00
         0.00000E+00
         0.00000E+00
         0.00000E+00
         0.00000E+00
         0.00000E+00
         0.00000E+00
         0.00000E+00
         0.00000E+00
         0.00000E+00
         0.00000E+00
         0.00000E+00
         0.00000E+00
         0.00000E+00
         0.00000E+00
         0.00000E+00
         0.00000E+00
         0.00000E+00
         0.00000E+00
         0.00000E+00
         0.00000E+00
         0.00000E+00
         0.00000E+00
         0.00000E+00
         0.00000E+00
         0.00000E+00
         0.00000E+00
         0.00000E+00
         0.00000E+00
         0.00000E+00
         0.00000E+00
         0.00000E+00
         0.00000E+00
         0.00000E+00
         0.00000E+00
         0.00000E+00
         0.00000E+00
         0.00000E+00
         0.00000E+00
         0.00000E+00
         0.00000E+00
         0.00000E+00
         0.00000E+00
         0.00000E+00
         0.00000E+00
         0.00000E+00
         0.00000E+00
         0.00000E+00
         0.00000E+00
         0.00000E+00
         0.00000E+00
         0.00000E+00
         0.00000E+00
         0.00000E+00
         0.00000E+00
         0.00000E+00
         0.00000E+00
         0.00000E+00
         0.00000E+00
         0.00000E+00
         0.00000E+00
         0.00000E+00
         0.00000E+00
         0.00000E+00
         0.00000E+00
         0.00000E+00
         0.00000E+00
         0.00000E+00
         0.00000E+00
         0.00000E+00
         0.00000E+00
         0.00000E+00
         0.00000E+00
         0.00000E+00
         0.00000E+00
         0.00000E+00
         0.00000E+00
         0.00000E+00
         0.00000E+00
         0.00000E+00
         0.00000E+00
         0.00000E+00
         0.00000E+00
         0.00000E+00
         0.00000E+00
         0.00000E+00
         0.00000E+00
         0.00000E+00
         0.00000E+00
         0.00000E+00
         0.00000E+00
         0.00000E+00
         0.00000E+00
         0.00000E+00
         0.00000E+00
         0.00000E+00
         0.00000E+00
         0.00000E+00
         0.00000E+00
         0.00000E+00
         0.00000E+00
         0.00000E+00
         0.00000E+00
         0.00000E+00
         0.00000E+00
         0.00000E+00
         0.00000E+00
         0.00000E+00
         0.00000E+00
         0.00000E+00
         0.00000E+00
         0.00000E+00
         0.00000E+00
         0.00000E+00
         0.00000E+00
         0.00000E+00
         0.00000E+00
         0.00000E+00
         0.00000E+00
         0.00000E+00
         0.00000E+00
         0.00000E+00
         0.00000E+00
         0.00000E+00
         0.00000E+00
         0.00000E+00
         0.00000E+00
         0.00000E+00
         0.00000E+00
         0.00000E+00
         0.00000E+00
         0.00000E+00
         0.00000E+00
         0.00000E+00
         0.00000E+00
         0.00000E+00
         0.00000E+00
         0.00000E+00
         0.00000E+00
         0.00000E+00
         0.00000E+00
         0.00000E+00
         0.00000E+00
         0.00000E+00
         0.00000E+00
         0.00000E+00
         0.00000E+00
         0.00000E+00
         0.00000E+00
         0.00000E+00
         0.00000E+00
         0.00000E+00
         0.00000E+00
         0.00000E+00
         0.00000E+00
         0.00000E+00
         0.00000E+00
         0.00000E+00
         0.00000E+00
         0.00000E+00
         0.00000E+00
         0.00000E+00
         0.00000E+00
         0.00000E+00
         0.00000E+00
         0.00000E+00
         0.00000E+00
         0.00000E+00
         0.00000E+00
         0.00000E+00
         0.00000E+00
         0.00000E+00
         0.00000E+00
         0.00000E+00
         0.00000E+00
         0.00000E+00
         0.00000E+00
         0.00000E+00
         0.00000E+00
         0.00000E+00
         0.00000E+00
         0.00000E+00
         0.00000E+00
         0.00000E+00
         0.00000E+00
         0.00000E+00
         0.00000E+00
         0.00000E+00
         0.00000E+00
         0.00000E+00
         0.00000E+00
         0.00000E+00
         0.00000E+00
         0.00000E+00
         0.00000E+00
         0.00000E+00
         0.00000E+00
         0.00000E+00
         0.00000E+00
         0.00000E+00
         0.00000E+00
         0.00000E+00
         0.00000E+00
         0.00000E+00
         0.00000E+00
         0.00000E+00
         0.00000E+00
         0.00000E+00
         0.00000E+00
         0.00000E+00
         0.00000E+00
         0.00000E+00
         0.00000E+00
         0.00000E+00
         0.00000E+00
         0.00000E+00
         0.00000E+00
         0.00000E+00
         0.00000E+00
         0.00000E+00
         0.00000E+00
         0.00000E+00
         0.00000E+00
         0.00000E+00
         0.00000E+00
         0.00000E+00
         0.00000E+00
         0.00000E+00
         0.00000E+00
         0.00000E+00
         0.00000E+00
         0.00000E+00
         0.00000E+00
         0.00000E+00
         0.00000E+00
         0.00000E+00
         0.00000E+00
         0.00000E+00
         0.00000E+00
         0.00000E+00
         0.00000E+00
         0.00000E+00
         0.00000E+00
         0.00000E+00
         0.00000E+00
         0.00000E+00
         0.00000E+00
         0.00000E+00
         0.00000E+00
         0.00000E+00
         0.00000E+00
         0.00000E+00
         0.00000E+00
         0.00000E+00
         0.00000E+00
         0.00000E+00
         0.00000E+00
         0.00000E+00
         0.00000E+00
         0.00000E+00
         0.00000E+00
         0.00000E+00
         0.00000E+00
         0.00000E+00
         0.00000E+00
         0.00000E+00
         0.00000E+00
         0.00000E+00
         0.00000E+00
         0.00000E+00
         0.00000E+00
         0.00000E+00
         0.00000E+00
         0.00000E+00
         0.00000E+00
         0.00000E+00
         0.00000E+00
         0.00000E+00
         0.00000E+00
         0.00000E+00
         0.00000E+00
         0.00000E+00
         0.00000E+00
         0.00000E+00
         0.00000E+00
         0.00000E+00
         0.00000E+00
         0.00000E+00
         0.00000E+00
         0.00000E+00
         0.00000E+00
         0.00000E+00
         0.00000E+00
         0.00000E+00
         0.00000E+00
         0.00000E+00
         0.00000E+00
         0.00000E+00
         0.00000E+00
         0.00000E+00
         0.00000E+00
         0.00000E+00
         0.00000E+00
         0.00000E+00
         0.00000E+00
         0.00000E+00
         0.00000E+00
         0.00000E+00
         0.00000E+00
         0.00000E+00
         0.00000E+00
         0.00000E+00
         0.00000E+00
         0.00000E+00
         0.00000E+00
         0.00000E+00
         0.00000E+00
         0.00000E+00
         0.00000E+00
         0.00000E+00
         0.00000E+00
         0.00000E+00
         0.00000E+00
         0.00000E+00
         0.00000E+00
         0.00000E+00
         0.00000E+00
         0.00000E+00
         0.00000E+00
         0.00000E+00
         0.00000E+00
         0.00000E+00
         0.00000E+00
         0.00000E+00
         0.00000E+00
         0.00000E+00
         0.00000E+00
         0.00000E+00
         0.00000E+00
         0.00000E+00
         0.00000E+00
         0.00000E+00
         0.00000E+00
         0.00000E+00
         0.00000E+00
         0.00000E+00
         0.00000E+00
         0.00000E+00
         0.00000E+00
         0.00000E+00
         0.00000E+00
         0.00000E+00
         0.00000E+00
         0.00000E+00
         0.00000E+00
         0.00000E+00
         0.00000E+00
         0.00000E+00
         0.00000E+00
         0.00000E+00
         0.00000E+00
         0.00000E+00
         0.00000E+00
         0.00000E+00
         0.00000E+00
         0.00000E+00
         0.00000E+00
         0.00000E+00
         0.00000E+00
         0.00000E+00
         0.00000E+00
         0.00000E+00
         0.00000E+00
         0.00000E+00
         0.00000E+00
         0.00000E+00
         0.00000E+00
         0.00000E+00
         0.00000E+00
         0.00000E+00
         0.00000E+00
         0.00000E+00
         0.00000E+00
         0.00000E+00
         0.00000E+00
         0.00000E+00
         0.00000E+00
         0.00000E+00
         0.00000E+00
         0.00000E+00
         0.00000E+00
         0.00000E+00
         0.00000E+00
         0.00000E+00
         0.00000E+00
         0.00000E+00
         0.00000E+00
         0.00000E+00
         0.00000E+00
         0.00000E+00
         0.00000E+00
         0.00000E+00
         0.00000E+00
         0.00000E+00
         0.00000E+00
         0.00000E+00
         0.00000E+00
         0.00000E+00
         0.00000E+00
         0.00000E+00
         0.00000E+00
         0.00000E+00
         0.00000E+00
         0.00000E+00
         0.00000E+00
         0.00000E+00
         0.00000E+00
         0.00000E+00
         0.00000E+00
         0.00000E+00
         0.00000E+00
         0.00000E+00
         0.00000E+00
         0.00000E+00
         0.00000E+00
         0.00000E+00
         0.00000E+00
         0.00000E+00
         0.00000E+00
         0.00000E+00
         0.00000E+00
         0.00000E+00
         0.00000E+00
         0.00000E+00
         0.00000E+00
         0.00000E+00
         0.00000E+00
         0.00000E+00
         0.00000E+00
         0.00000E+00
         0.00000E+00
         0.00000E+00
         0.00000E+00
         0.00000E+00
         0.00000E+00
         0.00000E+00
         0.00000E+00
         0.00000E+00
         0.00000E+00
         0.00000E+00
         0.00000E+00
         0.00000E+00
         0.00000E+00
         0.00000E+00
         0.00000E+00
         0.00000E+00
         0.00000E+00
         0.00000E+00
         0.00000E+00
         0.00000E+00
         0.00000E+00
         0.00000E+00
         0.00000E+00
         0.00000E+00
         0.00000E+00
         0.00000E+00
         0.00000E+00
         0.00000E+00
         0.00000E+00
         0.00000E+00
         0.00000E+00
         0.00000E+00
         0.00000E+00
         0.00000E+00
         0.00000E+00
         0.00000E+00
         0.00000E+00
  
SCALARS                   max_wave_vel  double 1
LOOKUP_TABLE default
         0.00000E+00
         0.00000E+00
         0.00000E+00
         0.00000E+00
         0.00000E+00
         0.00000E+00
         0.00000E+00
         0.00000E+00
         0.00000E+00
         0.00000E+00
         0.00000E+00
         0.00000E+00
         0.00000E+00
         0.00000E+00
         0.00000E+00
         0.00000E+00
         0.00000E+00
         0.00000E+00
         0.00000E+00
         0.00000E+00
         0.00000E+00
         0.00000E+00
         0.00000E+00
         0.00000E+00
         0.00000E+00
         0.00000E+00
         0.00000E+00
         0.00000E+00
         0.00000E+00
         0.00000E+00
         0.00000E+00
         0.00000E+00
         0.00000E+00
         0.00000E+00
         0.00000E+00
         0.00000E+00
         0.00000E+00
         0.00000E+00
         0.00000E+00
         0.00000E+00
         0.00000E+00
         0.00000E+00
         0.00000E+00
         0.00000E+00
         0.00000E+00
         0.00000E+00
         0.00000E+00
         0.00000E+00
         0.00000E+00
         0.00000E+00
         0.00000E+00
         0.00000E+00
         0.00000E+00
         0.00000E+00
         0.00000E+00
         0.00000E+00
         0.00000E+00
         0.00000E+00
         0.00000E+00
         0.00000E+00
         0.00000E+00
         0.00000E+00
         0.00000E+00
         0.00000E+00
         0.00000E+00
         0.00000E+00
         0.00000E+00
         0.00000E+00
         0.00000E+00
         0.00000E+00
         0.00000E+00
         0.00000E+00
         0.00000E+00
         0.00000E+00
         0.00000E+00
         0.00000E+00
         0.00000E+00
         0.00000E+00
         0.00000E+00
         0.00000E+00
         0.00000E+00
         0.00000E+00
         0.00000E+00
         0.00000E+00
         0.00000E+00
         0.00000E+00
         0.00000E+00
         0.00000E+00
         0.00000E+00
         0.00000E+00
         0.00000E+00
         0.00000E+00
         0.00000E+00
         0.00000E+00
         0.00000E+00
         0.00000E+00
         0.00000E+00
         0.00000E+00
         0.00000E+00
         0.00000E+00
         0.00000E+00
         0.00000E+00
         0.00000E+00
         0.00000E+00
         0.00000E+00
         0.00000E+00
         0.00000E+00
         0.00000E+00
         0.00000E+00
         0.00000E+00
         0.00000E+00
         0.00000E+00
         0.00000E+00
         0.00000E+00
         0.00000E+00
         0.00000E+00
         0.00000E+00
         0.00000E+00
         0.00000E+00
         0.00000E+00
         0.00000E+00
         0.00000E+00
         0.00000E+00
         0.00000E+00
         0.00000E+00
         0.00000E+00
         0.00000E+00
         0.00000E+00
         0.00000E+00
         0.00000E+00
         0.00000E+00
         0.00000E+00
         0.00000E+00
         0.00000E+00
         0.00000E+00
         0.00000E+00
         0.00000E+00
         0.00000E+00
         0.00000E+00
         0.00000E+00
         0.00000E+00
         0.00000E+00
         0.00000E+00
         0.00000E+00
         0.00000E+00
         0.00000E+00
         0.00000E+00
         0.00000E+00
         0.00000E+00
         0.00000E+00
         0.00000E+00
         0.00000E+00
         0.00000E+00
         0.00000E+00
         0.00000E+00
         0.00000E+00
         0.00000E+00
         0.00000E+00
         0.00000E+00
         0.00000E+00
         0.00000E+00
         0.00000E+00
         0.00000E+00
         0.00000E+00
         0.00000E+00
         0.00000E+00
         0.00000E+00
         0.00000E+00
         0.00000E+00
         0.00000E+00
         0.00000E+00
         0.00000E+00
         0.00000E+00
         0.00000E+00
         0.00000E+00
         0.00000E+00
         0.00000E+00
         0.00000E+00
         0.00000E+00
         0.00000E+00
         0.00000E+00
         0.00000E+00
         0.00000E+00
         0.00000E+00
         0.00000E+00
         0.00000E+00
         0.00000E+00
         0.00000E+00
         0.00000E+00
         0.00000E+00
         0.00000E+00
         0.00000E+00
         0.00000E+00
         0.00000E+00
         0.00000E+00
         0.00000E+00
         0.00000E+00
         0.00000E+00
         0.00000E+00
         0.00000E+00
         0.00000E+00
         0.00000E+00
         0.00000E+00
         0.00000E+00
         0.00000E+00
         0.00000E+00
         0.00000E+00
         0.00000E+00
         0.00000E+00
         0.00000E+00
         0.00000E+00
         0.00000E+00
         0.00000E+00
         0.00000E+00
         0.00000E+00
         0.00000E+00
         0.00000E+00
         0.00000E+00
         0.00000E+00
         0.00000E+00
         0.00000E+00
         0.00000E+00
         0.00000E+00
         0.00000E+00
         0.00000E+00
         0.00000E+00
         0.00000E+00
         0.00000E+00
         0.00000E+00
         0.00000E+00
         0.00000E+00
         0.00000E+00
         0.00000E+00
         0.00000E+00
         0.00000E+00
         0.00000E+00
         0.00000E+00
         0.00000E+00
         0.00000E+00
         0.00000E+00
         0.00000E+00
         0.00000E+00
         0.00000E+00
         0.00000E+00
         0.00000E+00
         0.00000E+00
         0.00000E+00
         0.00000E+00
         0.00000E+00
         0.00000E+00
         0.00000E+00
         0.00000E+00
         0.00000E+00
         0.00000E+00
         0.00000E+00
         0.00000E+00
         0.00000E+00
         0.00000E+00
         0.00000E+00
         0.00000E+00
         0.00000E+00
         0.00000E+00
         0.00000E+00
         0.00000E+00
         0.00000E+00
         0.00000E+00
         0.00000E+00
         0.00000E+00
         0.00000E+00
         0.00000E+00
         0.00000E+00
         0.00000E+00
         0.00000E+00
         0.00000E+00
         0.00000E+00
         0.00000E+00
         0.00000E+00
         0.00000E+00
         0.00000E+00
         0.00000E+00
         0.00000E+00
         0.00000E+00
         0.00000E+00
         0.00000E+00
         0.00000E+00
         0.00000E+00
         0.00000E+00
         0.00000E+00
         0.00000E+00
         0.00000E+00
         0.00000E+00
         0.00000E+00
         0.00000E+00
         0.00000E+00
         0.00000E+00
         0.00000E+00
         0.00000E+00
         0.00000E+00
         0.00000E+00
         0.00000E+00
         0.00000E+00
         0.00000E+00
         0.00000E+00
         0.00000E+00
         0.00000E+00
         0.00000E+00
         0.00000E+00
         0.00000E+00
         0.00000E+00
         0.00000E+00
         0.00000E+00
         0.00000E+00
         0.00000E+00
         0.00000E+00
         0.00000E+00
         0.00000E+00
         0.00000E+00
         0.00000E+00
         0.00000E+00
         0.00000E+00
         0.00000E+00
         0.00000E+00
         0.00000E+00
         0.00000E+00
         0.00000E+00
         0.00000E+00
         0.00000E+00
         0.00000E+00
         0.00000E+00
         0.00000E+00
         0.00000E+00
         0.00000E+00
         0.00000E+00
         0.00000E+00
         0.00000E+00
         0.00000E+00
         0.00000E+00
         0.00000E+00
         0.00000E+00
         0.00000E+00
         0.00000E+00
         0.00000E+00
         0.00000E+00
         0.00000E+00
         0.00000E+00
         0.00000E+00
         0.00000E+00
         0.00000E+00
         0.00000E+00
         0.00000E+00
         0.00000E+00
         0.00000E+00
         0.00000E+00
         0.00000E+00
         0.00000E+00
         0.00000E+00
         0.00000E+00
         0.00000E+00
         0.00000E+00
         0.00000E+00
         0.00000E+00
         0.00000E+00
         0.00000E+00
         0.00000E+00
         0.00000E+00
         0.00000E+00
         0.00000E+00
         0.00000E+00
         0.00000E+00
         0.00000E+00
         0.00000E+00
         0.00000E+00
         0.00000E+00
         0.00000E+00
         0.00000E+00
         0.00000E+00
         0.00000E+00
         0.00000E+00
         0.00000E+00
         0.00000E+00
         0.00000E+00
         0.00000E+00
         0.00000E+00
         0.00000E+00
         0.00000E+00
         0.00000E+00
         0.00000E+00
         0.00000E+00
         0.00000E+00
         0.00000E+00
         0.00000E+00
         0.00000E+00
         0.00000E+00
         0.00000E+00
         0.00000E+00
         0.00000E+00
         0.00000E+00
         0.00000E+00
         0.00000E+00
         0.00000E+00
         0.00000E+00
         0.00000E+00
         0.00000E+00
         0.00000E+00
         0.00000E+00
         0.00000E+00
         0.00000E+00
         0.00000E+00
         0.00000E+00
         0.00000E+00
         0.00000E+00
         0.00000E+00
         0.00000E+00
         0.00000E+00
         0.00000E+00
         0.00000E+00
         0.00000E+00
         0.00000E+00
         0.00000E+00
         0.00000E+00
         0.00000E+00
         0.00000E+00
         0.00000E+00
         0.00000E+00
         0.00000E+00
         0.00000E+00
         0.00000E+00
         0.00000E+00
         0.00000E+00
         0.00000E+00
         0.00000E+00
         0.00000E+00
         0.00000E+00
         0.00000E+00
         0.00000E+00
         0.00000E+00
         0.00000E+00
         0.00000E+00
         0.00000E+00
         0.00000E+00
         0.00000E+00
         0.00000E+00
         0.00000E+00
         0.00000E+00
         0.00000E+00
         0.00000E+00
         0.00000E+00
         0.00000E+00
         0.00000E+00
         0.00000E+00
         0.00000E+00
         0.00000E+00
         0.00000E+00
         0.00000E+00
         0.00000E+00
         0.00000E+00
         0.00000E+00
         0.00000E+00
         0.00000E+00
         0.00000E+00
         0.00000E+00
         0.00000E+00
         0.00000E+00
         0.00000E+00
         0.00000E+00
         0.00000E+00
         0.00000E+00
         0.00000E+00
         0.00000E+00
         0.00000E+00
         0.00000E+00
         0.00000E+00
         0.00000E+00
         0.00000E+00
         0.00000E+00
         0.00000E+00
         0.00000E+00
         0.00000E+00
         0.00000E+00
         0.00000E+00
         0.00000E+00
         0.00000E+00
         0.00000E+00
         0.00000E+00
         0.00000E+00
         0.00000E+00
         0.00000E+00
         0.00000E+00
         0.00000E+00
         0.00000E+00
         0.00000E+00
         0.00000E+00
         0.00000E+00
         0.00000E+00
         0.00000E+00
         0.00000E+00
         0.00000E+00
         0.00000E+00
         0.00000E+00
         0.00000E+00
         0.00000E+00
         0.00000E+00
         0.00000E+00
         0.00000E+00
         0.00000E+00
         0.00000E+00
         0.00000E+00
         0.00000E+00
         0.00000E+00
         0.00000E+00
         0.00000E+00
         0.00000E+00
         0.00000E+00
         0.00000E+00
         0.00000E+00
         0.00000E+00
         0.00000E+00
         0.00000E+00
         0.00000E+00
         0.00000E+00
         0.00000E+00
         0.00000E+00
         0.00000E+00
         0.00000E+00
         0.00000E+00
         0.00000E+00
         0.00000E+00
         0.00000E+00
         0.00000E+00
         0.00000E+00
         0.00000E+00
         0.00000E+00
         0.00000E+00
         0.00000E+00
         0.00000E+00
         0.00000E+00
         0.00000E+00
         0.00000E+00
         0.00000E+00
         0.00000E+00
         0.00000E+00
         0.00000E+00
         0.00000E+00
         0.00000E+00
         0.00000E+00
         0.00000E+00
         0.00000E+00
         0.00000E+00
         0.00000E+00
         0.00000E+00
         0.00000E+00
         0.00000E+00
         0.00000E+00
         0.00000E+00
         0.00000E+00
         0.00000E+00
         0.00000E+00
         0.00000E+00
         0.00000E+00
         0.00000E+00
         0.00000E+00
         0.00000E+00
         0.00000E+00
         0.00000E+00
         0.00000E+00
         0.00000E+00
         0.00000E+00
         0.00000E+00
         0.00000E+00
         0.00000E+00
         0.00000E+00
         0.00000E+00
         0.00000E+00
         0.00000E+00
         0.00000E+00
         0.00000E+00
         0.00000E+00
         0.00000E+00
         0.00000E+00
         0.00000E+00
         0.00000E+00
         0.00000E+00
         0.00000E+00
         0.00000E+00
         0.00000E+00
         0.00000E+00
         0.00000E+00
         0.00000E+00
         0.00000E+00
         0.00000E+00
         0.00000E+00
         0.00000E+00
         0.00000E+00
         0.00000E+00
         0.00000E+00
         0.00000E+00
         0.00000E+00
         0.00000E+00
         0.00000E+00
         0.00000E+00
         0.00000E+00
         0.00000E+00
         0.00000E+00
         0.00000E+00
         0.00000E+00
         0.00000E+00
         0.00000E+00
         0.00000E+00
         0.00000E+00
         0.00000E+00
         0.00000E+00
         0.00000E+00
         0.00000E+00
         0.00000E+00
         0.00000E+00
         0.00000E+00
         0.00000E+00
         0.00000E+00
         0.00000E+00
         0.00000E+00
         0.00000E+00
         0.00000E+00
         0.00000E+00
         0.00000E+00
         0.00000E+00
         0.00000E+00
         0.00000E+00
         0.00000E+00
         0.00000E+00
         0.00000E+00
         0.00000E+00
         0.00000E+00
         0.00000E+00
         0.00000E+00
         0.00000E+00
         0.00000E+00
         0.00000E+00
         0.00000E+00
         0.00000E+00
         0.00000E+00
         0.00000E+00
         0.00000E+00
         0.00000E+00
         0.00000E+00
         0.00000E+00
         0.00000E+00
         0.00000E+00
         0.00000E+00
         0.00000E+00
         0.00000E+00
         0.00000E+00
         0.00000E+00
         0.00000E+00
         0.00000E+00
         0.00000E+00
         0.00000E+00
         0.00000E+00
         0.00000E+00
         0.00000E+00
         0.00000E+00
         0.00000E+00
         0.00000E+00
         0.00000E+00
         0.00000E+00
         0.00000E+00
         0.00000E+00
         0.00000E+00
         0.00000E+00
         0.00000E+00
         0.00000E+00
         0.00000E+00
         0.00000E+00
         0.00000E+00
         0.00000E+00
         0.00000E+00
         0.00000E+00
         0.00000E+00
         0.00000E+00
         0.00000E+00
         0.00000E+00
         0.00000E+00
         0.00000E+00
         0.00000E+00
         0.00000E+00
         0.00000E+00
         0.00000E+00
         0.00000E+00
         0.00000E+00
         0.00000E+00
         0.00000E+00
         0.00000E+00
         0.00000E+00
         0.00000E+00
         0.00000E+00
         0.00000E+00
         0.00000E+00
         0.00000E+00
         0.00000E+00
         0.00000E+00
         0.00000E+00
         0.00000E+00
         0.00000E+00
         0.00000E+00
         0.00000E+00
         0.00000E+00
         0.00000E+00
         0.00000E+00
         0.00000E+00
         0.00000E+00
         0.00000E+00
         0.00000E+00
         0.00000E+00
         0.00000E+00
         0.00000E+00
         0.00000E+00
         0.00000E+00
         0.00000E+00
         0.00000E+00
         0.00000E+00
         0.00000E+00
         0.00000E+00
         0.00000E+00
         0.00000E+00
         0.00000E+00
         0.00000E+00
         0.00000E+00
         0.00000E+00
         0.00000E+00
         0.00000E+00
         0.00000E+00
         0.00000E+00
         0.00000E+00
         0.00000E+00
         0.00000E+00
         0.00000E+00
         0.00000E+00
         0.00000E+00
         0.00000E+00
         0.00000E+00
         0.00000E+00
         0.00000E+00
         0.00000E+00
         0.00000E+00
         0.00000E+00
         0.00000E+00
         0.00000E+00
         0.00000E+00
         0.00000E+00
         0.00000E+00
         0.00000E+00
         0.00000E+00
         0.00000E+00
         0.00000E+00
         0.00000E+00
         0.00000E+00
         0.00000E+00
         0.00000E+00
         0.00000E+00
         0.00000E+00
         0.00000E+00
         0.00000E+00
         0.00000E+00
         0.00000E+00
         0.00000E+00
         0.00000E+00
         0.00000E+00
         0.00000E+00
         0.00000E+00
         0.00000E+00
         0.00000E+00
         0.00000E+00
         0.00000E+00
         0.00000E+00
         0.00000E+00
         0.00000E+00
         0.00000E+00
         0.00000E+00
         0.00000E+00
         0.00000E+00
         0.00000E+00
         0.00000E+00
         0.00000E+00
         0.00000E+00
         0.00000E+00
         0.00000E+00
         0.00000E+00
         0.00000E+00
         0.00000E+00
         0.00000E+00
         0.00000E+00
         0.00000E+00
         0.00000E+00
         0.00000E+00
         0.00000E+00
         0.00000E+00
         0.00000E+00
         0.00000E+00
         0.00000E+00
         0.00000E+00
         0.00000E+00
         0.00000E+00
         0.00000E+00
         0.00000E+00
         0.00000E+00
         0.00000E+00
         0.00000E+00
         0.00000E+00
         0.00000E+00
         0.00000E+00
         0.00000E+00
         0.00000E+00
         0.00000E+00
         0.00000E+00
         0.00000E+00
         0.00000E+00
         0.00000E+00
         0.00000E+00
         0.00000E+00
         0.00000E+00
         0.00000E+00
         0.00000E+00
         0.00000E+00
         0.00000E+00
         0.00000E+00
         0.00000E+00
         0.00000E+00
         0.00000E+00
         0.00000E+00
         0.00000E+00
         0.00000E+00
         0.00000E+00
         0.00000E+00
         0.00000E+00
         0.00000E+00
         0.00000E+00
         0.00000E+00
         0.00000E+00
         0.00000E+00
         0.00000E+00
         0.00000E+00
         0.00000E+00
         0.00000E+00
         0.00000E+00
         0.00000E+00
         0.00000E+00
         0.00000E+00
         0.00000E+00
         0.00000E+00
         0.00000E+00
         0.00000E+00
         0.00000E+00
         0.00000E+00
         0.00000E+00
         0.00000E+00
         0.00000E+00
         0.00000E+00
         0.00000E+00
         0.00000E+00
         0.00000E+00
         0.00000E+00
         0.00000E+00
         0.00000E+00
         0.00000E+00
         0.00000E+00
         0.00000E+00
         0.00000E+00
         0.00000E+00
         0.00000E+00
         0.00000E+00
         0.00000E+00
         0.00000E+00
         0.00000E+00
         0.00000E+00
         0.00000E+00
         0.00000E+00
         0.00000E+00
         0.00000E+00
         0.00000E+00
         0.00000E+00
         0.00000E+00
         0.00000E+00
         0.00000E+00
         0.00000E+00
         0.00000E+00
         0.00000E+00
         0.00000E+00
         0.00000E+00
         0.00000E+00
         0.00000E+00
         0.00000E+00
         0.00000E+00
         0.00000E+00
         0.00000E+00
         0.00000E+00
         0.00000E+00
         0.00000E+00
         0.00000E+00
         0.00000E+00
         0.00000E+00
         0.00000E+00
         0.00000E+00
         0.00000E+00
         0.00000E+00
         0.00000E+00
         0.00000E+00
         0.00000E+00
         0.00000E+00
         0.00000E+00
         0.00000E+00
         0.00000E+00
         0.00000E+00
         0.00000E+00
         0.00000E+00
         0.00000E+00
         0.00000E+00
         0.00000E+00
         0.00000E+00
         0.00000E+00
         0.00000E+00
         0.00000E+00
         0.00000E+00
         0.00000E+00
         0.00000E+00
         0.00000E+00
         0.00000E+00
         0.00000E+00
         0.00000E+00
         0.00000E+00
         0.00000E+00
         0.00000E+00
         0.00000E+00
         0.00000E+00
         0.00000E+00
         0.00000E+00
         0.00000E+00
         0.00000E+00
         0.00000E+00
         0.00000E+00
         0.00000E+00
         0.00000E+00
         0.00000E+00
         0.00000E+00
         0.00000E+00
         0.00000E+00
         0.00000E+00
         0.00000E+00
         0.00000E+00
         0.00000E+00
         0.00000E+00
         0.00000E+00
         0.00000E+00
         0.00000E+00
         0.00000E+00
         0.00000E+00
         0.00000E+00
         0.00000E+00
         0.00000E+00
         0.00000E+00
         0.00000E+00
         0.00000E+00
         0.00000E+00
         0.00000E+00
         0.00000E+00
         0.00000E+00
         0.00000E+00
         0.00000E+00
         0.00000E+00
         0.00000E+00
         0.00000E+00
         0.00000E+00
         0.00000E+00
         0.00000E+00
         0.00000E+00
         0.00000E+00
         0.00000E+00
         0.00000E+00
         0.00000E+00
         0.00000E+00
         0.00000E+00
         0.00000E+00
         0.00000E+00
         0.00000E+00
         0.00000E+00
         0.00000E+00
         0.00000E+00
         0.00000E+00
         0.00000E+00
         0.00000E+00
         0.00000E+00
         0.00000E+00
         0.00000E+00
         0.00000E+00
         0.00000E+00
         0.00000E+00
         0.00000E+00
         0.00000E+00
         0.00000E+00
         0.00000E+00
         0.00000E+00
         0.00000E+00
         0.00000E+00
         0.00000E+00
         0.00000E+00
         0.00000E+00
         0.00000E+00
         0.00000E+00
         0.00000E+00
         0.00000E+00
         0.00000E+00
         0.00000E+00
         0.00000E+00
         0.00000E+00
         0.00000E+00
         0.00000E+00
         0.00000E+00
         0.00000E+00
         0.00000E+00
         0.00000E+00
         0.00000E+00
         0.00000E+00
         0.00000E+00
         0.00000E+00
         0.00000E+00
         0.00000E+00
         0.00000E+00
         0.00000E+00
         0.00000E+00
         0.00000E+00
         0.00000E+00
         0.00000E+00
         0.00000E+00
         0.00000E+00
         0.00000E+00
         0.00000E+00
         0.00000E+00
         0.00000E+00
         0.00000E+00
         0.00000E+00
         0.00000E+00
         0.00000E+00
         0.00000E+00
         0.00000E+00
         0.00000E+00
         0.00000E+00
         0.00000E+00
         0.00000E+00
         0.00000E+00
         0.00000E+00
         0.00000E+00
         0.00000E+00
         0.00000E+00
         0.00000E+00
         0.00000E+00
         0.00000E+00
         0.00000E+00
         0.00000E+00
         0.00000E+00
         0.00000E+00
         0.00000E+00
         0.00000E+00
         0.00000E+00
         0.00000E+00
         0.00000E+00
         0.00000E+00
         0.00000E+00
         0.00000E+00
         0.00000E+00
         0.00000E+00
         0.00000E+00
         0.00000E+00
         0.00000E+00
         0.00000E+00
         0.00000E+00
         0.00000E+00
         0.00000E+00
         0.00000E+00
         0.00000E+00
         0.00000E+00
         0.00000E+00
         0.00000E+00
         0.00000E+00
         0.00000E+00
         0.00000E+00
         0.00000E+00
         0.00000E+00
         0.00000E+00
         0.00000E+00
         0.00000E+00
         0.00000E+00
         0.00000E+00
         0.00000E+00
         0.00000E+00
         0.00000E+00
         0.00000E+00
         0.00000E+00
         0.00000E+00
         0.00000E+00
         0.00000E+00
         0.00000E+00
         0.00000E+00
         0.00000E+00
         0.00000E+00
         0.00000E+00
         0.00000E+00
         0.00000E+00
         0.00000E+00
         0.00000E+00
         0.00000E+00
         0.00000E+00
         0.00000E+00
         0.00000E+00
         0.00000E+00
         0.00000E+00
         0.00000E+00
         0.00000E+00
         0.00000E+00
         0.00000E+00
         0.00000E+00
         0.00000E+00
         0.00000E+00
         0.00000E+00
         0.00000E+00
         0.00000E+00
         0.00000E+00
         0.00000E+00
         0.00000E+00
         0.00000E+00
         0.00000E+00
         0.00000E+00
         0.00000E+00
         0.00000E+00
         0.00000E+00
         0.00000E+00
         0.00000E+00
         0.00000E+00
         0.00000E+00
         0.00000E+00
         0.00000E+00
         0.00000E+00
         0.00000E+00
         0.00000E+00
         0.00000E+00
         0.00000E+00
         0.00000E+00
         0.00000E+00
         0.00000E+00
         0.00000E+00
         0.00000E+00
         0.00000E+00
         0.00000E+00
         0.00000E+00
         0.00000E+00
         0.00000E+00
         0.00000E+00
         0.00000E+00
         0.00000E+00
         0.00000E+00
         0.00000E+00
         0.00000E+00
         0.00000E+00
         0.00000E+00
         0.00000E+00
         0.00000E+00
         0.00000E+00
         0.00000E+00
         0.00000E+00
         0.00000E+00
         0.00000E+00
         0.00000E+00
         0.00000E+00
         0.00000E+00
         0.00000E+00
         0.00000E+00
         0.00000E+00
         0.00000E+00
         0.00000E+00
         0.00000E+00
         0.00000E+00
         0.00000E+00
         0.00000E+00
         0.00000E+00
         0.00000E+00
         0.00000E+00
         0.00000E+00
         0.00000E+00
         0.00000E+00
         0.00000E+00
         0.00000E+00
         0.00000E+00
         0.00000E+00
         0.00000E+00
         0.00000E+00
         0.00000E+00
         0.00000E+00
         0.00000E+00
         0.00000E+00
         0.00000E+00
         0.00000E+00
         0.00000E+00
         0.00000E+00
         0.00000E+00
         0.00000E+00
         0.00000E+00
         0.00000E+00
         0.00000E+00
         0.00000E+00
         0.00000E+00
         0.00000E+00
         0.00000E+00
         0.00000E+00
         0.00000E+00
         0.00000E+00
         0.00000E+00
         0.00000E+00
         0.00000E+00
         0.00000E+00
         0.00000E+00
         0.00000E+00
         0.00000E+00
         0.00000E+00
         0.00000E+00
         0.00000E+00
         0.00000E+00
         0.00000E+00
         0.00000E+00
         0.00000E+00
         0.00000E+00
         0.00000E+00
         0.00000E+00
         0.00000E+00
         0.00000E+00
         0.00000E+00
         0.00000E+00
         0.00000E+00
         0.00000E+00
         0.00000E+00
         0.00000E+00
         0.00000E+00
         0.00000E+00
         0.00000E+00
         0.00000E+00
         0.00000E+00
         0.00000E+00
         0.00000E+00
         0.00000E+00
         0.00000E+00
         0.00000E+00
         0.00000E+00
         0.00000E+00
         0.00000E+00
         0.00000E+00
         0.00000E+00
         0.00000E+00
         0.00000E+00
         0.00000E+00
         0.00000E+00
         0.00000E+00
         0.00000E+00
         0.00000E+00
         0.00000E+00
         0.00000E+00
         0.00000E+00
         0.00000E+00
         0.00000E+00
         0.00000E+00
         0.00000E+00
         0.00000E+00
         0.00000E+00
         0.00000E+00
         0.00000E+00
         0.00000E+00
         0.00000E+00
         0.00000E+00
         0.00000E+00
         0.00000E+00
         0.00000E+00
         0.00000E+00
         0.00000E+00
         0.00000E+00
         0.00000E+00
         0.00000E+00
         0.00000E+00
         0.00000E+00
         0.00000E+00
         0.00000E+00
         0.00000E+00
         0.00000E+00
         0.00000E+00
         0.00000E+00
         0.00000E+00
         0.00000E+00
         0.00000E+00
         0.00000E+00
         0.00000E+00
         0.00000E+00
         0.00000E+00
         0.00000E+00
         0.00000E+00
         0.00000E+00
         0.00000E+00
         0.00000E+00
         0.00000E+00
         0.00000E+00
         0.00000E+00
         0.00000E+00
         0.00000E+00
         0.00000E+00
         0.00000E+00
         0.00000E+00
         0.00000E+00
         0.00000E+00
         0.00000E+00
         0.00000E+00
         0.00000E+00
         0.00000E+00
         0.00000E+00
         0.00000E+00
         0.00000E+00
         0.00000E+00
         0.00000E+00
         0.00000E+00
         0.00000E+00
         0.00000E+00
         0.00000E+00
         0.00000E+00
         0.00000E+00
         0.00000E+00
         0.00000E+00
         0.00000E+00
         0.00000E+00
         0.00000E+00
         0.00000E+00
         0.00000E+00
         0.00000E+00
         0.00000E+00
         0.00000E+00
         0.00000E+00
         0.00000E+00
         0.00000E+00
         0.00000E+00
         0.00000E+00
         0.00000E+00
         0.00000E+00
         0.00000E+00
         0.00000E+00
         0.00000E+00
         0.00000E+00
         0.00000E+00
         0.00000E+00
         0.00000E+00
         0.00000E+00
         0.00000E+00
         0.00000E+00
         0.00000E+00
         0.00000E+00
         0.00000E+00
         0.00000E+00
         0.00000E+00
         0.00000E+00
         0.00000E+00
         0.00000E+00
         0.00000E+00
         0.00000E+00
         0.00000E+00
         0.00000E+00
         0.00000E+00
         0.00000E+00
         0.00000E+00
         0.00000E+00
         0.00000E+00
         0.00000E+00
         0.00000E+00
         0.00000E+00
         0.00000E+00
         0.00000E+00
         0.00000E+00
         0.00000E+00
         0.00000E+00
         0.00000E+00
         0.00000E+00
         0.00000E+00
         0.00000E+00
         0.00000E+00
         0.00000E+00
         0.00000E+00
         0.00000E+00
         0.00000E+00
         0.00000E+00
         0.00000E+00
         0.00000E+00
         0.00000E+00
         0.00000E+00
         0.00000E+00
         0.00000E+00
         0.00000E+00
         0.00000E+00
         0.00000E+00
         0.00000E+00
         0.00000E+00
         0.00000E+00
         0.00000E+00
         0.00000E+00
         0.00000E+00
         0.00000E+00
         0.00000E+00
         0.00000E+00
         0.00000E+00
         0.00000E+00
         0.00000E+00
         0.00000E+00
         0.00000E+00
         0.00000E+00
         0.00000E+00
         0.00000E+00
         0.00000E+00
         0.00000E+00
         0.00000E+00
         0.00000E+00
         0.00000E+00
         0.00000E+00
         0.00000E+00
         0.00000E+00
         0.00000E+00
         0.00000E+00
         0.00000E+00
         0.00000E+00
         0.00000E+00
         0.00000E+00
         0.00000E+00
         0.00000E+00
         0.00000E+00
         0.00000E+00
         0.00000E+00
         0.00000E+00
         0.00000E+00
         0.00000E+00
         0.00000E+00
         0.00000E+00
         0.00000E+00
         0.00000E+00
         0.00000E+00
         0.00000E+00
         0.00000E+00
         0.00000E+00
         0.00000E+00
         0.00000E+00
         0.00000E+00
         0.00000E+00
         0.00000E+00
         0.00000E+00
         0.00000E+00
         0.00000E+00
         0.00000E+00
         0.00000E+00
         0.00000E+00
         0.00000E+00
         0.00000E+00
         0.00000E+00
         0.00000E+00
         0.00000E+00
         0.00000E+00
         0.00000E+00
         0.00000E+00
         0.00000E+00
         0.00000E+00
         0.00000E+00
         0.00000E+00
         0.00000E+00
         0.00000E+00
         0.00000E+00
         0.00000E+00
         0.00000E+00
         0.00000E+00
         0.00000E+00
         0.00000E+00
         0.00000E+00
         0.00000E+00
         0.00000E+00
         0.00000E+00
         0.00000E+00
         0.00000E+00
         0.00000E+00
         0.00000E+00
         0.00000E+00
         0.00000E+00
         0.00000E+00
         0.00000E+00
         0.00000E+00
         0.00000E+00
         0.00000E+00
         0.00000E+00
         0.00000E+00
         0.00000E+00
         0.00000E+00
         0.00000E+00
         0.00000E+00
         0.00000E+00
         0.00000E+00
         0.00000E+00
         0.00000E+00
         0.00000E+00
         0.00000E+00
         0.00000E+00
         0.00000E+00
         0.00000E+00
         0.00000E+00
         0.00000E+00
         0.00000E+00
         0.00000E+00
         0.00000E+00
         0.00000E+00
         0.00000E+00
         0.00000E+00
         0.00000E+00
         0.00000E+00
         0.00000E+00
         0.00000E+00
         0.00000E+00
         0.00000E+00
         0.00000E+00
         0.00000E+00
         0.00000E+00
         0.00000E+00
         0.00000E+00
         0.00000E+00
         0.00000E+00
         0.00000E+00
         0.00000E+00
         0.00000E+00
         0.00000E+00
         0.00000E+00
         0.00000E+00
         0.00000E+00
         0.00000E+00
         0.00000E+00
         0.00000E+00
         0.00000E+00
         0.00000E+00
         0.00000E+00
         0.00000E+00
         0.00000E+00
         0.00000E+00
         0.00000E+00
         0.00000E+00
         0.00000E+00
         0.00000E+00
         0.00000E+00
         0.00000E+00
         0.00000E+00
         0.00000E+00
         0.00000E+00
         0.00000E+00
         0.00000E+00
         0.00000E+00
         0.00000E+00
         0.00000E+00
         0.00000E+00
         0.00000E+00
         0.00000E+00
         0.00000E+00
         0.00000E+00
         0.00000E+00
         0.00000E+00
         0.00000E+00
         0.00000E+00
         0.00000E+00
         0.00000E+00
         0.00000E+00
         0.00000E+00
         0.00000E+00
         0.00000E+00
         0.00000E+00
         0.00000E+00
         0.00000E+00
         0.00000E+00
         0.00000E+00
         0.00000E+00
         0.00000E+00
         0.00000E+00
         0.00000E+00
         0.00000E+00
         0.00000E+00
         0.00000E+00
         0.00000E+00
         0.00000E+00
         0.00000E+00
         0.00000E+00
         0.00000E+00
         0.00000E+00
         0.00000E+00
         0.00000E+00
         0.00000E+00
         0.00000E+00
         0.00000E+00
         0.00000E+00
         0.00000E+00
         0.00000E+00
         0.00000E+00
         0.00000E+00
         0.00000E+00
         0.00000E+00
         0.00000E+00
         0.00000E+00
         0.00000E+00
         0.00000E+00
         0.00000E+00
         0.00000E+00
         0.00000E+00
         0.00000E+00
         0.00000E+00
         0.00000E+00
         0.00000E+00
         0.00000E+00
         0.00000E+00
         0.00000E+00
         0.00000E+00
         0.00000E+00
         0.00000E+00
         0.00000E+00
         0.00000E+00
         0.00000E+00
         0.00000E+00
         0.00000E+00
         0.00000E+00
         0.00000E+00
         0.00000E+00
         0.00000E+00
         0.00000E+00
         0.00000E+00
         0.00000E+00
         0.00000E+00
         0.00000E+00
         0.00000E+00
         0.00000E+00
         0.00000E+00
         0.00000E+00
         0.00000E+00
         0.00000E+00
         0.00000E+00
         0.00000E+00
         0.00000E+00
         0.00000E+00
         0.00000E+00
         0.00000E+00
         0.00000E+00
         0.00000E+00
         0.00000E+00
         0.00000E+00
         0.00000E+00
         0.00000E+00
         0.00000E+00
         0.00000E+00
         0.00000E+00
         0.00000E+00
         0.00000E+00
         0.00000E+00
         0.00000E+00
         0.00000E+00
         0.00000E+00
         0.00000E+00
         0.00000E+00
         0.00000E+00
         0.00000E+00
         0.00000E+00
         0.00000E+00
         0.00000E+00
         0.00000E+00
         0.00000E+00
         0.00000E+00
         0.00000E+00
         0.00000E+00
         0.00000E+00
         0.00000E+00
         0.00000E+00
         0.00000E+00
         0.00000E+00
         0.00000E+00
         0.00000E+00
         0.00000E+00
         0.00000E+00
         0.00000E+00
         0.00000E+00
         0.00000E+00
         0.00000E+00
         0.00000E+00
         0.00000E+00
         0.00000E+00
         0.00000E+00
         0.00000E+00
         0.00000E+00
         0.00000E+00
         0.00000E+00
         0.00000E+00
         0.00000E+00
         0.00000E+00
         0.00000E+00
         0.00000E+00
         0.00000E+00
         0.00000E+00
         0.00000E+00
         0.00000E+00
         0.00000E+00
         0.00000E+00
         0.00000E+00
         0.00000E+00
         0.00000E+00
         0.00000E+00
         0.00000E+00
         0.00000E+00
         0.00000E+00
         0.00000E+00
         0.00000E+00
         0.00000E+00
         0.00000E+00
         0.00000E+00
         0.00000E+00
         0.00000E+00
         0.00000E+00
         0.00000E+00
         0.00000E+00
         0.00000E+00
         0.00000E+00
         0.00000E+00
         0.00000E+00
         0.00000E+00
         0.00000E+00
         0.00000E+00
         0.00000E+00
         0.00000E+00
         0.00000E+00
         0.00000E+00
         0.00000E+00
         0.00000E+00
         0.00000E+00
         0.00000E+00
         0.00000E+00
         0.00000E+00
         0.00000E+00
         0.00000E+00
         0.00000E+00
         0.00000E+00
         0.00000E+00
         0.00000E+00
         0.00000E+00
         0.00000E+00
         0.00000E+00
         0.00000E+00
         0.00000E+00
         0.00000E+00
         0.00000E+00
         0.00000E+00
         0.00000E+00
         0.00000E+00
         0.00000E+00
         0.00000E+00
         0.00000E+00
         0.00000E+00
         0.00000E+00
         0.00000E+00
         0.00000E+00
         0.00000E+00
         0.00000E+00
         0.00000E+00
         0.00000E+00
         0.00000E+00
         0.00000E+00
         0.00000E+00
         0.00000E+00
         0.00000E+00
         0.00000E+00
         0.00000E+00
         0.00000E+00
         0.00000E+00
         0.00000E+00
         0.00000E+00
         0.00000E+00
         0.00000E+00
         0.00000E+00
         0.00000E+00
         0.00000E+00
         0.00000E+00
         0.00000E+00
         0.00000E+00
         0.00000E+00
         0.00000E+00
         0.00000E+00
         0.00000E+00
         0.00000E+00
         0.00000E+00
         0.00000E+00
         0.00000E+00
         0.00000E+00
         0.00000E+00
         0.00000E+00
         0.00000E+00
         0.00000E+00
         0.00000E+00
         0.00000E+00
         0.00000E+00
         0.00000E+00
         0.00000E+00
         0.00000E+00
         0.00000E+00
         0.00000E+00
         0.00000E+00
         0.00000E+00
         0.00000E+00
         0.00000E+00
         0.00000E+00
         0.00000E+00
         0.00000E+00
         0.00000E+00
         0.00000E+00
         0.00000E+00
         0.00000E+00
         0.00000E+00
         0.00000E+00
         0.00000E+00
         0.00000E+00
         0.00000E+00
         0.00000E+00
         0.00000E+00
         0.00000E+00
         0.00000E+00
         0.00000E+00
         0.00000E+00
         0.00000E+00
         0.00000E+00
         0.00000E+00
         0.00000E+00
         0.00000E+00
         0.00000E+00
         0.00000E+00
         0.00000E+00
         0.00000E+00
         0.00000E+00
         0.00000E+00
         0.00000E+00
         0.00000E+00
         0.00000E+00
         0.00000E+00
         0.00000E+00
         0.00000E+00
         0.00000E+00
         0.00000E+00
         0.00000E+00
         0.00000E+00
         0.00000E+00
         0.00000E+00
         0.00000E+00
         0.00000E+00
         0.00000E+00
         0.00000E+00
         0.00000E+00
         0.00000E+00
         0.00000E+00
         0.00000E+00
         0.00000E+00
         0.00000E+00
         0.00000E+00
         0.00000E+00
         0.00000E+00
         0.00000E+00
         0.00000E+00
         0.00000E+00
         0.00000E+00
         0.00000E+00
         0.00000E+00
         0.00000E+00
         0.00000E+00
         0.00000E+00
         0.00000E+00
         0.00000E+00
         0.00000E+00
         0.00000E+00
         0.00000E+00
         0.00000E+00
         0.00000E+00
         0.00000E+00
         0.00000E+00
         0.00000E+00
         0.00000E+00
         0.00000E+00
         0.00000E+00
         0.00000E+00
         0.00000E+00
         0.00000E+00
         0.00000E+00
         0.00000E+00
         0.00000E+00
         0.00000E+00
         0.00000E+00
         0.00000E+00
         0.00000E+00
         0.00000E+00
         0.00000E+00
         0.00000E+00
         0.00000E+00
         0.00000E+00
         0.00000E+00
         0.00000E+00
         0.00000E+00
         0.00000E+00
         0.00000E+00
         0.00000E+00
         0.00000E+00
         0.00000E+00
         0.00000E+00
         0.00000E+00
         0.00000E+00
         0.00000E+00
         0.00000E+00
         0.00000E+00
         0.00000E+00
         0.00000E+00
         0.00000E+00
         0.00000E+00
         0.00000E+00
         0.00000E+00
         0.00000E+00
         0.00000E+00
         0.00000E+00
         0.00000E+00
         0.00000E+00
         0.00000E+00
         0.00000E+00
         0.00000E+00
         0.00000E+00
         0.00000E+00
         0.00000E+00
         0.00000E+00
         0.00000E+00
         0.00000E+00
         0.00000E+00
         0.00000E+00
         0.00000E+00
         0.00000E+00
         0.00000E+00
         0.00000E+00
         0.00000E+00
         0.00000E+00
         0.00000E+00
         0.00000E+00
         0.00000E+00
         0.00000E+00
         0.00000E+00
         0.00000E+00
         0.00000E+00
         0.00000E+00
         0.00000E+00
  
SCALARS                      eps_shear  double 1
LOOKUP_TABLE default
         0.00000E+00
         0.00000E+00
         0.00000E+00
         0.00000E+00
         0.00000E+00
         0.00000E+00
         0.00000E+00
         0.00000E+00
         0.00000E+00
         0.00000E+00
         0.00000E+00
         0.00000E+00
         0.00000E+00
         0.00000E+00
         0.00000E+00
         0.00000E+00
         0.00000E+00
         0.00000E+00
         0.00000E+00
         0.00000E+00
         0.00000E+00
         0.00000E+00
         0.00000E+00
         0.00000E+00
         0.00000E+00
         0.00000E+00
         0.00000E+00
         0.00000E+00
         0.00000E+00
         0.00000E+00
         0.00000E+00
         0.00000E+00
         0.00000E+00
         0.00000E+00
         0.00000E+00
         0.00000E+00
         0.00000E+00
         0.00000E+00
         0.00000E+00
         0.00000E+00
         0.00000E+00
         0.00000E+00
         0.00000E+00
         0.00000E+00
         0.00000E+00
         0.00000E+00
         0.00000E+00
         0.00000E+00
         0.00000E+00
         0.00000E+00
         0.00000E+00
         0.00000E+00
         0.00000E+00
         0.00000E+00
         0.00000E+00
         0.00000E+00
         0.00000E+00
         0.00000E+00
         0.00000E+00
         0.00000E+00
         0.00000E+00
         0.00000E+00
         0.00000E+00
         0.00000E+00
         0.00000E+00
         0.00000E+00
         0.00000E+00
         0.00000E+00
         0.00000E+00
         0.00000E+00
         0.00000E+00
         0.00000E+00
         0.00000E+00
         0.00000E+00
         0.00000E+00
         0.00000E+00
         0.00000E+00
         0.00000E+00
         0.00000E+00
         0.00000E+00
         0.00000E+00
         0.00000E+00
         0.00000E+00
         0.00000E+00
         0.00000E+00
         0.00000E+00
         0.00000E+00
         0.00000E+00
         0.00000E+00
         0.00000E+00
         0.00000E+00
         0.00000E+00
         0.00000E+00
         0.00000E+00
         0.00000E+00
         0.00000E+00
         0.00000E+00
         0.00000E+00
         0.00000E+00
         0.00000E+00
         0.00000E+00
         0.00000E+00
         0.00000E+00
         0.00000E+00
         0.00000E+00
         0.00000E+00
         0.00000E+00
         0.00000E+00
         0.00000E+00
         0.00000E+00
         0.00000E+00
         0.00000E+00
         0.00000E+00
         0.00000E+00
         0.00000E+00
         0.00000E+00
         0.00000E+00
         0.00000E+00
         0.00000E+00
         0.00000E+00
         0.00000E+00
         0.00000E+00
         0.00000E+00
         0.00000E+00
         0.00000E+00
         0.00000E+00
         0.00000E+00
         0.00000E+00
         0.00000E+00
         0.00000E+00
         0.00000E+00
         0.00000E+00
         0.00000E+00
         0.00000E+00
         0.00000E+00
         0.00000E+00
         0.00000E+00
         0.00000E+00
         0.00000E+00
         0.00000E+00
         0.00000E+00
         0.00000E+00
         0.00000E+00
         0.00000E+00
         0.00000E+00
         0.00000E+00
         0.00000E+00
         0.00000E+00
         0.00000E+00
         0.00000E+00
         0.00000E+00
         0.00000E+00
         0.00000E+00
         0.00000E+00
         0.00000E+00
         0.00000E+00
         0.00000E+00
         0.00000E+00
         0.00000E+00
         0.00000E+00
         0.00000E+00
         0.00000E+00
         0.00000E+00
         0.00000E+00
         0.00000E+00
         0.00000E+00
         0.00000E+00
         0.00000E+00
         0.00000E+00
         0.00000E+00
         0.00000E+00
         0.00000E+00
         0.00000E+00
         0.00000E+00
         0.00000E+00
         0.00000E+00
         0.00000E+00
         0.00000E+00
         0.00000E+00
         0.00000E+00
         0.00000E+00
         0.00000E+00
         0.00000E+00
         0.00000E+00
         0.00000E+00
         0.00000E+00
         0.00000E+00
         0.00000E+00
         0.00000E+00
         0.00000E+00
         0.00000E+00
         0.00000E+00
         0.00000E+00
         0.00000E+00
         0.00000E+00
         0.00000E+00
         0.00000E+00
         0.00000E+00
         0.00000E+00
         0.00000E+00
         0.00000E+00
         0.00000E+00
         0.00000E+00
         0.00000E+00
         0.00000E+00
         0.00000E+00
         0.00000E+00
         0.00000E+00
         0.00000E+00
         0.00000E+00
         0.00000E+00
         0.00000E+00
         0.00000E+00
         0.00000E+00
         0.00000E+00
         0.00000E+00
         0.00000E+00
         0.00000E+00
         0.00000E+00
         0.00000E+00
         0.00000E+00
         0.00000E+00
         0.00000E+00
         0.00000E+00
         0.00000E+00
         0.00000E+00
         0.00000E+00
         0.00000E+00
         0.00000E+00
         0.00000E+00
         0.00000E+00
         0.00000E+00
         0.00000E+00
         0.00000E+00
         0.00000E+00
         0.00000E+00
         0.00000E+00
         0.00000E+00
         0.00000E+00
         0.00000E+00
         0.00000E+00
         0.00000E+00
         0.00000E+00
         0.00000E+00
         0.00000E+00
         0.00000E+00
         0.00000E+00
         0.00000E+00
         0.00000E+00
         0.00000E+00
         0.00000E+00
         0.00000E+00
         0.00000E+00
         0.00000E+00
         0.00000E+00
         0.00000E+00
         0.00000E+00
         0.00000E+00
         0.00000E+00
         0.00000E+00
         0.00000E+00
         0.00000E+00
         0.00000E+00
         0.00000E+00
         0.00000E+00
         0.00000E+00
         0.00000E+00
         0.00000E+00
         0.00000E+00
         0.00000E+00
         0.00000E+00
         0.00000E+00
         0.00000E+00
         0.00000E+00
         0.00000E+00
         0.00000E+00
         0.00000E+00
         0.00000E+00
         0.00000E+00
         0.00000E+00
         0.00000E+00
         0.00000E+00
         0.00000E+00
         0.00000E+00
         0.00000E+00
         0.00000E+00
         0.00000E+00
         0.00000E+00
         0.00000E+00
         0.00000E+00
         0.00000E+00
         0.00000E+00
         0.00000E+00
         0.00000E+00
         0.00000E+00
         0.00000E+00
         0.00000E+00
         0.00000E+00
         0.00000E+00
         0.00000E+00
         0.00000E+00
         0.00000E+00
         0.00000E+00
         0.00000E+00
         0.00000E+00
         0.00000E+00
         0.00000E+00
         0.00000E+00
         0.00000E+00
         0.00000E+00
         0.00000E+00
         0.00000E+00
         0.00000E+00
         0.00000E+00
         0.00000E+00
         0.00000E+00
         0.00000E+00
         0.00000E+00
         0.00000E+00
         0.00000E+00
         0.00000E+00
         0.00000E+00
         0.00000E+00
         0.00000E+00
         0.00000E+00
         0.00000E+00
         0.00000E+00
         0.00000E+00
         0.00000E+00
         0.00000E+00
         0.00000E+00
         0.00000E+00
         0.00000E+00
         0.00000E+00
         0.00000E+00
         0.00000E+00
         0.00000E+00
         0.00000E+00
         0.00000E+00
         0.00000E+00
         0.00000E+00
         0.00000E+00
         0.00000E+00
         0.00000E+00
         0.00000E+00
         0.00000E+00
         0.00000E+00
         0.00000E+00
         0.00000E+00
         0.00000E+00
         0.00000E+00
         0.00000E+00
         0.00000E+00
         0.00000E+00
         0.00000E+00
         0.00000E+00
         0.00000E+00
         0.00000E+00
         0.00000E+00
         0.00000E+00
         0.00000E+00
         0.00000E+00
         0.00000E+00
         0.00000E+00
         0.00000E+00
         0.00000E+00
         0.00000E+00
         0.00000E+00
         0.00000E+00
         0.00000E+00
         0.00000E+00
         0.00000E+00
         0.00000E+00
         0.00000E+00
         0.00000E+00
         0.00000E+00
         0.00000E+00
         0.00000E+00
         0.00000E+00
         0.00000E+00
         0.00000E+00
         0.00000E+00
         0.00000E+00
         0.00000E+00
         0.00000E+00
         0.00000E+00
         0.00000E+00
         0.00000E+00
         0.00000E+00
         0.00000E+00
         0.00000E+00
         0.00000E+00
         0.00000E+00
         0.00000E+00
         0.00000E+00
         0.00000E+00
         0.00000E+00
         0.00000E+00
         0.00000E+00
         0.00000E+00
         0.00000E+00
         0.00000E+00
         0.00000E+00
         0.00000E+00
         0.00000E+00
         0.00000E+00
         0.00000E+00
         0.00000E+00
         0.00000E+00
         0.00000E+00
         0.00000E+00
         0.00000E+00
         0.00000E+00
         0.00000E+00
         0.00000E+00
         0.00000E+00
         0.00000E+00
         0.00000E+00
         0.00000E+00
         0.00000E+00
         0.00000E+00
         0.00000E+00
         0.00000E+00
         0.00000E+00
         0.00000E+00
         0.00000E+00
         0.00000E+00
         0.00000E+00
         0.00000E+00
         0.00000E+00
         0.00000E+00
         0.00000E+00
         0.00000E+00
         0.00000E+00
         0.00000E+00
         0.00000E+00
         0.00000E+00
         0.00000E+00
         0.00000E+00
         0.00000E+00
         0.00000E+00
         0.00000E+00
         0.00000E+00
         0.00000E+00
         0.00000E+00
         0.00000E+00
         0.00000E+00
         0.00000E+00
         0.00000E+00
         0.00000E+00
         0.00000E+00
         0.00000E+00
         0.00000E+00
         0.00000E+00
         0.00000E+00
         0.00000E+00
         0.00000E+00
         0.00000E+00
         0.00000E+00
         0.00000E+00
         0.00000E+00
         0.00000E+00
         0.00000E+00
         0.00000E+00
         0.00000E+00
         0.00000E+00
         0.00000E+00
         0.00000E+00
         0.00000E+00
         0.00000E+00
         0.00000E+00
         0.00000E+00
         0.00000E+00
         0.00000E+00
         0.00000E+00
         0.00000E+00
         0.00000E+00
         0.00000E+00
         0.00000E+00
         0.00000E+00
         0.00000E+00
         0.00000E+00
         0.00000E+00
         0.00000E+00
         0.00000E+00
         0.00000E+00
         0.00000E+00
         0.00000E+00
         0.00000E+00
         0.00000E+00
         0.00000E+00
         0.00000E+00
         0.00000E+00
         0.00000E+00
         0.00000E+00
         0.00000E+00
         0.00000E+00
         0.00000E+00
         0.00000E+00
         0.00000E+00
         0.00000E+00
         0.00000E+00
         0.00000E+00
         0.00000E+00
         0.00000E+00
         0.00000E+00
         0.00000E+00
         0.00000E+00
         0.00000E+00
         0.00000E+00
         0.00000E+00
         0.00000E+00
         0.00000E+00
         0.00000E+00
         0.00000E+00
         0.00000E+00
         0.00000E+00
         0.00000E+00
         0.00000E+00
         0.00000E+00
         0.00000E+00
         0.00000E+00
         0.00000E+00
         0.00000E+00
         0.00000E+00
         0.00000E+00
         0.00000E+00
         0.00000E+00
         0.00000E+00
         0.00000E+00
         0.00000E+00
         0.00000E+00
         0.00000E+00
         0.00000E+00
         0.00000E+00
         0.00000E+00
         0.00000E+00
         0.00000E+00
         0.00000E+00
         0.00000E+00
         0.00000E+00
         0.00000E+00
         0.00000E+00
         0.00000E+00
         0.00000E+00
         0.00000E+00
         0.00000E+00
         0.00000E+00
         0.00000E+00
         0.00000E+00
         0.00000E+00
         0.00000E+00
         0.00000E+00
         0.00000E+00
         0.00000E+00
         0.00000E+00
         0.00000E+00
         0.00000E+00
         0.00000E+00
         0.00000E+00
         0.00000E+00
         0.00000E+00
         0.00000E+00
         0.00000E+00
         0.00000E+00
         0.00000E+00
         0.00000E+00
         0.00000E+00
         0.00000E+00
         0.00000E+00
         0.00000E+00
         0.00000E+00
         0.00000E+00
         0.00000E+00
         0.00000E+00
         0.00000E+00
         0.00000E+00
         0.00000E+00
         0.00000E+00
         0.00000E+00
         0.00000E+00
         0.00000E+00
         0.00000E+00
         0.00000E+00
         0.00000E+00
         0.00000E+00
         0.00000E+00
         0.00000E+00
         0.00000E+00
         0.00000E+00
         0.00000E+00
         0.00000E+00
         0.00000E+00
         0.00000E+00
         0.00000E+00
         0.00000E+00
         0.00000E+00
         0.00000E+00
         0.00000E+00
         0.00000E+00
         0.00000E+00
         0.00000E+00
         0.00000E+00
         0.00000E+00
         0.00000E+00
         0.00000E+00
         0.00000E+00
         0.00000E+00
         0.00000E+00
         0.00000E+00
         0.00000E+00
         0.00000E+00
         0.00000E+00
         0.00000E+00
         0.00000E+00
         0.00000E+00
         0.00000E+00
         0.00000E+00
         0.00000E+00
         0.00000E+00
         0.00000E+00
         0.00000E+00
         0.00000E+00
         0.00000E+00
         0.00000E+00
         0.00000E+00
         0.00000E+00
         0.00000E+00
         0.00000E+00
         0.00000E+00
         0.00000E+00
         0.00000E+00
         0.00000E+00
         0.00000E+00
         0.00000E+00
         0.00000E+00
         0.00000E+00
         0.00000E+00
         0.00000E+00
         0.00000E+00
         0.00000E+00
         0.00000E+00
         0.00000E+00
         0.00000E+00
         0.00000E+00
         0.00000E+00
         0.00000E+00
         0.00000E+00
         0.00000E+00
         0.00000E+00
         0.00000E+00
         0.00000E+00
         0.00000E+00
         0.00000E+00
         0.00000E+00
         0.00000E+00
         0.00000E+00
         0.00000E+00
         0.00000E+00
         0.00000E+00
         0.00000E+00
         0.00000E+00
         0.00000E+00
         0.00000E+00
         0.00000E+00
         0.00000E+00
         0.00000E+00
         0.00000E+00
         0.00000E+00
         0.00000E+00
         0.00000E+00
         0.00000E+00
         0.00000E+00
         0.00000E+00
         0.00000E+00
         0.00000E+00
         0.00000E+00
         0.00000E+00
         0.00000E+00
         0.00000E+00
         0.00000E+00
         0.00000E+00
         0.00000E+00
         0.00000E+00
         0.00000E+00
         0.00000E+00
         0.00000E+00
         0.00000E+00
         0.00000E+00
         0.00000E+00
         0.00000E+00
         0.00000E+00
         0.00000E+00
         0.00000E+00
         0.00000E+00
         0.00000E+00
         0.00000E+00
         0.00000E+00
         0.00000E+00
         0.00000E+00
         0.00000E+00
         0.00000E+00
         0.00000E+00
         0.00000E+00
         0.00000E+00
         0.00000E+00
         0.00000E+00
         0.00000E+00
         0.00000E+00
         0.00000E+00
         0.00000E+00
         0.00000E+00
         0.00000E+00
         0.00000E+00
         0.00000E+00
         0.00000E+00
         0.00000E+00
         0.00000E+00
         0.00000E+00
         0.00000E+00
         0.00000E+00
         0.00000E+00
         0.00000E+00
         0.00000E+00
         0.00000E+00
         0.00000E+00
         0.00000E+00
         0.00000E+00
         0.00000E+00
         0.00000E+00
         0.00000E+00
         0.00000E+00
         0.00000E+00
         0.00000E+00
         0.00000E+00
         0.00000E+00
         0.00000E+00
         0.00000E+00
         0.00000E+00
         0.00000E+00
         0.00000E+00
         0.00000E+00
         0.00000E+00
         0.00000E+00
         0.00000E+00
         0.00000E+00
         0.00000E+00
         0.00000E+00
         0.00000E+00
         0.00000E+00
         0.00000E+00
         0.00000E+00
         0.00000E+00
         0.00000E+00
         0.00000E+00
         0.00000E+00
         0.00000E+00
         0.00000E+00
         0.00000E+00
         0.00000E+00
         0.00000E+00
         0.00000E+00
         0.00000E+00
         0.00000E+00
         0.00000E+00
         0.00000E+00
         0.00000E+00
         0.00000E+00
         0.00000E+00
         0.00000E+00
         0.00000E+00
         0.00000E+00
         0.00000E+00
         0.00000E+00
         0.00000E+00
         0.00000E+00
         0.00000E+00
         0.00000E+00
         0.00000E+00
         0.00000E+00
         0.00000E+00
         0.00000E+00
         0.00000E+00
         0.00000E+00
         0.00000E+00
         0.00000E+00
         0.00000E+00
         0.00000E+00
         0.00000E+00
         0.00000E+00
         0.00000E+00
         0.00000E+00
         0.00000E+00
         0.00000E+00
         0.00000E+00
         0.00000E+00
         0.00000E+00
         0.00000E+00
         0.00000E+00
         0.00000E+00
         0.00000E+00
         0.00000E+00
         0.00000E+00
         0.00000E+00
         0.00000E+00
         0.00000E+00
         0.00000E+00
         0.00000E+00
         0.00000E+00
         0.00000E+00
         0.00000E+00
         0.00000E+00
         0.00000E+00
         0.00000E+00
         0.00000E+00
         0.00000E+00
         0.00000E+00
         0.00000E+00
         0.00000E+00
         0.00000E+00
         0.00000E+00
         0.00000E+00
         0.00000E+00
         0.00000E+00
         0.00000E+00
         0.00000E+00
         0.00000E+00
         0.00000E+00
         0.00000E+00
         0.00000E+00
         0.00000E+00
         0.00000E+00
         0.00000E+00
         0.00000E+00
         0.00000E+00
         0.00000E+00
         0.00000E+00
         0.00000E+00
         0.00000E+00
         0.00000E+00
         0.00000E+00
         0.00000E+00
         0.00000E+00
         0.00000E+00
         0.00000E+00
         0.00000E+00
         0.00000E+00
         0.00000E+00
         0.00000E+00
         0.00000E+00
         0.00000E+00
         0.00000E+00
         0.00000E+00
         0.00000E+00
         0.00000E+00
         0.00000E+00
         0.00000E+00
         0.00000E+00
         0.00000E+00
         0.00000E+00
         0.00000E+00
         0.00000E+00
         0.00000E+00
         0.00000E+00
         0.00000E+00
         0.00000E+00
         0.00000E+00
         0.00000E+00
         0.00000E+00
         0.00000E+00
         0.00000E+00
         0.00000E+00
         0.00000E+00
         0.00000E+00
         0.00000E+00
         0.00000E+00
         0.00000E+00
         0.00000E+00
         0.00000E+00
         0.00000E+00
         0.00000E+00
         0.00000E+00
         0.00000E+00
         0.00000E+00
         0.00000E+00
         0.00000E+00
         0.00000E+00
         0.00000E+00
         0.00000E+00
         0.00000E+00
         0.00000E+00
         0.00000E+00
         0.00000E+00
         0.00000E+00
         0.00000E+00
         0.00000E+00
         0.00000E+00
         0.00000E+00
         0.00000E+00
         0.00000E+00
         0.00000E+00
         0.00000E+00
         0.00000E+00
         0.00000E+00
         0.00000E+00
         0.00000E+00
         0.00000E+00
         0.00000E+00
         0.00000E+00
         0.00000E+00
         0.00000E+00
         0.00000E+00
         0.00000E+00
         0.00000E+00
         0.00000E+00
         0.00000E+00
         0.00000E+00
         0.00000E+00
         0.00000E+00
         0.00000E+00
         0.00000E+00
         0.00000E+00
         0.00000E+00
         0.00000E+00
         0.00000E+00
         0.00000E+00
         0.00000E+00
         0.00000E+00
         0.00000E+00
         0.00000E+00
         0.00000E+00
         0.00000E+00
         0.00000E+00
         0.00000E+00
         0.00000E+00
         0.00000E+00
         0.00000E+00
         0.00000E+00
         0.00000E+00
         0.00000E+00
         0.00000E+00
         0.00000E+00
         0.00000E+00
         0.00000E+00
         0.00000E+00
         0.00000E+00
         0.00000E+00
         0.00000E+00
         0.00000E+00
         0.00000E+00
         0.00000E+00
         0.00000E+00
         0.00000E+00
         0.00000E+00
         0.00000E+00
         0.00000E+00
         0.00000E+00
         0.00000E+00
         0.00000E+00
         0.00000E+00
         0.00000E+00
         0.00000E+00
         0.00000E+00
         0.00000E+00
         0.00000E+00
         0.00000E+00
         0.00000E+00
         0.00000E+00
         0.00000E+00
         0.00000E+00
         0.00000E+00
         0.00000E+00
         0.00000E+00
         0.00000E+00
         0.00000E+00
         0.00000E+00
         0.00000E+00
         0.00000E+00
         0.00000E+00
         0.00000E+00
         0.00000E+00
         0.00000E+00
         0.00000E+00
         0.00000E+00
         0.00000E+00
         0.00000E+00
         0.00000E+00
         0.00000E+00
         0.00000E+00
         0.00000E+00
         0.00000E+00
         0.00000E+00
         0.00000E+00
         0.00000E+00
         0.00000E+00
         0.00000E+00
         0.00000E+00
         0.00000E+00
         0.00000E+00
         0.00000E+00
         0.00000E+00
         0.00000E+00
         0.00000E+00
         0.00000E+00
         0.00000E+00
         0.00000E+00
         0.00000E+00
         0.00000E+00
         0.00000E+00
         0.00000E+00
         0.00000E+00
         0.00000E+00
         0.00000E+00
         0.00000E+00
         0.00000E+00
         0.00000E+00
         0.00000E+00
         0.00000E+00
         0.00000E+00
         0.00000E+00
         0.00000E+00
         0.00000E+00
         0.00000E+00
         0.00000E+00
         0.00000E+00
         0.00000E+00
         0.00000E+00
         0.00000E+00
         0.00000E+00
         0.00000E+00
         0.00000E+00
         0.00000E+00
         0.00000E+00
         0.00000E+00
         0.00000E+00
         0.00000E+00
         0.00000E+00
         0.00000E+00
         0.00000E+00
         0.00000E+00
         0.00000E+00
         0.00000E+00
         0.00000E+00
         0.00000E+00
         0.00000E+00
         0.00000E+00
         0.00000E+00
         0.00000E+00
         0.00000E+00
         0.00000E+00
         0.00000E+00
         0.00000E+00
         0.00000E+00
         0.00000E+00
         0.00000E+00
         0.00000E+00
         0.00000E+00
         0.00000E+00
         0.00000E+00
         0.00000E+00
         0.00000E+00
         0.00000E+00
         0.00000E+00
         0.00000E+00
         0.00000E+00
         0.00000E+00
         0.00000E+00
         0.00000E+00
         0.00000E+00
         0.00000E+00
         0.00000E+00
         0.00000E+00
         0.00000E+00
         0.00000E+00
         0.00000E+00
         0.00000E+00
         0.00000E+00
         0.00000E+00
         0.00000E+00
         0.00000E+00
         0.00000E+00
         0.00000E+00
         0.00000E+00
         0.00000E+00
         0.00000E+00
         0.00000E+00
         0.00000E+00
         0.00000E+00
         0.00000E+00
         0.00000E+00
         0.00000E+00
         0.00000E+00
         0.00000E+00
         0.00000E+00
         0.00000E+00
         0.00000E+00
         0.00000E+00
         0.00000E+00
         0.00000E+00
         0.00000E+00
         0.00000E+00
         0.00000E+00
         0.00000E+00
         0.00000E+00
         0.00000E+00
         0.00000E+00
         0.00000E+00
         0.00000E+00
         0.00000E+00
         0.00000E+00
         0.00000E+00
         0.00000E+00
         0.00000E+00
         0.00000E+00
         0.00000E+00
         0.00000E+00
         0.00000E+00
         0.00000E+00
         0.00000E+00
         0.00000E+00
         0.00000E+00
         0.00000E+00
         0.00000E+00
         0.00000E+00
         0.00000E+00
         0.00000E+00
         0.00000E+00
         0.00000E+00
         0.00000E+00
         0.00000E+00
         0.00000E+00
         0.00000E+00
         0.00000E+00
         0.00000E+00
         0.00000E+00
         0.00000E+00
         0.00000E+00
         0.00000E+00
         0.00000E+00
         0.00000E+00
         0.00000E+00
         0.00000E+00
         0.00000E+00
         0.00000E+00
         0.00000E+00
         0.00000E+00
         0.00000E+00
         0.00000E+00
         0.00000E+00
         0.00000E+00
         0.00000E+00
         0.00000E+00
         0.00000E+00
         0.00000E+00
         0.00000E+00
         0.00000E+00
         0.00000E+00
         0.00000E+00
         0.00000E+00
         0.00000E+00
         0.00000E+00
         0.00000E+00
         0.00000E+00
         0.00000E+00
         0.00000E+00
         0.00000E+00
         0.00000E+00
         0.00000E+00
         0.00000E+00
         0.00000E+00
         0.00000E+00
         0.00000E+00
         0.00000E+00
         0.00000E+00
         0.00000E+00
         0.00000E+00
         0.00000E+00
         0.00000E+00
         0.00000E+00
         0.00000E+00
         0.00000E+00
         0.00000E+00
         0.00000E+00
         0.00000E+00
         0.00000E+00
         0.00000E+00
         0.00000E+00
         0.00000E+00
         0.00000E+00
         0.00000E+00
         0.00000E+00
         0.00000E+00
         0.00000E+00
         0.00000E+00
         0.00000E+00
         0.00000E+00
         0.00000E+00
         0.00000E+00
         0.00000E+00
         0.00000E+00
         0.00000E+00
         0.00000E+00
         0.00000E+00
         0.00000E+00
         0.00000E+00
         0.00000E+00
         0.00000E+00
         0.00000E+00
         0.00000E+00
         0.00000E+00
         0.00000E+00
         0.00000E+00
         0.00000E+00
         0.00000E+00
         0.00000E+00
         0.00000E+00
         0.00000E+00
         0.00000E+00
         0.00000E+00
         0.00000E+00
         0.00000E+00
         0.00000E+00
         0.00000E+00
         0.00000E+00
         0.00000E+00
         0.00000E+00
         0.00000E+00
         0.00000E+00
         0.00000E+00
         0.00000E+00
         0.00000E+00
         0.00000E+00
         0.00000E+00
         0.00000E+00
         0.00000E+00
         0.00000E+00
         0.00000E+00
         0.00000E+00
         0.00000E+00
         0.00000E+00
         0.00000E+00
         0.00000E+00
         0.00000E+00
         0.00000E+00
         0.00000E+00
         0.00000E+00
         0.00000E+00
         0.00000E+00
         0.00000E+00
         0.00000E+00
         0.00000E+00
         0.00000E+00
         0.00000E+00
         0.00000E+00
         0.00000E+00
         0.00000E+00
         0.00000E+00
         0.00000E+00
         0.00000E+00
         0.00000E+00
         0.00000E+00
         0.00000E+00
         0.00000E+00
         0.00000E+00
         0.00000E+00
         0.00000E+00
         0.00000E+00
         0.00000E+00
         0.00000E+00
         0.00000E+00
         0.00000E+00
         0.00000E+00
         0.00000E+00
         0.00000E+00
         0.00000E+00
         0.00000E+00
         0.00000E+00
         0.00000E+00
         0.00000E+00
         0.00000E+00
         0.00000E+00
         0.00000E+00
         0.00000E+00
         0.00000E+00
         0.00000E+00
         0.00000E+00
         0.00000E+00
         0.00000E+00
         0.00000E+00
         0.00000E+00
         0.00000E+00
         0.00000E+00
         0.00000E+00
         0.00000E+00
         0.00000E+00
         0.00000E+00
         0.00000E+00
         0.00000E+00
         0.00000E+00
         0.00000E+00
         0.00000E+00
         0.00000E+00
         0.00000E+00
         0.00000E+00
         0.00000E+00
         0.00000E+00
         0.00000E+00
         0.00000E+00
         0.00000E+00
         0.00000E+00
         0.00000E+00
         0.00000E+00
         0.00000E+00
         0.00000E+00
         0.00000E+00
         0.00000E+00
         0.00000E+00
         0.00000E+00
         0.00000E+00
         0.00000E+00
         0.00000E+00
         0.00000E+00
         0.00000E+00
         0.00000E+00
         0.00000E+00
         0.00000E+00
         0.00000E+00
         0.00000E+00
         0.00000E+00
         0.00000E+00
         0.00000E+00
         0.00000E+00
         0.00000E+00
         0.00000E+00
         0.00000E+00
         0.00000E+00
         0.00000E+00
         0.00000E+00
         0.00000E+00
         0.00000E+00
         0.00000E+00
         0.00000E+00
         0.00000E+00
         0.00000E+00
         0.00000E+00
         0.00000E+00
         0.00000E+00
         0.00000E+00
         0.00000E+00
         0.00000E+00
         0.00000E+00
         0.00000E+00
         0.00000E+00
         0.00000E+00
         0.00000E+00
         0.00000E+00
         0.00000E+00
         0.00000E+00
         0.00000E+00
         0.00000E+00
         0.00000E+00
         0.00000E+00
         0.00000E+00
         0.00000E+00
         0.00000E+00
         0.00000E+00
         0.00000E+00
         0.00000E+00
         0.00000E+00
         0.00000E+00
         0.00000E+00
         0.00000E+00
         0.00000E+00
         0.00000E+00
         0.00000E+00
         0.00000E+00
         0.00000E+00
         0.00000E+00
         0.00000E+00
         0.00000E+00
         0.00000E+00
         0.00000E+00
         0.00000E+00
         0.00000E+00
         0.00000E+00
         0.00000E+00
         0.00000E+00
         0.00000E+00
         0.00000E+00
         0.00000E+00
         0.00000E+00
         0.00000E+00
         0.00000E+00
         0.00000E+00
         0.00000E+00
         0.00000E+00
         0.00000E+00
         0.00000E+00
         0.00000E+00
         0.00000E+00
         0.00000E+00
         0.00000E+00
         0.00000E+00
         0.00000E+00
         0.00000E+00
         0.00000E+00
         0.00000E+00
         0.00000E+00
         0.00000E+00
         0.00000E+00
         0.00000E+00
         0.00000E+00
         0.00000E+00
         0.00000E+00
         0.00000E+00
         0.00000E+00
         0.00000E+00
         0.00000E+00
         0.00000E+00
         0.00000E+00
         0.00000E+00
         0.00000E+00
         0.00000E+00
         0.00000E+00
         0.00000E+00
         0.00000E+00
         0.00000E+00
         0.00000E+00
         0.00000E+00
         0.00000E+00
         0.00000E+00
         0.00000E+00
         0.00000E+00
         0.00000E+00
         0.00000E+00
         0.00000E+00
         0.00000E+00
         0.00000E+00
         0.00000E+00
         0.00000E+00
         0.00000E+00
         0.00000E+00
         0.00000E+00
         0.00000E+00
         0.00000E+00
         0.00000E+00
         0.00000E+00
         0.00000E+00
         0.00000E+00
         0.00000E+00
         0.00000E+00
         0.00000E+00
         0.00000E+00
         0.00000E+00
         0.00000E+00
         0.00000E+00
         0.00000E+00
         0.00000E+00
         0.00000E+00
         0.00000E+00
         0.00000E+00
         0.00000E+00
         0.00000E+00
         0.00000E+00
         0.00000E+00
         0.00000E+00
         0.00000E+00
         0.00000E+00
         0.00000E+00
         0.00000E+00
         0.00000E+00
         0.00000E+00
         0.00000E+00
         0.00000E+00
         0.00000E+00
         0.00000E+00
         0.00000E+00
         0.00000E+00
         0.00000E+00
         0.00000E+00
         0.00000E+00
         0.00000E+00
         0.00000E+00
         0.00000E+00
         0.00000E+00
         0.00000E+00
         0.00000E+00
         0.00000E+00
         0.00000E+00
         0.00000E+00
         0.00000E+00
         0.00000E+00
         0.00000E+00
         0.00000E+00
         0.00000E+00
         0.00000E+00
         0.00000E+00
         0.00000E+00
         0.00000E+00
         0.00000E+00
         0.00000E+00
         0.00000E+00
         0.00000E+00
         0.00000E+00
         0.00000E+00
         0.00000E+00
         0.00000E+00
         0.00000E+00
         0.00000E+00
         0.00000E+00
         0.00000E+00
         0.00000E+00
         0.00000E+00
         0.00000E+00
         0.00000E+00
         0.00000E+00
         0.00000E+00
         0.00000E+00
         0.00000E+00
         0.00000E+00
         0.00000E+00
         0.00000E+00
         0.00000E+00
         0.00000E+00
         0.00000E+00
         0.00000E+00
         0.00000E+00
         0.00000E+00
         0.00000E+00
         0.00000E+00
         0.00000E+00
         0.00000E+00
         0.00000E+00
         0.00000E+00
         0.00000E+00
         0.00000E+00
         0.00000E+00
         0.00000E+00
         0.00000E+00
         0.00000E+00
         0.00000E+00
         0.00000E+00
         0.00000E+00
         0.00000E+00
         0.00000E+00
         0.00000E+00
         0.00000E+00
         0.00000E+00
         0.00000E+00
         0.00000E+00
         0.00000E+00
         0.00000E+00
         0.00000E+00
         0.00000E+00
         0.00000E+00
         0.00000E+00
         0.00000E+00
         0.00000E+00
         0.00000E+00
         0.00000E+00
         0.00000E+00
         0.00000E+00
         0.00000E+00
         0.00000E+00
         0.00000E+00
         0.00000E+00
         0.00000E+00
         0.00000E+00
         0.00000E+00
         0.00000E+00
         0.00000E+00
         0.00000E+00
         0.00000E+00
         0.00000E+00
         0.00000E+00
         0.00000E+00
         0.00000E+00
         0.00000E+00
         0.00000E+00
         0.00000E+00
         0.00000E+00
         0.00000E+00
         0.00000E+00
         0.00000E+00
         0.00000E+00
         0.00000E+00
         0.00000E+00
         0.00000E+00
         0.00000E+00
         0.00000E+00
         0.00000E+00
         0.00000E+00
         0.00000E+00
         0.00000E+00
         0.00000E+00
         0.00000E+00
         0.00000E+00
         0.00000E+00
         0.00000E+00
         0.00000E+00
         0.00000E+00
         0.00000E+00
         0.00000E+00
         0.00000E+00
         0.00000E+00
         0.00000E+00
         0.00000E+00
         0.00000E+00
         0.00000E+00
         0.00000E+00
         0.00000E+00
         0.00000E+00
         0.00000E+00
         0.00000E+00
         0.00000E+00
         0.00000E+00
         0.00000E+00
         0.00000E+00
         0.00000E+00
         0.00000E+00
         0.00000E+00
         0.00000E+00
         0.00000E+00
         0.00000E+00
         0.00000E+00
         0.00000E+00
         0.00000E+00
         0.00000E+00
         0.00000E+00
         0.00000E+00
         0.00000E+00
         0.00000E+00
         0.00000E+00
         0.00000E+00
         0.00000E+00
         0.00000E+00
         0.00000E+00
         0.00000E+00
         0.00000E+00
         0.00000E+00
         0.00000E+00
         0.00000E+00
         0.00000E+00
         0.00000E+00
         0.00000E+00
         0.00000E+00
         0.00000E+00
         0.00000E+00
         0.00000E+00
         0.00000E+00
         0.00000E+00
         0.00000E+00
         0.00000E+00
         0.00000E+00
         0.00000E+00
         0.00000E+00
         0.00000E+00
         0.00000E+00
         0.00000E+00
         0.00000E+00
         0.00000E+00
         0.00000E+00
         0.00000E+00
         0.00000E+00
         0.00000E+00
         0.00000E+00
         0.00000E+00
         0.00000E+00
         0.00000E+00
         0.00000E+00
         0.00000E+00
         0.00000E+00
         0.00000E+00
         0.00000E+00
         0.00000E+00
         0.00000E+00
         0.00000E+00
         0.00000E+00
         0.00000E+00
         0.00000E+00
         0.00000E+00
         0.00000E+00
         0.00000E+00
         0.00000E+00
         0.00000E+00
         0.00000E+00
         0.00000E+00
         0.00000E+00
         0.00000E+00
         0.00000E+00
         0.00000E+00
         0.00000E+00
         0.00000E+00
         0.00000E+00
         0.00000E+00
         0.00000E+00
         0.00000E+00
         0.00000E+00
         0.00000E+00
         0.00000E+00
         0.00000E+00
         0.00000E+00
         0.00000E+00
         0.00000E+00
         0.00000E+00
         0.00000E+00
         0.00000E+00
         0.00000E+00
         0.00000E+00
         0.00000E+00
         0.00000E+00
         0.00000E+00
         0.00000E+00
         0.00000E+00
         0.00000E+00
         0.00000E+00
         0.00000E+00
         0.00000E+00
         0.00000E+00
         0.00000E+00
         0.00000E+00
         0.00000E+00
         0.00000E+00
         0.00000E+00
         0.00000E+00
         0.00000E+00
         0.00000E+00
         0.00000E+00
         0.00000E+00
         0.00000E+00
         0.00000E+00
         0.00000E+00
         0.00000E+00
         0.00000E+00
         0.00000E+00
         0.00000E+00
         0.00000E+00
         0.00000E+00
         0.00000E+00
         0.00000E+00
         0.00000E+00
         0.00000E+00
         0.00000E+00
         0.00000E+00
         0.00000E+00
         0.00000E+00
         0.00000E+00
         0.00000E+00
         0.00000E+00
         0.00000E+00
         0.00000E+00
         0.00000E+00
         0.00000E+00
         0.00000E+00
         0.00000E+00
         0.00000E+00
         0.00000E+00
         0.00000E+00
         0.00000E+00
         0.00000E+00
         0.00000E+00
         0.00000E+00
         0.00000E+00
         0.00000E+00
         0.00000E+00
         0.00000E+00
         0.00000E+00
         0.00000E+00
         0.00000E+00
         0.00000E+00
         0.00000E+00
         0.00000E+00
         0.00000E+00
         0.00000E+00
         0.00000E+00
         0.00000E+00
         0.00000E+00
         0.00000E+00
         0.00000E+00
         0.00000E+00
         0.00000E+00
         0.00000E+00
         0.00000E+00
         0.00000E+00
         0.00000E+00
         0.00000E+00
         0.00000E+00
         0.00000E+00
         0.00000E+00
         0.00000E+00
         0.00000E+00
         0.00000E+00
         0.00000E+00
         0.00000E+00
         0.00000E+00
         0.00000E+00
         0.00000E+00
         0.00000E+00
         0.00000E+00
         0.00000E+00
         0.00000E+00
         0.00000E+00
         0.00000E+00
         0.00000E+00
         0.00000E+00
         0.00000E+00
         0.00000E+00
         0.00000E+00
         0.00000E+00
         0.00000E+00
         0.00000E+00
         0.00000E+00
         0.00000E+00
         0.00000E+00
         0.00000E+00
         0.00000E+00
         0.00000E+00
         0.00000E+00
         0.00000E+00
         0.00000E+00
         0.00000E+00
         0.00000E+00
         0.00000E+00
         0.00000E+00
         0.00000E+00
         0.00000E+00
         0.00000E+00
         0.00000E+00
         0.00000E+00
         0.00000E+00
         0.00000E+00
         0.00000E+00
         0.00000E+00
         0.00000E+00
         0.00000E+00
         0.00000E+00
         0.00000E+00
         0.00000E+00
         0.00000E+00
         0.00000E+00
         0.00000E+00
         0.00000E+00
         0.00000E+00
         0.00000E+00
         0.00000E+00
         0.00000E+00
         0.00000E+00
         0.00000E+00
         0.00000E+00
         0.00000E+00
         0.00000E+00
         0.00000E+00
         0.00000E+00
         0.00000E+00
         0.00000E+00
         0.00000E+00
         0.00000E+00
         0.00000E+00
         0.00000E+00
         0.00000E+00
         0.00000E+00
         0.00000E+00
         0.00000E+00
         0.00000E+00
         0.00000E+00
         0.00000E+00
         0.00000E+00
         0.00000E+00
         0.00000E+00
         0.00000E+00
         0.00000E+00
         0.00000E+00
         0.00000E+00
         0.00000E+00
         0.00000E+00
         0.00000E+00
         0.00000E+00
         0.00000E+00
         0.00000E+00
         0.00000E+00
         0.00000E+00
         0.00000E+00
         0.00000E+00
         0.00000E+00
         0.00000E+00
         0.00000E+00
         0.00000E+00
         0.00000E+00
         0.00000E+00
         0.00000E+00
         0.00000E+00
         0.00000E+00
         0.00000E+00
         0.00000E+00
         0.00000E+00
         0.00000E+00
         0.00000E+00
         0.00000E+00
         0.00000E+00
         0.00000E+00
         0.00000E+00
         0.00000E+00
         0.00000E+00
         0.00000E+00
         0.00000E+00
         0.00000E+00
         0.00000E+00
         0.00000E+00
         0.00000E+00
         0.00000E+00
         0.00000E+00
         0.00000E+00
         0.00000E+00
         0.00000E+00
         0.00000E+00
         0.00000E+00
         0.00000E+00
         0.00000E+00
         0.00000E+00
         0.00000E+00
         0.00000E+00
         0.00000E+00
         0.00000E+00
         0.00000E+00
         0.00000E+00
         0.00000E+00
         0.00000E+00
         0.00000E+00
         0.00000E+00
         0.00000E+00
         0.00000E+00
         0.00000E+00
         0.00000E+00
         0.00000E+00
         0.00000E+00
         0.00000E+00
         0.00000E+00
         0.00000E+00
         0.00000E+00
         0.00000E+00
         0.00000E+00
         0.00000E+00
         0.00000E+00
         0.00000E+00
         0.00000E+00
         0.00000E+00
         0.00000E+00
         0.00000E+00
         0.00000E+00
         0.00000E+00
  
SCALARS                        eps_vol  double 1
LOOKUP_TABLE default
         0.00000E+00
         0.00000E+00
         0.00000E+00
         0.00000E+00
         0.00000E+00
         0.00000E+00
         0.00000E+00
         0.00000E+00
         0.00000E+00
         0.00000E+00
         0.00000E+00
         0.00000E+00
         0.00000E+00
         0.00000E+00
         0.00000E+00
         0.00000E+00
         0.00000E+00
         0.00000E+00
         0.00000E+00
         0.00000E+00
         0.00000E+00
         0.00000E+00
         0.00000E+00
         0.00000E+00
         0.00000E+00
         0.00000E+00
         0.00000E+00
         0.00000E+00
         0.00000E+00
         0.00000E+00
         0.00000E+00
         0.00000E+00
         0.00000E+00
         0.00000E+00
         0.00000E+00
         0.00000E+00
         0.00000E+00
         0.00000E+00
         0.00000E+00
         0.00000E+00
         0.00000E+00
         0.00000E+00
         0.00000E+00
         0.00000E+00
         0.00000E+00
         0.00000E+00
         0.00000E+00
         0.00000E+00
         0.00000E+00
         0.00000E+00
         0.00000E+00
         0.00000E+00
         0.00000E+00
         0.00000E+00
         0.00000E+00
         0.00000E+00
         0.00000E+00
         0.00000E+00
         0.00000E+00
         0.00000E+00
         0.00000E+00
         0.00000E+00
         0.00000E+00
         0.00000E+00
         0.00000E+00
         0.00000E+00
         0.00000E+00
         0.00000E+00
         0.00000E+00
         0.00000E+00
         0.00000E+00
         0.00000E+00
         0.00000E+00
         0.00000E+00
         0.00000E+00
         0.00000E+00
         0.00000E+00
         0.00000E+00
         0.00000E+00
         0.00000E+00
         0.00000E+00
         0.00000E+00
         0.00000E+00
         0.00000E+00
         0.00000E+00
         0.00000E+00
         0.00000E+00
         0.00000E+00
         0.00000E+00
         0.00000E+00
         0.00000E+00
         0.00000E+00
         0.00000E+00
         0.00000E+00
         0.00000E+00
         0.00000E+00
         0.00000E+00
         0.00000E+00
         0.00000E+00
         0.00000E+00
         0.00000E+00
         0.00000E+00
         0.00000E+00
         0.00000E+00
         0.00000E+00
         0.00000E+00
         0.00000E+00
         0.00000E+00
         0.00000E+00
         0.00000E+00
         0.00000E+00
         0.00000E+00
         0.00000E+00
         0.00000E+00
         0.00000E+00
         0.00000E+00
         0.00000E+00
         0.00000E+00
         0.00000E+00
         0.00000E+00
         0.00000E+00
         0.00000E+00
         0.00000E+00
         0.00000E+00
         0.00000E+00
         0.00000E+00
         0.00000E+00
         0.00000E+00
         0.00000E+00
         0.00000E+00
         0.00000E+00
         0.00000E+00
         0.00000E+00
         0.00000E+00
         0.00000E+00
         0.00000E+00
         0.00000E+00
         0.00000E+00
         0.00000E+00
         0.00000E+00
         0.00000E+00
         0.00000E+00
         0.00000E+00
         0.00000E+00
         0.00000E+00
         0.00000E+00
         0.00000E+00
         0.00000E+00
         0.00000E+00
         0.00000E+00
         0.00000E+00
         0.00000E+00
         0.00000E+00
         0.00000E+00
         0.00000E+00
         0.00000E+00
         0.00000E+00
         0.00000E+00
         0.00000E+00
         0.00000E+00
         0.00000E+00
         0.00000E+00
         0.00000E+00
         0.00000E+00
         0.00000E+00
         0.00000E+00
         0.00000E+00
         0.00000E+00
         0.00000E+00
         0.00000E+00
         0.00000E+00
         0.00000E+00
         0.00000E+00
         0.00000E+00
         0.00000E+00
         0.00000E+00
         0.00000E+00
         0.00000E+00
         0.00000E+00
         0.00000E+00
         0.00000E+00
         0.00000E+00
         0.00000E+00
         0.00000E+00
         0.00000E+00
         0.00000E+00
         0.00000E+00
         0.00000E+00
         0.00000E+00
         0.00000E+00
         0.00000E+00
         0.00000E+00
         0.00000E+00
         0.00000E+00
         0.00000E+00
         0.00000E+00
         0.00000E+00
         0.00000E+00
         0.00000E+00
         0.00000E+00
         0.00000E+00
         0.00000E+00
         0.00000E+00
         0.00000E+00
         0.00000E+00
         0.00000E+00
         0.00000E+00
         0.00000E+00
         0.00000E+00
         0.00000E+00
         0.00000E+00
         0.00000E+00
         0.00000E+00
         0.00000E+00
         0.00000E+00
         0.00000E+00
         0.00000E+00
         0.00000E+00
         0.00000E+00
         0.00000E+00
         0.00000E+00
         0.00000E+00
         0.00000E+00
         0.00000E+00
         0.00000E+00
         0.00000E+00
         0.00000E+00
         0.00000E+00
         0.00000E+00
         0.00000E+00
         0.00000E+00
         0.00000E+00
         0.00000E+00
         0.00000E+00
         0.00000E+00
         0.00000E+00
         0.00000E+00
         0.00000E+00
         0.00000E+00
         0.00000E+00
         0.00000E+00
         0.00000E+00
         0.00000E+00
         0.00000E+00
         0.00000E+00
         0.00000E+00
         0.00000E+00
         0.00000E+00
         0.00000E+00
         0.00000E+00
         0.00000E+00
         0.00000E+00
         0.00000E+00
         0.00000E+00
         0.00000E+00
         0.00000E+00
         0.00000E+00
         0.00000E+00
         0.00000E+00
         0.00000E+00
         0.00000E+00
         0.00000E+00
         0.00000E+00
         0.00000E+00
         0.00000E+00
         0.00000E+00
         0.00000E+00
         0.00000E+00
         0.00000E+00
         0.00000E+00
         0.00000E+00
         0.00000E+00
         0.00000E+00
         0.00000E+00
         0.00000E+00
         0.00000E+00
         0.00000E+00
         0.00000E+00
         0.00000E+00
         0.00000E+00
         0.00000E+00
         0.00000E+00
         0.00000E+00
         0.00000E+00
         0.00000E+00
         0.00000E+00
         0.00000E+00
         0.00000E+00
         0.00000E+00
         0.00000E+00
         0.00000E+00
         0.00000E+00
         0.00000E+00
         0.00000E+00
         0.00000E+00
         0.00000E+00
         0.00000E+00
         0.00000E+00
         0.00000E+00
         0.00000E+00
         0.00000E+00
         0.00000E+00
         0.00000E+00
         0.00000E+00
         0.00000E+00
         0.00000E+00
         0.00000E+00
         0.00000E+00
         0.00000E+00
         0.00000E+00
         0.00000E+00
         0.00000E+00
         0.00000E+00
         0.00000E+00
         0.00000E+00
         0.00000E+00
         0.00000E+00
         0.00000E+00
         0.00000E+00
         0.00000E+00
         0.00000E+00
         0.00000E+00
         0.00000E+00
         0.00000E+00
         0.00000E+00
         0.00000E+00
         0.00000E+00
         0.00000E+00
         0.00000E+00
         0.00000E+00
         0.00000E+00
         0.00000E+00
         0.00000E+00
         0.00000E+00
         0.00000E+00
         0.00000E+00
         0.00000E+00
         0.00000E+00
         0.00000E+00
         0.00000E+00
         0.00000E+00
         0.00000E+00
         0.00000E+00
         0.00000E+00
         0.00000E+00
         0.00000E+00
         0.00000E+00
         0.00000E+00
         0.00000E+00
         0.00000E+00
         0.00000E+00
         0.00000E+00
         0.00000E+00
         0.00000E+00
         0.00000E+00
         0.00000E+00
         0.00000E+00
         0.00000E+00
         0.00000E+00
         0.00000E+00
         0.00000E+00
         0.00000E+00
         0.00000E+00
         0.00000E+00
         0.00000E+00
         0.00000E+00
         0.00000E+00
         0.00000E+00
         0.00000E+00
         0.00000E+00
         0.00000E+00
         0.00000E+00
         0.00000E+00
         0.00000E+00
         0.00000E+00
         0.00000E+00
         0.00000E+00
         0.00000E+00
         0.00000E+00
         0.00000E+00
         0.00000E+00
         0.00000E+00
         0.00000E+00
         0.00000E+00
         0.00000E+00
         0.00000E+00
         0.00000E+00
         0.00000E+00
         0.00000E+00
         0.00000E+00
         0.00000E+00
         0.00000E+00
         0.00000E+00
         0.00000E+00
         0.00000E+00
         0.00000E+00
         0.00000E+00
         0.00000E+00
         0.00000E+00
         0.00000E+00
         0.00000E+00
         0.00000E+00
         0.00000E+00
         0.00000E+00
         0.00000E+00
         0.00000E+00
         0.00000E+00
         0.00000E+00
         0.00000E+00
         0.00000E+00
         0.00000E+00
         0.00000E+00
         0.00000E+00
         0.00000E+00
         0.00000E+00
         0.00000E+00
         0.00000E+00
         0.00000E+00
         0.00000E+00
         0.00000E+00
         0.00000E+00
         0.00000E+00
         0.00000E+00
         0.00000E+00
         0.00000E+00
         0.00000E+00
         0.00000E+00
         0.00000E+00
         0.00000E+00
         0.00000E+00
         0.00000E+00
         0.00000E+00
         0.00000E+00
         0.00000E+00
         0.00000E+00
         0.00000E+00
         0.00000E+00
         0.00000E+00
         0.00000E+00
         0.00000E+00
         0.00000E+00
         0.00000E+00
         0.00000E+00
         0.00000E+00
         0.00000E+00
         0.00000E+00
         0.00000E+00
         0.00000E+00
         0.00000E+00
         0.00000E+00
         0.00000E+00
         0.00000E+00
         0.00000E+00
         0.00000E+00
         0.00000E+00
         0.00000E+00
         0.00000E+00
         0.00000E+00
         0.00000E+00
         0.00000E+00
         0.00000E+00
         0.00000E+00
         0.00000E+00
         0.00000E+00
         0.00000E+00
         0.00000E+00
         0.00000E+00
         0.00000E+00
         0.00000E+00
         0.00000E+00
         0.00000E+00
         0.00000E+00
         0.00000E+00
         0.00000E+00
         0.00000E+00
         0.00000E+00
         0.00000E+00
         0.00000E+00
         0.00000E+00
         0.00000E+00
         0.00000E+00
         0.00000E+00
         0.00000E+00
         0.00000E+00
         0.00000E+00
         0.00000E+00
         0.00000E+00
         0.00000E+00
         0.00000E+00
         0.00000E+00
         0.00000E+00
         0.00000E+00
         0.00000E+00
         0.00000E+00
         0.00000E+00
         0.00000E+00
         0.00000E+00
         0.00000E+00
         0.00000E+00
         0.00000E+00
         0.00000E+00
         0.00000E+00
         0.00000E+00
         0.00000E+00
         0.00000E+00
         0.00000E+00
         0.00000E+00
         0.00000E+00
         0.00000E+00
         0.00000E+00
         0.00000E+00
         0.00000E+00
         0.00000E+00
         0.00000E+00
         0.00000E+00
         0.00000E+00
         0.00000E+00
         0.00000E+00
         0.00000E+00
         0.00000E+00
         0.00000E+00
         0.00000E+00
         0.00000E+00
         0.00000E+00
         0.00000E+00
         0.00000E+00
         0.00000E+00
         0.00000E+00
         0.00000E+00
         0.00000E+00
         0.00000E+00
         0.00000E+00
         0.00000E+00
         0.00000E+00
         0.00000E+00
         0.00000E+00
         0.00000E+00
         0.00000E+00
         0.00000E+00
         0.00000E+00
         0.00000E+00
         0.00000E+00
         0.00000E+00
         0.00000E+00
         0.00000E+00
         0.00000E+00
         0.00000E+00
         0.00000E+00
         0.00000E+00
         0.00000E+00
         0.00000E+00
         0.00000E+00
         0.00000E+00
         0.00000E+00
         0.00000E+00
         0.00000E+00
         0.00000E+00
         0.00000E+00
         0.00000E+00
         0.00000E+00
         0.00000E+00
         0.00000E+00
         0.00000E+00
         0.00000E+00
         0.00000E+00
         0.00000E+00
         0.00000E+00
         0.00000E+00
         0.00000E+00
         0.00000E+00
         0.00000E+00
         0.00000E+00
         0.00000E+00
         0.00000E+00
         0.00000E+00
         0.00000E+00
         0.00000E+00
         0.00000E+00
         0.00000E+00
         0.00000E+00
         0.00000E+00
         0.00000E+00
         0.00000E+00
         0.00000E+00
         0.00000E+00
         0.00000E+00
         0.00000E+00
         0.00000E+00
         0.00000E+00
         0.00000E+00
         0.00000E+00
         0.00000E+00
         0.00000E+00
         0.00000E+00
         0.00000E+00
         0.00000E+00
         0.00000E+00
         0.00000E+00
         0.00000E+00
         0.00000E+00
         0.00000E+00
         0.00000E+00
         0.00000E+00
         0.00000E+00
         0.00000E+00
         0.00000E+00
         0.00000E+00
         0.00000E+00
         0.00000E+00
         0.00000E+00
         0.00000E+00
         0.00000E+00
         0.00000E+00
         0.00000E+00
         0.00000E+00
         0.00000E+00
         0.00000E+00
         0.00000E+00
         0.00000E+00
         0.00000E+00
         0.00000E+00
         0.00000E+00
         0.00000E+00
         0.00000E+00
         0.00000E+00
         0.00000E+00
         0.00000E+00
         0.00000E+00
         0.00000E+00
         0.00000E+00
         0.00000E+00
         0.00000E+00
         0.00000E+00
         0.00000E+00
         0.00000E+00
         0.00000E+00
         0.00000E+00
         0.00000E+00
         0.00000E+00
         0.00000E+00
         0.00000E+00
         0.00000E+00
         0.00000E+00
         0.00000E+00
         0.00000E+00
         0.00000E+00
         0.00000E+00
         0.00000E+00
         0.00000E+00
         0.00000E+00
         0.00000E+00
         0.00000E+00
         0.00000E+00
         0.00000E+00
         0.00000E+00
         0.00000E+00
         0.00000E+00
         0.00000E+00
         0.00000E+00
         0.00000E+00
         0.00000E+00
         0.00000E+00
         0.00000E+00
         0.00000E+00
         0.00000E+00
         0.00000E+00
         0.00000E+00
         0.00000E+00
         0.00000E+00
         0.00000E+00
         0.00000E+00
         0.00000E+00
         0.00000E+00
         0.00000E+00
         0.00000E+00
         0.00000E+00
         0.00000E+00
         0.00000E+00
         0.00000E+00
         0.00000E+00
         0.00000E+00
         0.00000E+00
         0.00000E+00
         0.00000E+00
         0.00000E+00
         0.00000E+00
         0.00000E+00
         0.00000E+00
         0.00000E+00
         0.00000E+00
         0.00000E+00
         0.00000E+00
         0.00000E+00
         0.00000E+00
         0.00000E+00
         0.00000E+00
         0.00000E+00
         0.00000E+00
         0.00000E+00
         0.00000E+00
         0.00000E+00
         0.00000E+00
         0.00000E+00
         0.00000E+00
         0.00000E+00
         0.00000E+00
         0.00000E+00
         0.00000E+00
         0.00000E+00
         0.00000E+00
         0.00000E+00
         0.00000E+00
         0.00000E+00
         0.00000E+00
         0.00000E+00
         0.00000E+00
         0.00000E+00
         0.00000E+00
         0.00000E+00
         0.00000E+00
         0.00000E+00
         0.00000E+00
         0.00000E+00
         0.00000E+00
         0.00000E+00
         0.00000E+00
         0.00000E+00
         0.00000E+00
         0.00000E+00
         0.00000E+00
         0.00000E+00
         0.00000E+00
         0.00000E+00
         0.00000E+00
         0.00000E+00
         0.00000E+00
         0.00000E+00
         0.00000E+00
         0.00000E+00
         0.00000E+00
         0.00000E+00
         0.00000E+00
         0.00000E+00
         0.00000E+00
         0.00000E+00
         0.00000E+00
         0.00000E+00
         0.00000E+00
         0.00000E+00
         0.00000E+00
         0.00000E+00
         0.00000E+00
         0.00000E+00
         0.00000E+00
         0.00000E+00
         0.00000E+00
         0.00000E+00
         0.00000E+00
         0.00000E+00
         0.00000E+00
         0.00000E+00
         0.00000E+00
         0.00000E+00
         0.00000E+00
         0.00000E+00
         0.00000E+00
         0.00000E+00
         0.00000E+00
         0.00000E+00
         0.00000E+00
         0.00000E+00
         0.00000E+00
         0.00000E+00
         0.00000E+00
         0.00000E+00
         0.00000E+00
         0.00000E+00
         0.00000E+00
         0.00000E+00
         0.00000E+00
         0.00000E+00
         0.00000E+00
         0.00000E+00
         0.00000E+00
         0.00000E+00
         0.00000E+00
         0.00000E+00
         0.00000E+00
         0.00000E+00
         0.00000E+00
         0.00000E+00
         0.00000E+00
         0.00000E+00
         0.00000E+00
         0.00000E+00
         0.00000E+00
         0.00000E+00
         0.00000E+00
         0.00000E+00
         0.00000E+00
         0.00000E+00
         0.00000E+00
         0.00000E+00
         0.00000E+00
         0.00000E+00
         0.00000E+00
         0.00000E+00
         0.00000E+00
         0.00000E+00
         0.00000E+00
         0.00000E+00
         0.00000E+00
         0.00000E+00
         0.00000E+00
         0.00000E+00
         0.00000E+00
         0.00000E+00
         0.00000E+00
         0.00000E+00
         0.00000E+00
         0.00000E+00
         0.00000E+00
         0.00000E+00
         0.00000E+00
         0.00000E+00
         0.00000E+00
         0.00000E+00
         0.00000E+00
         0.00000E+00
         0.00000E+00
         0.00000E+00
         0.00000E+00
         0.00000E+00
         0.00000E+00
         0.00000E+00
         0.00000E+00
         0.00000E+00
         0.00000E+00
         0.00000E+00
         0.00000E+00
         0.00000E+00
         0.00000E+00
         0.00000E+00
         0.00000E+00
         0.00000E+00
         0.00000E+00
         0.00000E+00
         0.00000E+00
         0.00000E+00
         0.00000E+00
         0.00000E+00
         0.00000E+00
         0.00000E+00
         0.00000E+00
         0.00000E+00
         0.00000E+00
         0.00000E+00
         0.00000E+00
         0.00000E+00
         0.00000E+00
         0.00000E+00
         0.00000E+00
         0.00000E+00
         0.00000E+00
         0.00000E+00
         0.00000E+00
         0.00000E+00
         0.00000E+00
         0.00000E+00
         0.00000E+00
         0.00000E+00
         0.00000E+00
         0.00000E+00
         0.00000E+00
         0.00000E+00
         0.00000E+00
         0.00000E+00
         0.00000E+00
         0.00000E+00
         0.00000E+00
         0.00000E+00
         0.00000E+00
         0.00000E+00
         0.00000E+00
         0.00000E+00
         0.00000E+00
         0.00000E+00
         0.00000E+00
         0.00000E+00
         0.00000E+00
         0.00000E+00
         0.00000E+00
         0.00000E+00
         0.00000E+00
         0.00000E+00
         0.00000E+00
         0.00000E+00
         0.00000E+00
         0.00000E+00
         0.00000E+00
         0.00000E+00
         0.00000E+00
         0.00000E+00
         0.00000E+00
         0.00000E+00
         0.00000E+00
         0.00000E+00
         0.00000E+00
         0.00000E+00
         0.00000E+00
         0.00000E+00
         0.00000E+00
         0.00000E+00
         0.00000E+00
         0.00000E+00
         0.00000E+00
         0.00000E+00
         0.00000E+00
         0.00000E+00
         0.00000E+00
         0.00000E+00
         0.00000E+00
         0.00000E+00
         0.00000E+00
         0.00000E+00
         0.00000E+00
         0.00000E+00
         0.00000E+00
         0.00000E+00
         0.00000E+00
         0.00000E+00
         0.00000E+00
         0.00000E+00
         0.00000E+00
         0.00000E+00
         0.00000E+00
         0.00000E+00
         0.00000E+00
         0.00000E+00
         0.00000E+00
         0.00000E+00
         0.00000E+00
         0.00000E+00
         0.00000E+00
         0.00000E+00
         0.00000E+00
         0.00000E+00
         0.00000E+00
         0.00000E+00
         0.00000E+00
         0.00000E+00
         0.00000E+00
         0.00000E+00
         0.00000E+00
         0.00000E+00
         0.00000E+00
         0.00000E+00
         0.00000E+00
         0.00000E+00
         0.00000E+00
         0.00000E+00
         0.00000E+00
         0.00000E+00
         0.00000E+00
         0.00000E+00
         0.00000E+00
         0.00000E+00
         0.00000E+00
         0.00000E+00
         0.00000E+00
         0.00000E+00
         0.00000E+00
         0.00000E+00
         0.00000E+00
         0.00000E+00
         0.00000E+00
         0.00000E+00
         0.00000E+00
         0.00000E+00
         0.00000E+00
         0.00000E+00
         0.00000E+00
         0.00000E+00
         0.00000E+00
         0.00000E+00
         0.00000E+00
         0.00000E+00
         0.00000E+00
         0.00000E+00
         0.00000E+00
         0.00000E+00
         0.00000E+00
         0.00000E+00
         0.00000E+00
         0.00000E+00
         0.00000E+00
         0.00000E+00
         0.00000E+00
         0.00000E+00
         0.00000E+00
         0.00000E+00
         0.00000E+00
         0.00000E+00
         0.00000E+00
         0.00000E+00
         0.00000E+00
         0.00000E+00
         0.00000E+00
         0.00000E+00
         0.00000E+00
         0.00000E+00
         0.00000E+00
         0.00000E+00
         0.00000E+00
         0.00000E+00
         0.00000E+00
         0.00000E+00
         0.00000E+00
         0.00000E+00
         0.00000E+00
         0.00000E+00
         0.00000E+00
         0.00000E+00
         0.00000E+00
         0.00000E+00
         0.00000E+00
         0.00000E+00
         0.00000E+00
         0.00000E+00
         0.00000E+00
         0.00000E+00
         0.00000E+00
         0.00000E+00
         0.00000E+00
         0.00000E+00
         0.00000E+00
         0.00000E+00
         0.00000E+00
         0.00000E+00
         0.00000E+00
         0.00000E+00
         0.00000E+00
         0.00000E+00
         0.00000E+00
         0.00000E+00
         0.00000E+00
         0.00000E+00
         0.00000E+00
         0.00000E+00
         0.00000E+00
         0.00000E+00
         0.00000E+00
         0.00000E+00
         0.00000E+00
         0.00000E+00
         0.00000E+00
         0.00000E+00
         0.00000E+00
         0.00000E+00
         0.00000E+00
         0.00000E+00
         0.00000E+00
         0.00000E+00
         0.00000E+00
         0.00000E+00
         0.00000E+00
         0.00000E+00
         0.00000E+00
         0.00000E+00
         0.00000E+00
         0.00000E+00
         0.00000E+00
         0.00000E+00
         0.00000E+00
         0.00000E+00
         0.00000E+00
         0.00000E+00
         0.00000E+00
         0.00000E+00
         0.00000E+00
         0.00000E+00
         0.00000E+00
         0.00000E+00
         0.00000E+00
         0.00000E+00
         0.00000E+00
         0.00000E+00
         0.00000E+00
         0.00000E+00
         0.00000E+00
         0.00000E+00
         0.00000E+00
         0.00000E+00
         0.00000E+00
         0.00000E+00
         0.00000E+00
         0.00000E+00
         0.00000E+00
         0.00000E+00
         0.00000E+00
         0.00000E+00
         0.00000E+00
         0.00000E+00
         0.00000E+00
         0.00000E+00
         0.00000E+00
         0.00000E+00
         0.00000E+00
         0.00000E+00
         0.00000E+00
         0.00000E+00
         0.00000E+00
         0.00000E+00
         0.00000E+00
         0.00000E+00
         0.00000E+00
         0.00000E+00
         0.00000E+00
         0.00000E+00
         0.00000E+00
         0.00000E+00
         0.00000E+00
         0.00000E+00
         0.00000E+00
         0.00000E+00
         0.00000E+00
         0.00000E+00
         0.00000E+00
         0.00000E+00
         0.00000E+00
         0.00000E+00
         0.00000E+00
         0.00000E+00
         0.00000E+00
         0.00000E+00
         0.00000E+00
         0.00000E+00
         0.00000E+00
         0.00000E+00
         0.00000E+00
         0.00000E+00
         0.00000E+00
         0.00000E+00
         0.00000E+00
         0.00000E+00
         0.00000E+00
         0.00000E+00
         0.00000E+00
         0.00000E+00
         0.00000E+00
         0.00000E+00
         0.00000E+00
         0.00000E+00
         0.00000E+00
         0.00000E+00
         0.00000E+00
         0.00000E+00
         0.00000E+00
         0.00000E+00
         0.00000E+00
         0.00000E+00
         0.00000E+00
         0.00000E+00
         0.00000E+00
         0.00000E+00
         0.00000E+00
         0.00000E+00
         0.00000E+00
         0.00000E+00
         0.00000E+00
         0.00000E+00
         0.00000E+00
         0.00000E+00
         0.00000E+00
         0.00000E+00
         0.00000E+00
         0.00000E+00
         0.00000E+00
         0.00000E+00
         0.00000E+00
         0.00000E+00
         0.00000E+00
         0.00000E+00
         0.00000E+00
         0.00000E+00
         0.00000E+00
         0.00000E+00
         0.00000E+00
         0.00000E+00
         0.00000E+00
         0.00000E+00
         0.00000E+00
         0.00000E+00
         0.00000E+00
         0.00000E+00
         0.00000E+00
         0.00000E+00
         0.00000E+00
         0.00000E+00
         0.00000E+00
         0.00000E+00
         0.00000E+00
         0.00000E+00
         0.00000E+00
         0.00000E+00
         0.00000E+00
         0.00000E+00
         0.00000E+00
         0.00000E+00
         0.00000E+00
         0.00000E+00
         0.00000E+00
         0.00000E+00
         0.00000E+00
         0.00000E+00
         0.00000E+00
         0.00000E+00
         0.00000E+00
         0.00000E+00
         0.00000E+00
         0.00000E+00
         0.00000E+00
         0.00000E+00
         0.00000E+00
         0.00000E+00
         0.00000E+00
         0.00000E+00
         0.00000E+00
         0.00000E+00
         0.00000E+00
         0.00000E+00
         0.00000E+00
         0.00000E+00
         0.00000E+00
         0.00000E+00
         0.00000E+00
         0.00000E+00
         0.00000E+00
         0.00000E+00
         0.00000E+00
         0.00000E+00
         0.00000E+00
         0.00000E+00
         0.00000E+00
         0.00000E+00
         0.00000E+00
         0.00000E+00
         0.00000E+00
         0.00000E+00
         0.00000E+00
         0.00000E+00
         0.00000E+00
         0.00000E+00
         0.00000E+00
         0.00000E+00
         0.00000E+00
         0.00000E+00
         0.00000E+00
         0.00000E+00
         0.00000E+00
         0.00000E+00
         0.00000E+00
         0.00000E+00
         0.00000E+00
         0.00000E+00
         0.00000E+00
         0.00000E+00
         0.00000E+00
         0.00000E+00
         0.00000E+00
         0.00000E+00
         0.00000E+00
         0.00000E+00
         0.00000E+00
         0.00000E+00
         0.00000E+00
         0.00000E+00
         0.00000E+00
         0.00000E+00
         0.00000E+00
         0.00000E+00
         0.00000E+00
         0.00000E+00
         0.00000E+00
         0.00000E+00
         0.00000E+00
         0.00000E+00
         0.00000E+00
         0.00000E+00
         0.00000E+00
         0.00000E+00
         0.00000E+00
         0.00000E+00
         0.00000E+00
         0.00000E+00
         0.00000E+00
         0.00000E+00
         0.00000E+00
         0.00000E+00
         0.00000E+00
         0.00000E+00
         0.00000E+00
         0.00000E+00
         0.00000E+00
         0.00000E+00
         0.00000E+00
         0.00000E+00
         0.00000E+00
         0.00000E+00
         0.00000E+00
         0.00000E+00
         0.00000E+00
         0.00000E+00
         0.00000E+00
         0.00000E+00
         0.00000E+00
         0.00000E+00
         0.00000E+00
         0.00000E+00
         0.00000E+00
         0.00000E+00
         0.00000E+00
         0.00000E+00
         0.00000E+00
         0.00000E+00
         0.00000E+00
         0.00000E+00
         0.00000E+00
         0.00000E+00
         0.00000E+00
         0.00000E+00
         0.00000E+00
         0.00000E+00
         0.00000E+00
         0.00000E+00
         0.00000E+00
         0.00000E+00
         0.00000E+00
         0.00000E+00
         0.00000E+00
         0.00000E+00
         0.00000E+00
         0.00000E+00
         0.00000E+00
         0.00000E+00
         0.00000E+00
         0.00000E+00
         0.00000E+00
         0.00000E+00
         0.00000E+00
         0.00000E+00
         0.00000E+00
         0.00000E+00
         0.00000E+00
         0.00000E+00
         0.00000E+00
         0.00000E+00
         0.00000E+00
         0.00000E+00
         0.00000E+00
         0.00000E+00
         0.00000E+00
         0.00000E+00
         0.00000E+00
         0.00000E+00
         0.00000E+00
         0.00000E+00
         0.00000E+00
         0.00000E+00
         0.00000E+00
         0.00000E+00
         0.00000E+00
         0.00000E+00
         0.00000E+00
         0.00000E+00
         0.00000E+00
         0.00000E+00
         0.00000E+00
         0.00000E+00
         0.00000E+00
         0.00000E+00
         0.00000E+00
         0.00000E+00
         0.00000E+00
         0.00000E+00
         0.00000E+00
         0.00000E+00
         0.00000E+00
         0.00000E+00
         0.00000E+00
         0.00000E+00
         0.00000E+00
         0.00000E+00
         0.00000E+00
         0.00000E+00
         0.00000E+00
         0.00000E+00
         0.00000E+00
         0.00000E+00
         0.00000E+00
         0.00000E+00
         0.00000E+00
         0.00000E+00
         0.00000E+00
         0.00000E+00
         0.00000E+00
         0.00000E+00
         0.00000E+00
         0.00000E+00
         0.00000E+00
         0.00000E+00
         0.00000E+00
         0.00000E+00
         0.00000E+00
         0.00000E+00
         0.00000E+00
         0.00000E+00
         0.00000E+00
         0.00000E+00
         0.00000E+00
         0.00000E+00
         0.00000E+00
         0.00000E+00
         0.00000E+00
         0.00000E+00
         0.00000E+00
         0.00000E+00
         0.00000E+00
         0.00000E+00
         0.00000E+00
         0.00000E+00
         0.00000E+00
         0.00000E+00
         0.00000E+00
         0.00000E+00
         0.00000E+00
         0.00000E+00
         0.00000E+00
         0.00000E+00
         0.00000E+00
         0.00000E+00
         0.00000E+00
         0.00000E+00
         0.00000E+00
         0.00000E+00
         0.00000E+00
         0.00000E+00
         0.00000E+00
         0.00000E+00
         0.00000E+00
         0.00000E+00
         0.00000E+00
         0.00000E+00
         0.00000E+00
         0.00000E+00
         0.00000E+00
         0.00000E+00
         0.00000E+00
         0.00000E+00
         0.00000E+00
         0.00000E+00
         0.00000E+00
         0.00000E+00
         0.00000E+00
         0.00000E+00
         0.00000E+00
         0.00000E+00
         0.00000E+00
         0.00000E+00
         0.00000E+00
         0.00000E+00
         0.00000E+00
         0.00000E+00
         0.00000E+00
         0.00000E+00
         0.00000E+00
         0.00000E+00
         0.00000E+00
         0.00000E+00
         0.00000E+00
         0.00000E+00
         0.00000E+00
         0.00000E+00
         0.00000E+00
         0.00000E+00
         0.00000E+00
         0.00000E+00
         0.00000E+00
         0.00000E+00
         0.00000E+00
         0.00000E+00
         0.00000E+00
         0.00000E+00
         0.00000E+00
         0.00000E+00
         0.00000E+00
         0.00000E+00
         0.00000E+00
         0.00000E+00
         0.00000E+00
         0.00000E+00
         0.00000E+00
         0.00000E+00
         0.00000E+00
         0.00000E+00
         0.00000E+00
         0.00000E+00
         0.00000E+00
         0.00000E+00
         0.00000E+00
         0.00000E+00
         0.00000E+00
         0.00000E+00
         0.00000E+00
         0.00000E+00
         0.00000E+00
         0.00000E+00
         0.00000E+00
         0.00000E+00
         0.00000E+00
         0.00000E+00
         0.00000E+00
         0.00000E+00
         0.00000E+00
         0.00000E+00
         0.00000E+00
         0.00000E+00
         0.00000E+00
         0.00000E+00
         0.00000E+00
         0.00000E+00
         0.00000E+00
         0.00000E+00
         0.00000E+00
         0.00000E+00
         0.00000E+00
         0.00000E+00
         0.00000E+00
         0.00000E+00
         0.00000E+00
         0.00000E+00
         0.00000E+00
         0.00000E+00
         0.00000E+00
         0.00000E+00
         0.00000E+00
         0.00000E+00
         0.00000E+00
         0.00000E+00
         0.00000E+00
         0.00000E+00
         0.00000E+00
         0.00000E+00
         0.00000E+00
         0.00000E+00
         0.00000E+00
         0.00000E+00
         0.00000E+00
         0.00000E+00
         0.00000E+00
         0.00000E+00
         0.00000E+00
         0.00000E+00
         0.00000E+00
         0.00000E+00
         0.00000E+00
         0.00000E+00
         0.00000E+00
         0.00000E+00
         0.00000E+00
         0.00000E+00
         0.00000E+00
         0.00000E+00
         0.00000E+00
         0.00000E+00
         0.00000E+00
         0.00000E+00
         0.00000E+00
         0.00000E+00
         0.00000E+00
         0.00000E+00
         0.00000E+00
         0.00000E+00
         0.00000E+00
         0.00000E+00
         0.00000E+00
         0.00000E+00
         0.00000E+00
         0.00000E+00
         0.00000E+00
         0.00000E+00
         0.00000E+00
         0.00000E+00
         0.00000E+00
         0.00000E+00
         0.00000E+00
         0.00000E+00
         0.00000E+00
         0.00000E+00
         0.00000E+00
         0.00000E+00
         0.00000E+00
         0.00000E+00
         0.00000E+00
         0.00000E+00
         0.00000E+00
         0.00000E+00
         0.00000E+00
         0.00000E+00
         0.00000E+00
         0.00000E+00
         0.00000E+00
         0.00000E+00
         0.00000E+00
         0.00000E+00
         0.00000E+00
         0.00000E+00
         0.00000E+00
         0.00000E+00
         0.00000E+00
         0.00000E+00
         0.00000E+00
         0.00000E+00
         0.00000E+00
         0.00000E+00
         0.00000E+00
         0.00000E+00
         0.00000E+00
         0.00000E+00
         0.00000E+00
         0.00000E+00
         0.00000E+00
         0.00000E+00
         0.00000E+00
         0.00000E+00
         0.00000E+00
         0.00000E+00
         0.00000E+00
         0.00000E+00
         0.00000E+00
         0.00000E+00
         0.00000E+00
         0.00000E+00
         0.00000E+00
         0.00000E+00
         0.00000E+00
         0.00000E+00
         0.00000E+00
         0.00000E+00
         0.00000E+00
         0.00000E+00
         0.00000E+00
         0.00000E+00
         0.00000E+00
         0.00000E+00
         0.00000E+00
         0.00000E+00
         0.00000E+00
         0.00000E+00
         0.00000E+00
         0.00000E+00
         0.00000E+00
         0.00000E+00
         0.00000E+00
         0.00000E+00
         0.00000E+00
         0.00000E+00
         0.00000E+00
         0.00000E+00
         0.00000E+00
         0.00000E+00
         0.00000E+00
         0.00000E+00
         0.00000E+00
         0.00000E+00
         0.00000E+00
         0.00000E+00
         0.00000E+00
         0.00000E+00
         0.00000E+00
         0.00000E+00
         0.00000E+00
         0.00000E+00
         0.00000E+00
         0.00000E+00
         0.00000E+00
         0.00000E+00
         0.00000E+00
         0.00000E+00
         0.00000E+00
         0.00000E+00
         0.00000E+00
         0.00000E+00
         0.00000E+00
         0.00000E+00
         0.00000E+00
         0.00000E+00
         0.00000E+00
         0.00000E+00
         0.00000E+00
         0.00000E+00
         0.00000E+00
         0.00000E+00
         0.00000E+00
         0.00000E+00
         0.00000E+00
         0.00000E+00
         0.00000E+00
         0.00000E+00
         0.00000E+00
         0.00000E+00
         0.00000E+00
         0.00000E+00
         0.00000E+00
         0.00000E+00
         0.00000E+00
         0.00000E+00
         0.00000E+00
         0.00000E+00
         0.00000E+00
         0.00000E+00
         0.00000E+00
         0.00000E+00
         0.00000E+00
         0.00000E+00
         0.00000E+00
         0.00000E+00
         0.00000E+00
         0.00000E+00
         0.00000E+00
         0.00000E+00
         0.00000E+00
         0.00000E+00
         0.00000E+00
         0.00000E+00
         0.00000E+00
         0.00000E+00
         0.00000E+00
         0.00000E+00
         0.00000E+00
         0.00000E+00
         0.00000E+00
         0.00000E+00
         0.00000E+00
         0.00000E+00
         0.00000E+00
         0.00000E+00
         0.00000E+00
         0.00000E+00
         0.00000E+00
         0.00000E+00
         0.00000E+00
         0.00000E+00
         0.00000E+00
         0.00000E+00
         0.00000E+00
         0.00000E+00
         0.00000E+00
         0.00000E+00
         0.00000E+00
         0.00000E+00
         0.00000E+00
         0.00000E+00
         0.00000E+00
         0.00000E+00
         0.00000E+00
         0.00000E+00
         0.00000E+00
         0.00000E+00
         0.00000E+00
         0.00000E+00
         0.00000E+00
         0.00000E+00
         0.00000E+00
         0.00000E+00
         0.00000E+00
         0.00000E+00
         0.00000E+00
         0.00000E+00
         0.00000E+00
         0.00000E+00
         0.00000E+00
         0.00000E+00
         0.00000E+00
         0.00000E+00
         0.00000E+00
         0.00000E+00
         0.00000E+00
         0.00000E+00
         0.00000E+00
         0.00000E+00
         0.00000E+00
         0.00000E+00
         0.00000E+00
         0.00000E+00
         0.00000E+00
         0.00000E+00
         0.00000E+00
         0.00000E+00
         0.00000E+00
         0.00000E+00
         0.00000E+00
         0.00000E+00
         0.00000E+00
         0.00000E+00
         0.00000E+00
         0.00000E+00
         0.00000E+00
         0.00000E+00
         0.00000E+00
         0.00000E+00
         0.00000E+00
         0.00000E+00
         0.00000E+00
         0.00000E+00
         0.00000E+00
         0.00000E+00
         0.00000E+00
         0.00000E+00
         0.00000E+00
         0.00000E+00
         0.00000E+00
         0.00000E+00
         0.00000E+00
         0.00000E+00
         0.00000E+00
         0.00000E+00
         0.00000E+00
         0.00000E+00
         0.00000E+00
         0.00000E+00
         0.00000E+00
         0.00000E+00
         0.00000E+00
         0.00000E+00
         0.00000E+00
         0.00000E+00
         0.00000E+00
         0.00000E+00
         0.00000E+00
         0.00000E+00
         0.00000E+00
         0.00000E+00
         0.00000E+00
         0.00000E+00
         0.00000E+00
         0.00000E+00
         0.00000E+00
         0.00000E+00
         0.00000E+00
         0.00000E+00
         0.00000E+00
         0.00000E+00
         0.00000E+00
         0.00000E+00
         0.00000E+00
         0.00000E+00
         0.00000E+00
         0.00000E+00
         0.00000E+00
         0.00000E+00
         0.00000E+00
         0.00000E+00
         0.00000E+00
         0.00000E+00
         0.00000E+00
         0.00000E+00
         0.00000E+00
         0.00000E+00
         0.00000E+00
         0.00000E+00
         0.00000E+00
         0.00000E+00
         0.00000E+00
         0.00000E+00
         0.00000E+00
         0.00000E+00
         0.00000E+00
         0.00000E+00
         0.00000E+00
         0.00000E+00
         0.00000E+00
         0.00000E+00
         0.00000E+00
         0.00000E+00
         0.00000E+00
         0.00000E+00
         0.00000E+00
         0.00000E+00
         0.00000E+00
         0.00000E+00
         0.00000E+00
         0.00000E+00
         0.00000E+00
         0.00000E+00
         0.00000E+00
         0.00000E+00
         0.00000E+00
         0.00000E+00
         0.00000E+00
         0.00000E+00
         0.00000E+00
         0.00000E+00
         0.00000E+00
         0.00000E+00
         0.00000E+00
         0.00000E+00
         0.00000E+00
         0.00000E+00
         0.00000E+00
         0.00000E+00
         0.00000E+00
         0.00000E+00
         0.00000E+00
         0.00000E+00
         0.00000E+00
         0.00000E+00
         0.00000E+00
         0.00000E+00
         0.00000E+00
         0.00000E+00
         0.00000E+00
         0.00000E+00
         0.00000E+00
         0.00000E+00
         0.00000E+00
         0.00000E+00
         0.00000E+00
         0.00000E+00
         0.00000E+00
         0.00000E+00
         0.00000E+00
         0.00000E+00
         0.00000E+00
         0.00000E+00
         0.00000E+00
         0.00000E+00
         0.00000E+00
         0.00000E+00
         0.00000E+00
         0.00000E+00
         0.00000E+00
         0.00000E+00
         0.00000E+00
         0.00000E+00
         0.00000E+00
         0.00000E+00
         0.00000E+00
         0.00000E+00
         0.00000E+00
  
SCALARS                            eps  double 1
LOOKUP_TABLE default
         0.13948E+00
         0.13885E+00
         0.13925E+00
         0.13996E+00
         0.00000E+00
         0.00000E+00
         0.00000E+00
         0.00000E+00
         0.13883E+00
         0.13904E+00
         0.00000E+00
         0.00000E+00
         0.13792E+00
         0.13789E+00
         0.00000E+00
         0.00000E+00
         0.13986E+00
         0.13794E+00
         0.00000E+00
         0.00000E+00
         0.13722E+00
         0.13666E+00
         0.13755E+00
         0.00000E+00
         0.00000E+00
         0.00000E+00
         0.13667E+00
         0.13584E+00
         0.00000E+00
         0.00000E+00
         0.13982E+00
         0.13899E+00
         0.14062E+00
         0.00000E+00
         0.00000E+00
         0.00000E+00
         0.13935E+00
         0.13828E+00
         0.00000E+00
         0.00000E+00
         0.13893E+00
         0.13810E+00
         0.00000E+00
         0.00000E+00
         0.13962E+00
         0.13992E+00
         0.00000E+00
         0.00000E+00
         0.13743E+00
         0.00000E+00
         0.13986E+00
         0.00000E+00
         0.13643E+00
         0.00000E+00
         0.13617E+00
         0.00000E+00
         0.13618E+00
         0.13710E+00
         0.00000E+00
         0.00000E+00
         0.13981E+00
         0.13949E+00
         0.00000E+00
         0.00000E+00
         0.14000E+00
         0.00000E+00
         0.13963E+00
         0.00000E+00
         0.13865E+00
         0.13853E+00
         0.00000E+00
         0.00000E+00
         0.13830E+00
         0.00000E+00
         0.13555E+00
         0.00000E+00
         0.13540E+00
         0.00000E+00
         0.13548E+00
         0.00000E+00
         0.13590E+00
         0.13631E+00
         0.00000E+00
         0.00000E+00
         0.13714E+00
         0.00000E+00
         0.13961E+00
         0.00000E+00
         0.13923E+00
         0.00000E+00
         0.13893E+00
         0.13875E+00
         0.00000E+00
         0.00000E+00
         0.13895E+00
         0.00000E+00
         0.13910E+00
         0.00000E+00
         0.13897E+00
         0.00000E+00
         0.13893E+00
         0.13906E+00
         0.00000E+00
         0.00000E+00
         0.13822E+00
         0.13860E+00
         0.00000E+00
         0.00000E+00
         0.13817E+00
         0.00000E+00
         0.13860E+00
         0.00000E+00
         0.13818E+00
         0.00000E+00
         0.13726E+00
         0.00000E+00
         0.13637E+00
         0.00000E+00
         0.13582E+00
         0.00000E+00
         0.13576E+00
         0.00000E+00
         0.13578E+00
         0.00000E+00
         0.13637E+00
         0.00000E+00
         0.13749E+00
         0.00000E+00
         0.13869E+00
         0.00000E+00
         0.13936E+00
         0.00000E+00
         0.14003E+00
         0.00000E+00
         0.14046E+00
         0.00000E+00
         0.14045E+00
         0.00000E+00
         0.13936E+00
         0.00000E+00
         0.13858E+00
         0.00000E+00
         0.13834E+00
         0.00000E+00
         0.13877E+00
         0.00000E+00
         0.13897E+00
         0.00000E+00
         0.13859E+00
         0.00000E+00
         0.13858E+00
         0.00000E+00
         0.13887E+00
         0.00000E+00
         0.13923E+00
         0.00000E+00
         0.26890E-01
         0.27470E-01
         0.27392E-01
         0.26636E-01
         0.28030E-01
         0.27328E-01
         0.28192E-01
         0.27742E-01
         0.26757E-01
         0.27373E-01
         0.28672E-01
         0.28828E-01
         0.28436E-01
         0.28401E-01
         0.28664E-01
         0.26673E-01
         0.26814E-01
         0.26417E-01
         0.27532E-01
         0.27330E-01
         0.27625E-01
         0.27436E-01
         0.27786E-01
         0.27689E-01
         0.27348E-01
         0.27371E-01
         0.27953E-01
         0.27900E-01
         0.28328E-01
         0.27681E-01
         0.26743E-01
         0.27478E-01
         0.26747E-01
         0.27231E-01
         0.28927E-01
         0.28386E-01
         0.28131E-01
         0.28437E-01
         0.28473E-01
         0.28962E-01
         0.29322E-01
         0.28453E-01
         0.27615E-01
         0.27727E-01
         0.28157E-01
         0.28909E-01
         0.28265E-01
         0.27573E-01
         0.27621E-01
         0.28157E-01
         0.28704E-01
         0.27968E-01
         0.30249E-01
         0.29624E-01
         0.29737E-01
         0.29595E-01
         0.29646E-01
         0.30008E-01
         0.30353E-01
         0.30445E-01
         0.30390E-01
         0.30433E-01
         0.30574E-01
         0.29668E-01
         0.29299E-01
         0.29156E-01
         0.28938E-01
         0.28774E-01
         0.28790E-01
         0.29092E-01
         0.30048E-01
         0.29830E-01
         0.29488E-01
         0.29482E-01
         0.29541E-01
         0.29852E-01
         0.29391E-01
         0.29221E-01
         0.00000E+00
         0.00000E+00
         0.00000E+00
         0.00000E+00
         0.00000E+00
         0.00000E+00
         0.00000E+00
         0.00000E+00
         0.00000E+00
         0.00000E+00
         0.00000E+00
         0.00000E+00
         0.00000E+00
         0.00000E+00
         0.00000E+00
         0.00000E+00
         0.00000E+00
         0.00000E+00
         0.00000E+00
         0.00000E+00
         0.00000E+00
         0.00000E+00
         0.00000E+00
         0.00000E+00
         0.00000E+00
         0.00000E+00
         0.00000E+00
         0.00000E+00
         0.00000E+00
         0.00000E+00
         0.00000E+00
         0.00000E+00
         0.00000E+00
         0.00000E+00
         0.00000E+00
         0.00000E+00
         0.00000E+00
         0.00000E+00
         0.00000E+00
         0.00000E+00
         0.00000E+00
         0.00000E+00
         0.00000E+00
         0.00000E+00
         0.00000E+00
         0.00000E+00
         0.00000E+00
         0.00000E+00
         0.00000E+00
         0.00000E+00
         0.00000E+00
         0.00000E+00
         0.00000E+00
         0.00000E+00
         0.00000E+00
         0.00000E+00
         0.00000E+00
         0.00000E+00
         0.00000E+00
         0.00000E+00
         0.00000E+00
         0.00000E+00
         0.00000E+00
         0.00000E+00
         0.00000E+00
         0.00000E+00
         0.00000E+00
         0.00000E+00
         0.00000E+00
         0.00000E+00
         0.00000E+00
         0.00000E+00
         0.00000E+00
         0.00000E+00
         0.00000E+00
         0.00000E+00
         0.00000E+00
         0.00000E+00
         0.00000E+00
         0.00000E+00
         0.00000E+00
         0.00000E+00
         0.00000E+00
         0.00000E+00
         0.00000E+00
         0.00000E+00
         0.00000E+00
         0.00000E+00
         0.00000E+00
         0.00000E+00
         0.00000E+00
         0.00000E+00
         0.00000E+00
         0.00000E+00
         0.00000E+00
         0.00000E+00
         0.00000E+00
         0.00000E+00
         0.00000E+00
         0.00000E+00
         0.00000E+00
         0.00000E+00
         0.00000E+00
         0.00000E+00
         0.00000E+00
         0.00000E+00
         0.00000E+00
         0.00000E+00
         0.00000E+00
         0.00000E+00
         0.00000E+00
         0.00000E+00
         0.00000E+00
         0.00000E+00
         0.00000E+00
         0.00000E+00
         0.00000E+00
         0.00000E+00
         0.00000E+00
         0.00000E+00
         0.00000E+00
         0.00000E+00
         0.00000E+00
         0.00000E+00
         0.00000E+00
         0.00000E+00
         0.00000E+00
         0.00000E+00
         0.00000E+00
         0.00000E+00
         0.00000E+00
         0.00000E+00
         0.00000E+00
         0.00000E+00
         0.00000E+00
         0.00000E+00
         0.00000E+00
         0.00000E+00
         0.00000E+00
         0.00000E+00
         0.00000E+00
         0.00000E+00
         0.00000E+00
         0.00000E+00
         0.00000E+00
         0.00000E+00
         0.00000E+00
         0.00000E+00
         0.00000E+00
         0.00000E+00
         0.00000E+00
         0.00000E+00
         0.00000E+00
         0.00000E+00
         0.00000E+00
         0.00000E+00
         0.00000E+00
         0.00000E+00
         0.00000E+00
         0.00000E+00
         0.00000E+00
         0.00000E+00
         0.00000E+00
         0.00000E+00
         0.00000E+00
         0.00000E+00
         0.00000E+00
         0.00000E+00
         0.00000E+00
         0.00000E+00
         0.00000E+00
         0.00000E+00
         0.00000E+00
         0.00000E+00
         0.00000E+00
         0.00000E+00
         0.00000E+00
         0.00000E+00
         0.00000E+00
         0.00000E+00
         0.00000E+00
         0.00000E+00
         0.00000E+00
         0.00000E+00
         0.00000E+00
         0.00000E+00
         0.00000E+00
         0.00000E+00
         0.00000E+00
         0.00000E+00
         0.00000E+00
         0.00000E+00
         0.00000E+00
         0.00000E+00
         0.00000E+00
         0.00000E+00
         0.00000E+00
         0.00000E+00
         0.00000E+00
         0.00000E+00
         0.00000E+00
         0.00000E+00
         0.00000E+00
         0.00000E+00
         0.00000E+00
         0.00000E+00
         0.00000E+00
         0.00000E+00
         0.00000E+00
         0.00000E+00
         0.00000E+00
         0.00000E+00
         0.00000E+00
         0.00000E+00
         0.00000E+00
         0.00000E+00
         0.00000E+00
         0.00000E+00
         0.00000E+00
         0.00000E+00
         0.00000E+00
         0.00000E+00
         0.00000E+00
         0.00000E+00
         0.00000E+00
         0.00000E+00
         0.00000E+00
         0.00000E+00
         0.00000E+00
         0.00000E+00
         0.00000E+00
         0.00000E+00
         0.00000E+00
         0.00000E+00
         0.00000E+00
         0.00000E+00
         0.00000E+00
         0.00000E+00
         0.00000E+00
         0.00000E+00
         0.00000E+00
         0.00000E+00
         0.00000E+00
         0.00000E+00
         0.00000E+00
         0.00000E+00
         0.00000E+00
         0.00000E+00
         0.00000E+00
         0.00000E+00
         0.00000E+00
         0.00000E+00
         0.00000E+00
         0.00000E+00
         0.00000E+00
         0.00000E+00
         0.00000E+00
         0.00000E+00
         0.00000E+00
         0.00000E+00
         0.00000E+00
         0.00000E+00
         0.00000E+00
         0.00000E+00
         0.00000E+00
         0.00000E+00
         0.00000E+00
         0.00000E+00
         0.00000E+00
         0.00000E+00
         0.00000E+00
         0.00000E+00
         0.00000E+00
         0.00000E+00
         0.00000E+00
         0.00000E+00
         0.00000E+00
         0.00000E+00
         0.00000E+00
         0.00000E+00
         0.00000E+00
         0.00000E+00
         0.00000E+00
         0.00000E+00
         0.00000E+00
         0.00000E+00
         0.00000E+00
         0.00000E+00
         0.00000E+00
         0.00000E+00
         0.00000E+00
         0.00000E+00
         0.00000E+00
         0.00000E+00
         0.00000E+00
         0.00000E+00
         0.00000E+00
         0.00000E+00
         0.00000E+00
         0.00000E+00
         0.00000E+00
         0.00000E+00
         0.00000E+00
         0.00000E+00
         0.00000E+00
         0.00000E+00
         0.00000E+00
         0.00000E+00
         0.00000E+00
         0.00000E+00
         0.00000E+00
         0.00000E+00
         0.00000E+00
         0.00000E+00
         0.00000E+00
         0.00000E+00
         0.00000E+00
         0.00000E+00
         0.00000E+00
         0.00000E+00
         0.00000E+00
         0.00000E+00
         0.00000E+00
         0.00000E+00
         0.00000E+00
         0.00000E+00
         0.00000E+00
         0.00000E+00
         0.00000E+00
         0.00000E+00
         0.00000E+00
         0.00000E+00
         0.00000E+00
         0.00000E+00
         0.00000E+00
         0.00000E+00
         0.00000E+00
         0.00000E+00
         0.00000E+00
         0.00000E+00
         0.00000E+00
         0.00000E+00
         0.00000E+00
         0.00000E+00
         0.00000E+00
         0.00000E+00
         0.00000E+00
         0.00000E+00
         0.00000E+00
         0.00000E+00
         0.00000E+00
         0.00000E+00
         0.00000E+00
         0.00000E+00
         0.00000E+00
         0.00000E+00
         0.00000E+00
         0.00000E+00
         0.00000E+00
         0.00000E+00
         0.00000E+00
         0.00000E+00
         0.00000E+00
         0.00000E+00
         0.00000E+00
         0.00000E+00
         0.00000E+00
         0.00000E+00
         0.00000E+00
         0.00000E+00
         0.00000E+00
         0.00000E+00
         0.00000E+00
         0.00000E+00
         0.00000E+00
         0.00000E+00
         0.00000E+00
         0.00000E+00
         0.00000E+00
         0.00000E+00
         0.00000E+00
         0.00000E+00
         0.00000E+00
         0.00000E+00
         0.00000E+00
         0.00000E+00
         0.00000E+00
         0.00000E+00
         0.00000E+00
         0.00000E+00
         0.00000E+00
         0.00000E+00
         0.00000E+00
         0.00000E+00
         0.00000E+00
         0.00000E+00
         0.00000E+00
         0.00000E+00
         0.00000E+00
         0.00000E+00
         0.00000E+00
         0.00000E+00
         0.00000E+00
         0.00000E+00
         0.00000E+00
         0.00000E+00
         0.00000E+00
         0.00000E+00
         0.00000E+00
         0.00000E+00
         0.00000E+00
         0.00000E+00
         0.00000E+00
         0.00000E+00
         0.00000E+00
         0.00000E+00
         0.00000E+00
         0.00000E+00
         0.00000E+00
         0.00000E+00
         0.00000E+00
         0.00000E+00
         0.00000E+00
         0.00000E+00
         0.00000E+00
         0.00000E+00
         0.00000E+00
         0.00000E+00
         0.00000E+00
         0.00000E+00
         0.00000E+00
         0.00000E+00
         0.00000E+00
         0.00000E+00
         0.00000E+00
         0.00000E+00
         0.00000E+00
         0.00000E+00
         0.00000E+00
         0.00000E+00
         0.00000E+00
         0.00000E+00
         0.00000E+00
         0.00000E+00
         0.00000E+00
         0.00000E+00
         0.00000E+00
         0.00000E+00
         0.00000E+00
         0.00000E+00
         0.00000E+00
         0.00000E+00
         0.00000E+00
         0.00000E+00
         0.00000E+00
         0.00000E+00
         0.00000E+00
         0.00000E+00
         0.00000E+00
         0.00000E+00
         0.00000E+00
         0.00000E+00
         0.00000E+00
         0.00000E+00
         0.00000E+00
         0.00000E+00
         0.00000E+00
         0.00000E+00
         0.00000E+00
         0.00000E+00
         0.00000E+00
         0.00000E+00
         0.00000E+00
         0.00000E+00
         0.00000E+00
         0.00000E+00
         0.00000E+00
         0.00000E+00
         0.00000E+00
         0.00000E+00
         0.00000E+00
         0.00000E+00
         0.00000E+00
         0.00000E+00
         0.00000E+00
         0.00000E+00
         0.00000E+00
         0.00000E+00
         0.00000E+00
         0.00000E+00
         0.00000E+00
         0.00000E+00
         0.00000E+00
         0.00000E+00
         0.00000E+00
         0.00000E+00
         0.00000E+00
         0.00000E+00
         0.00000E+00
         0.00000E+00
         0.00000E+00
         0.00000E+00
         0.00000E+00
         0.00000E+00
         0.00000E+00
         0.00000E+00
         0.00000E+00
         0.00000E+00
         0.00000E+00
         0.00000E+00
         0.00000E+00
         0.00000E+00
         0.00000E+00
         0.00000E+00
         0.00000E+00
         0.00000E+00
         0.00000E+00
         0.00000E+00
         0.00000E+00
         0.00000E+00
         0.00000E+00
         0.00000E+00
         0.00000E+00
         0.00000E+00
         0.00000E+00
         0.00000E+00
         0.00000E+00
         0.00000E+00
         0.00000E+00
         0.00000E+00
         0.00000E+00
         0.00000E+00
         0.00000E+00
         0.00000E+00
         0.00000E+00
         0.00000E+00
         0.00000E+00
         0.00000E+00
         0.00000E+00
         0.00000E+00
         0.00000E+00
         0.00000E+00
         0.00000E+00
         0.00000E+00
         0.00000E+00
         0.00000E+00
         0.00000E+00
         0.00000E+00
         0.00000E+00
         0.00000E+00
         0.00000E+00
         0.00000E+00
         0.00000E+00
         0.00000E+00
         0.00000E+00
         0.00000E+00
         0.00000E+00
         0.00000E+00
         0.00000E+00
         0.00000E+00
         0.00000E+00
         0.00000E+00
         0.00000E+00
         0.00000E+00
         0.00000E+00
         0.00000E+00
         0.00000E+00
         0.00000E+00
         0.00000E+00
         0.00000E+00
         0.00000E+00
         0.00000E+00
         0.00000E+00
         0.00000E+00
         0.00000E+00
         0.00000E+00
         0.00000E+00
         0.00000E+00
         0.00000E+00
         0.00000E+00
         0.00000E+00
         0.00000E+00
         0.00000E+00
         0.00000E+00
         0.00000E+00
         0.00000E+00
         0.00000E+00
         0.00000E+00
         0.00000E+00
         0.00000E+00
         0.00000E+00
         0.00000E+00
         0.00000E+00
         0.00000E+00
         0.00000E+00
         0.00000E+00
         0.00000E+00
         0.00000E+00
         0.00000E+00
         0.00000E+00
         0.00000E+00
         0.00000E+00
         0.00000E+00
         0.00000E+00
         0.00000E+00
         0.00000E+00
         0.00000E+00
         0.00000E+00
         0.00000E+00
         0.00000E+00
         0.00000E+00
         0.00000E+00
         0.00000E+00
         0.00000E+00
         0.00000E+00
         0.00000E+00
         0.00000E+00
         0.00000E+00
         0.00000E+00
         0.00000E+00
         0.00000E+00
         0.00000E+00
         0.00000E+00
         0.00000E+00
         0.00000E+00
         0.00000E+00
         0.00000E+00
         0.00000E+00
         0.00000E+00
         0.00000E+00
         0.00000E+00
         0.00000E+00
         0.00000E+00
         0.00000E+00
         0.00000E+00
         0.00000E+00
         0.00000E+00
         0.00000E+00
         0.00000E+00
         0.00000E+00
         0.00000E+00
         0.00000E+00
         0.00000E+00
         0.00000E+00
         0.00000E+00
         0.00000E+00
         0.00000E+00
         0.00000E+00
         0.00000E+00
         0.00000E+00
         0.00000E+00
         0.00000E+00
         0.00000E+00
         0.00000E+00
         0.00000E+00
         0.00000E+00
         0.00000E+00
         0.00000E+00
         0.00000E+00
         0.00000E+00
         0.00000E+00
         0.00000E+00
         0.00000E+00
         0.00000E+00
         0.00000E+00
         0.00000E+00
         0.00000E+00
         0.00000E+00
         0.00000E+00
         0.00000E+00
         0.00000E+00
         0.00000E+00
         0.00000E+00
         0.00000E+00
         0.00000E+00
         0.00000E+00
         0.00000E+00
         0.00000E+00
         0.00000E+00
         0.00000E+00
         0.00000E+00
         0.00000E+00
         0.00000E+00
         0.00000E+00
         0.00000E+00
         0.00000E+00
         0.00000E+00
         0.00000E+00
         0.00000E+00
         0.00000E+00
         0.00000E+00
         0.00000E+00
         0.00000E+00
         0.00000E+00
         0.00000E+00
         0.00000E+00
         0.00000E+00
         0.00000E+00
         0.00000E+00
         0.00000E+00
         0.00000E+00
         0.00000E+00
         0.00000E+00
         0.00000E+00
         0.00000E+00
         0.00000E+00
         0.00000E+00
         0.00000E+00
         0.00000E+00
         0.00000E+00
         0.00000E+00
         0.00000E+00
         0.00000E+00
         0.00000E+00
         0.00000E+00
         0.00000E+00
         0.00000E+00
         0.00000E+00
         0.00000E+00
         0.00000E+00
         0.00000E+00
         0.00000E+00
         0.00000E+00
         0.00000E+00
         0.00000E+00
         0.00000E+00
         0.00000E+00
         0.00000E+00
         0.00000E+00
         0.00000E+00
         0.00000E+00
         0.00000E+00
         0.00000E+00
         0.00000E+00
         0.00000E+00
         0.00000E+00
         0.00000E+00
         0.00000E+00
         0.00000E+00
         0.00000E+00
         0.00000E+00
         0.00000E+00
         0.00000E+00
         0.00000E+00
         0.00000E+00
         0.00000E+00
         0.00000E+00
         0.00000E+00
         0.00000E+00
         0.00000E+00
         0.00000E+00
         0.00000E+00
         0.00000E+00
         0.00000E+00
         0.00000E+00
         0.00000E+00
         0.00000E+00
         0.00000E+00
         0.00000E+00
         0.00000E+00
         0.00000E+00
         0.00000E+00
         0.00000E+00
         0.00000E+00
         0.00000E+00
         0.00000E+00
         0.00000E+00
         0.00000E+00
         0.00000E+00
         0.00000E+00
         0.00000E+00
         0.00000E+00
         0.00000E+00
         0.00000E+00
         0.00000E+00
         0.00000E+00
         0.00000E+00
         0.00000E+00
         0.00000E+00
         0.00000E+00
         0.00000E+00
         0.00000E+00
         0.00000E+00
         0.00000E+00
         0.00000E+00
         0.00000E+00
         0.00000E+00
         0.00000E+00
         0.00000E+00
         0.00000E+00
         0.00000E+00
         0.00000E+00
         0.00000E+00
         0.00000E+00
         0.00000E+00
         0.00000E+00
         0.00000E+00
         0.00000E+00
         0.00000E+00
         0.00000E+00
         0.00000E+00
         0.00000E+00
         0.00000E+00
         0.00000E+00
         0.00000E+00
         0.00000E+00
         0.00000E+00
         0.00000E+00
         0.00000E+00
         0.00000E+00
         0.00000E+00
         0.00000E+00
         0.00000E+00
         0.00000E+00
         0.00000E+00
         0.00000E+00
         0.00000E+00
         0.00000E+00
         0.00000E+00
         0.00000E+00
         0.00000E+00
         0.00000E+00
         0.00000E+00
         0.00000E+00
         0.00000E+00
         0.00000E+00
         0.00000E+00
         0.00000E+00
         0.00000E+00
         0.00000E+00
         0.00000E+00
         0.00000E+00
         0.00000E+00
         0.00000E+00
         0.00000E+00
         0.00000E+00
         0.00000E+00
         0.00000E+00
         0.00000E+00
         0.00000E+00
         0.00000E+00
         0.00000E+00
         0.00000E+00
         0.00000E+00
         0.00000E+00
         0.00000E+00
         0.00000E+00
         0.00000E+00
         0.00000E+00
         0.00000E+00
         0.00000E+00
         0.00000E+00
         0.00000E+00
         0.00000E+00
         0.00000E+00
         0.00000E+00
         0.00000E+00
         0.00000E+00
         0.00000E+00
         0.00000E+00
         0.00000E+00
         0.00000E+00
         0.00000E+00
         0.00000E+00
         0.00000E+00
         0.00000E+00
         0.00000E+00
         0.00000E+00
         0.00000E+00
         0.00000E+00
         0.00000E+00
         0.00000E+00
         0.00000E+00
         0.00000E+00
         0.00000E+00
         0.00000E+00
         0.00000E+00
         0.00000E+00
         0.00000E+00
         0.00000E+00
         0.00000E+00
         0.00000E+00
         0.00000E+00
         0.00000E+00
         0.00000E+00
         0.00000E+00
         0.00000E+00
         0.00000E+00
         0.00000E+00
         0.00000E+00
         0.00000E+00
         0.00000E+00
         0.00000E+00
         0.00000E+00
         0.00000E+00
         0.00000E+00
         0.00000E+00
         0.00000E+00
         0.00000E+00
         0.00000E+00
         0.00000E+00
         0.00000E+00
         0.00000E+00
         0.00000E+00
         0.00000E+00
         0.00000E+00
         0.00000E+00
         0.00000E+00
         0.00000E+00
         0.00000E+00
         0.00000E+00
         0.00000E+00
         0.00000E+00
         0.00000E+00
         0.00000E+00
         0.00000E+00
         0.00000E+00
         0.00000E+00
         0.00000E+00
         0.00000E+00
         0.00000E+00
         0.00000E+00
         0.00000E+00
         0.00000E+00
         0.00000E+00
         0.00000E+00
         0.00000E+00
         0.00000E+00
         0.00000E+00
         0.00000E+00
         0.00000E+00
         0.00000E+00
         0.00000E+00
         0.00000E+00
         0.00000E+00
         0.00000E+00
         0.00000E+00
         0.00000E+00
         0.00000E+00
         0.00000E+00
         0.00000E+00
         0.00000E+00
         0.00000E+00
         0.00000E+00
         0.00000E+00
         0.00000E+00
         0.00000E+00
         0.00000E+00
         0.00000E+00
         0.00000E+00
         0.00000E+00
         0.00000E+00
         0.00000E+00
         0.00000E+00
         0.00000E+00
         0.00000E+00
         0.00000E+00
         0.00000E+00
         0.00000E+00
         0.00000E+00
         0.00000E+00
         0.00000E+00
         0.00000E+00
         0.00000E+00
         0.00000E+00
         0.00000E+00
         0.00000E+00
         0.00000E+00
         0.00000E+00
         0.00000E+00
         0.00000E+00
         0.00000E+00
         0.00000E+00
         0.00000E+00
         0.00000E+00
         0.00000E+00
         0.00000E+00
         0.00000E+00
         0.00000E+00
         0.00000E+00
         0.00000E+00
         0.00000E+00
         0.00000E+00
         0.00000E+00
         0.00000E+00
         0.00000E+00
         0.00000E+00
         0.00000E+00
         0.00000E+00
         0.00000E+00
         0.00000E+00
         0.00000E+00
         0.00000E+00
         0.00000E+00
         0.00000E+00
         0.00000E+00
         0.00000E+00
         0.00000E+00
         0.00000E+00
         0.00000E+00
         0.00000E+00
         0.00000E+00
         0.00000E+00
         0.00000E+00
         0.00000E+00
         0.00000E+00
         0.00000E+00
         0.00000E+00
         0.00000E+00
         0.00000E+00
         0.00000E+00
         0.00000E+00
         0.00000E+00
         0.00000E+00
         0.00000E+00
         0.00000E+00
         0.00000E+00
         0.00000E+00
         0.00000E+00
         0.00000E+00
         0.00000E+00
         0.00000E+00
         0.00000E+00
         0.00000E+00
         0.00000E+00
         0.00000E+00
         0.00000E+00
         0.00000E+00
         0.00000E+00
         0.00000E+00
         0.00000E+00
         0.00000E+00
         0.00000E+00
         0.00000E+00
         0.00000E+00
         0.00000E+00
         0.00000E+00
         0.00000E+00
         0.00000E+00
         0.00000E+00
         0.00000E+00
         0.00000E+00
         0.00000E+00
         0.00000E+00
         0.00000E+00
         0.00000E+00
         0.00000E+00
         0.00000E+00
         0.00000E+00
         0.00000E+00
         0.00000E+00
         0.00000E+00
         0.00000E+00
         0.00000E+00
         0.00000E+00
         0.00000E+00
         0.00000E+00
         0.00000E+00
         0.00000E+00
         0.00000E+00
         0.00000E+00
         0.00000E+00
         0.00000E+00
         0.00000E+00
         0.00000E+00
         0.00000E+00
         0.00000E+00
         0.00000E+00
         0.00000E+00
         0.00000E+00
         0.00000E+00
         0.00000E+00
         0.00000E+00
         0.00000E+00
         0.00000E+00
         0.00000E+00
         0.00000E+00
         0.00000E+00
         0.00000E+00
         0.00000E+00
         0.00000E+00
         0.00000E+00
         0.00000E+00
         0.00000E+00
         0.00000E+00
         0.00000E+00
         0.00000E+00
         0.00000E+00
         0.00000E+00
         0.00000E+00
         0.00000E+00
         0.00000E+00
         0.00000E+00
         0.00000E+00
         0.00000E+00
         0.00000E+00
         0.00000E+00
         0.00000E+00
         0.00000E+00
         0.00000E+00
         0.00000E+00
         0.00000E+00
         0.00000E+00
         0.00000E+00
         0.00000E+00
         0.00000E+00
         0.00000E+00
         0.00000E+00
         0.00000E+00
         0.00000E+00
         0.00000E+00
         0.00000E+00
         0.00000E+00
         0.00000E+00
         0.00000E+00
         0.00000E+00
         0.00000E+00
         0.00000E+00
         0.00000E+00
         0.00000E+00
         0.00000E+00
         0.00000E+00
         0.00000E+00
         0.00000E+00
         0.00000E+00
         0.00000E+00
         0.00000E+00
         0.00000E+00
         0.00000E+00
         0.00000E+00
         0.00000E+00
         0.00000E+00
         0.00000E+00
         0.00000E+00
         0.00000E+00
         0.00000E+00
         0.00000E+00
         0.00000E+00
         0.00000E+00
         0.00000E+00
         0.00000E+00
         0.00000E+00
         0.00000E+00
         0.00000E+00
         0.00000E+00
         0.00000E+00
         0.00000E+00
         0.00000E+00
         0.00000E+00
         0.00000E+00
         0.00000E+00
         0.00000E+00
         0.00000E+00
         0.00000E+00
         0.00000E+00
         0.00000E+00
         0.00000E+00
         0.00000E+00
         0.00000E+00
         0.00000E+00
         0.00000E+00
         0.00000E+00
         0.00000E+00
         0.00000E+00
         0.00000E+00
         0.00000E+00
         0.00000E+00
         0.00000E+00
         0.00000E+00
         0.00000E+00
         0.00000E+00
         0.00000E+00
         0.00000E+00
         0.00000E+00
         0.00000E+00
         0.00000E+00
         0.00000E+00
         0.00000E+00
         0.00000E+00
         0.00000E+00
         0.00000E+00
         0.00000E+00
         0.00000E+00
         0.00000E+00
         0.00000E+00
         0.00000E+00
         0.00000E+00
         0.00000E+00
         0.00000E+00
         0.00000E+00
         0.00000E+00
         0.00000E+00
         0.00000E+00
         0.00000E+00
         0.00000E+00
         0.00000E+00
         0.00000E+00
         0.00000E+00
         0.00000E+00
         0.00000E+00
         0.00000E+00
         0.00000E+00
         0.00000E+00
         0.00000E+00
         0.00000E+00
         0.00000E+00
         0.00000E+00
         0.00000E+00
         0.00000E+00
         0.00000E+00
         0.00000E+00
         0.00000E+00
         0.00000E+00
         0.00000E+00
         0.00000E+00
         0.00000E+00
         0.00000E+00
         0.00000E+00
         0.00000E+00
         0.00000E+00
         0.00000E+00
         0.00000E+00
         0.00000E+00
         0.00000E+00
         0.00000E+00
         0.00000E+00
         0.00000E+00
         0.00000E+00
         0.00000E+00
         0.00000E+00
         0.00000E+00
         0.00000E+00
         0.00000E+00
         0.00000E+00
         0.00000E+00
         0.00000E+00
         0.00000E+00
         0.00000E+00
         0.00000E+00
         0.00000E+00
         0.00000E+00
         0.00000E+00
         0.00000E+00
         0.00000E+00
         0.00000E+00
         0.00000E+00
         0.00000E+00
         0.00000E+00
         0.00000E+00
         0.00000E+00
         0.00000E+00
         0.00000E+00
         0.00000E+00
         0.00000E+00
         0.00000E+00
         0.00000E+00
         0.00000E+00
         0.00000E+00
         0.00000E+00
         0.00000E+00
         0.00000E+00
         0.00000E+00
         0.00000E+00
         0.00000E+00
         0.00000E+00
         0.00000E+00
         0.00000E+00
         0.00000E+00
         0.00000E+00
         0.00000E+00
         0.00000E+00
         0.00000E+00
         0.00000E+00
         0.00000E+00
         0.00000E+00
         0.00000E+00
         0.00000E+00
         0.00000E+00
         0.00000E+00
         0.00000E+00
         0.00000E+00
         0.00000E+00
         0.00000E+00
         0.00000E+00
         0.00000E+00
         0.00000E+00
         0.00000E+00
         0.00000E+00
         0.00000E+00
         0.00000E+00
         0.00000E+00
         0.00000E+00
         0.00000E+00
         0.00000E+00
         0.00000E+00
         0.00000E+00
         0.00000E+00
         0.00000E+00
         0.00000E+00
         0.00000E+00
         0.00000E+00
         0.00000E+00
         0.00000E+00
         0.00000E+00
         0.00000E+00
         0.00000E+00
         0.00000E+00
         0.00000E+00
         0.00000E+00
         0.00000E+00
         0.00000E+00
         0.00000E+00
         0.00000E+00
         0.00000E+00
         0.00000E+00
         0.00000E+00
         0.00000E+00
         0.00000E+00
         0.00000E+00
         0.00000E+00
         0.00000E+00
         0.00000E+00
         0.00000E+00
         0.00000E+00
         0.00000E+00
         0.00000E+00
         0.00000E+00
         0.00000E+00
         0.00000E+00
         0.00000E+00
         0.00000E+00
         0.00000E+00
         0.00000E+00
         0.00000E+00
         0.00000E+00
         0.00000E+00
         0.00000E+00
         0.00000E+00
         0.00000E+00
         0.00000E+00
         0.00000E+00
         0.00000E+00
         0.00000E+00
         0.00000E+00
         0.00000E+00
         0.00000E+00
         0.00000E+00
         0.00000E+00
         0.00000E+00
         0.00000E+00
         0.00000E+00
         0.00000E+00
         0.00000E+00
         0.00000E+00
         0.00000E+00
         0.00000E+00
         0.00000E+00
         0.00000E+00
         0.00000E+00
         0.00000E+00
         0.00000E+00
         0.00000E+00
         0.00000E+00
         0.00000E+00
         0.00000E+00
         0.00000E+00
         0.00000E+00
         0.00000E+00
         0.00000E+00
         0.00000E+00
         0.00000E+00
         0.00000E+00
         0.00000E+00
         0.00000E+00
         0.00000E+00
         0.00000E+00
         0.00000E+00
         0.00000E+00
         0.00000E+00
         0.00000E+00
         0.00000E+00
         0.00000E+00
         0.00000E+00
         0.00000E+00
         0.00000E+00
         0.00000E+00
         0.00000E+00
         0.00000E+00
         0.00000E+00
         0.00000E+00
         0.00000E+00
         0.00000E+00
         0.00000E+00
         0.00000E+00
         0.00000E+00
         0.00000E+00
         0.00000E+00
         0.00000E+00
         0.00000E+00
         0.00000E+00
         0.00000E+00
         0.00000E+00
         0.00000E+00
         0.00000E+00
         0.00000E+00
         0.00000E+00
         0.00000E+00
         0.00000E+00
         0.00000E+00
         0.00000E+00
         0.00000E+00
         0.00000E+00
         0.00000E+00
         0.00000E+00
         0.00000E+00
         0.00000E+00
         0.00000E+00
         0.00000E+00
         0.00000E+00
         0.00000E+00
         0.00000E+00
         0.00000E+00
         0.00000E+00
         0.00000E+00
         0.00000E+00
         0.00000E+00
         0.00000E+00
         0.00000E+00
         0.00000E+00
         0.00000E+00
         0.00000E+00
         0.00000E+00
         0.00000E+00
         0.00000E+00
         0.00000E+00
         0.00000E+00
         0.00000E+00
         0.00000E+00
         0.00000E+00
         0.00000E+00
         0.00000E+00
         0.00000E+00
         0.00000E+00
         0.00000E+00
         0.00000E+00
         0.00000E+00
         0.00000E+00
         0.00000E+00
         0.00000E+00
         0.00000E+00
         0.00000E+00
         0.00000E+00
         0.00000E+00
         0.00000E+00
         0.00000E+00
         0.00000E+00
         0.00000E+00
         0.00000E+00
         0.00000E+00
         0.00000E+00
         0.00000E+00
         0.00000E+00
         0.00000E+00
         0.00000E+00
         0.00000E+00
         0.00000E+00
         0.00000E+00
         0.00000E+00
         0.00000E+00
         0.00000E+00
         0.00000E+00
         0.00000E+00
         0.00000E+00
         0.00000E+00
         0.00000E+00
         0.00000E+00
         0.00000E+00
         0.00000E+00
         0.00000E+00
         0.00000E+00
         0.00000E+00
         0.00000E+00
         0.00000E+00
         0.00000E+00
         0.00000E+00
         0.00000E+00
         0.00000E+00
         0.00000E+00
         0.00000E+00
         0.00000E+00
         0.00000E+00
         0.00000E+00
         0.00000E+00
         0.00000E+00
         0.00000E+00
         0.00000E+00
         0.00000E+00
         0.00000E+00
         0.00000E+00
         0.00000E+00
         0.00000E+00
         0.00000E+00
         0.00000E+00
         0.00000E+00
         0.00000E+00
         0.00000E+00
         0.00000E+00
         0.00000E+00
         0.00000E+00
         0.00000E+00
         0.00000E+00
         0.00000E+00
         0.00000E+00
         0.00000E+00
         0.00000E+00
         0.00000E+00
         0.00000E+00
         0.00000E+00
         0.00000E+00
         0.00000E+00
         0.00000E+00
         0.00000E+00
         0.00000E+00
         0.00000E+00
         0.00000E+00
         0.00000E+00
         0.00000E+00
         0.00000E+00
         0.00000E+00
         0.00000E+00
         0.00000E+00
         0.00000E+00
         0.00000E+00
         0.00000E+00
         0.00000E+00
         0.00000E+00
         0.00000E+00
         0.00000E+00
         0.00000E+00
         0.00000E+00
         0.00000E+00
         0.00000E+00
         0.00000E+00
         0.00000E+00
         0.00000E+00
         0.00000E+00
         0.00000E+00
         0.00000E+00
         0.00000E+00
         0.00000E+00
         0.00000E+00
         0.00000E+00
         0.00000E+00
         0.00000E+00
         0.00000E+00
         0.00000E+00
         0.00000E+00
         0.00000E+00
         0.00000E+00
         0.00000E+00
         0.00000E+00
         0.00000E+00
         0.00000E+00
         0.00000E+00
         0.00000E+00
         0.00000E+00
         0.00000E+00
         0.00000E+00
         0.00000E+00
         0.00000E+00
         0.00000E+00
         0.00000E+00
         0.00000E+00
         0.00000E+00
         0.00000E+00
         0.00000E+00
         0.00000E+00
         0.00000E+00
         0.00000E+00
         0.00000E+00
         0.00000E+00
         0.00000E+00
         0.00000E+00
         0.00000E+00
         0.00000E+00
         0.00000E+00
         0.00000E+00
         0.00000E+00
         0.00000E+00
         0.00000E+00
         0.00000E+00
         0.00000E+00
         0.00000E+00
         0.00000E+00
         0.00000E+00
         0.00000E+00
         0.00000E+00
         0.00000E+00
         0.00000E+00
         0.00000E+00
         0.00000E+00
         0.00000E+00
         0.00000E+00
         0.00000E+00
         0.00000E+00
         0.00000E+00
         0.00000E+00
         0.00000E+00
         0.00000E+00
         0.00000E+00
         0.00000E+00
         0.00000E+00
         0.00000E+00
         0.00000E+00
         0.00000E+00
         0.00000E+00
         0.00000E+00
         0.00000E+00
         0.00000E+00
         0.00000E+00
         0.00000E+00
         0.00000E+00
         0.00000E+00
         0.00000E+00
         0.00000E+00
         0.00000E+00
         0.00000E+00
         0.00000E+00
         0.00000E+00
         0.00000E+00
         0.00000E+00
         0.00000E+00
         0.00000E+00
         0.00000E+00
         0.00000E+00
         0.00000E+00
         0.00000E+00
         0.00000E+00
         0.00000E+00
         0.00000E+00
         0.00000E+00
         0.00000E+00
         0.00000E+00
         0.00000E+00
         0.00000E+00
         0.00000E+00
         0.00000E+00
         0.00000E+00
         0.00000E+00
         0.00000E+00
         0.00000E+00
         0.00000E+00
         0.00000E+00
         0.00000E+00
         0.00000E+00
         0.00000E+00
         0.00000E+00
         0.00000E+00
         0.00000E+00
         0.00000E+00
         0.00000E+00
         0.00000E+00
         0.00000E+00
         0.00000E+00
         0.00000E+00
         0.00000E+00
         0.00000E+00
         0.00000E+00
         0.00000E+00
         0.00000E+00
         0.00000E+00
         0.00000E+00
         0.00000E+00
         0.00000E+00
         0.00000E+00
         0.00000E+00
         0.00000E+00
         0.00000E+00
         0.00000E+00
         0.00000E+00
         0.00000E+00
         0.00000E+00
         0.00000E+00
         0.00000E+00
         0.00000E+00
         0.00000E+00
         0.00000E+00
         0.00000E+00
         0.00000E+00
         0.00000E+00
         0.63550E-03
         0.65131E-03
         0.79435E-03
         0.74059E-03
         0.92892E-03
         0.11857E-02
         0.11221E-02
         0.85805E-03
         0.80814E-03
         0.98249E-03
         0.89901E-03
         0.78194E-03
         0.24436E-03
         0.82519E-04
         0.24938E-03
         0.39439E-03
         0.48371E-03
         0.77784E-03
         0.76229E-03
         0.83390E-03
         0.50900E-03
         0.36891E-03
         0.52828E-03
         0.46403E-03
         0.50807E-03
         0.47904E-03
  
SCALARS                            dam  double 1
LOOKUP_TABLE default
         0.00000E+00
         0.00000E+00
         0.00000E+00
         0.00000E+00
         0.00000E+00
         0.00000E+00
         0.00000E+00
         0.00000E+00
         0.00000E+00
         0.00000E+00
         0.00000E+00
         0.00000E+00
         0.00000E+00
         0.00000E+00
         0.00000E+00
         0.00000E+00
         0.00000E+00
         0.00000E+00
         0.00000E+00
         0.00000E+00
         0.00000E+00
         0.00000E+00
         0.00000E+00
         0.00000E+00
         0.00000E+00
         0.00000E+00
         0.00000E+00
         0.00000E+00
         0.00000E+00
         0.00000E+00
         0.00000E+00
         0.00000E+00
         0.00000E+00
         0.00000E+00
         0.00000E+00
         0.00000E+00
         0.00000E+00
         0.00000E+00
         0.00000E+00
         0.00000E+00
         0.00000E+00
         0.00000E+00
         0.00000E+00
         0.00000E+00
         0.00000E+00
         0.00000E+00
         0.00000E+00
         0.00000E+00
         0.00000E+00
         0.00000E+00
         0.00000E+00
         0.00000E+00
         0.00000E+00
         0.00000E+00
         0.00000E+00
         0.00000E+00
         0.00000E+00
         0.00000E+00
         0.00000E+00
         0.00000E+00
         0.00000E+00
         0.00000E+00
         0.00000E+00
         0.00000E+00
         0.00000E+00
         0.00000E+00
         0.00000E+00
         0.00000E+00
         0.00000E+00
         0.00000E+00
         0.00000E+00
         0.00000E+00
         0.00000E+00
         0.00000E+00
         0.00000E+00
         0.00000E+00
         0.00000E+00
         0.00000E+00
         0.00000E+00
         0.00000E+00
         0.00000E+00
         0.00000E+00
         0.00000E+00
         0.00000E+00
         0.00000E+00
         0.00000E+00
         0.00000E+00
         0.00000E+00
         0.00000E+00
         0.00000E+00
         0.00000E+00
         0.00000E+00
         0.00000E+00
         0.00000E+00
         0.00000E+00
         0.00000E+00
         0.00000E+00
         0.00000E+00
         0.00000E+00
         0.00000E+00
         0.00000E+00
         0.00000E+00
         0.00000E+00
         0.00000E+00
         0.00000E+00
         0.00000E+00
         0.00000E+00
         0.00000E+00
         0.00000E+00
         0.00000E+00
         0.00000E+00
         0.00000E+00
         0.00000E+00
         0.00000E+00
         0.00000E+00
         0.00000E+00
         0.00000E+00
         0.00000E+00
         0.00000E+00
         0.00000E+00
         0.00000E+00
         0.00000E+00
         0.00000E+00
         0.00000E+00
         0.00000E+00
         0.00000E+00
         0.00000E+00
         0.00000E+00
         0.00000E+00
         0.00000E+00
         0.00000E+00
         0.00000E+00
         0.00000E+00
         0.00000E+00
         0.00000E+00
         0.00000E+00
         0.00000E+00
         0.00000E+00
         0.00000E+00
         0.00000E+00
         0.00000E+00
         0.00000E+00
         0.00000E+00
         0.00000E+00
         0.00000E+00
         0.00000E+00
         0.00000E+00
         0.00000E+00
         0.00000E+00
         0.00000E+00
         0.00000E+00
         0.00000E+00
         0.00000E+00
         0.00000E+00
         0.00000E+00
         0.00000E+00
         0.00000E+00
         0.00000E+00
         0.00000E+00
         0.00000E+00
         0.00000E+00
         0.00000E+00
         0.00000E+00
         0.00000E+00
         0.00000E+00
         0.00000E+00
         0.00000E+00
         0.00000E+00
         0.00000E+00
         0.00000E+00
         0.00000E+00
         0.00000E+00
         0.00000E+00
         0.00000E+00
         0.00000E+00
         0.00000E+00
         0.00000E+00
         0.00000E+00
         0.00000E+00
         0.00000E+00
         0.00000E+00
         0.00000E+00
         0.00000E+00
         0.00000E+00
         0.00000E+00
         0.00000E+00
         0.00000E+00
         0.00000E+00
         0.00000E+00
         0.00000E+00
         0.00000E+00
         0.00000E+00
         0.00000E+00
         0.00000E+00
         0.00000E+00
         0.00000E+00
         0.00000E+00
         0.00000E+00
         0.00000E+00
         0.00000E+00
         0.00000E+00
         0.00000E+00
         0.00000E+00
         0.00000E+00
         0.00000E+00
         0.00000E+00
         0.00000E+00
         0.00000E+00
         0.00000E+00
         0.00000E+00
         0.00000E+00
         0.00000E+00
         0.00000E+00
         0.00000E+00
         0.00000E+00
         0.00000E+00
         0.00000E+00
         0.00000E+00
         0.00000E+00
         0.00000E+00
         0.00000E+00
         0.00000E+00
         0.00000E+00
         0.00000E+00
         0.00000E+00
         0.00000E+00
         0.00000E+00
         0.00000E+00
         0.00000E+00
         0.00000E+00
         0.00000E+00
         0.00000E+00
         0.00000E+00
         0.00000E+00
         0.00000E+00
         0.00000E+00
         0.00000E+00
         0.00000E+00
         0.00000E+00
         0.00000E+00
         0.00000E+00
         0.00000E+00
         0.00000E+00
         0.00000E+00
         0.00000E+00
         0.00000E+00
         0.00000E+00
         0.00000E+00
         0.00000E+00
         0.00000E+00
         0.00000E+00
         0.00000E+00
         0.00000E+00
         0.00000E+00
         0.00000E+00
         0.00000E+00
         0.00000E+00
         0.00000E+00
         0.00000E+00
         0.00000E+00
         0.00000E+00
         0.00000E+00
         0.00000E+00
         0.00000E+00
         0.00000E+00
         0.00000E+00
         0.00000E+00
         0.00000E+00
         0.00000E+00
         0.00000E+00
         0.00000E+00
         0.00000E+00
         0.00000E+00
         0.00000E+00
         0.00000E+00
         0.00000E+00
         0.00000E+00
         0.00000E+00
         0.00000E+00
         0.00000E+00
         0.00000E+00
         0.00000E+00
         0.00000E+00
         0.00000E+00
         0.00000E+00
         0.00000E+00
         0.00000E+00
         0.00000E+00
         0.00000E+00
         0.00000E+00
         0.00000E+00
         0.00000E+00
         0.00000E+00
         0.00000E+00
         0.00000E+00
         0.00000E+00
         0.00000E+00
         0.00000E+00
         0.00000E+00
         0.00000E+00
         0.00000E+00
         0.00000E+00
         0.00000E+00
         0.00000E+00
         0.00000E+00
         0.00000E+00
         0.00000E+00
         0.00000E+00
         0.00000E+00
         0.00000E+00
         0.00000E+00
         0.00000E+00
         0.00000E+00
         0.00000E+00
         0.00000E+00
         0.00000E+00
         0.00000E+00
         0.00000E+00
         0.00000E+00
         0.00000E+00
         0.00000E+00
         0.00000E+00
         0.00000E+00
         0.00000E+00
         0.00000E+00
         0.00000E+00
         0.00000E+00
         0.00000E+00
         0.00000E+00
         0.00000E+00
         0.00000E+00
         0.00000E+00
         0.00000E+00
         0.00000E+00
         0.00000E+00
         0.00000E+00
         0.00000E+00
         0.00000E+00
         0.00000E+00
         0.00000E+00
         0.00000E+00
         0.00000E+00
         0.00000E+00
         0.00000E+00
         0.00000E+00
         0.00000E+00
         0.00000E+00
         0.00000E+00
         0.00000E+00
         0.00000E+00
         0.00000E+00
         0.00000E+00
         0.00000E+00
         0.00000E+00
         0.00000E+00
         0.00000E+00
         0.00000E+00
         0.00000E+00
         0.00000E+00
         0.00000E+00
         0.00000E+00
         0.00000E+00
         0.00000E+00
         0.00000E+00
         0.00000E+00
         0.00000E+00
         0.00000E+00
         0.00000E+00
         0.00000E+00
         0.00000E+00
         0.00000E+00
         0.00000E+00
         0.00000E+00
         0.00000E+00
         0.00000E+00
         0.00000E+00
         0.00000E+00
         0.00000E+00
         0.00000E+00
         0.00000E+00
         0.00000E+00
         0.00000E+00
         0.00000E+00
         0.00000E+00
         0.00000E+00
         0.00000E+00
         0.00000E+00
         0.00000E+00
         0.00000E+00
         0.00000E+00
         0.00000E+00
         0.00000E+00
         0.00000E+00
         0.00000E+00
         0.00000E+00
         0.00000E+00
         0.00000E+00
         0.00000E+00
         0.00000E+00
         0.00000E+00
         0.00000E+00
         0.00000E+00
         0.00000E+00
         0.00000E+00
         0.00000E+00
         0.00000E+00
         0.00000E+00
         0.00000E+00
         0.00000E+00
         0.00000E+00
         0.00000E+00
         0.00000E+00
         0.00000E+00
         0.00000E+00
         0.00000E+00
         0.00000E+00
         0.00000E+00
         0.00000E+00
         0.00000E+00
         0.00000E+00
         0.00000E+00
         0.00000E+00
         0.00000E+00
         0.00000E+00
         0.00000E+00
         0.00000E+00
         0.00000E+00
         0.00000E+00
         0.00000E+00
         0.00000E+00
         0.00000E+00
         0.00000E+00
         0.00000E+00
         0.00000E+00
         0.00000E+00
         0.00000E+00
         0.00000E+00
         0.00000E+00
         0.00000E+00
         0.00000E+00
         0.00000E+00
         0.00000E+00
         0.00000E+00
         0.00000E+00
         0.00000E+00
         0.00000E+00
         0.00000E+00
         0.00000E+00
         0.00000E+00
         0.00000E+00
         0.00000E+00
         0.00000E+00
         0.00000E+00
         0.00000E+00
         0.00000E+00
         0.00000E+00
         0.00000E+00
         0.00000E+00
         0.00000E+00
         0.00000E+00
         0.00000E+00
         0.00000E+00
         0.00000E+00
         0.00000E+00
         0.00000E+00
         0.00000E+00
         0.00000E+00
         0.00000E+00
         0.00000E+00
         0.00000E+00
         0.00000E+00
         0.00000E+00
         0.00000E+00
         0.00000E+00
         0.00000E+00
         0.00000E+00
         0.00000E+00
         0.00000E+00
         0.00000E+00
         0.00000E+00
         0.00000E+00
         0.00000E+00
         0.00000E+00
         0.00000E+00
         0.00000E+00
         0.00000E+00
         0.00000E+00
         0.00000E+00
         0.00000E+00
         0.00000E+00
         0.00000E+00
         0.00000E+00
         0.00000E+00
         0.00000E+00
         0.00000E+00
         0.00000E+00
         0.00000E+00
         0.00000E+00
         0.00000E+00
         0.00000E+00
         0.00000E+00
         0.00000E+00
         0.00000E+00
         0.00000E+00
         0.00000E+00
         0.00000E+00
         0.00000E+00
         0.00000E+00
         0.00000E+00
         0.00000E+00
         0.00000E+00
         0.00000E+00
         0.00000E+00
         0.00000E+00
         0.00000E+00
         0.00000E+00
         0.00000E+00
         0.00000E+00
         0.00000E+00
         0.00000E+00
         0.00000E+00
         0.00000E+00
         0.00000E+00
         0.00000E+00
         0.00000E+00
         0.00000E+00
         0.00000E+00
         0.00000E+00
         0.00000E+00
         0.00000E+00
         0.00000E+00
         0.00000E+00
         0.00000E+00
         0.00000E+00
         0.00000E+00
         0.00000E+00
         0.00000E+00
         0.00000E+00
         0.00000E+00
         0.00000E+00
         0.00000E+00
         0.00000E+00
         0.00000E+00
         0.00000E+00
         0.00000E+00
         0.00000E+00
         0.00000E+00
         0.00000E+00
         0.00000E+00
         0.00000E+00
         0.00000E+00
         0.00000E+00
         0.00000E+00
         0.00000E+00
         0.00000E+00
         0.00000E+00
         0.00000E+00
         0.00000E+00
         0.00000E+00
         0.00000E+00
         0.00000E+00
         0.00000E+00
         0.00000E+00
         0.00000E+00
         0.00000E+00
         0.00000E+00
         0.00000E+00
         0.00000E+00
         0.00000E+00
         0.00000E+00
         0.00000E+00
         0.00000E+00
         0.00000E+00
         0.00000E+00
         0.00000E+00
         0.00000E+00
         0.00000E+00
         0.00000E+00
         0.00000E+00
         0.00000E+00
         0.00000E+00
         0.00000E+00
         0.00000E+00
         0.00000E+00
         0.00000E+00
         0.00000E+00
         0.00000E+00
         0.00000E+00
         0.00000E+00
         0.00000E+00
         0.00000E+00
         0.00000E+00
         0.00000E+00
         0.00000E+00
         0.00000E+00
         0.00000E+00
         0.00000E+00
         0.00000E+00
         0.00000E+00
         0.00000E+00
         0.00000E+00
         0.00000E+00
         0.00000E+00
         0.00000E+00
         0.00000E+00
         0.00000E+00
         0.00000E+00
         0.00000E+00
         0.00000E+00
         0.00000E+00
         0.00000E+00
         0.00000E+00
         0.00000E+00
         0.00000E+00
         0.00000E+00
         0.00000E+00
         0.00000E+00
         0.00000E+00
         0.00000E+00
         0.00000E+00
         0.00000E+00
         0.00000E+00
         0.00000E+00
         0.00000E+00
         0.00000E+00
         0.00000E+00
         0.00000E+00
         0.00000E+00
         0.00000E+00
         0.00000E+00
         0.00000E+00
         0.00000E+00
         0.00000E+00
         0.00000E+00
         0.00000E+00
         0.00000E+00
         0.00000E+00
         0.00000E+00
         0.00000E+00
         0.00000E+00
         0.00000E+00
         0.00000E+00
         0.00000E+00
         0.00000E+00
         0.00000E+00
         0.00000E+00
         0.00000E+00
         0.00000E+00
         0.00000E+00
         0.00000E+00
         0.00000E+00
         0.00000E+00
         0.00000E+00
         0.00000E+00
         0.00000E+00
         0.00000E+00
         0.00000E+00
         0.00000E+00
         0.00000E+00
         0.00000E+00
         0.00000E+00
         0.00000E+00
         0.00000E+00
         0.00000E+00
         0.00000E+00
         0.00000E+00
         0.00000E+00
         0.00000E+00
         0.00000E+00
         0.00000E+00
         0.00000E+00
         0.00000E+00
         0.00000E+00
         0.00000E+00
         0.00000E+00
         0.00000E+00
         0.00000E+00
         0.00000E+00
         0.00000E+00
         0.00000E+00
         0.00000E+00
         0.00000E+00
         0.00000E+00
         0.00000E+00
         0.00000E+00
         0.00000E+00
         0.00000E+00
         0.00000E+00
         0.00000E+00
         0.00000E+00
         0.00000E+00
         0.00000E+00
         0.00000E+00
         0.00000E+00
         0.00000E+00
         0.00000E+00
         0.00000E+00
         0.00000E+00
         0.00000E+00
         0.00000E+00
         0.00000E+00
         0.00000E+00
         0.00000E+00
         0.00000E+00
         0.00000E+00
         0.00000E+00
         0.00000E+00
         0.00000E+00
         0.00000E+00
         0.00000E+00
         0.00000E+00
         0.00000E+00
         0.00000E+00
         0.00000E+00
         0.00000E+00
         0.00000E+00
         0.00000E+00
         0.00000E+00
         0.00000E+00
         0.00000E+00
         0.00000E+00
         0.00000E+00
         0.00000E+00
         0.00000E+00
         0.00000E+00
         0.00000E+00
         0.00000E+00
         0.00000E+00
         0.00000E+00
         0.00000E+00
         0.00000E+00
         0.00000E+00
         0.00000E+00
         0.00000E+00
         0.00000E+00
         0.00000E+00
         0.00000E+00
         0.00000E+00
         0.00000E+00
         0.00000E+00
         0.00000E+00
         0.00000E+00
         0.00000E+00
         0.00000E+00
         0.00000E+00
         0.00000E+00
         0.00000E+00
         0.00000E+00
         0.00000E+00
         0.00000E+00
         0.00000E+00
         0.00000E+00
         0.00000E+00
         0.00000E+00
         0.00000E+00
         0.00000E+00
         0.00000E+00
         0.00000E+00
         0.00000E+00
         0.00000E+00
         0.00000E+00
         0.00000E+00
         0.00000E+00
         0.00000E+00
         0.00000E+00
         0.00000E+00
         0.00000E+00
         0.00000E+00
         0.00000E+00
         0.00000E+00
         0.00000E+00
         0.00000E+00
         0.00000E+00
         0.00000E+00
         0.00000E+00
         0.00000E+00
         0.00000E+00
         0.00000E+00
         0.00000E+00
         0.00000E+00
         0.00000E+00
         0.00000E+00
         0.00000E+00
         0.00000E+00
         0.00000E+00
         0.00000E+00
         0.00000E+00
         0.00000E+00
         0.00000E+00
         0.00000E+00
         0.00000E+00
         0.00000E+00
         0.00000E+00
         0.00000E+00
         0.00000E+00
         0.00000E+00
         0.00000E+00
         0.00000E+00
         0.00000E+00
         0.00000E+00
         0.00000E+00
         0.00000E+00
         0.00000E+00
         0.00000E+00
         0.00000E+00
         0.00000E+00
         0.00000E+00
         0.00000E+00
         0.00000E+00
         0.00000E+00
         0.00000E+00
         0.00000E+00
         0.00000E+00
         0.00000E+00
         0.00000E+00
         0.00000E+00
         0.00000E+00
         0.00000E+00
         0.00000E+00
         0.00000E+00
         0.00000E+00
         0.00000E+00
         0.00000E+00
         0.00000E+00
         0.00000E+00
         0.00000E+00
         0.00000E+00
         0.00000E+00
         0.00000E+00
         0.00000E+00
         0.00000E+00
         0.00000E+00
         0.00000E+00
         0.00000E+00
         0.00000E+00
         0.00000E+00
         0.00000E+00
         0.00000E+00
         0.00000E+00
         0.00000E+00
         0.00000E+00
         0.00000E+00
         0.00000E+00
         0.00000E+00
         0.00000E+00
         0.00000E+00
         0.00000E+00
         0.00000E+00
         0.00000E+00
         0.00000E+00
         0.00000E+00
         0.00000E+00
         0.00000E+00
         0.00000E+00
         0.00000E+00
         0.00000E+00
         0.00000E+00
         0.00000E+00
         0.00000E+00
         0.00000E+00
         0.00000E+00
         0.00000E+00
         0.00000E+00
         0.00000E+00
         0.00000E+00
         0.00000E+00
         0.00000E+00
         0.00000E+00
         0.00000E+00
         0.00000E+00
         0.00000E+00
         0.00000E+00
         0.00000E+00
         0.00000E+00
         0.00000E+00
         0.00000E+00
         0.00000E+00
         0.00000E+00
         0.00000E+00
         0.00000E+00
         0.00000E+00
         0.00000E+00
         0.00000E+00
         0.00000E+00
         0.00000E+00
         0.00000E+00
         0.00000E+00
         0.00000E+00
         0.00000E+00
         0.00000E+00
         0.00000E+00
         0.00000E+00
         0.00000E+00
         0.00000E+00
         0.00000E+00
         0.00000E+00
         0.00000E+00
         0.00000E+00
         0.00000E+00
         0.00000E+00
         0.00000E+00
         0.00000E+00
         0.00000E+00
         0.00000E+00
         0.00000E+00
         0.00000E+00
         0.00000E+00
         0.00000E+00
         0.00000E+00
         0.00000E+00
         0.00000E+00
         0.00000E+00
         0.00000E+00
         0.00000E+00
         0.00000E+00
         0.00000E+00
         0.00000E+00
         0.00000E+00
         0.00000E+00
         0.00000E+00
         0.00000E+00
         0.00000E+00
         0.00000E+00
         0.00000E+00
         0.00000E+00
         0.00000E+00
         0.00000E+00
         0.00000E+00
         0.00000E+00
         0.00000E+00
         0.00000E+00
         0.00000E+00
         0.00000E+00
         0.00000E+00
         0.00000E+00
         0.00000E+00
         0.00000E+00
         0.00000E+00
         0.00000E+00
         0.00000E+00
         0.00000E+00
         0.00000E+00
         0.00000E+00
         0.00000E+00
         0.00000E+00
         0.00000E+00
         0.00000E+00
         0.00000E+00
         0.00000E+00
         0.00000E+00
         0.00000E+00
         0.00000E+00
         0.00000E+00
         0.00000E+00
         0.00000E+00
         0.00000E+00
         0.00000E+00
         0.00000E+00
         0.00000E+00
         0.00000E+00
         0.00000E+00
         0.00000E+00
         0.00000E+00
         0.00000E+00
         0.00000E+00
         0.00000E+00
         0.00000E+00
         0.00000E+00
         0.00000E+00
         0.00000E+00
         0.00000E+00
         0.00000E+00
         0.00000E+00
         0.00000E+00
         0.00000E+00
         0.00000E+00
         0.00000E+00
         0.00000E+00
         0.00000E+00
         0.00000E+00
         0.00000E+00
         0.00000E+00
         0.00000E+00
         0.00000E+00
         0.00000E+00
         0.00000E+00
         0.00000E+00
         0.00000E+00
         0.00000E+00
         0.00000E+00
         0.00000E+00
         0.00000E+00
         0.00000E+00
         0.00000E+00
         0.00000E+00
         0.00000E+00
         0.00000E+00
         0.00000E+00
         0.00000E+00
         0.00000E+00
         0.00000E+00
         0.00000E+00
         0.00000E+00
         0.00000E+00
         0.00000E+00
         0.00000E+00
         0.00000E+00
         0.00000E+00
         0.00000E+00
         0.00000E+00
         0.00000E+00
         0.00000E+00
         0.00000E+00
         0.00000E+00
         0.00000E+00
         0.00000E+00
         0.00000E+00
         0.00000E+00
         0.00000E+00
         0.00000E+00
         0.00000E+00
         0.00000E+00
         0.00000E+00
         0.00000E+00
         0.00000E+00
         0.00000E+00
         0.00000E+00
         0.00000E+00
         0.00000E+00
         0.00000E+00
         0.00000E+00
         0.00000E+00
         0.00000E+00
         0.00000E+00
         0.00000E+00
         0.00000E+00
         0.00000E+00
         0.00000E+00
         0.00000E+00
         0.00000E+00
         0.00000E+00
         0.00000E+00
         0.00000E+00
         0.00000E+00
         0.00000E+00
         0.00000E+00
         0.00000E+00
         0.00000E+00
         0.00000E+00
         0.00000E+00
         0.00000E+00
         0.00000E+00
         0.00000E+00
         0.00000E+00
         0.00000E+00
         0.00000E+00
         0.00000E+00
         0.00000E+00
         0.00000E+00
         0.00000E+00
         0.00000E+00
         0.00000E+00
         0.00000E+00
         0.00000E+00
         0.00000E+00
         0.00000E+00
         0.00000E+00
         0.00000E+00
         0.00000E+00
         0.00000E+00
         0.00000E+00
         0.00000E+00
         0.00000E+00
         0.00000E+00
         0.00000E+00
         0.00000E+00
         0.00000E+00
         0.00000E+00
         0.00000E+00
         0.00000E+00
         0.00000E+00
         0.00000E+00
         0.00000E+00
         0.00000E+00
         0.00000E+00
         0.00000E+00
         0.00000E+00
         0.00000E+00
         0.00000E+00
         0.00000E+00
         0.00000E+00
         0.00000E+00
         0.00000E+00
         0.00000E+00
         0.00000E+00
         0.00000E+00
         0.00000E+00
         0.00000E+00
         0.00000E+00
         0.00000E+00
         0.00000E+00
         0.00000E+00
         0.00000E+00
         0.00000E+00
         0.00000E+00
         0.00000E+00
         0.00000E+00
         0.00000E+00
         0.00000E+00
         0.00000E+00
         0.00000E+00
         0.00000E+00
         0.00000E+00
         0.00000E+00
         0.00000E+00
         0.00000E+00
         0.00000E+00
         0.00000E+00
         0.00000E+00
         0.00000E+00
         0.00000E+00
         0.00000E+00
         0.00000E+00
         0.00000E+00
         0.00000E+00
         0.00000E+00
         0.00000E+00
         0.00000E+00
         0.00000E+00
         0.00000E+00
         0.00000E+00
         0.00000E+00
         0.00000E+00
         0.00000E+00
         0.00000E+00
         0.00000E+00
         0.00000E+00
         0.00000E+00
         0.00000E+00
         0.00000E+00
         0.00000E+00
         0.00000E+00
         0.00000E+00
         0.00000E+00
         0.00000E+00
         0.00000E+00
         0.00000E+00
         0.00000E+00
         0.00000E+00
         0.00000E+00
         0.00000E+00
         0.00000E+00
         0.00000E+00
         0.00000E+00
         0.00000E+00
         0.00000E+00
         0.00000E+00
         0.00000E+00
         0.00000E+00
         0.00000E+00
         0.00000E+00
         0.00000E+00
         0.00000E+00
         0.00000E+00
         0.00000E+00
         0.00000E+00
         0.00000E+00
         0.00000E+00
         0.00000E+00
         0.00000E+00
         0.00000E+00
         0.00000E+00
         0.00000E+00
         0.00000E+00
         0.00000E+00
         0.00000E+00
         0.00000E+00
         0.00000E+00
         0.00000E+00
         0.00000E+00
         0.00000E+00
         0.00000E+00
         0.00000E+00
         0.00000E+00
         0.00000E+00
         0.00000E+00
         0.00000E+00
         0.00000E+00
         0.00000E+00
         0.00000E+00
         0.00000E+00
         0.00000E+00
         0.00000E+00
         0.00000E+00
         0.00000E+00
         0.00000E+00
         0.00000E+00
         0.00000E+00
         0.00000E+00
         0.00000E+00
         0.00000E+00
         0.00000E+00
         0.00000E+00
         0.00000E+00
         0.00000E+00
         0.00000E+00
         0.00000E+00
         0.00000E+00
         0.00000E+00
         0.00000E+00
         0.00000E+00
         0.00000E+00
         0.00000E+00
         0.00000E+00
         0.00000E+00
         0.00000E+00
         0.00000E+00
         0.00000E+00
         0.00000E+00
         0.00000E+00
         0.00000E+00
         0.00000E+00
         0.00000E+00
         0.00000E+00
         0.00000E+00
         0.00000E+00
         0.00000E+00
         0.00000E+00
         0.00000E+00
         0.00000E+00
         0.00000E+00
         0.00000E+00
         0.00000E+00
         0.00000E+00
         0.00000E+00
         0.00000E+00
         0.00000E+00
         0.00000E+00
         0.00000E+00
         0.00000E+00
         0.00000E+00
         0.00000E+00
         0.00000E+00
         0.00000E+00
         0.00000E+00
         0.00000E+00
         0.00000E+00
         0.00000E+00
         0.00000E+00
         0.00000E+00
         0.00000E+00
         0.00000E+00
         0.00000E+00
         0.00000E+00
         0.00000E+00
         0.00000E+00
         0.00000E+00
         0.00000E+00
         0.00000E+00
         0.00000E+00
         0.00000E+00
         0.00000E+00
         0.00000E+00
         0.00000E+00
         0.00000E+00
         0.00000E+00
         0.00000E+00
         0.00000E+00
         0.00000E+00
         0.00000E+00
         0.00000E+00
         0.00000E+00
         0.00000E+00
         0.00000E+00
         0.00000E+00
         0.00000E+00
         0.00000E+00
         0.00000E+00
         0.00000E+00
         0.00000E+00
         0.00000E+00
         0.00000E+00
         0.00000E+00
         0.00000E+00
         0.00000E+00
         0.00000E+00
         0.00000E+00
         0.00000E+00
         0.00000E+00
         0.00000E+00
         0.00000E+00
         0.00000E+00
         0.00000E+00
         0.00000E+00
         0.00000E+00
         0.00000E+00
         0.00000E+00
         0.00000E+00
         0.00000E+00
         0.00000E+00
         0.00000E+00
         0.00000E+00
         0.00000E+00
         0.00000E+00
         0.00000E+00
         0.00000E+00
         0.00000E+00
         0.00000E+00
         0.00000E+00
         0.00000E+00
         0.00000E+00
         0.00000E+00
         0.00000E+00
         0.00000E+00
         0.00000E+00
         0.00000E+00
         0.00000E+00
         0.00000E+00
         0.00000E+00
         0.00000E+00
         0.00000E+00
         0.00000E+00
         0.00000E+00
         0.00000E+00
         0.00000E+00
         0.00000E+00
         0.00000E+00
         0.00000E+00
         0.00000E+00
         0.00000E+00
         0.00000E+00
         0.00000E+00
         0.00000E+00
         0.00000E+00
         0.00000E+00
         0.00000E+00
         0.00000E+00
         0.00000E+00
         0.00000E+00
         0.00000E+00
         0.00000E+00
         0.00000E+00
         0.00000E+00
         0.00000E+00
         0.00000E+00
         0.00000E+00
         0.00000E+00
         0.00000E+00
         0.00000E+00
         0.00000E+00
         0.00000E+00
         0.00000E+00
         0.00000E+00
         0.00000E+00
         0.00000E+00
         0.00000E+00
         0.00000E+00
         0.00000E+00
         0.00000E+00
         0.00000E+00
         0.00000E+00
         0.00000E+00
         0.00000E+00
         0.00000E+00
         0.00000E+00
         0.00000E+00
         0.00000E+00
         0.00000E+00
         0.00000E+00
         0.00000E+00
         0.00000E+00
         0.00000E+00
         0.00000E+00
         0.00000E+00
         0.00000E+00
         0.00000E+00
         0.00000E+00
         0.00000E+00
         0.00000E+00
         0.00000E+00
         0.00000E+00
         0.00000E+00
         0.00000E+00
         0.00000E+00
         0.00000E+00
         0.00000E+00
         0.00000E+00
         0.00000E+00
         0.00000E+00
         0.00000E+00
         0.00000E+00
         0.00000E+00
         0.00000E+00
         0.00000E+00
         0.00000E+00
         0.00000E+00
         0.00000E+00
         0.00000E+00
         0.00000E+00
         0.00000E+00
         0.00000E+00
         0.00000E+00
         0.00000E+00
         0.00000E+00
         0.00000E+00
         0.00000E+00
         0.00000E+00
         0.00000E+00
         0.00000E+00
         0.00000E+00
         0.00000E+00
         0.00000E+00
         0.00000E+00
         0.00000E+00
         0.00000E+00
         0.00000E+00
         0.00000E+00
         0.00000E+00
         0.00000E+00
         0.00000E+00
         0.00000E+00
         0.00000E+00
         0.00000E+00
         0.00000E+00
         0.00000E+00
         0.00000E+00
         0.00000E+00
         0.00000E+00
         0.00000E+00
         0.00000E+00
         0.00000E+00
         0.00000E+00
         0.00000E+00
         0.00000E+00
         0.00000E+00
         0.00000E+00
         0.00000E+00
         0.00000E+00
         0.00000E+00
         0.00000E+00
         0.00000E+00
         0.00000E+00
         0.00000E+00
         0.00000E+00
         0.00000E+00
         0.00000E+00
         0.00000E+00
         0.00000E+00
         0.00000E+00
         0.00000E+00
         0.00000E+00
         0.00000E+00
         0.00000E+00
         0.00000E+00
         0.00000E+00
         0.00000E+00
         0.00000E+00
         0.00000E+00
         0.00000E+00
         0.00000E+00
         0.00000E+00
         0.00000E+00
         0.00000E+00
         0.00000E+00
         0.00000E+00
         0.00000E+00
         0.00000E+00
         0.00000E+00
         0.00000E+00
         0.00000E+00
         0.00000E+00
         0.00000E+00
         0.00000E+00
         0.00000E+00
         0.00000E+00
         0.00000E+00
         0.00000E+00
         0.00000E+00
         0.00000E+00
         0.00000E+00
         0.00000E+00
         0.00000E+00
         0.00000E+00
         0.00000E+00
         0.00000E+00
         0.00000E+00
         0.00000E+00
         0.00000E+00
         0.00000E+00
         0.00000E+00
         0.00000E+00
         0.00000E+00
         0.00000E+00
         0.00000E+00
         0.00000E+00
         0.00000E+00
         0.00000E+00
         0.00000E+00
         0.00000E+00
         0.00000E+00
         0.00000E+00
         0.00000E+00
         0.00000E+00
         0.00000E+00
         0.00000E+00
         0.00000E+00
         0.00000E+00
         0.00000E+00
         0.00000E+00
         0.00000E+00
         0.00000E+00
         0.00000E+00
         0.00000E+00
         0.00000E+00
         0.00000E+00
         0.00000E+00
         0.00000E+00
         0.00000E+00
         0.00000E+00
         0.00000E+00
         0.00000E+00
         0.00000E+00
         0.00000E+00
         0.00000E+00
         0.00000E+00
         0.00000E+00
         0.00000E+00
         0.00000E+00
         0.00000E+00
         0.00000E+00
         0.00000E+00
         0.00000E+00
         0.00000E+00
         0.00000E+00
         0.00000E+00
         0.00000E+00
         0.00000E+00
         0.00000E+00
         0.00000E+00
         0.00000E+00
         0.00000E+00
         0.00000E+00
         0.00000E+00
         0.00000E+00
         0.00000E+00
         0.00000E+00
         0.00000E+00
         0.00000E+00
         0.00000E+00
         0.00000E+00
         0.00000E+00
         0.00000E+00
         0.00000E+00
         0.00000E+00
         0.00000E+00
         0.00000E+00
         0.00000E+00
         0.00000E+00
         0.00000E+00
         0.00000E+00
         0.00000E+00
         0.00000E+00
         0.00000E+00
         0.00000E+00
         0.00000E+00
         0.00000E+00
         0.00000E+00
         0.00000E+00
         0.00000E+00
         0.00000E+00
         0.00000E+00
         0.00000E+00
         0.00000E+00
         0.00000E+00
         0.00000E+00
         0.00000E+00
         0.00000E+00
         0.00000E+00
         0.00000E+00
         0.00000E+00
         0.00000E+00
         0.00000E+00
         0.00000E+00
         0.00000E+00
         0.00000E+00
         0.00000E+00
         0.00000E+00
         0.00000E+00
         0.00000E+00
         0.00000E+00
         0.00000E+00
         0.00000E+00
         0.00000E+00
         0.00000E+00
         0.00000E+00
         0.00000E+00
         0.00000E+00
         0.00000E+00
         0.00000E+00
         0.00000E+00
         0.00000E+00
         0.00000E+00
         0.00000E+00
         0.00000E+00
         0.00000E+00
         0.00000E+00
         0.00000E+00
         0.00000E+00
         0.00000E+00
         0.00000E+00
         0.00000E+00
         0.00000E+00
         0.00000E+00
         0.00000E+00
         0.00000E+00
         0.00000E+00
         0.00000E+00
         0.00000E+00
         0.00000E+00
         0.00000E+00
         0.00000E+00
         0.00000E+00
         0.00000E+00
         0.00000E+00
         0.00000E+00
         0.00000E+00
         0.00000E+00
         0.00000E+00
         0.00000E+00
         0.00000E+00
         0.00000E+00
         0.00000E+00
         0.00000E+00
         0.00000E+00
         0.00000E+00
         0.00000E+00
         0.00000E+00
         0.00000E+00
         0.00000E+00
         0.00000E+00
         0.00000E+00
         0.00000E+00
         0.00000E+00
         0.00000E+00
         0.00000E+00
         0.00000E+00
         0.00000E+00
         0.00000E+00
         0.00000E+00
         0.00000E+00
         0.00000E+00
         0.00000E+00
         0.00000E+00
         0.00000E+00
         0.00000E+00
         0.00000E+00
         0.00000E+00
         0.00000E+00
         0.00000E+00
         0.00000E+00
         0.00000E+00
         0.00000E+00
         0.00000E+00
         0.00000E+00
         0.00000E+00
         0.00000E+00
         0.00000E+00
         0.00000E+00
         0.00000E+00
         0.00000E+00
         0.00000E+00
         0.00000E+00
         0.00000E+00
         0.00000E+00
         0.00000E+00
         0.00000E+00
         0.00000E+00
         0.00000E+00
         0.00000E+00
         0.00000E+00
         0.00000E+00
         0.00000E+00
         0.00000E+00
         0.00000E+00
         0.00000E+00
         0.00000E+00
         0.00000E+00
         0.00000E+00
         0.00000E+00
         0.00000E+00
         0.00000E+00
         0.00000E+00
         0.00000E+00
         0.00000E+00
         0.00000E+00
         0.00000E+00
         0.00000E+00
         0.00000E+00
         0.00000E+00
         0.00000E+00
         0.00000E+00
         0.00000E+00
         0.00000E+00
         0.00000E+00
         0.00000E+00
         0.00000E+00
         0.00000E+00
         0.00000E+00
         0.00000E+00
         0.00000E+00
         0.00000E+00
         0.00000E+00
         0.00000E+00
         0.00000E+00
         0.00000E+00
         0.00000E+00
         0.00000E+00
         0.00000E+00
         0.00000E+00
         0.00000E+00
         0.00000E+00
         0.00000E+00
         0.00000E+00
         0.00000E+00
         0.00000E+00
         0.00000E+00
         0.00000E+00
         0.00000E+00
         0.00000E+00
         0.00000E+00
         0.00000E+00
         0.00000E+00
         0.00000E+00
         0.00000E+00
         0.00000E+00
         0.00000E+00
         0.00000E+00
         0.00000E+00
         0.00000E+00
         0.00000E+00
         0.00000E+00
         0.00000E+00
         0.00000E+00
         0.00000E+00
         0.00000E+00
         0.00000E+00
         0.00000E+00
         0.00000E+00
         0.00000E+00
         0.00000E+00
         0.00000E+00
         0.00000E+00
         0.00000E+00
         0.00000E+00
         0.00000E+00
         0.00000E+00
         0.00000E+00
         0.00000E+00
         0.00000E+00
         0.00000E+00
         0.00000E+00
         0.00000E+00
         0.00000E+00
         0.00000E+00
         0.00000E+00
         0.00000E+00
         0.00000E+00
         0.00000E+00
         0.00000E+00
         0.00000E+00
         0.00000E+00
         0.00000E+00
         0.00000E+00
         0.00000E+00
         0.00000E+00
         0.00000E+00
         0.00000E+00
         0.00000E+00
         0.00000E+00
         0.00000E+00
         0.00000E+00
         0.00000E+00
         0.00000E+00
         0.00000E+00
         0.00000E+00
         0.00000E+00
         0.00000E+00
         0.00000E+00
         0.00000E+00
         0.00000E+00
         0.00000E+00
         0.00000E+00
         0.00000E+00
         0.00000E+00
         0.00000E+00
         0.00000E+00
         0.00000E+00
         0.00000E+00
         0.00000E+00
         0.00000E+00
         0.00000E+00
         0.00000E+00
         0.00000E+00
         0.00000E+00
         0.00000E+00
         0.00000E+00
         0.00000E+00
         0.00000E+00
         0.00000E+00
         0.00000E+00
         0.00000E+00
         0.00000E+00
         0.00000E+00
         0.00000E+00
         0.00000E+00
         0.00000E+00
         0.00000E+00
         0.00000E+00
         0.00000E+00
         0.00000E+00
         0.00000E+00
         0.00000E+00
         0.00000E+00
         0.00000E+00
         0.00000E+00
         0.00000E+00
         0.00000E+00
         0.00000E+00
         0.00000E+00
         0.00000E+00
         0.00000E+00
         0.00000E+00
         0.00000E+00
         0.00000E+00
         0.00000E+00
         0.00000E+00
         0.00000E+00
         0.00000E+00
         0.00000E+00
         0.00000E+00
         0.00000E+00
         0.00000E+00
         0.00000E+00
         0.00000E+00
         0.00000E+00
         0.00000E+00
         0.00000E+00
         0.00000E+00
         0.00000E+00
         0.00000E+00
         0.00000E+00
         0.00000E+00
         0.00000E+00
         0.00000E+00
         0.00000E+00
         0.00000E+00
         0.00000E+00
         0.00000E+00
         0.00000E+00
         0.00000E+00
         0.00000E+00
         0.00000E+00
         0.00000E+00
         0.00000E+00
         0.00000E+00
         0.00000E+00
         0.00000E+00
         0.00000E+00
         0.00000E+00
         0.00000E+00
         0.00000E+00
         0.00000E+00
         0.00000E+00
         0.00000E+00
         0.00000E+00
         0.00000E+00
         0.00000E+00
         0.00000E+00
         0.00000E+00
         0.00000E+00
         0.00000E+00
         0.00000E+00
         0.00000E+00
         0.00000E+00
         0.00000E+00
         0.00000E+00
         0.00000E+00
         0.00000E+00
         0.00000E+00
         0.00000E+00
         0.00000E+00
         0.00000E+00
         0.00000E+00
         0.00000E+00
         0.00000E+00
         0.00000E+00
         0.00000E+00
         0.00000E+00
         0.00000E+00
         0.00000E+00
         0.00000E+00
         0.00000E+00
         0.00000E+00
         0.00000E+00
         0.00000E+00
         0.00000E+00
         0.00000E+00
         0.00000E+00
         0.00000E+00
         0.00000E+00
         0.00000E+00
         0.00000E+00
         0.00000E+00
         0.00000E+00
         0.00000E+00
         0.00000E+00
         0.00000E+00
         0.00000E+00
         0.00000E+00
         0.00000E+00
         0.00000E+00
         0.00000E+00
         0.00000E+00
         0.00000E+00
         0.00000E+00
         0.00000E+00
         0.00000E+00
         0.00000E+00
         0.00000E+00
         0.00000E+00
         0.00000E+00
         0.00000E+00
         0.00000E+00
         0.00000E+00
         0.00000E+00
         0.00000E+00
         0.00000E+00
         0.00000E+00
         0.00000E+00
         0.00000E+00
         0.00000E+00
         0.00000E+00
         0.00000E+00
         0.00000E+00
         0.00000E+00
         0.00000E+00
         0.00000E+00
         0.00000E+00
         0.00000E+00
         0.00000E+00
  
SCALARS           initial_coordinate_x  double 1
LOOKUP_TABLE default
         0.10378E-02
         0.17452E-02
         0.23177E-02
         0.16698E-02
         0.10379E-02
         0.17453E-02
         0.23178E-02
         0.16700E-02
         0.30377E-02
         0.27791E-02
         0.30377E-02
         0.27788E-02
         0.12850E-02
         0.65139E-03
         0.12851E-02
         0.65164E-03
         0.12757E-03
        -0.12822E-03
         0.12783E-03
        -0.12804E-03
         0.94500E-03
         0.11327E-02
         0.17490E-02
         0.94533E-03
         0.11330E-02
         0.17494E-02
         0.40588E-03
         0.39779E-03
         0.40594E-03
         0.39781E-03
        -0.76303E-03
        -0.86604E-03
         0.46119E-03
        -0.76268E-03
        -0.86593E-03
         0.46164E-03
        -0.18300E-02
        -0.18440E-02
        -0.18297E-02
        -0.18441E-02
        -0.27238E-02
        -0.28028E-02
        -0.27238E-02
        -0.28031E-02
        -0.25365E-02
        -0.19287E-02
        -0.25363E-02
        -0.19283E-02
        -0.99363E-03
        -0.99377E-03
        -0.14380E-02
        -0.14377E-02
        -0.31574E-03
        -0.31594E-03
        -0.11068E-02
        -0.11071E-02
        -0.18845E-02
        -0.18713E-02
        -0.18846E-02
        -0.18714E-02
        -0.15871E-03
        -0.94089E-03
        -0.15844E-03
        -0.94029E-03
         0.78856E-03
         0.78922E-03
         0.17211E-02
         0.17211E-02
         0.32050E-02
         0.28046E-02
         0.32047E-02
         0.28047E-02
         0.23059E-02
         0.23060E-02
        -0.40614E-03
        -0.40627E-03
        -0.12092E-02
        -0.12092E-02
        -0.19448E-02
        -0.19448E-02
        -0.25029E-02
        -0.26371E-02
        -0.25029E-02
        -0.26372E-02
        -0.27671E-02
        -0.27674E-02
        -0.21123E-02
        -0.21122E-02
        -0.16087E-02
        -0.16087E-02
        -0.11939E-02
        -0.58641E-03
        -0.11937E-02
        -0.58606E-03
         0.20912E-03
         0.20952E-03
         0.10586E-02
         0.10589E-02
         0.18413E-02
         0.18413E-02
         0.24544E-02
         0.26022E-02
         0.24543E-02
         0.26021E-02
         0.37964E-02
         0.39100E-02
         0.37964E-02
         0.39100E-02
         0.34621E-02
         0.34621E-02
         0.29267E-02
         0.29267E-02
         0.22211E-02
         0.22211E-02
         0.13865E-02
         0.13865E-02
         0.47130E-03
         0.47130E-03
        -0.47130E-03
        -0.47130E-03
        -0.13865E-02
        -0.13865E-02
        -0.22211E-02
        -0.22211E-02
        -0.29267E-02
        -0.29267E-02
        -0.34621E-02
        -0.34621E-02
        -0.37964E-02
        -0.37964E-02
        -0.39100E-02
        -0.39100E-02
        -0.37964E-02
        -0.37964E-02
        -0.34621E-02
        -0.34621E-02
        -0.29267E-02
        -0.29267E-02
        -0.22211E-02
        -0.22211E-02
        -0.13865E-02
        -0.13865E-02
        -0.47130E-03
        -0.47130E-03
         0.47130E-03
         0.47130E-03
         0.13865E-02
         0.13865E-02
         0.22211E-02
         0.22211E-02
         0.29267E-02
         0.29267E-02
         0.34621E-02
         0.34621E-02
         0.37964E-02
         0.37964E-02
         0.10376E-02
         0.17450E-02
         0.23175E-02
         0.16696E-02
         0.30377E-02
         0.27795E-02
         0.12849E-02
         0.65115E-03
         0.12731E-03
        -0.12841E-03
         0.94467E-03
         0.11323E-02
         0.17487E-02
         0.40583E-03
         0.39777E-03
        -0.76338E-03
        -0.86615E-03
         0.46074E-03
        -0.18303E-02
        -0.18439E-02
        -0.27238E-02
        -0.28025E-02
        -0.25366E-02
        -0.19292E-02
        -0.99349E-03
        -0.14384E-02
        -0.31554E-03
        -0.11064E-02
        -0.18845E-02
        -0.18712E-02
        -0.15899E-03
        -0.94149E-03
         0.78790E-03
         0.17210E-02
         0.32053E-02
         0.28046E-02
         0.23058E-02
        -0.40600E-03
        -0.12092E-02
        -0.19447E-02
        -0.25028E-02
        -0.26370E-02
        -0.27668E-02
        -0.21125E-02
        -0.16088E-02
        -0.11940E-02
        -0.58676E-03
         0.20871E-03
         0.10583E-02
         0.18413E-02
         0.24545E-02
         0.26022E-02
         0.37964E-02
         0.39100E-02
         0.34621E-02
         0.29267E-02
         0.22211E-02
         0.13865E-02
         0.47130E-03
        -0.47130E-03
        -0.13865E-02
        -0.22211E-02
        -0.29267E-02
        -0.34621E-02
        -0.37964E-02
        -0.39100E-02
        -0.37964E-02
        -0.34621E-02
        -0.29267E-02
        -0.22211E-02
        -0.13865E-02
        -0.47130E-03
         0.47130E-03
         0.13865E-02
         0.22211E-02
         0.29267E-02
         0.34621E-02
         0.37964E-02
         0.10375E-02
         0.17448E-02
         0.23174E-02
         0.16694E-02
         0.30377E-02
         0.27798E-02
         0.12848E-02
         0.65090E-03
         0.12705E-03
        -0.12859E-03
         0.94434E-03
         0.11320E-02
         0.17483E-02
         0.40577E-03
         0.39776E-03
        -0.76374E-03
        -0.86626E-03
         0.46029E-03
        -0.18306E-02
        -0.18438E-02
        -0.27238E-02
        -0.28022E-02
        -0.25368E-02
        -0.19296E-02
        -0.99334E-03
        -0.14387E-02
        -0.31534E-03
        -0.11061E-02
        -0.18844E-02
        -0.18710E-02
        -0.15926E-03
        -0.94209E-03
         0.78724E-03
         0.17210E-02
         0.32056E-02
         0.28046E-02
         0.23057E-02
        -0.40586E-03
        -0.12092E-02
        -0.19447E-02
        -0.25028E-02
        -0.26369E-02
        -0.27665E-02
        -0.21126E-02
        -0.16088E-02
        -0.11941E-02
        -0.58711E-03
         0.20830E-03
         0.10580E-02
         0.18414E-02
         0.24546E-02
         0.26023E-02
         0.37964E-02
         0.39100E-02
         0.34621E-02
         0.29267E-02
         0.22211E-02
         0.13865E-02
         0.47130E-03
        -0.47130E-03
        -0.13865E-02
        -0.22211E-02
        -0.29267E-02
        -0.34621E-02
        -0.37964E-02
        -0.39100E-02
        -0.37964E-02
        -0.34621E-02
        -0.29267E-02
        -0.22211E-02
        -0.13865E-02
        -0.47130E-03
         0.47130E-03
         0.13865E-02
         0.22211E-02
         0.29267E-02
         0.34621E-02
         0.37964E-02
         0.10374E-02
         0.17446E-02
         0.23173E-02
         0.16692E-02
         0.30376E-02
         0.27801E-02
         0.12847E-02
         0.65065E-03
         0.12678E-03
        -0.12878E-03
         0.94401E-03
         0.11316E-02
         0.17479E-02
         0.40572E-03
         0.39774E-03
        -0.76409E-03
        -0.86637E-03
         0.45985E-03
        -0.18309E-02
        -0.18437E-02
        -0.27237E-02
        -0.28020E-02
        -0.25369E-02
        -0.19300E-02
        -0.99320E-03
        -0.14391E-02
        -0.31514E-03
        -0.11057E-02
        -0.18844E-02
        -0.18709E-02
        -0.15954E-03
        -0.94269E-03
         0.78658E-03
         0.17209E-02
         0.32060E-02
         0.28046E-02
         0.23056E-02
        -0.40572E-03
        -0.12092E-02
        -0.19446E-02
        -0.25028E-02
        -0.26368E-02
        -0.27662E-02
        -0.21128E-02
        -0.16088E-02
        -0.11942E-02
        -0.58746E-03
         0.20790E-03
         0.10577E-02
         0.18414E-02
         0.24548E-02
         0.26024E-02
         0.37964E-02
         0.39100E-02
         0.34621E-02
         0.29267E-02
         0.22211E-02
         0.13865E-02
         0.47130E-03
        -0.47130E-03
        -0.13865E-02
        -0.22211E-02
        -0.29267E-02
        -0.34621E-02
        -0.37964E-02
        -0.39100E-02
        -0.37964E-02
        -0.34621E-02
        -0.29267E-02
        -0.22211E-02
        -0.13865E-02
        -0.47130E-03
         0.47130E-03
         0.13865E-02
         0.22211E-02
         0.29267E-02
         0.34621E-02
         0.37964E-02
         0.10373E-02
         0.17445E-02
         0.23172E-02
         0.16689E-02
         0.30376E-02
         0.27805E-02
         0.12846E-02
         0.65041E-03
         0.12652E-03
        -0.12896E-03
         0.94367E-03
         0.11313E-02
         0.17475E-02
         0.40566E-03
         0.39772E-03
        -0.76444E-03
        -0.86648E-03
         0.45940E-03
        -0.18312E-02
        -0.18436E-02
        -0.27237E-02
        -0.28017E-02
        -0.25371E-02
        -0.19305E-02
        -0.99305E-03
        -0.14394E-02
        -0.31494E-03
        -0.11054E-02
        -0.18843E-02
        -0.18708E-02
        -0.15981E-03
        -0.94328E-03
         0.78592E-03
         0.17209E-02
         0.32063E-02
         0.28045E-02
         0.23055E-02
        -0.40558E-03
        -0.12092E-02
        -0.19446E-02
        -0.25027E-02
        -0.26367E-02
        -0.27658E-02
        -0.21129E-02
        -0.16089E-02
        -0.11943E-02
        -0.58781E-03
         0.20749E-03
         0.10574E-02
         0.18415E-02
         0.24549E-02
         0.26025E-02
         0.37964E-02
         0.39100E-02
         0.34621E-02
         0.29267E-02
         0.22211E-02
         0.13865E-02
         0.47130E-03
        -0.47130E-03
        -0.13865E-02
        -0.22211E-02
        -0.29267E-02
        -0.34621E-02
        -0.37964E-02
        -0.39100E-02
        -0.37964E-02
        -0.34621E-02
        -0.29267E-02
        -0.22211E-02
        -0.13865E-02
        -0.47130E-03
         0.47130E-03
         0.13865E-02
         0.22211E-02
         0.29267E-02
         0.34621E-02
         0.37964E-02
         0.10372E-02
         0.17443E-02
         0.23171E-02
         0.16687E-02
         0.30376E-02
         0.27808E-02
         0.12845E-02
         0.65016E-03
         0.12626E-03
        -0.12915E-03
         0.94334E-03
         0.11310E-02
         0.17471E-02
         0.40561E-03
         0.39770E-03
        -0.76480E-03
        -0.86659E-03
         0.45895E-03
        -0.18315E-02
        -0.18435E-02
        -0.27237E-02
        -0.28014E-02
        -0.25372E-02
        -0.19309E-02
        -0.99291E-03
        -0.14398E-02
        -0.31474E-03
        -0.11051E-02
        -0.18843E-02
        -0.18706E-02
        -0.16009E-03
        -0.94388E-03
         0.78526E-03
         0.17208E-02
         0.32066E-02
         0.28045E-02
         0.23053E-02
        -0.40545E-03
        -0.12092E-02
        -0.19446E-02
        -0.25027E-02
        -0.26366E-02
        -0.27655E-02
        -0.21130E-02
        -0.16089E-02
        -0.11944E-02
        -0.58816E-03
         0.20709E-03
         0.10571E-02
         0.18415E-02
         0.24550E-02
         0.26025E-02
         0.37964E-02
         0.39100E-02
         0.34621E-02
         0.29267E-02
         0.22211E-02
         0.13865E-02
         0.47130E-03
        -0.47130E-03
        -0.13865E-02
        -0.22211E-02
        -0.29267E-02
        -0.34621E-02
        -0.37964E-02
        -0.39100E-02
        -0.37964E-02
        -0.34621E-02
        -0.29267E-02
        -0.22211E-02
        -0.13865E-02
        -0.47130E-03
         0.47130E-03
         0.13865E-02
         0.22211E-02
         0.29267E-02
         0.34621E-02
         0.37964E-02
         0.10371E-02
         0.17441E-02
         0.23169E-02
         0.16685E-02
         0.30376E-02
         0.27812E-02
         0.12844E-02
         0.64992E-03
         0.12600E-03
        -0.12933E-03
         0.94301E-03
         0.11306E-02
         0.17467E-02
         0.40556E-03
         0.39769E-03
        -0.76515E-03
        -0.86670E-03
         0.45850E-03
        -0.18318E-02
        -0.18434E-02
        -0.27236E-02
        -0.28011E-02
        -0.25374E-02
        -0.19313E-02
        -0.99277E-03
        -0.14401E-02
        -0.31454E-03
        -0.11047E-02
        -0.18842E-02
        -0.18705E-02
        -0.16036E-03
        -0.94448E-03
         0.78460E-03
         0.17208E-02
         0.32070E-02
         0.28045E-02
         0.23052E-02
        -0.40531E-03
        -0.12092E-02
        -0.19445E-02
        -0.25027E-02
        -0.26366E-02
        -0.27652E-02
        -0.21132E-02
        -0.16090E-02
        -0.11946E-02
        -0.58851E-03
         0.20668E-03
         0.10567E-02
         0.18416E-02
         0.24551E-02
         0.26026E-02
         0.37964E-02
         0.39100E-02
         0.34621E-02
         0.29267E-02
         0.22211E-02
         0.13865E-02
         0.47130E-03
        -0.47130E-03
        -0.13865E-02
        -0.22211E-02
        -0.29267E-02
        -0.34621E-02
        -0.37964E-02
        -0.39100E-02
        -0.37964E-02
        -0.34621E-02
        -0.29267E-02
        -0.22211E-02
        -0.13865E-02
        -0.47130E-03
         0.47130E-03
         0.13865E-02
         0.22211E-02
         0.29267E-02
         0.34621E-02
         0.37964E-02
         0.10370E-02
         0.17439E-02
         0.23168E-02
         0.16683E-02
         0.30375E-02
         0.27815E-02
         0.12843E-02
         0.64967E-03
         0.12573E-03
        -0.12952E-03
         0.94268E-03
         0.11303E-02
         0.17463E-02
         0.40550E-03
         0.39767E-03
        -0.76551E-03
        -0.86680E-03
         0.45806E-03
        -0.18321E-02
        -0.18433E-02
        -0.27236E-02
        -0.28009E-02
        -0.25375E-02
        -0.19317E-02
        -0.99262E-03
        -0.14405E-02
        -0.31434E-03
        -0.11044E-02
        -0.18842E-02
        -0.18704E-02
        -0.16064E-03
        -0.94508E-03
         0.78394E-03
         0.17208E-02
         0.32073E-02
         0.28045E-02
         0.23051E-02
        -0.40517E-03
        -0.12092E-02
        -0.19445E-02
        -0.25026E-02
        -0.26365E-02
        -0.27649E-02
        -0.21133E-02
        -0.16090E-02
        -0.11947E-02
        -0.58886E-03
         0.20627E-03
         0.10564E-02
         0.18416E-02
         0.24553E-02
         0.26027E-02
         0.37964E-02
         0.39100E-02
         0.34621E-02
         0.29267E-02
         0.22211E-02
         0.13865E-02
         0.47130E-03
        -0.47130E-03
        -0.13865E-02
        -0.22211E-02
        -0.29267E-02
        -0.34621E-02
        -0.37964E-02
        -0.39100E-02
        -0.37964E-02
        -0.34621E-02
        -0.29267E-02
        -0.22211E-02
        -0.13865E-02
        -0.47130E-03
         0.47130E-03
         0.13865E-02
         0.22211E-02
         0.29267E-02
         0.34621E-02
         0.37964E-02
         0.10368E-02
         0.17438E-02
         0.23167E-02
         0.16681E-02
         0.30375E-02
         0.27819E-02
         0.12842E-02
         0.64943E-03
         0.12547E-03
        -0.12970E-03
         0.94235E-03
         0.11300E-02
         0.17459E-02
         0.40545E-03
         0.39766E-03
        -0.76586E-03
        -0.86691E-03
         0.45761E-03
        -0.18324E-02
        -0.18432E-02
        -0.27236E-02
        -0.28006E-02
        -0.25377E-02
        -0.19322E-02
        -0.99248E-03
        -0.14408E-02
        -0.31414E-03
        -0.11040E-02
        -0.18841E-02
        -0.18703E-02
        -0.16091E-03
        -0.94568E-03
         0.78328E-03
         0.17207E-02
         0.32076E-02
         0.28044E-02
         0.23050E-02
        -0.40503E-03
        -0.12092E-02
        -0.19445E-02
        -0.25026E-02
        -0.26364E-02
        -0.27646E-02
        -0.21134E-02
        -0.16091E-02
        -0.11948E-02
        -0.58921E-03
         0.20587E-03
         0.10561E-02
         0.18416E-02
         0.24554E-02
         0.26027E-02
         0.37964E-02
         0.39100E-02
         0.34621E-02
         0.29267E-02
         0.22211E-02
         0.13865E-02
         0.47130E-03
        -0.47130E-03
        -0.13865E-02
        -0.22211E-02
        -0.29267E-02
        -0.34621E-02
        -0.37964E-02
        -0.39100E-02
        -0.37964E-02
        -0.34621E-02
        -0.29267E-02
        -0.22211E-02
        -0.13865E-02
        -0.47130E-03
         0.47130E-03
         0.13865E-02
         0.22211E-02
         0.29267E-02
         0.34621E-02
         0.37964E-02
         0.10367E-02
         0.17436E-02
         0.23166E-02
         0.16679E-02
         0.30375E-02
         0.27822E-02
         0.12841E-02
         0.64918E-03
         0.12521E-03
        -0.12989E-03
         0.94202E-03
         0.11296E-02
         0.17455E-02
         0.40539E-03
         0.39764E-03
        -0.76621E-03
        -0.86702E-03
         0.45716E-03
        -0.18326E-02
        -0.18431E-02
        -0.27235E-02
        -0.28003E-02
        -0.25379E-02
        -0.19326E-02
        -0.99233E-03
        -0.14412E-02
        -0.31394E-03
        -0.11037E-02
        -0.18841E-02
        -0.18701E-02
        -0.16119E-03
        -0.94628E-03
         0.78262E-03
         0.17207E-02
         0.32079E-02
         0.28044E-02
         0.23049E-02
        -0.40490E-03
        -0.12093E-02
        -0.19444E-02
        -0.25026E-02
        -0.26363E-02
        -0.27643E-02
        -0.21136E-02
        -0.16091E-02
        -0.11949E-02
        -0.58956E-03
         0.20546E-03
         0.10558E-02
         0.18417E-02
         0.24555E-02
         0.26028E-02
         0.37964E-02
         0.39100E-02
         0.34621E-02
         0.29267E-02
         0.22211E-02
         0.13865E-02
         0.47130E-03
        -0.47130E-03
        -0.13865E-02
        -0.22211E-02
        -0.29267E-02
        -0.34621E-02
        -0.37964E-02
        -0.39100E-02
        -0.37964E-02
        -0.34621E-02
        -0.29267E-02
        -0.22211E-02
        -0.13865E-02
        -0.47130E-03
         0.47130E-03
         0.13865E-02
         0.22211E-02
         0.29267E-02
         0.34621E-02
         0.37964E-02
         0.10366E-02
         0.17434E-02
         0.23164E-02
         0.16677E-02
         0.30375E-02
         0.27825E-02
         0.12840E-02
         0.64894E-03
         0.12495E-03
        -0.13007E-03
         0.94169E-03
         0.11293E-02
         0.17451E-02
         0.40534E-03
         0.39762E-03
        -0.76657E-03
        -0.86713E-03
         0.45671E-03
        -0.18329E-02
        -0.18430E-02
        -0.27235E-02
        -0.28001E-02
        -0.25380E-02
        -0.19330E-02
        -0.99219E-03
        -0.14415E-02
        -0.31374E-03
        -0.11033E-02
        -0.18840E-02
        -0.18700E-02
        -0.16146E-03
        -0.94687E-03
         0.78195E-03
         0.17207E-02
         0.32083E-02
         0.28044E-02
         0.23048E-02
        -0.40476E-03
        -0.12093E-02
        -0.19444E-02
        -0.25026E-02
        -0.26362E-02
        -0.27640E-02
        -0.21137E-02
        -0.16091E-02
        -0.11950E-02
        -0.58991E-03
         0.20505E-03
         0.10555E-02
         0.18417E-02
         0.24556E-02
         0.26029E-02
         0.37964E-02
         0.39100E-02
         0.34621E-02
         0.29267E-02
         0.22211E-02
         0.13865E-02
         0.47130E-03
        -0.47130E-03
        -0.13865E-02
        -0.22211E-02
        -0.29267E-02
        -0.34621E-02
        -0.37964E-02
        -0.39100E-02
        -0.37964E-02
        -0.34621E-02
        -0.29267E-02
        -0.22211E-02
        -0.13865E-02
        -0.47130E-03
         0.47130E-03
         0.13865E-02
         0.22211E-02
         0.29267E-02
         0.34621E-02
         0.37964E-02
         0.10365E-02
         0.17432E-02
         0.23163E-02
         0.16675E-02
         0.30374E-02
         0.27829E-02
         0.12839E-02
         0.64869E-03
         0.12468E-03
        -0.13026E-03
         0.94135E-03
         0.11289E-02
         0.17447E-02
         0.40528E-03
         0.39760E-03
        -0.76692E-03
        -0.86724E-03
         0.45626E-03
        -0.18332E-02
        -0.18430E-02
        -0.27235E-02
        -0.27998E-02
        -0.25382E-02
        -0.19334E-02
        -0.99205E-03
        -0.14419E-02
        -0.31354E-03
        -0.11030E-02
        -0.18840E-02
        -0.18699E-02
        -0.16174E-03
        -0.94747E-03
         0.78129E-03
         0.17206E-02
         0.32086E-02
         0.28044E-02
         0.23047E-02
        -0.40462E-03
        -0.12093E-02
        -0.19444E-02
        -0.25025E-02
        -0.26361E-02
        -0.27637E-02
        -0.21139E-02
        -0.16092E-02
        -0.11951E-02
        -0.59025E-03
         0.20465E-03
         0.10552E-02
         0.18418E-02
         0.24558E-02
         0.26030E-02
         0.37964E-02
         0.39100E-02
         0.34621E-02
         0.29267E-02
         0.22211E-02
         0.13865E-02
         0.47130E-03
        -0.47130E-03
        -0.13865E-02
        -0.22211E-02
        -0.29267E-02
        -0.34621E-02
        -0.37964E-02
        -0.39100E-02
        -0.37964E-02
        -0.34621E-02
        -0.29267E-02
        -0.22211E-02
        -0.13865E-02
        -0.47130E-03
         0.47130E-03
         0.13865E-02
         0.22211E-02
         0.29267E-02
         0.34621E-02
         0.37964E-02
         0.10364E-02
         0.17430E-02
         0.23162E-02
         0.16672E-02
         0.30374E-02
         0.27832E-02
         0.12838E-02
         0.64845E-03
         0.12442E-03
        -0.13044E-03
         0.94102E-03
         0.11286E-02
         0.17443E-02
         0.40523E-03
         0.39759E-03
        -0.76727E-03
        -0.86735E-03
         0.45582E-03
        -0.18335E-02
        -0.18429E-02
        -0.27235E-02
        -0.27995E-02
        -0.25383E-02
        -0.19339E-02
        -0.99190E-03
        -0.14422E-02
        -0.31334E-03
        -0.11026E-02
        -0.18839E-02
        -0.18697E-02
        -0.16201E-03
        -0.94807E-03
         0.78063E-03
         0.17206E-02
         0.32089E-02
         0.28043E-02
         0.23046E-02
        -0.40448E-03
        -0.12093E-02
        -0.19443E-02
        -0.25025E-02
        -0.26360E-02
        -0.27633E-02
        -0.21140E-02
        -0.16092E-02
        -0.11953E-02
        -0.59060E-03
         0.20424E-03
         0.10549E-02
         0.18418E-02
         0.24559E-02
         0.26030E-02
         0.37964E-02
         0.39100E-02
         0.34621E-02
         0.29267E-02
         0.22211E-02
         0.13865E-02
         0.47130E-03
        -0.47130E-03
        -0.13865E-02
        -0.22211E-02
        -0.29267E-02
        -0.34621E-02
        -0.37964E-02
        -0.39100E-02
        -0.37964E-02
        -0.34621E-02
        -0.29267E-02
        -0.22211E-02
        -0.13865E-02
        -0.47130E-03
         0.47130E-03
         0.13865E-02
         0.22211E-02
         0.29267E-02
         0.34621E-02
         0.37964E-02
         0.10363E-02
         0.17429E-02
         0.23161E-02
         0.16670E-02
         0.30374E-02
         0.27836E-02
         0.12837E-02
         0.64820E-03
         0.12416E-03
        -0.13063E-03
         0.94069E-03
         0.11282E-02
         0.17439E-02
         0.40518E-03
         0.39757E-03
        -0.76763E-03
        -0.86746E-03
         0.45537E-03
        -0.18338E-02
        -0.18428E-02
        -0.27234E-02
        -0.27992E-02
        -0.25385E-02
        -0.19343E-02
        -0.99176E-03
        -0.14425E-02
        -0.31314E-03
        -0.11023E-02
        -0.18839E-02
        -0.18696E-02
        -0.16229E-03
        -0.94867E-03
         0.77997E-03
         0.17205E-02
         0.32092E-02
         0.28043E-02
         0.23044E-02
        -0.40434E-03
        -0.12093E-02
        -0.19443E-02
        -0.25025E-02
        -0.26359E-02
        -0.27630E-02
        -0.21141E-02
        -0.16093E-02
        -0.11954E-02
        -0.59095E-03
         0.20384E-03
         0.10546E-02
         0.18419E-02
         0.24560E-02
         0.26031E-02
         0.37964E-02
         0.39100E-02
         0.34621E-02
         0.29267E-02
         0.22211E-02
         0.13865E-02
         0.47130E-03
        -0.47130E-03
        -0.13865E-02
        -0.22211E-02
        -0.29267E-02
        -0.34621E-02
        -0.37964E-02
        -0.39100E-02
        -0.37964E-02
        -0.34621E-02
        -0.29267E-02
        -0.22211E-02
        -0.13865E-02
        -0.47130E-03
         0.47130E-03
         0.13865E-02
         0.22211E-02
         0.29267E-02
         0.34621E-02
         0.37964E-02
         0.10362E-02
         0.17427E-02
         0.23160E-02
         0.16668E-02
         0.30373E-02
         0.27839E-02
         0.12836E-02
         0.64796E-03
         0.12390E-03
        -0.13082E-03
         0.94036E-03
         0.11279E-02
         0.17435E-02
         0.40512E-03
         0.39755E-03
        -0.76798E-03
        -0.86756E-03
         0.45492E-03
        -0.18341E-02
        -0.18427E-02
        -0.27234E-02
        -0.27990E-02
        -0.25386E-02
        -0.19347E-02
        -0.99161E-03
        -0.14429E-02
        -0.31294E-03
        -0.11019E-02
        -0.18838E-02
        -0.18695E-02
        -0.16256E-03
        -0.94927E-03
         0.77931E-03
         0.17205E-02
         0.32096E-02
         0.28043E-02
         0.23043E-02
        -0.40420E-03
        -0.12093E-02
        -0.19443E-02
        -0.25024E-02
        -0.26358E-02
        -0.27627E-02
        -0.21143E-02
        -0.16093E-02
        -0.11955E-02
        -0.59130E-03
         0.20343E-03
         0.10543E-02
         0.18419E-02
         0.24561E-02
         0.26032E-02
         0.37964E-02
         0.39100E-02
         0.34621E-02
         0.29267E-02
         0.22211E-02
         0.13865E-02
         0.47130E-03
        -0.47130E-03
        -0.13865E-02
        -0.22211E-02
        -0.29267E-02
        -0.34621E-02
        -0.37964E-02
        -0.39100E-02
        -0.37964E-02
        -0.34621E-02
        -0.29267E-02
        -0.22211E-02
        -0.13865E-02
        -0.47130E-03
         0.47130E-03
         0.13865E-02
         0.22211E-02
         0.29267E-02
         0.34621E-02
         0.37964E-02
         0.10360E-02
         0.17425E-02
         0.23158E-02
         0.16666E-02
         0.30373E-02
         0.27842E-02
         0.12835E-02
         0.64771E-03
         0.12363E-03
        -0.13100E-03
         0.94003E-03
         0.11276E-02
         0.17432E-02
         0.40507E-03
         0.39754E-03
        -0.76834E-03
        -0.86767E-03
         0.45447E-03
        -0.18344E-02
        -0.18426E-02
        -0.27234E-02
        -0.27987E-02
        -0.25388E-02
        -0.19352E-02
        -0.99147E-03
        -0.14433E-02
        -0.31274E-03
        -0.11016E-02
        -0.18838E-02
        -0.18694E-02
        -0.16284E-03
        -0.94986E-03
         0.77865E-03
         0.17205E-02
         0.32099E-02
         0.28042E-02
         0.23042E-02
        -0.40407E-03
        -0.12093E-02
        -0.19442E-02
        -0.25024E-02
        -0.26358E-02
        -0.27624E-02
        -0.21144E-02
        -0.16094E-02
        -0.11956E-02
        -0.59165E-03
         0.20302E-03
         0.10540E-02
         0.18419E-02
         0.24563E-02
         0.26033E-02
         0.37964E-02
         0.39100E-02
         0.34621E-02
         0.29267E-02
         0.22211E-02
         0.13865E-02
         0.47130E-03
        -0.47130E-03
        -0.13865E-02
        -0.22211E-02
        -0.29267E-02
        -0.34621E-02
        -0.37964E-02
        -0.39100E-02
        -0.37964E-02
        -0.34621E-02
        -0.29267E-02
        -0.22211E-02
        -0.13865E-02
        -0.47130E-03
         0.47130E-03
         0.13865E-02
         0.22211E-02
         0.29267E-02
         0.34621E-02
         0.37964E-02
         0.10359E-02
         0.17423E-02
         0.23157E-02
         0.16664E-02
         0.30373E-02
         0.27846E-02
         0.12834E-02
         0.64747E-03
         0.12337E-03
        -0.13118E-03
         0.93970E-03
         0.11272E-02
         0.17428E-02
         0.40501E-03
         0.39752E-03
        -0.76869E-03
        -0.86778E-03
         0.45402E-03
        -0.18347E-02
        -0.18425E-02
        -0.27234E-02
        -0.27984E-02
        -0.25389E-02
        -0.19356E-02
        -0.99133E-03
        -0.14436E-02
        -0.31254E-03
        -0.11013E-02
        -0.18837E-02
        -0.18692E-02
        -0.16311E-03
        -0.95046E-03
         0.77799E-03
         0.17204E-02
         0.32102E-02
         0.28042E-02
         0.23041E-02
        -0.40393E-03
        -0.12093E-02
        -0.19442E-02
        -0.25024E-02
        -0.26357E-02
        -0.27621E-02
        -0.21146E-02
        -0.16094E-02
        -0.11957E-02
        -0.59200E-03
         0.20262E-03
         0.10536E-02
         0.18420E-02
         0.24564E-02
         0.26033E-02
         0.37964E-02
         0.39100E-02
         0.34621E-02
         0.29267E-02
         0.22211E-02
         0.13865E-02
         0.47130E-03
        -0.47130E-03
        -0.13865E-02
        -0.22211E-02
        -0.29267E-02
        -0.34621E-02
        -0.37964E-02
        -0.39100E-02
        -0.37964E-02
        -0.34621E-02
        -0.29267E-02
        -0.22211E-02
        -0.13865E-02
        -0.47130E-03
         0.47130E-03
         0.13865E-02
         0.22211E-02
         0.29267E-02
         0.34621E-02
         0.37964E-02
         0.10358E-02
         0.17422E-02
         0.23156E-02
         0.16662E-02
         0.30373E-02
         0.27849E-02
         0.12833E-02
         0.64722E-03
         0.12311E-03
        -0.13137E-03
         0.93937E-03
         0.11269E-02
         0.17424E-02
         0.40496E-03
         0.39750E-03
        -0.76904E-03
        -0.86789E-03
         0.45358E-03
        -0.18350E-02
        -0.18424E-02
        -0.27233E-02
        -0.27981E-02
        -0.25391E-02
        -0.19360E-02
        -0.99118E-03
        -0.14440E-02
        -0.31234E-03
        -0.11009E-02
        -0.18836E-02
        -0.18691E-02
        -0.16339E-03
        -0.95106E-03
         0.77733E-03
         0.17204E-02
         0.32105E-02
         0.28042E-02
         0.23040E-02
        -0.40379E-03
        -0.12093E-02
        -0.19441E-02
        -0.25023E-02
        -0.26356E-02
        -0.27618E-02
        -0.21147E-02
        -0.16094E-02
        -0.11958E-02
        -0.59235E-03
         0.20221E-03
         0.10533E-02
         0.18420E-02
         0.24565E-02
         0.26034E-02
         0.37964E-02
         0.39100E-02
         0.34621E-02
         0.29267E-02
         0.22211E-02
         0.13865E-02
         0.47130E-03
        -0.47130E-03
        -0.13865E-02
        -0.22211E-02
        -0.29267E-02
        -0.34621E-02
        -0.37964E-02
        -0.39100E-02
        -0.37964E-02
        -0.34621E-02
        -0.29267E-02
        -0.22211E-02
        -0.13865E-02
        -0.47130E-03
         0.47130E-03
         0.13865E-02
         0.22211E-02
         0.29267E-02
         0.34621E-02
         0.37964E-02
         0.10357E-02
         0.17420E-02
         0.23155E-02
         0.16660E-02
         0.30372E-02
         0.27853E-02
         0.12832E-02
         0.64698E-03
         0.12285E-03
        -0.13155E-03
         0.93903E-03
         0.11266E-02
         0.17420E-02
         0.40490E-03
         0.39749E-03
        -0.76940E-03
        -0.86800E-03
         0.45313E-03
        -0.18353E-02
        -0.18423E-02
        -0.27233E-02
        -0.27979E-02
        -0.25393E-02
        -0.19365E-02
        -0.99104E-03
        -0.14443E-02
        -0.31214E-03
        -0.11006E-02
        -0.18836E-02
        -0.18690E-02
        -0.16366E-03
        -0.95166E-03
         0.77667E-03
         0.17203E-02
         0.32109E-02
         0.28042E-02
         0.23039E-02
        -0.40365E-03
        -0.12093E-02
        -0.19441E-02
        -0.25023E-02
        -0.26355E-02
        -0.27615E-02
        -0.21148E-02
        -0.16095E-02
        -0.11960E-02
        -0.59270E-03
         0.20180E-03
         0.10530E-02
         0.18421E-02
         0.24566E-02
         0.26035E-02
         0.37964E-02
         0.39100E-02
         0.34621E-02
         0.29267E-02
         0.22211E-02
         0.13865E-02
         0.47130E-03
        -0.47130E-03
        -0.13865E-02
        -0.22211E-02
        -0.29267E-02
        -0.34621E-02
        -0.37964E-02
        -0.39100E-02
        -0.37964E-02
        -0.34621E-02
        -0.29267E-02
        -0.22211E-02
        -0.13865E-02
        -0.47130E-03
         0.47130E-03
         0.13865E-02
         0.22211E-02
         0.29267E-02
         0.34621E-02
         0.37964E-02
         0.10356E-02
         0.17418E-02
         0.23153E-02
         0.16657E-02
         0.30372E-02
         0.27856E-02
         0.12830E-02
         0.64673E-03
         0.12259E-03
        -0.13174E-03
         0.93870E-03
         0.11262E-02
         0.17416E-02
         0.40485E-03
         0.39747E-03
        -0.76975E-03
        -0.86811E-03
         0.45268E-03
        -0.18356E-02
        -0.18422E-02
        -0.27233E-02
        -0.27976E-02
        -0.25394E-02
        -0.19369E-02
        -0.99090E-03
        -0.14446E-02
        -0.31194E-03
        -0.11002E-02
        -0.18835E-02
        -0.18689E-02
        -0.16394E-03
        -0.95226E-03
         0.77601E-03
         0.17203E-02
         0.32112E-02
         0.28042E-02
         0.23038E-02
        -0.40352E-03
        -0.12093E-02
        -0.19441E-02
        -0.25023E-02
        -0.26354E-02
        -0.27612E-02
        -0.21150E-02
        -0.16095E-02
        -0.11961E-02
        -0.59305E-03
         0.20140E-03
         0.10527E-02
         0.18421E-02
         0.24568E-02
         0.26036E-02
         0.37964E-02
         0.39100E-02
         0.34621E-02
         0.29267E-02
         0.22211E-02
         0.13865E-02
         0.47130E-03
        -0.47130E-03
        -0.13865E-02
        -0.22211E-02
        -0.29267E-02
        -0.34621E-02
        -0.37964E-02
        -0.39100E-02
        -0.37964E-02
        -0.34621E-02
        -0.29267E-02
        -0.22211E-02
        -0.13865E-02
        -0.47130E-03
         0.47130E-03
         0.13865E-02
         0.22211E-02
         0.29267E-02
         0.34621E-02
         0.37964E-02
         0.10355E-02
         0.17416E-02
         0.23152E-02
         0.16655E-02
         0.30372E-02
         0.27860E-02
         0.12829E-02
         0.64649E-03
         0.12232E-03
        -0.13193E-03
         0.93837E-03
         0.11259E-02
         0.17412E-02
         0.40480E-03
         0.39745E-03
        -0.77011E-03
        -0.86822E-03
         0.45223E-03
        -0.18359E-02
        -0.18421E-02
        -0.27232E-02
        -0.27973E-02
        -0.25396E-02
        -0.19373E-02
        -0.99075E-03
        -0.14450E-02
        -0.31173E-03
        -0.10999E-02
        -0.18835E-02
        -0.18687E-02
        -0.16421E-03
        -0.95285E-03
         0.77535E-03
         0.17202E-02
         0.32115E-02
         0.28041E-02
         0.23037E-02
        -0.40338E-03
        -0.12093E-02
        -0.19440E-02
        -0.25023E-02
        -0.26353E-02
        -0.27609E-02
        -0.21151E-02
        -0.16096E-02
        -0.11962E-02
        -0.59340E-03
         0.20099E-03
         0.10524E-02
         0.18422E-02
         0.24569E-02
         0.26036E-02
         0.37964E-02
         0.39100E-02
         0.34621E-02
         0.29267E-02
         0.22211E-02
         0.13865E-02
         0.47130E-03
        -0.47130E-03
        -0.13865E-02
        -0.22211E-02
        -0.29267E-02
        -0.34621E-02
        -0.37964E-02
        -0.39100E-02
        -0.37964E-02
        -0.34621E-02
        -0.29267E-02
        -0.22211E-02
        -0.13865E-02
        -0.47130E-03
         0.47130E-03
         0.13865E-02
         0.22211E-02
         0.29267E-02
         0.34621E-02
         0.37964E-02
         0.10354E-02
         0.17414E-02
         0.23151E-02
         0.16653E-02
         0.30372E-02
         0.27863E-02
         0.12829E-02
         0.64624E-03
         0.12206E-03
        -0.13211E-03
         0.93804E-03
         0.11255E-02
         0.17408E-02
         0.40474E-03
         0.39744E-03
        -0.77046E-03
        -0.86832E-03
         0.45179E-03
        -0.18362E-02
        -0.18420E-02
        -0.27232E-02
        -0.27970E-02
        -0.25397E-02
        -0.19377E-02
        -0.99061E-03
        -0.14453E-02
        -0.31153E-03
        -0.10995E-02
        -0.18834E-02
        -0.18686E-02
        -0.16449E-03
        -0.95345E-03
         0.77469E-03
         0.17202E-02
         0.32119E-02
         0.28041E-02
         0.23036E-02
        -0.40324E-03
        -0.12093E-02
        -0.19440E-02
        -0.25022E-02
        -0.26352E-02
        -0.27606E-02
        -0.21152E-02
        -0.16096E-02
        -0.11963E-02
        -0.59375E-03
         0.20059E-03
         0.10521E-02
         0.18422E-02
         0.24570E-02
         0.26037E-02
         0.37964E-02
         0.39100E-02
         0.34621E-02
         0.29267E-02
         0.22211E-02
         0.13865E-02
         0.47130E-03
        -0.47130E-03
        -0.13865E-02
        -0.22211E-02
        -0.29267E-02
        -0.34621E-02
        -0.37964E-02
        -0.39100E-02
        -0.37964E-02
        -0.34621E-02
        -0.29267E-02
        -0.22211E-02
        -0.13865E-02
        -0.47130E-03
         0.47130E-03
         0.13865E-02
         0.22211E-02
         0.29267E-02
         0.34621E-02
         0.37964E-02
         0.10352E-02
         0.17413E-02
         0.23150E-02
         0.16651E-02
         0.30371E-02
         0.27866E-02
         0.12827E-02
         0.64600E-03
         0.12180E-03
        -0.13230E-03
         0.93771E-03
         0.11252E-02
         0.17404E-02
         0.40469E-03
         0.39742E-03
        -0.77081E-03
        -0.86843E-03
         0.45134E-03
        -0.18365E-02
        -0.18419E-02
        -0.27232E-02
        -0.27968E-02
        -0.25399E-02
        -0.19382E-02
        -0.99046E-03
        -0.14457E-02
        -0.31133E-03
        -0.10992E-02
        -0.18834E-02
        -0.18685E-02
        -0.16476E-03
        -0.95405E-03
         0.77402E-03
         0.17202E-02
         0.32122E-02
         0.28041E-02
         0.23034E-02
        -0.40310E-03
        -0.12093E-02
        -0.19440E-02
        -0.25022E-02
        -0.26351E-02
        -0.27602E-02
        -0.21154E-02
        -0.16097E-02
        -0.11964E-02
        -0.59409E-03
         0.20018E-03
         0.10518E-02
         0.18422E-02
         0.24571E-02
         0.26038E-02
         0.37964E-02
         0.39100E-02
         0.34621E-02
         0.29267E-02
         0.22211E-02
         0.13865E-02
         0.47130E-03
        -0.47130E-03
        -0.13865E-02
        -0.22211E-02
        -0.29267E-02
        -0.34621E-02
        -0.37964E-02
        -0.39100E-02
        -0.37964E-02
        -0.34621E-02
        -0.29267E-02
        -0.22211E-02
        -0.13865E-02
        -0.47130E-03
         0.47130E-03
         0.13865E-02
         0.22211E-02
         0.29267E-02
         0.34621E-02
         0.37964E-02
         0.10351E-02
         0.17411E-02
         0.23149E-02
         0.16649E-02
         0.30371E-02
         0.27870E-02
         0.12826E-02
         0.64575E-03
         0.12154E-03
        -0.13248E-03
         0.93738E-03
         0.11249E-02
         0.17400E-02
         0.40463E-03
         0.39740E-03
        -0.77117E-03
        -0.86854E-03
         0.45089E-03
        -0.18368E-02
        -0.18418E-02
        -0.27232E-02
        -0.27965E-02
        -0.25400E-02
        -0.19386E-02
        -0.99032E-03
        -0.14460E-02
        -0.31113E-03
        -0.10988E-02
        -0.18833E-02
        -0.18683E-02
        -0.16504E-03
        -0.95465E-03
         0.77336E-03
         0.17201E-02
         0.32125E-02
         0.28041E-02
         0.23033E-02
        -0.40296E-03
        -0.12093E-02
        -0.19439E-02
        -0.25022E-02
        -0.26350E-02
        -0.27599E-02
        -0.21155E-02
        -0.16097E-02
        -0.11965E-02
        -0.59444E-03
         0.19977E-03
         0.10515E-02
         0.18423E-02
         0.24573E-02
         0.26039E-02
         0.37964E-02
         0.39100E-02
         0.34621E-02
         0.29267E-02
         0.22211E-02
         0.13865E-02
         0.47130E-03
        -0.47130E-03
        -0.13865E-02
        -0.22211E-02
        -0.29267E-02
        -0.34621E-02
        -0.37964E-02
        -0.39100E-02
        -0.37964E-02
        -0.34621E-02
        -0.29267E-02
        -0.22211E-02
        -0.13865E-02
        -0.47130E-03
         0.47130E-03
         0.13865E-02
         0.22211E-02
         0.29267E-02
         0.34621E-02
         0.37964E-02
  
SCALARS           initial_coordinate_y  double 1
LOOKUP_TABLE default
         0.67292E-03
         0.12308E-02
         0.59151E-03
        -0.33775E-03
         0.67237E-03
         0.12301E-02
         0.59098E-03
        -0.33851E-03
         0.14882E-03
        -0.67643E-03
         0.14846E-03
        -0.67692E-03
         0.18412E-02
         0.14576E-02
         0.18410E-02
         0.14566E-02
         0.29933E-03
         0.11672E-02
         0.29819E-03
         0.11655E-02
         0.22748E-02
         0.28286E-02
         0.24238E-02
         0.22746E-02
         0.28291E-02
         0.24236E-02
         0.21685E-02
         0.29366E-02
         0.21684E-02
         0.29369E-02
        -0.10033E-02
         0.78969E-04
        -0.70318E-03
        -0.10032E-02
         0.78160E-04
        -0.70391E-03
        -0.71196E-03
         0.82749E-04
        -0.71210E-03
         0.82626E-04
        -0.77865E-03
         0.40713E-04
        -0.77882E-03
         0.40439E-04
        -0.15195E-02
        -0.13230E-02
        -0.15195E-02
        -0.13231E-02
         0.98847E-03
         0.98712E-03
        -0.17325E-02
        -0.17325E-02
         0.20220E-02
         0.20217E-02
         0.18615E-02
         0.18616E-02
         0.17175E-02
         0.90940E-03
         0.17175E-02
         0.90916E-03
        -0.19800E-02
        -0.23489E-02
        -0.19800E-02
        -0.23489E-02
        -0.17074E-02
        -0.17074E-02
        -0.14894E-02
        -0.14892E-02
         0.76036E-03
         0.12477E-02
         0.75936E-03
         0.12473E-02
         0.18665E-02
         0.18664E-02
         0.29038E-02
         0.29049E-02
         0.27207E-02
         0.27212E-02
         0.24642E-02
         0.24645E-02
         0.22359E-02
         0.16503E-02
         0.22359E-02
         0.16503E-02
         0.87493E-03
         0.87466E-03
        -0.21373E-02
        -0.21373E-02
        -0.26931E-02
        -0.26931E-02
        -0.31291E-02
        -0.30382E-02
        -0.31291E-02
        -0.30382E-02
        -0.28748E-02
        -0.28748E-02
        -0.26423E-02
        -0.26420E-02
        -0.23707E-02
        -0.23705E-02
        -0.21445E-02
        -0.15105E-02
        -0.21439E-02
        -0.15106E-02
         0.93572E-03
         0.00000E+00
         0.93572E-03
         0.00000E+00
         0.18171E-02
         0.18171E-02
         0.25928E-02
         0.25928E-02
         0.32179E-02
         0.32179E-02
         0.36559E-02
         0.36559E-02
         0.38815E-02
         0.38815E-02
         0.38815E-02
         0.38815E-02
         0.36559E-02
         0.36559E-02
         0.32179E-02
         0.32179E-02
         0.25928E-02
         0.25928E-02
         0.18171E-02
         0.18171E-02
         0.93572E-03
         0.93572E-03
         0.22152E-17
        -0.47884E-18
        -0.93572E-03
        -0.93572E-03
        -0.18171E-02
        -0.18171E-02
        -0.25928E-02
        -0.25928E-02
        -0.32179E-02
        -0.32179E-02
        -0.36559E-02
        -0.36559E-02
        -0.38815E-02
        -0.38815E-02
        -0.38815E-02
        -0.38815E-02
        -0.36559E-02
        -0.36559E-02
        -0.32179E-02
        -0.32179E-02
        -0.25928E-02
        -0.25928E-02
        -0.18171E-02
        -0.18171E-02
        -0.93572E-03
        -0.93572E-03
         0.67348E-03
         0.12314E-02
         0.59203E-03
        -0.33700E-03
         0.14918E-03
        -0.67594E-03
         0.18414E-02
         0.14586E-02
         0.30048E-03
         0.11690E-02
         0.22749E-02
         0.28282E-02
         0.24239E-02
         0.21685E-02
         0.29364E-02
        -0.10035E-02
         0.79778E-04
        -0.70245E-03
        -0.71182E-03
         0.82873E-04
        -0.77848E-03
         0.40986E-04
        -0.15194E-02
        -0.13228E-02
         0.98983E-03
        -0.17324E-02
         0.20223E-02
         0.18614E-02
         0.17175E-02
         0.90964E-03
        -0.19800E-02
        -0.23489E-02
        -0.17074E-02
        -0.14896E-02
         0.76137E-03
         0.12481E-02
         0.18665E-02
         0.29027E-02
         0.27202E-02
         0.24640E-02
         0.22359E-02
         0.16503E-02
         0.87519E-03
        -0.21373E-02
        -0.26932E-02
        -0.31291E-02
        -0.30382E-02
        -0.28748E-02
        -0.26426E-02
        -0.23709E-02
        -0.21450E-02
        -0.15104E-02
         0.93572E-03
         0.00000E+00
         0.18171E-02
         0.25928E-02
         0.32179E-02
         0.36559E-02
         0.38815E-02
         0.38815E-02
         0.36559E-02
         0.32179E-02
         0.25928E-02
         0.18171E-02
         0.93572E-03
        -0.47884E-18
        -0.93572E-03
        -0.18171E-02
        -0.25928E-02
        -0.32179E-02
        -0.36559E-02
        -0.38815E-02
        -0.38815E-02
        -0.36559E-02
        -0.32179E-02
        -0.25928E-02
        -0.18171E-02
        -0.93572E-03
         0.67403E-03
         0.12321E-02
         0.59255E-03
        -0.33624E-03
         0.14955E-03
        -0.67544E-03
         0.18415E-02
         0.14596E-02
         0.30163E-03
         0.11707E-02
         0.22750E-02
         0.28277E-02
         0.24241E-02
         0.21685E-02
         0.29361E-02
        -0.10036E-02
         0.80588E-04
        -0.70173E-03
        -0.71168E-03
         0.82996E-04
        -0.77831E-03
         0.41259E-04
        -0.15194E-02
        -0.13227E-02
         0.99119E-03
        -0.17324E-02
         0.20226E-02
         0.18613E-02
         0.17175E-02
         0.90988E-03
        -0.19801E-02
        -0.23490E-02
        -0.17074E-02
        -0.14899E-02
         0.76237E-03
         0.12485E-02
         0.18666E-02
         0.29017E-02
         0.27198E-02
         0.24638E-02
         0.22359E-02
         0.16503E-02
         0.87545E-03
        -0.21374E-02
        -0.26932E-02
        -0.31291E-02
        -0.30382E-02
        -0.28748E-02
        -0.26428E-02
        -0.23711E-02
        -0.21456E-02
        -0.15103E-02
         0.93572E-03
         0.00000E+00
         0.18171E-02
         0.25928E-02
         0.32179E-02
         0.36559E-02
         0.38815E-02
         0.38815E-02
         0.36559E-02
         0.32179E-02
         0.25928E-02
         0.18171E-02
         0.93572E-03
         0.39516E-17
        -0.93572E-03
        -0.18171E-02
        -0.25928E-02
        -0.32179E-02
        -0.36559E-02
        -0.38815E-02
        -0.38815E-02
        -0.36559E-02
        -0.32179E-02
        -0.25928E-02
        -0.18171E-02
        -0.93572E-03
         0.67459E-03
         0.12328E-02
         0.59308E-03
        -0.33549E-03
         0.14991E-03
        -0.67495E-03
         0.18417E-02
         0.14606E-02
         0.30278E-03
         0.11725E-02
         0.22752E-02
         0.28273E-02
         0.24242E-02
         0.21686E-02
         0.29359E-02
        -0.10038E-02
         0.81397E-04
        -0.70100E-03
        -0.71154E-03
         0.83120E-04
        -0.77814E-03
         0.41533E-04
        -0.15193E-02
        -0.13227E-02
         0.99254E-03
        -0.17324E-02
         0.20228E-02
         0.18611E-02
         0.17175E-02
         0.91012E-03
        -0.19801E-02
        -0.23490E-02
        -0.17074E-02
        -0.14901E-02
         0.76338E-03
         0.12490E-02
         0.18666E-02
         0.29006E-02
         0.27193E-02
         0.24636E-02
         0.22359E-02
         0.16503E-02
         0.87571E-03
        -0.21374E-02
        -0.26932E-02
        -0.31291E-02
        -0.30382E-02
        -0.28748E-02
        -0.26431E-02
        -0.23713E-02
        -0.21461E-02
        -0.15102E-02
         0.93572E-03
         0.00000E+00
         0.18171E-02
         0.25928E-02
         0.32179E-02
         0.36559E-02
         0.38815E-02
         0.38815E-02
         0.36559E-02
         0.32179E-02
         0.25928E-02
         0.18171E-02
         0.93572E-03
        -0.47884E-18
        -0.93572E-03
        -0.18171E-02
        -0.25928E-02
        -0.32179E-02
        -0.36559E-02
        -0.38815E-02
        -0.38815E-02
        -0.36559E-02
        -0.32179E-02
        -0.25928E-02
        -0.18171E-02
        -0.93572E-03
         0.67514E-03
         0.12334E-02
         0.59360E-03
        -0.33474E-03
         0.15027E-03
        -0.67446E-03
         0.18419E-02
         0.14616E-02
         0.30393E-03
         0.11742E-02
         0.22753E-02
         0.28269E-02
         0.24244E-02
         0.21686E-02
         0.29356E-02
        -0.10039E-02
         0.82206E-04
        -0.70028E-03
        -0.71140E-03
         0.83243E-04
        -0.77797E-03
         0.41806E-04
        -0.15193E-02
        -0.13226E-02
         0.99390E-03
        -0.17323E-02
         0.20231E-02
         0.18610E-02
         0.17175E-02
         0.91036E-03
        -0.19801E-02
        -0.23490E-02
        -0.17074E-02
        -0.14904E-02
         0.76439E-03
         0.12494E-02
         0.18666E-02
         0.28995E-02
         0.27188E-02
         0.24633E-02
         0.22359E-02
         0.16503E-02
         0.87597E-03
        -0.21374E-02
        -0.26932E-02
        -0.31291E-02
        -0.30382E-02
        -0.28748E-02
        -0.26434E-02
        -0.23715E-02
        -0.21467E-02
        -0.15101E-02
         0.93572E-03
         0.00000E+00
         0.18171E-02
         0.25928E-02
         0.32179E-02
         0.36559E-02
         0.38815E-02
         0.38815E-02
         0.36559E-02
         0.32179E-02
         0.25928E-02
         0.18171E-02
         0.93572E-03
        -0.47884E-18
        -0.93572E-03
        -0.18171E-02
        -0.25928E-02
        -0.32179E-02
        -0.36559E-02
        -0.38815E-02
        -0.38815E-02
        -0.36559E-02
        -0.32179E-02
        -0.25928E-02
        -0.18171E-02
        -0.93572E-03
         0.67570E-03
         0.12341E-02
         0.59412E-03
        -0.33398E-03
         0.15064E-03
        -0.67396E-03
         0.18421E-02
         0.14626E-02
         0.30507E-03
         0.11760E-02
         0.22754E-02
         0.28264E-02
         0.24245E-02
         0.21686E-02
         0.29353E-02
        -0.10040E-02
         0.83015E-04
        -0.69955E-03
        -0.71126E-03
         0.83367E-04
        -0.77780E-03
         0.42080E-04
        -0.15192E-02
        -0.13224E-02
         0.99526E-03
        -0.17323E-02
         0.20234E-02
         0.18609E-02
         0.17175E-02
         0.91060E-03
        -0.19801E-02
        -0.23490E-02
        -0.17074E-02
        -0.14906E-02
         0.76539E-03
         0.12498E-02
         0.18667E-02
         0.28984E-02
         0.27184E-02
         0.24631E-02
         0.22359E-02
         0.16503E-02
         0.87623E-03
        -0.21374E-02
        -0.26932E-02
        -0.31291E-02
        -0.30382E-02
        -0.28748E-02
        -0.26436E-02
        -0.23717E-02
        -0.21472E-02
        -0.15100E-02
         0.93572E-03
         0.00000E+00
         0.18171E-02
         0.25928E-02
         0.32179E-02
         0.36559E-02
         0.38815E-02
         0.38815E-02
         0.36559E-02
         0.32179E-02
         0.25928E-02
         0.18171E-02
         0.93572E-03
        -0.47884E-18
        -0.93572E-03
        -0.18171E-02
        -0.25928E-02
        -0.32179E-02
        -0.36559E-02
        -0.38815E-02
        -0.38815E-02
        -0.36559E-02
        -0.32179E-02
        -0.25928E-02
        -0.18171E-02
        -0.93572E-03
         0.67625E-03
         0.12348E-02
         0.59465E-03
        -0.33323E-03
         0.15100E-03
        -0.67347E-03
         0.18423E-02
         0.14636E-02
         0.30622E-03
         0.11777E-02
         0.22755E-02
         0.28260E-02
         0.24247E-02
         0.21687E-02
         0.29351E-02
        -0.10042E-02
         0.83825E-04
        -0.69882E-03
        -0.71112E-03
         0.83490E-04
        -0.77763E-03
         0.42353E-04
        -0.15192E-02
        -0.13223E-02
         0.99661E-03
        -0.17322E-02
         0.20237E-02
         0.18607E-02
         0.17175E-02
         0.91084E-03
        -0.19801E-02
        -0.23491E-02
        -0.17074E-02
        -0.14909E-02
         0.76640E-03
         0.12503E-02
         0.18667E-02
         0.28974E-02
         0.27179E-02
         0.24629E-02
         0.22359E-02
         0.16503E-02
         0.87650E-03
        -0.21374E-02
        -0.26933E-02
        -0.31291E-02
        -0.30382E-02
        -0.28749E-02
        -0.26439E-02
        -0.23719E-02
        -0.21478E-02
        -0.15099E-02
         0.93572E-03
         0.00000E+00
         0.18171E-02
         0.25928E-02
         0.32179E-02
         0.36559E-02
         0.38815E-02
         0.38815E-02
         0.36559E-02
         0.32179E-02
         0.25928E-02
         0.18171E-02
         0.93572E-03
        -0.47884E-18
        -0.93572E-03
        -0.18171E-02
        -0.25928E-02
        -0.32179E-02
        -0.36559E-02
        -0.38815E-02
        -0.38815E-02
        -0.36559E-02
        -0.32179E-02
        -0.25928E-02
        -0.18171E-02
        -0.93572E-03
         0.67680E-03
         0.12354E-02
         0.59517E-03
        -0.33247E-03
         0.15136E-03
        -0.67298E-03
         0.18425E-02
         0.14646E-02
         0.30737E-03
         0.11795E-02
         0.22757E-02
         0.28255E-02
         0.24248E-02
         0.21687E-02
         0.29348E-02
        -0.10043E-02
         0.84634E-04
        -0.69810E-03
        -0.71098E-03
         0.83614E-04
        -0.77746E-03
         0.42626E-04
        -0.15191E-02
        -0.13223E-02
         0.99797E-03
        -0.17322E-02
         0.20240E-02
         0.18606E-02
         0.17175E-02
         0.91108E-03
        -0.19802E-02
        -0.23491E-02
        -0.17074E-02
        -0.14911E-02
         0.76740E-03
         0.12507E-02
         0.18668E-02
         0.28963E-02
         0.27174E-02
         0.24627E-02
         0.22358E-02
         0.16503E-02
         0.87676E-03
        -0.21374E-02
        -0.26933E-02
        -0.31291E-02
        -0.30382E-02
        -0.28749E-02
        -0.26442E-02
        -0.23721E-02
        -0.21483E-02
        -0.15097E-02
         0.93572E-03
         0.00000E+00
         0.18171E-02
         0.25928E-02
         0.32179E-02
         0.36559E-02
         0.38815E-02
         0.38815E-02
         0.36559E-02
         0.32179E-02
         0.25928E-02
         0.18171E-02
         0.93572E-03
        -0.47884E-18
        -0.93572E-03
        -0.18171E-02
        -0.25928E-02
        -0.32179E-02
        -0.36559E-02
        -0.38815E-02
        -0.38815E-02
        -0.36559E-02
        -0.32179E-02
        -0.25928E-02
        -0.18171E-02
        -0.93572E-03
         0.67736E-03
         0.12361E-02
         0.59570E-03
        -0.33172E-03
         0.15173E-03
        -0.67248E-03
         0.18427E-02
         0.14656E-02
         0.30852E-03
         0.11812E-02
         0.22758E-02
         0.28251E-02
         0.24249E-02
         0.21688E-02
         0.29345E-02
        -0.10044E-02
         0.85443E-04
        -0.69737E-03
        -0.71084E-03
         0.83737E-04
        -0.77729E-03
         0.42899E-04
        -0.15191E-02
        -0.13222E-02
         0.99932E-03
        -0.17322E-02
         0.20243E-02
         0.18605E-02
         0.17175E-02
         0.91132E-03
        -0.19802E-02
        -0.23491E-02
        -0.17074E-02
        -0.14914E-02
         0.76841E-03
         0.12511E-02
         0.18668E-02
         0.28952E-02
         0.27170E-02
         0.24624E-02
         0.22358E-02
         0.16503E-02
         0.87702E-03
        -0.21374E-02
        -0.26933E-02
        -0.31291E-02
        -0.30382E-02
        -0.28749E-02
        -0.26444E-02
        -0.23723E-02
        -0.21489E-02
        -0.15096E-02
         0.93572E-03
         0.00000E+00
         0.18171E-02
         0.25928E-02
         0.32179E-02
         0.36559E-02
         0.38815E-02
         0.38815E-02
         0.36559E-02
         0.32179E-02
         0.25928E-02
         0.18171E-02
         0.93572E-03
        -0.47884E-18
        -0.93572E-03
        -0.18171E-02
        -0.25928E-02
        -0.32179E-02
        -0.36559E-02
        -0.38815E-02
        -0.38815E-02
        -0.36559E-02
        -0.32179E-02
        -0.25928E-02
        -0.18171E-02
        -0.93572E-03
         0.67791E-03
         0.12368E-02
         0.59622E-03
        -0.33096E-03
         0.15209E-03
        -0.67199E-03
         0.18429E-02
         0.14666E-02
         0.30967E-03
         0.11830E-02
         0.22759E-02
         0.28247E-02
         0.24251E-02
         0.21688E-02
         0.29343E-02
        -0.10046E-02
         0.86253E-04
        -0.69665E-03
        -0.71070E-03
         0.83861E-04
        -0.77712E-03
         0.43173E-04
        -0.15190E-02
        -0.13220E-02
         0.10007E-02
        -0.17321E-02
         0.20245E-02
         0.18603E-02
         0.17175E-02
         0.91156E-03
        -0.19802E-02
        -0.23491E-02
        -0.17074E-02
        -0.14916E-02
         0.76941E-03
         0.12515E-02
         0.18668E-02
         0.28942E-02
         0.27165E-02
         0.24622E-02
         0.22358E-02
         0.16503E-02
         0.87728E-03
        -0.21374E-02
        -0.26933E-02
        -0.31291E-02
        -0.30382E-02
        -0.28749E-02
        -0.26447E-02
        -0.23725E-02
        -0.21494E-02
        -0.15095E-02
         0.93572E-03
         0.00000E+00
         0.18171E-02
         0.25928E-02
         0.32179E-02
         0.36559E-02
         0.38815E-02
         0.38815E-02
         0.36559E-02
         0.32179E-02
         0.25928E-02
         0.18171E-02
         0.93572E-03
        -0.47884E-18
        -0.93572E-03
        -0.18171E-02
        -0.25928E-02
        -0.32179E-02
        -0.36559E-02
        -0.38815E-02
        -0.38815E-02
        -0.36559E-02
        -0.32179E-02
        -0.25928E-02
        -0.18171E-02
        -0.93572E-03
         0.67847E-03
         0.12374E-02
         0.59674E-03
        -0.33021E-03
         0.15245E-03
        -0.67150E-03
         0.18430E-02
         0.14676E-02
         0.31081E-03
         0.11847E-02
         0.22761E-02
         0.28242E-02
         0.24252E-02
         0.21688E-02
         0.29340E-02
        -0.10047E-02
         0.87062E-04
        -0.69592E-03
        -0.71056E-03
         0.83985E-04
        -0.77695E-03
         0.43446E-04
        -0.15190E-02
        -0.13219E-02
         0.10020E-02
        -0.17321E-02
         0.20248E-02
         0.18602E-02
         0.17175E-02
         0.91180E-03
        -0.19803E-02
        -0.23491E-02
        -0.17073E-02
        -0.14919E-02
         0.77042E-03
         0.12520E-02
         0.18669E-02
         0.28931E-02
         0.27160E-02
         0.24620E-02
         0.22358E-02
         0.16503E-02
         0.87754E-03
        -0.21374E-02
        -0.26933E-02
        -0.31291E-02
        -0.30382E-02
        -0.28749E-02
        -0.26450E-02
        -0.23727E-02
        -0.21500E-02
        -0.15094E-02
         0.93572E-03
         0.00000E+00
         0.18171E-02
         0.25928E-02
         0.32179E-02
         0.36559E-02
         0.38815E-02
         0.38815E-02
         0.36559E-02
         0.32179E-02
         0.25928E-02
         0.18171E-02
         0.93572E-03
         0.39516E-17
        -0.93572E-03
        -0.18171E-02
        -0.25928E-02
        -0.32179E-02
        -0.36559E-02
        -0.38815E-02
        -0.38815E-02
        -0.36559E-02
        -0.32179E-02
        -0.25928E-02
        -0.18171E-02
        -0.93572E-03
         0.67902E-03
         0.12381E-02
         0.59727E-03
        -0.32945E-03
         0.15282E-03
        -0.67100E-03
         0.18432E-02
         0.14686E-02
         0.31196E-03
         0.11865E-02
         0.22762E-02
         0.28238E-02
         0.24254E-02
         0.21688E-02
         0.29337E-02
        -0.10049E-02
         0.87871E-04
        -0.69519E-03
        -0.71042E-03
         0.84108E-04
        -0.77678E-03
         0.43720E-04
        -0.15189E-02
        -0.13219E-02
         0.10034E-02
        -0.17320E-02
         0.20251E-02
         0.18601E-02
         0.17175E-02
         0.91204E-03
        -0.19803E-02
        -0.23492E-02
        -0.17073E-02
        -0.14921E-02
         0.77142E-03
         0.12524E-02
         0.18669E-02
         0.28920E-02
         0.27155E-02
         0.24618E-02
         0.22358E-02
         0.16503E-02
         0.87781E-03
        -0.21374E-02
        -0.26934E-02
        -0.31291E-02
        -0.30382E-02
        -0.28749E-02
        -0.26452E-02
        -0.23729E-02
        -0.21505E-02
        -0.15093E-02
         0.93572E-03
         0.00000E+00
         0.18171E-02
         0.25928E-02
         0.32179E-02
         0.36559E-02
         0.38815E-02
         0.38815E-02
         0.36559E-02
         0.32179E-02
         0.25928E-02
         0.18171E-02
         0.93572E-03
        -0.47884E-18
        -0.93572E-03
        -0.18171E-02
        -0.25928E-02
        -0.32179E-02
        -0.36559E-02
        -0.38815E-02
        -0.38815E-02
        -0.36559E-02
        -0.32179E-02
        -0.25928E-02
        -0.18171E-02
        -0.93572E-03
         0.67958E-03
         0.12387E-02
         0.59779E-03
        -0.32870E-03
         0.15318E-03
        -0.67051E-03
         0.18434E-02
         0.14696E-02
         0.31311E-03
         0.11882E-02
         0.22763E-02
         0.28233E-02
         0.24255E-02
         0.21689E-02
         0.29335E-02
        -0.10050E-02
         0.88681E-04
        -0.69447E-03
        -0.71028E-03
         0.84232E-04
        -0.77661E-03
         0.43993E-04
        -0.15189E-02
        -0.13218E-02
         0.10048E-02
        -0.17320E-02
         0.20254E-02
         0.18599E-02
         0.17175E-02
         0.91228E-03
        -0.19803E-02
        -0.23492E-02
        -0.17073E-02
        -0.14923E-02
         0.77243E-03
         0.12528E-02
         0.18670E-02
         0.28910E-02
         0.27151E-02
         0.24615E-02
         0.22358E-02
         0.16503E-02
         0.87807E-03
        -0.21374E-02
        -0.26934E-02
        -0.31291E-02
        -0.30382E-02
        -0.28749E-02
        -0.26455E-02
        -0.23732E-02
        -0.21511E-02
        -0.15092E-02
         0.93572E-03
         0.00000E+00
         0.18171E-02
         0.25928E-02
         0.32179E-02
         0.36559E-02
         0.38815E-02
         0.38815E-02
         0.36559E-02
         0.32179E-02
         0.25928E-02
         0.18171E-02
         0.93572E-03
         0.22152E-17
        -0.93572E-03
        -0.18171E-02
        -0.25928E-02
        -0.32179E-02
        -0.36559E-02
        -0.38815E-02
        -0.38815E-02
        -0.36559E-02
        -0.32179E-02
        -0.25928E-02
        -0.18171E-02
        -0.93572E-03
         0.68013E-03
         0.12394E-02
         0.59831E-03
        -0.32794E-03
         0.15354E-03
        -0.67002E-03
         0.18436E-02
         0.14706E-02
         0.31426E-03
         0.11900E-02
         0.22765E-02
         0.28229E-02
         0.24257E-02
         0.21689E-02
         0.29332E-02
        -0.10051E-02
         0.89490E-04
        -0.69374E-03
        -0.71013E-03
         0.84355E-04
        -0.77644E-03
         0.44266E-04
        -0.15188E-02
        -0.13216E-02
         0.10061E-02
        -0.17320E-02
         0.20257E-02
         0.18598E-02
         0.17175E-02
         0.91252E-03
        -0.19803E-02
        -0.23492E-02
        -0.17073E-02
        -0.14926E-02
         0.77343E-03
         0.12533E-02
         0.18670E-02
         0.28899E-02
         0.27146E-02
         0.24613E-02
         0.22358E-02
         0.16503E-02
         0.87833E-03
        -0.21374E-02
        -0.26934E-02
        -0.31291E-02
        -0.30382E-02
        -0.28750E-02
        -0.26458E-02
        -0.23734E-02
        -0.21516E-02
        -0.15091E-02
         0.93572E-03
         0.00000E+00
         0.18171E-02
         0.25928E-02
         0.32179E-02
         0.36559E-02
         0.38815E-02
         0.38815E-02
         0.36559E-02
         0.32179E-02
         0.25928E-02
         0.18171E-02
         0.93572E-03
        -0.47884E-18
        -0.93572E-03
        -0.18171E-02
        -0.25928E-02
        -0.32179E-02
        -0.36559E-02
        -0.38815E-02
        -0.38815E-02
        -0.36559E-02
        -0.32179E-02
        -0.25928E-02
        -0.18171E-02
        -0.93572E-03
         0.68068E-03
         0.12401E-02
         0.59884E-03
        -0.32719E-03
         0.15391E-03
        -0.66953E-03
         0.18438E-02
         0.14716E-02
         0.31541E-03
         0.11917E-02
         0.22766E-02
         0.28225E-02
         0.24258E-02
         0.21690E-02
         0.29330E-02
        -0.10053E-02
         0.90299E-04
        -0.69302E-03
        -0.70999E-03
         0.84479E-04
        -0.77627E-03
         0.44540E-04
        -0.15188E-02
        -0.13215E-02
         0.10075E-02
        -0.17319E-02
         0.20260E-02
         0.18597E-02
         0.17175E-02
         0.91276E-03
        -0.19804E-02
        -0.23493E-02
        -0.17073E-02
        -0.14928E-02
         0.77444E-03
         0.12537E-02
         0.18670E-02
         0.28888E-02
         0.27141E-02
         0.24611E-02
         0.22358E-02
         0.16503E-02
         0.87859E-03
        -0.21374E-02
        -0.26934E-02
        -0.31291E-02
        -0.30382E-02
        -0.28750E-02
        -0.26460E-02
        -0.23736E-02
        -0.21521E-02
        -0.15090E-02
         0.93572E-03
         0.00000E+00
         0.18171E-02
         0.25928E-02
         0.32179E-02
         0.36559E-02
         0.38815E-02
         0.38815E-02
         0.36559E-02
         0.32179E-02
         0.25928E-02
         0.18171E-02
         0.93572E-03
         0.22152E-17
        -0.93572E-03
        -0.18171E-02
        -0.25928E-02
        -0.32179E-02
        -0.36559E-02
        -0.38815E-02
        -0.38815E-02
        -0.36559E-02
        -0.32179E-02
        -0.25928E-02
        -0.18171E-02
        -0.93572E-03
         0.68124E-03
         0.12407E-02
         0.59936E-03
        -0.32643E-03
         0.15427E-03
        -0.66903E-03
         0.18440E-02
         0.14727E-02
         0.31656E-03
         0.11935E-02
         0.22767E-02
         0.28220E-02
         0.24260E-02
         0.21690E-02
         0.29327E-02
        -0.10054E-02
         0.91108E-04
        -0.69229E-03
        -0.70985E-03
         0.84602E-04
        -0.77610E-03
         0.44813E-04
        -0.15187E-02
        -0.13215E-02
         0.10088E-02
        -0.17319E-02
         0.20262E-02
         0.18595E-02
         0.17175E-02
         0.91300E-03
        -0.19804E-02
        -0.23493E-02
        -0.17073E-02
        -0.14931E-02
         0.77544E-03
         0.12541E-02
         0.18671E-02
         0.28877E-02
         0.27137E-02
         0.24609E-02
         0.22358E-02
         0.16503E-02
         0.87885E-03
        -0.21374E-02
        -0.26934E-02
        -0.31291E-02
        -0.30382E-02
        -0.28750E-02
        -0.26463E-02
        -0.23738E-02
        -0.21527E-02
        -0.15088E-02
         0.93572E-03
         0.00000E+00
         0.18171E-02
         0.25928E-02
         0.32179E-02
         0.36559E-02
         0.38815E-02
         0.38815E-02
         0.36559E-02
         0.32179E-02
         0.25928E-02
         0.18171E-02
         0.93572E-03
        -0.47884E-18
        -0.93572E-03
        -0.18171E-02
        -0.25928E-02
        -0.32179E-02
        -0.36559E-02
        -0.38815E-02
        -0.38815E-02
        -0.36559E-02
        -0.32179E-02
        -0.25928E-02
        -0.18171E-02
        -0.93572E-03
         0.68179E-03
         0.12414E-02
         0.59988E-03
        -0.32568E-03
         0.15463E-03
        -0.66854E-03
         0.18442E-02
         0.14736E-02
         0.31770E-03
         0.11952E-02
         0.22768E-02
         0.28216E-02
         0.24261E-02
         0.21690E-02
         0.29324E-02
        -0.10056E-02
         0.91918E-04
        -0.69156E-03
        -0.70971E-03
         0.84726E-04
        -0.77593E-03
         0.45086E-04
        -0.15187E-02
        -0.13213E-02
         0.10102E-02
        -0.17318E-02
         0.20265E-02
         0.18594E-02
         0.17175E-02
         0.91324E-03
        -0.19804E-02
        -0.23493E-02
        -0.17073E-02
        -0.14933E-02
         0.77645E-03
         0.12545E-02
         0.18671E-02
         0.28867E-02
         0.27132E-02
         0.24606E-02
         0.22358E-02
         0.16503E-02
         0.87912E-03
        -0.21374E-02
        -0.26935E-02
        -0.31291E-02
        -0.30381E-02
        -0.28750E-02
        -0.26466E-02
        -0.23740E-02
        -0.21533E-02
        -0.15087E-02
         0.93572E-03
         0.00000E+00
         0.18171E-02
         0.25928E-02
         0.32179E-02
         0.36559E-02
         0.38815E-02
         0.38815E-02
         0.36559E-02
         0.32179E-02
         0.25928E-02
         0.18171E-02
         0.93572E-03
        -0.47884E-18
        -0.93572E-03
        -0.18171E-02
        -0.25928E-02
        -0.32179E-02
        -0.36559E-02
        -0.38815E-02
        -0.38815E-02
        -0.36559E-02
        -0.32179E-02
        -0.25928E-02
        -0.18171E-02
        -0.93572E-03
         0.68235E-03
         0.12421E-02
         0.60041E-03
        -0.32493E-03
         0.15500E-03
        -0.66805E-03
         0.18444E-02
         0.14747E-02
         0.31885E-03
         0.11970E-02
         0.22770E-02
         0.28211E-02
         0.24262E-02
         0.21691E-02
         0.29322E-02
        -0.10057E-02
         0.92727E-04
        -0.69084E-03
        -0.70957E-03
         0.84849E-04
        -0.77576E-03
         0.45359E-04
        -0.15186E-02
        -0.13212E-02
         0.10115E-02
        -0.17318E-02
         0.20268E-02
         0.18593E-02
         0.17175E-02
         0.91347E-03
        -0.19804E-02
        -0.23493E-02
        -0.17073E-02
        -0.14936E-02
         0.77745E-03
         0.12550E-02
         0.18671E-02
         0.28856E-02
         0.27127E-02
         0.24604E-02
         0.22358E-02
         0.16503E-02
         0.87938E-03
        -0.21374E-02
        -0.26935E-02
        -0.31291E-02
        -0.30381E-02
        -0.28750E-02
        -0.26468E-02
        -0.23742E-02
        -0.21538E-02
        -0.15086E-02
         0.93572E-03
         0.00000E+00
         0.18171E-02
         0.25928E-02
         0.32179E-02
         0.36559E-02
         0.38815E-02
         0.38815E-02
         0.36559E-02
         0.32179E-02
         0.25928E-02
         0.18171E-02
         0.93572E-03
        -0.47884E-18
        -0.93572E-03
        -0.18171E-02
        -0.25928E-02
        -0.32179E-02
        -0.36559E-02
        -0.38815E-02
        -0.38815E-02
        -0.36559E-02
        -0.32179E-02
        -0.25928E-02
        -0.18171E-02
        -0.93572E-03
         0.68290E-03
         0.12427E-02
         0.60093E-03
        -0.32417E-03
         0.15536E-03
        -0.66755E-03
         0.18445E-02
         0.14757E-02
         0.32000E-03
         0.11987E-02
         0.22771E-02
         0.28207E-02
         0.24264E-02
         0.21691E-02
         0.29319E-02
        -0.10058E-02
         0.93536E-04
        -0.69011E-03
        -0.70943E-03
         0.84973E-04
        -0.77559E-03
         0.45633E-04
        -0.15186E-02
        -0.13212E-02
         0.10129E-02
        -0.17318E-02
         0.20271E-02
         0.18592E-02
         0.17175E-02
         0.91371E-03
        -0.19805E-02
        -0.23493E-02
        -0.17073E-02
        -0.14938E-02
         0.77846E-03
         0.12554E-02
         0.18672E-02
         0.28845E-02
         0.27122E-02
         0.24602E-02
         0.22358E-02
         0.16502E-02
         0.87964E-03
        -0.21374E-02
        -0.26935E-02
        -0.31291E-02
        -0.30381E-02
        -0.28750E-02
        -0.26471E-02
        -0.23744E-02
        -0.21543E-02
        -0.15085E-02
         0.93572E-03
         0.00000E+00
         0.18171E-02
         0.25928E-02
         0.32179E-02
         0.36559E-02
         0.38815E-02
         0.38815E-02
         0.36559E-02
         0.32179E-02
         0.25928E-02
         0.18171E-02
         0.93572E-03
        -0.47884E-18
        -0.93572E-03
        -0.18171E-02
        -0.25928E-02
        -0.32179E-02
        -0.36559E-02
        -0.38815E-02
        -0.38815E-02
        -0.36559E-02
        -0.32179E-02
        -0.25928E-02
        -0.18171E-02
        -0.93572E-03
         0.68346E-03
         0.12434E-02
         0.60145E-03
        -0.32342E-03
         0.15572E-03
        -0.66706E-03
         0.18447E-02
         0.14767E-02
         0.32115E-03
         0.12005E-02
         0.22772E-02
         0.28203E-02
         0.24265E-02
         0.21691E-02
         0.29316E-02
        -0.10060E-02
         0.94345E-04
        -0.68939E-03
        -0.70929E-03
         0.85096E-04
        -0.77542E-03
         0.45906E-04
        -0.15185E-02
        -0.13211E-02
         0.10142E-02
        -0.17317E-02
         0.20274E-02
         0.18590E-02
         0.17175E-02
         0.91395E-03
        -0.19805E-02
        -0.23494E-02
        -0.17073E-02
        -0.14941E-02
         0.77946E-03
         0.12558E-02
         0.18672E-02
         0.28835E-02
         0.27118E-02
         0.24600E-02
         0.22358E-02
         0.16502E-02
         0.87990E-03
        -0.21374E-02
        -0.26935E-02
        -0.31291E-02
        -0.30381E-02
        -0.28750E-02
        -0.26474E-02
        -0.23746E-02
        -0.21549E-02
        -0.15084E-02
         0.93572E-03
         0.00000E+00
         0.18171E-02
         0.25928E-02
         0.32179E-02
         0.36559E-02
         0.38815E-02
         0.38815E-02
         0.36559E-02
         0.32179E-02
         0.25928E-02
         0.18171E-02
         0.93572E-03
         0.22152E-17
        -0.93572E-03
        -0.18171E-02
        -0.25928E-02
        -0.32179E-02
        -0.36559E-02
        -0.38815E-02
        -0.38815E-02
        -0.36559E-02
        -0.32179E-02
        -0.25928E-02
        -0.18171E-02
        -0.93572E-03
         0.68401E-03
         0.12440E-02
         0.60198E-03
        -0.32266E-03
         0.15609E-03
        -0.66657E-03
         0.18449E-02
         0.14777E-02
         0.32230E-03
         0.12022E-02
         0.22774E-02
         0.28198E-02
         0.24267E-02
         0.21692E-02
         0.29314E-02
        -0.10061E-02
         0.95155E-04
        -0.68866E-03
        -0.70915E-03
         0.85220E-04
        -0.77525E-03
         0.46180E-04
        -0.15185E-02
        -0.13210E-02
         0.10156E-02
        -0.17317E-02
         0.20277E-02
         0.18589E-02
         0.17175E-02
         0.91419E-03
        -0.19805E-02
        -0.23494E-02
        -0.17073E-02
        -0.14943E-02
         0.78047E-03
         0.12563E-02
         0.18672E-02
         0.28824E-02
         0.27113E-02
         0.24597E-02
         0.22358E-02
         0.16502E-02
         0.88016E-03
        -0.21374E-02
        -0.26935E-02
        -0.31291E-02
        -0.30381E-02
        -0.28751E-02
        -0.26476E-02
        -0.23748E-02
        -0.21554E-02
        -0.15083E-02
         0.93572E-03
         0.00000E+00
         0.18171E-02
         0.25928E-02
         0.32179E-02
         0.36559E-02
         0.38815E-02
         0.38815E-02
         0.36559E-02
         0.32179E-02
         0.25928E-02
         0.18171E-02
         0.93572E-03
        -0.47884E-18
        -0.93572E-03
        -0.18171E-02
        -0.25928E-02
        -0.32179E-02
        -0.36559E-02
        -0.38815E-02
        -0.38815E-02
        -0.36559E-02
        -0.32179E-02
        -0.25928E-02
        -0.18171E-02
        -0.93572E-03
         0.68457E-03
         0.12447E-02
         0.60250E-03
        -0.32191E-03
         0.15645E-03
        -0.66607E-03
         0.18451E-02
         0.14787E-02
         0.32345E-03
         0.12040E-02
         0.22775E-02
         0.28194E-02
         0.24268E-02
         0.21692E-02
         0.29311E-02
        -0.10062E-02
         0.95964E-04
        -0.68793E-03
        -0.70901E-03
         0.85343E-04
        -0.77507E-03
         0.46453E-04
        -0.15184E-02
        -0.13209E-02
         0.10169E-02
        -0.17316E-02
         0.20280E-02
         0.18588E-02
         0.17175E-02
         0.91443E-03
        -0.19806E-02
        -0.23494E-02
        -0.17073E-02
        -0.14945E-02
         0.78148E-03
         0.12567E-02
         0.18673E-02
         0.28813E-02
         0.27108E-02
         0.24595E-02
         0.22358E-02
         0.16502E-02
         0.88043E-03
        -0.21374E-02
        -0.26936E-02
        -0.31291E-02
        -0.30381E-02
        -0.28751E-02
        -0.26479E-02
        -0.23750E-02
        -0.21560E-02
        -0.15082E-02
         0.93572E-03
         0.00000E+00
         0.18171E-02
         0.25928E-02
         0.32179E-02
         0.36559E-02
         0.38815E-02
         0.38815E-02
         0.36559E-02
         0.32179E-02
         0.25928E-02
         0.18171E-02
         0.93572E-03
        -0.47884E-18
        -0.93572E-03
        -0.18171E-02
        -0.25928E-02
        -0.32179E-02
        -0.36559E-02
        -0.38815E-02
        -0.38815E-02
        -0.36559E-02
        -0.32179E-02
        -0.25928E-02
        -0.18171E-02
        -0.93572E-03
         0.68512E-03
         0.12454E-02
         0.60302E-03
        -0.32115E-03
         0.15681E-03
        -0.66558E-03
         0.18453E-02
         0.14797E-02
         0.32459E-03
         0.12058E-02
         0.22776E-02
         0.28189E-02
         0.24270E-02
         0.21693E-02
         0.29308E-02
        -0.10064E-02
         0.96773E-04
        -0.68721E-03
        -0.70887E-03
         0.85467E-04
        -0.77490E-03
         0.46726E-04
        -0.15184E-02
        -0.13208E-02
         0.10183E-02
        -0.17316E-02
         0.20283E-02
         0.18586E-02
         0.17175E-02
         0.91467E-03
        -0.19806E-02
        -0.23494E-02
        -0.17073E-02
        -0.14948E-02
         0.78248E-03
         0.12571E-02
         0.18673E-02
         0.28802E-02
         0.27103E-02
         0.24593E-02
         0.22358E-02
         0.16502E-02
         0.88069E-03
        -0.21374E-02
        -0.26936E-02
        -0.31291E-02
        -0.30381E-02
        -0.28751E-02
        -0.26482E-02
        -0.23752E-02
        -0.21565E-02
        -0.15081E-02
         0.93572E-03
         0.00000E+00
         0.18171E-02
         0.25928E-02
         0.32179E-02
         0.36559E-02
         0.38815E-02
         0.38815E-02
         0.36559E-02
         0.32179E-02
         0.25928E-02
         0.18171E-02
         0.93572E-03
        -0.47884E-18
        -0.93572E-03
        -0.18171E-02
        -0.25928E-02
        -0.32179E-02
        -0.36559E-02
        -0.38815E-02
        -0.38815E-02
        -0.36559E-02
        -0.32179E-02
        -0.25928E-02
        -0.18171E-02
        -0.93572E-03
         0.68567E-03
         0.12460E-02
         0.60355E-03
        -0.32040E-03
         0.15718E-03
        -0.66509E-03
         0.18455E-02
         0.14807E-02
         0.32574E-03
         0.12075E-02
         0.22777E-02
         0.28185E-02
         0.24271E-02
         0.21693E-02
         0.29306E-02
        -0.10065E-02
         0.97583E-04
        -0.68648E-03
        -0.70873E-03
         0.85591E-04
        -0.77474E-03
         0.47000E-04
        -0.15183E-02
        -0.13207E-02
         0.10197E-02
        -0.17316E-02
         0.20285E-02
         0.18585E-02
         0.17175E-02
         0.91491E-03
        -0.19806E-02
        -0.23495E-02
        -0.17073E-02
        -0.14950E-02
         0.78348E-03
         0.12576E-02
         0.18674E-02
         0.28792E-02
         0.27099E-02
         0.24591E-02
         0.22358E-02
         0.16502E-02
         0.88095E-03
        -0.21374E-02
        -0.26936E-02
        -0.31290E-02
        -0.30381E-02
        -0.28751E-02
        -0.26484E-02
        -0.23754E-02
        -0.21571E-02
        -0.15080E-02
         0.93572E-03
         0.00000E+00
         0.18171E-02
         0.25928E-02
         0.32179E-02
         0.36559E-02
         0.38815E-02
         0.38815E-02
         0.36559E-02
         0.32179E-02
         0.25928E-02
         0.18171E-02
         0.93572E-03
         0.47884E-18
        -0.93572E-03
        -0.18171E-02
        -0.25928E-02
        -0.32179E-02
        -0.36559E-02
        -0.38815E-02
        -0.38815E-02
        -0.36559E-02
        -0.32179E-02
        -0.25928E-02
        -0.18171E-02
        -0.93572E-03
  
SCALARS           initial_coordinate_z  double 1
LOOKUP_TABLE default
        -0.10771E-01
        -0.10771E-01
        -0.10771E-01
        -0.10771E-01
        -0.11750E-01
        -0.11750E-01
        -0.11750E-01
        -0.11750E-01
        -0.10771E-01
        -0.10771E-01
        -0.11750E-01
        -0.11750E-01
        -0.10771E-01
        -0.10771E-01
        -0.11750E-01
        -0.11750E-01
        -0.10771E-01
        -0.10771E-01
        -0.11750E-01
        -0.11750E-01
        -0.10771E-01
        -0.10771E-01
        -0.10771E-01
        -0.11750E-01
        -0.11750E-01
        -0.11750E-01
        -0.10771E-01
        -0.10771E-01
        -0.11750E-01
        -0.11750E-01
        -0.10771E-01
        -0.10771E-01
        -0.10771E-01
        -0.11750E-01
        -0.11750E-01
        -0.11750E-01
        -0.10771E-01
        -0.10771E-01
        -0.11750E-01
        -0.11750E-01
        -0.10771E-01
        -0.10771E-01
        -0.11750E-01
        -0.11750E-01
        -0.10771E-01
        -0.10771E-01
        -0.11750E-01
        -0.11750E-01
        -0.10771E-01
        -0.11750E-01
        -0.10771E-01
        -0.11750E-01
        -0.10771E-01
        -0.11750E-01
        -0.10771E-01
        -0.11750E-01
        -0.10771E-01
        -0.10771E-01
        -0.11750E-01
        -0.11750E-01
        -0.10771E-01
        -0.10771E-01
        -0.11750E-01
        -0.11750E-01
        -0.10771E-01
        -0.11750E-01
        -0.10771E-01
        -0.11750E-01
        -0.10771E-01
        -0.10771E-01
        -0.11750E-01
        -0.11750E-01
        -0.10771E-01
        -0.11750E-01
        -0.10771E-01
        -0.11750E-01
        -0.10771E-01
        -0.11750E-01
        -0.10771E-01
        -0.11750E-01
        -0.10771E-01
        -0.10771E-01
        -0.11750E-01
        -0.11750E-01
        -0.10771E-01
        -0.11750E-01
        -0.10771E-01
        -0.11750E-01
        -0.10771E-01
        -0.11750E-01
        -0.10771E-01
        -0.10771E-01
        -0.11750E-01
        -0.11750E-01
        -0.10771E-01
        -0.11750E-01
        -0.10771E-01
        -0.11750E-01
        -0.10771E-01
        -0.11750E-01
        -0.10771E-01
        -0.10771E-01
        -0.11750E-01
        -0.11750E-01
        -0.10771E-01
        -0.10771E-01
        -0.11750E-01
        -0.11750E-01
        -0.10771E-01
        -0.11750E-01
        -0.10771E-01
        -0.11750E-01
        -0.10771E-01
        -0.11750E-01
        -0.10771E-01
        -0.11750E-01
        -0.10771E-01
        -0.11750E-01
        -0.10771E-01
        -0.11750E-01
        -0.10771E-01
        -0.11750E-01
        -0.10771E-01
        -0.11750E-01
        -0.10771E-01
        -0.11750E-01
        -0.10771E-01
        -0.11750E-01
        -0.10771E-01
        -0.11750E-01
        -0.10771E-01
        -0.11750E-01
        -0.10771E-01
        -0.11750E-01
        -0.10771E-01
        -0.11750E-01
        -0.10771E-01
        -0.11750E-01
        -0.10771E-01
        -0.11750E-01
        -0.10771E-01
        -0.11750E-01
        -0.10771E-01
        -0.11750E-01
        -0.10771E-01
        -0.11750E-01
        -0.10771E-01
        -0.11750E-01
        -0.10771E-01
        -0.11750E-01
        -0.10771E-01
        -0.11750E-01
        -0.10771E-01
        -0.11750E-01
        -0.10771E-01
        -0.11750E-01
        -0.97917E-02
        -0.97917E-02
        -0.97917E-02
        -0.97917E-02
        -0.97917E-02
        -0.97917E-02
        -0.97917E-02
        -0.97917E-02
        -0.97917E-02
        -0.97917E-02
        -0.97917E-02
        -0.97917E-02
        -0.97917E-02
        -0.97917E-02
        -0.97917E-02
        -0.97917E-02
        -0.97917E-02
        -0.97917E-02
        -0.97917E-02
        -0.97917E-02
        -0.97917E-02
        -0.97917E-02
        -0.97917E-02
        -0.97917E-02
        -0.97917E-02
        -0.97917E-02
        -0.97917E-02
        -0.97917E-02
        -0.97917E-02
        -0.97917E-02
        -0.97917E-02
        -0.97917E-02
        -0.97917E-02
        -0.97917E-02
        -0.97917E-02
        -0.97917E-02
        -0.97917E-02
        -0.97917E-02
        -0.97917E-02
        -0.97917E-02
        -0.97917E-02
        -0.97917E-02
        -0.97917E-02
        -0.97917E-02
        -0.97917E-02
        -0.97917E-02
        -0.97917E-02
        -0.97917E-02
        -0.97917E-02
        -0.97917E-02
        -0.97917E-02
        -0.97917E-02
        -0.97917E-02
        -0.97917E-02
        -0.97917E-02
        -0.97917E-02
        -0.97917E-02
        -0.97917E-02
        -0.97917E-02
        -0.97917E-02
        -0.97917E-02
        -0.97917E-02
        -0.97917E-02
        -0.97917E-02
        -0.97917E-02
        -0.97917E-02
        -0.97917E-02
        -0.97917E-02
        -0.97917E-02
        -0.97917E-02
        -0.97917E-02
        -0.97917E-02
        -0.97917E-02
        -0.97917E-02
        -0.97917E-02
        -0.97917E-02
        -0.97917E-02
        -0.97917E-02
        -0.88125E-02
        -0.88125E-02
        -0.88125E-02
        -0.88125E-02
        -0.88125E-02
        -0.88125E-02
        -0.88125E-02
        -0.88125E-02
        -0.88125E-02
        -0.88125E-02
        -0.88125E-02
        -0.88125E-02
        -0.88125E-02
        -0.88125E-02
        -0.88125E-02
        -0.88125E-02
        -0.88125E-02
        -0.88125E-02
        -0.88125E-02
        -0.88125E-02
        -0.88125E-02
        -0.88125E-02
        -0.88125E-02
        -0.88125E-02
        -0.88125E-02
        -0.88125E-02
        -0.88125E-02
        -0.88125E-02
        -0.88125E-02
        -0.88125E-02
        -0.88125E-02
        -0.88125E-02
        -0.88125E-02
        -0.88125E-02
        -0.88125E-02
        -0.88125E-02
        -0.88125E-02
        -0.88125E-02
        -0.88125E-02
        -0.88125E-02
        -0.88125E-02
        -0.88125E-02
        -0.88125E-02
        -0.88125E-02
        -0.88125E-02
        -0.88125E-02
        -0.88125E-02
        -0.88125E-02
        -0.88125E-02
        -0.88125E-02
        -0.88125E-02
        -0.88125E-02
        -0.88125E-02
        -0.88125E-02
        -0.88125E-02
        -0.88125E-02
        -0.88125E-02
        -0.88125E-02
        -0.88125E-02
        -0.88125E-02
        -0.88125E-02
        -0.88125E-02
        -0.88125E-02
        -0.88125E-02
        -0.88125E-02
        -0.88125E-02
        -0.88125E-02
        -0.88125E-02
        -0.88125E-02
        -0.88125E-02
        -0.88125E-02
        -0.88125E-02
        -0.88125E-02
        -0.88125E-02
        -0.88125E-02
        -0.88125E-02
        -0.88125E-02
        -0.88125E-02
        -0.78333E-02
        -0.78333E-02
        -0.78333E-02
        -0.78333E-02
        -0.78333E-02
        -0.78333E-02
        -0.78333E-02
        -0.78333E-02
        -0.78333E-02
        -0.78333E-02
        -0.78333E-02
        -0.78333E-02
        -0.78333E-02
        -0.78333E-02
        -0.78333E-02
        -0.78333E-02
        -0.78333E-02
        -0.78333E-02
        -0.78333E-02
        -0.78333E-02
        -0.78333E-02
        -0.78333E-02
        -0.78333E-02
        -0.78333E-02
        -0.78333E-02
        -0.78333E-02
        -0.78333E-02
        -0.78333E-02
        -0.78333E-02
        -0.78333E-02
        -0.78333E-02
        -0.78333E-02
        -0.78333E-02
        -0.78333E-02
        -0.78333E-02
        -0.78333E-02
        -0.78333E-02
        -0.78333E-02
        -0.78333E-02
        -0.78333E-02
        -0.78333E-02
        -0.78333E-02
        -0.78333E-02
        -0.78333E-02
        -0.78333E-02
        -0.78333E-02
        -0.78333E-02
        -0.78333E-02
        -0.78333E-02
        -0.78333E-02
        -0.78333E-02
        -0.78333E-02
        -0.78333E-02
        -0.78333E-02
        -0.78333E-02
        -0.78333E-02
        -0.78333E-02
        -0.78333E-02
        -0.78333E-02
        -0.78333E-02
        -0.78333E-02
        -0.78333E-02
        -0.78333E-02
        -0.78333E-02
        -0.78333E-02
        -0.78333E-02
        -0.78333E-02
        -0.78333E-02
        -0.78333E-02
        -0.78333E-02
        -0.78333E-02
        -0.78333E-02
        -0.78333E-02
        -0.78333E-02
        -0.78333E-02
        -0.78333E-02
        -0.78333E-02
        -0.78333E-02
        -0.68542E-02
        -0.68542E-02
        -0.68542E-02
        -0.68542E-02
        -0.68542E-02
        -0.68542E-02
        -0.68542E-02
        -0.68542E-02
        -0.68542E-02
        -0.68542E-02
        -0.68542E-02
        -0.68542E-02
        -0.68542E-02
        -0.68542E-02
        -0.68542E-02
        -0.68542E-02
        -0.68542E-02
        -0.68542E-02
        -0.68542E-02
        -0.68542E-02
        -0.68542E-02
        -0.68542E-02
        -0.68542E-02
        -0.68542E-02
        -0.68542E-02
        -0.68542E-02
        -0.68542E-02
        -0.68542E-02
        -0.68542E-02
        -0.68542E-02
        -0.68542E-02
        -0.68542E-02
        -0.68542E-02
        -0.68542E-02
        -0.68542E-02
        -0.68542E-02
        -0.68542E-02
        -0.68542E-02
        -0.68542E-02
        -0.68542E-02
        -0.68542E-02
        -0.68542E-02
        -0.68542E-02
        -0.68542E-02
        -0.68542E-02
        -0.68542E-02
        -0.68542E-02
        -0.68542E-02
        -0.68542E-02
        -0.68542E-02
        -0.68542E-02
        -0.68542E-02
        -0.68542E-02
        -0.68542E-02
        -0.68542E-02
        -0.68542E-02
        -0.68542E-02
        -0.68542E-02
        -0.68542E-02
        -0.68542E-02
        -0.68542E-02
        -0.68542E-02
        -0.68542E-02
        -0.68542E-02
        -0.68542E-02
        -0.68542E-02
        -0.68542E-02
        -0.68542E-02
        -0.68542E-02
        -0.68542E-02
        -0.68542E-02
        -0.68542E-02
        -0.68542E-02
        -0.68542E-02
        -0.68542E-02
        -0.68542E-02
        -0.68542E-02
        -0.68542E-02
        -0.58750E-02
        -0.58750E-02
        -0.58750E-02
        -0.58750E-02
        -0.58750E-02
        -0.58750E-02
        -0.58750E-02
        -0.58750E-02
        -0.58750E-02
        -0.58750E-02
        -0.58750E-02
        -0.58750E-02
        -0.58750E-02
        -0.58750E-02
        -0.58750E-02
        -0.58750E-02
        -0.58750E-02
        -0.58750E-02
        -0.58750E-02
        -0.58750E-02
        -0.58750E-02
        -0.58750E-02
        -0.58750E-02
        -0.58750E-02
        -0.58750E-02
        -0.58750E-02
        -0.58750E-02
        -0.58750E-02
        -0.58750E-02
        -0.58750E-02
        -0.58750E-02
        -0.58750E-02
        -0.58750E-02
        -0.58750E-02
        -0.58750E-02
        -0.58750E-02
        -0.58750E-02
        -0.58750E-02
        -0.58750E-02
        -0.58750E-02
        -0.58750E-02
        -0.58750E-02
        -0.58750E-02
        -0.58750E-02
        -0.58750E-02
        -0.58750E-02
        -0.58750E-02
        -0.58750E-02
        -0.58750E-02
        -0.58750E-02
        -0.58750E-02
        -0.58750E-02
        -0.58750E-02
        -0.58750E-02
        -0.58750E-02
        -0.58750E-02
        -0.58750E-02
        -0.58750E-02
        -0.58750E-02
        -0.58750E-02
        -0.58750E-02
        -0.58750E-02
        -0.58750E-02
        -0.58750E-02
        -0.58750E-02
        -0.58750E-02
        -0.58750E-02
        -0.58750E-02
        -0.58750E-02
        -0.58750E-02
        -0.58750E-02
        -0.58750E-02
        -0.58750E-02
        -0.58750E-02
        -0.58750E-02
        -0.58750E-02
        -0.58750E-02
        -0.58750E-02
        -0.48958E-02
        -0.48958E-02
        -0.48958E-02
        -0.48958E-02
        -0.48958E-02
        -0.48958E-02
        -0.48958E-02
        -0.48958E-02
        -0.48958E-02
        -0.48958E-02
        -0.48958E-02
        -0.48958E-02
        -0.48958E-02
        -0.48958E-02
        -0.48958E-02
        -0.48958E-02
        -0.48958E-02
        -0.48958E-02
        -0.48958E-02
        -0.48958E-02
        -0.48958E-02
        -0.48958E-02
        -0.48958E-02
        -0.48958E-02
        -0.48958E-02
        -0.48958E-02
        -0.48958E-02
        -0.48958E-02
        -0.48958E-02
        -0.48958E-02
        -0.48958E-02
        -0.48958E-02
        -0.48958E-02
        -0.48958E-02
        -0.48958E-02
        -0.48958E-02
        -0.48958E-02
        -0.48958E-02
        -0.48958E-02
        -0.48958E-02
        -0.48958E-02
        -0.48958E-02
        -0.48958E-02
        -0.48958E-02
        -0.48958E-02
        -0.48958E-02
        -0.48958E-02
        -0.48958E-02
        -0.48958E-02
        -0.48958E-02
        -0.48958E-02
        -0.48958E-02
        -0.48958E-02
        -0.48958E-02
        -0.48958E-02
        -0.48958E-02
        -0.48958E-02
        -0.48958E-02
        -0.48958E-02
        -0.48958E-02
        -0.48958E-02
        -0.48958E-02
        -0.48958E-02
        -0.48958E-02
        -0.48958E-02
        -0.48958E-02
        -0.48958E-02
        -0.48958E-02
        -0.48958E-02
        -0.48958E-02
        -0.48958E-02
        -0.48958E-02
        -0.48958E-02
        -0.48958E-02
        -0.48958E-02
        -0.48958E-02
        -0.48958E-02
        -0.48958E-02
        -0.39167E-02
        -0.39167E-02
        -0.39167E-02
        -0.39167E-02
        -0.39167E-02
        -0.39167E-02
        -0.39167E-02
        -0.39167E-02
        -0.39167E-02
        -0.39167E-02
        -0.39167E-02
        -0.39167E-02
        -0.39167E-02
        -0.39167E-02
        -0.39167E-02
        -0.39167E-02
        -0.39167E-02
        -0.39167E-02
        -0.39167E-02
        -0.39167E-02
        -0.39167E-02
        -0.39167E-02
        -0.39167E-02
        -0.39167E-02
        -0.39167E-02
        -0.39167E-02
        -0.39167E-02
        -0.39167E-02
        -0.39167E-02
        -0.39167E-02
        -0.39167E-02
        -0.39167E-02
        -0.39167E-02
        -0.39167E-02
        -0.39167E-02
        -0.39167E-02
        -0.39167E-02
        -0.39167E-02
        -0.39167E-02
        -0.39167E-02
        -0.39167E-02
        -0.39167E-02
        -0.39167E-02
        -0.39167E-02
        -0.39167E-02
        -0.39167E-02
        -0.39167E-02
        -0.39167E-02
        -0.39167E-02
        -0.39167E-02
        -0.39167E-02
        -0.39167E-02
        -0.39167E-02
        -0.39167E-02
        -0.39167E-02
        -0.39167E-02
        -0.39167E-02
        -0.39167E-02
        -0.39167E-02
        -0.39167E-02
        -0.39167E-02
        -0.39167E-02
        -0.39167E-02
        -0.39167E-02
        -0.39167E-02
        -0.39167E-02
        -0.39167E-02
        -0.39167E-02
        -0.39167E-02
        -0.39167E-02
        -0.39167E-02
        -0.39167E-02
        -0.39167E-02
        -0.39167E-02
        -0.39167E-02
        -0.39167E-02
        -0.39167E-02
        -0.39167E-02
        -0.29375E-02
        -0.29375E-02
        -0.29375E-02
        -0.29375E-02
        -0.29375E-02
        -0.29375E-02
        -0.29375E-02
        -0.29375E-02
        -0.29375E-02
        -0.29375E-02
        -0.29375E-02
        -0.29375E-02
        -0.29375E-02
        -0.29375E-02
        -0.29375E-02
        -0.29375E-02
        -0.29375E-02
        -0.29375E-02
        -0.29375E-02
        -0.29375E-02
        -0.29375E-02
        -0.29375E-02
        -0.29375E-02
        -0.29375E-02
        -0.29375E-02
        -0.29375E-02
        -0.29375E-02
        -0.29375E-02
        -0.29375E-02
        -0.29375E-02
        -0.29375E-02
        -0.29375E-02
        -0.29375E-02
        -0.29375E-02
        -0.29375E-02
        -0.29375E-02
        -0.29375E-02
        -0.29375E-02
        -0.29375E-02
        -0.29375E-02
        -0.29375E-02
        -0.29375E-02
        -0.29375E-02
        -0.29375E-02
        -0.29375E-02
        -0.29375E-02
        -0.29375E-02
        -0.29375E-02
        -0.29375E-02
        -0.29375E-02
        -0.29375E-02
        -0.29375E-02
        -0.29375E-02
        -0.29375E-02
        -0.29375E-02
        -0.29375E-02
        -0.29375E-02
        -0.29375E-02
        -0.29375E-02
        -0.29375E-02
        -0.29375E-02
        -0.29375E-02
        -0.29375E-02
        -0.29375E-02
        -0.29375E-02
        -0.29375E-02
        -0.29375E-02
        -0.29375E-02
        -0.29375E-02
        -0.29375E-02
        -0.29375E-02
        -0.29375E-02
        -0.29375E-02
        -0.29375E-02
        -0.29375E-02
        -0.29375E-02
        -0.29375E-02
        -0.29375E-02
        -0.19583E-02
        -0.19583E-02
        -0.19583E-02
        -0.19583E-02
        -0.19583E-02
        -0.19583E-02
        -0.19583E-02
        -0.19583E-02
        -0.19583E-02
        -0.19583E-02
        -0.19583E-02
        -0.19583E-02
        -0.19583E-02
        -0.19583E-02
        -0.19583E-02
        -0.19583E-02
        -0.19583E-02
        -0.19583E-02
        -0.19583E-02
        -0.19583E-02
        -0.19583E-02
        -0.19583E-02
        -0.19583E-02
        -0.19583E-02
        -0.19583E-02
        -0.19583E-02
        -0.19583E-02
        -0.19583E-02
        -0.19583E-02
        -0.19583E-02
        -0.19583E-02
        -0.19583E-02
        -0.19583E-02
        -0.19583E-02
        -0.19583E-02
        -0.19583E-02
        -0.19583E-02
        -0.19583E-02
        -0.19583E-02
        -0.19583E-02
        -0.19583E-02
        -0.19583E-02
        -0.19583E-02
        -0.19583E-02
        -0.19583E-02
        -0.19583E-02
        -0.19583E-02
        -0.19583E-02
        -0.19583E-02
        -0.19583E-02
        -0.19583E-02
        -0.19583E-02
        -0.19583E-02
        -0.19583E-02
        -0.19583E-02
        -0.19583E-02
        -0.19583E-02
        -0.19583E-02
        -0.19583E-02
        -0.19583E-02
        -0.19583E-02
        -0.19583E-02
        -0.19583E-02
        -0.19583E-02
        -0.19583E-02
        -0.19583E-02
        -0.19583E-02
        -0.19583E-02
        -0.19583E-02
        -0.19583E-02
        -0.19583E-02
        -0.19583E-02
        -0.19583E-02
        -0.19583E-02
        -0.19583E-02
        -0.19583E-02
        -0.19583E-02
        -0.19583E-02
        -0.97917E-03
        -0.97917E-03
        -0.97917E-03
        -0.97917E-03
        -0.97917E-03
        -0.97917E-03
        -0.97917E-03
        -0.97917E-03
        -0.97917E-03
        -0.97917E-03
        -0.97917E-03
        -0.97917E-03
        -0.97917E-03
        -0.97917E-03
        -0.97917E-03
        -0.97917E-03
        -0.97917E-03
        -0.97917E-03
        -0.97917E-03
        -0.97917E-03
        -0.97917E-03
        -0.97917E-03
        -0.97917E-03
        -0.97917E-03
        -0.97917E-03
        -0.97917E-03
        -0.97917E-03
        -0.97917E-03
        -0.97917E-03
        -0.97917E-03
        -0.97917E-03
        -0.97917E-03
        -0.97917E-03
        -0.97917E-03
        -0.97917E-03
        -0.97917E-03
        -0.97917E-03
        -0.97917E-03
        -0.97917E-03
        -0.97917E-03
        -0.97917E-03
        -0.97917E-03
        -0.97917E-03
        -0.97917E-03
        -0.97917E-03
        -0.97917E-03
        -0.97917E-03
        -0.97917E-03
        -0.97917E-03
        -0.97917E-03
        -0.97917E-03
        -0.97917E-03
        -0.97917E-03
        -0.97917E-03
        -0.97917E-03
        -0.97917E-03
        -0.97917E-03
        -0.97917E-03
        -0.97917E-03
        -0.97917E-03
        -0.97917E-03
        -0.97917E-03
        -0.97917E-03
        -0.97917E-03
        -0.97917E-03
        -0.97917E-03
        -0.97917E-03
        -0.97917E-03
        -0.97917E-03
        -0.97917E-03
        -0.97917E-03
        -0.97917E-03
        -0.97917E-03
        -0.97917E-03
        -0.97917E-03
        -0.97917E-03
        -0.97917E-03
        -0.97917E-03
         0.38917E-18
         0.44621E-18
         0.34485E-18
         0.23671E-18
         0.26613E-18
         0.16162E-18
         0.53980E-18
         0.50579E-18
         0.36337E-18
         0.48798E-18
         0.60712E-18
         0.67611E-18
         0.60634E-18
         0.60658E-18
         0.70997E-18
         0.20892E-18
         0.35894E-18
         0.21887E-18
         0.27638E-18
         0.38382E-18
         0.29058E-18
         0.40326E-18
         0.18564E-18
         0.19650E-18
         0.48570E-18
         0.12837E-18
         0.60589E-18
         0.60416E-18
         0.60524E-18
         0.49621E-18
         0.61582E-19
         0.32255E-19
         0.73874E-19
         0.78478E-19
         0.34514E-18
         0.42054E-18
         0.51644E-18
         0.72521E-18
         0.72233E-18
         0.70722E-18
         0.69126E-18
         0.61573E-18
         0.51484E-18
         0.91170E-19
         0.30347E-20
        -0.66516E-19
        -0.69988E-19
        -0.68643E-19
        -0.59779E-19
        -0.43507E-19
        -0.29471E-19
         0.53205E-19
         0.86819E-18
         0.00000E+00
         0.86819E-18
         0.86819E-18
         0.00000E+00
         0.00000E+00
         0.00000E+00
         0.17364E-17
         0.17364E-17
         0.17364E-17
         0.43410E-18
         0.43410E-18
         0.43410E-18
         0.00000E+00
         0.00000E+00
         0.00000E+00
         0.00000E+00
         0.00000E+00
         0.21705E-18
        -0.21705E-18
         0.00000E+00
         0.00000E+00
         0.00000E+00
        -0.32557E-18
         0.54262E-19
        -0.40697E-18
         0.97917E-03
         0.97917E-03
         0.97917E-03
         0.97917E-03
         0.97917E-03
         0.97917E-03
         0.97917E-03
         0.97917E-03
         0.97917E-03
         0.97917E-03
         0.97917E-03
         0.97917E-03
         0.97917E-03
         0.97917E-03
         0.97917E-03
         0.97917E-03
         0.97917E-03
         0.97917E-03
         0.97917E-03
         0.97917E-03
         0.97917E-03
         0.97917E-03
         0.97917E-03
         0.97917E-03
         0.97917E-03
         0.97917E-03
         0.97917E-03
         0.97917E-03
         0.97917E-03
         0.97917E-03
         0.97917E-03
         0.97917E-03
         0.97917E-03
         0.97917E-03
         0.97917E-03
         0.97917E-03
         0.97917E-03
         0.97917E-03
         0.97917E-03
         0.97917E-03
         0.97917E-03
         0.97917E-03
         0.97917E-03
         0.97917E-03
         0.97917E-03
         0.97917E-03
         0.97917E-03
         0.97917E-03
         0.97917E-03
         0.97917E-03
         0.97917E-03
         0.97917E-03
         0.97917E-03
         0.97917E-03
         0.97917E-03
         0.97917E-03
         0.97917E-03
         0.97917E-03
         0.97917E-03
         0.97917E-03
         0.97917E-03
         0.97917E-03
         0.97917E-03
         0.97917E-03
         0.97917E-03
         0.97917E-03
         0.97917E-03
         0.97917E-03
         0.97917E-03
         0.97917E-03
         0.97917E-03
         0.97917E-03
         0.97917E-03
         0.97917E-03
         0.97917E-03
         0.97917E-03
         0.97917E-03
         0.97917E-03
         0.19583E-02
         0.19583E-02
         0.19583E-02
         0.19583E-02
         0.19583E-02
         0.19583E-02
         0.19583E-02
         0.19583E-02
         0.19583E-02
         0.19583E-02
         0.19583E-02
         0.19583E-02
         0.19583E-02
         0.19583E-02
         0.19583E-02
         0.19583E-02
         0.19583E-02
         0.19583E-02
         0.19583E-02
         0.19583E-02
         0.19583E-02
         0.19583E-02
         0.19583E-02
         0.19583E-02
         0.19583E-02
         0.19583E-02
         0.19583E-02
         0.19583E-02
         0.19583E-02
         0.19583E-02
         0.19583E-02
         0.19583E-02
         0.19583E-02
         0.19583E-02
         0.19583E-02
         0.19583E-02
         0.19583E-02
         0.19583E-02
         0.19583E-02
         0.19583E-02
         0.19583E-02
         0.19583E-02
         0.19583E-02
         0.19583E-02
         0.19583E-02
         0.19583E-02
         0.19583E-02
         0.19583E-02
         0.19583E-02
         0.19583E-02
         0.19583E-02
         0.19583E-02
         0.19583E-02
         0.19583E-02
         0.19583E-02
         0.19583E-02
         0.19583E-02
         0.19583E-02
         0.19583E-02
         0.19583E-02
         0.19583E-02
         0.19583E-02
         0.19583E-02
         0.19583E-02
         0.19583E-02
         0.19583E-02
         0.19583E-02
         0.19583E-02
         0.19583E-02
         0.19583E-02
         0.19583E-02
         0.19583E-02
         0.19583E-02
         0.19583E-02
         0.19583E-02
         0.19583E-02
         0.19583E-02
         0.19583E-02
         0.29375E-02
         0.29375E-02
         0.29375E-02
         0.29375E-02
         0.29375E-02
         0.29375E-02
         0.29375E-02
         0.29375E-02
         0.29375E-02
         0.29375E-02
         0.29375E-02
         0.29375E-02
         0.29375E-02
         0.29375E-02
         0.29375E-02
         0.29375E-02
         0.29375E-02
         0.29375E-02
         0.29375E-02
         0.29375E-02
         0.29375E-02
         0.29375E-02
         0.29375E-02
         0.29375E-02
         0.29375E-02
         0.29375E-02
         0.29375E-02
         0.29375E-02
         0.29375E-02
         0.29375E-02
         0.29375E-02
         0.29375E-02
         0.29375E-02
         0.29375E-02
         0.29375E-02
         0.29375E-02
         0.29375E-02
         0.29375E-02
         0.29375E-02
         0.29375E-02
         0.29375E-02
         0.29375E-02
         0.29375E-02
         0.29375E-02
         0.29375E-02
         0.29375E-02
         0.29375E-02
         0.29375E-02
         0.29375E-02
         0.29375E-02
         0.29375E-02
         0.29375E-02
         0.29375E-02
         0.29375E-02
         0.29375E-02
         0.29375E-02
         0.29375E-02
         0.29375E-02
         0.29375E-02
         0.29375E-02
         0.29375E-02
         0.29375E-02
         0.29375E-02
         0.29375E-02
         0.29375E-02
         0.29375E-02
         0.29375E-02
         0.29375E-02
         0.29375E-02
         0.29375E-02
         0.29375E-02
         0.29375E-02
         0.29375E-02
         0.29375E-02
         0.29375E-02
         0.29375E-02
         0.29375E-02
         0.29375E-02
         0.39167E-02
         0.39167E-02
         0.39167E-02
         0.39167E-02
         0.39167E-02
         0.39167E-02
         0.39167E-02
         0.39167E-02
         0.39167E-02
         0.39167E-02
         0.39167E-02
         0.39167E-02
         0.39167E-02
         0.39167E-02
         0.39167E-02
         0.39167E-02
         0.39167E-02
         0.39167E-02
         0.39167E-02
         0.39167E-02
         0.39167E-02
         0.39167E-02
         0.39167E-02
         0.39167E-02
         0.39167E-02
         0.39167E-02
         0.39167E-02
         0.39167E-02
         0.39167E-02
         0.39167E-02
         0.39167E-02
         0.39167E-02
         0.39167E-02
         0.39167E-02
         0.39167E-02
         0.39167E-02
         0.39167E-02
         0.39167E-02
         0.39167E-02
         0.39167E-02
         0.39167E-02
         0.39167E-02
         0.39167E-02
         0.39167E-02
         0.39167E-02
         0.39167E-02
         0.39167E-02
         0.39167E-02
         0.39167E-02
         0.39167E-02
         0.39167E-02
         0.39167E-02
         0.39167E-02
         0.39167E-02
         0.39167E-02
         0.39167E-02
         0.39167E-02
         0.39167E-02
         0.39167E-02
         0.39167E-02
         0.39167E-02
         0.39167E-02
         0.39167E-02
         0.39167E-02
         0.39167E-02
         0.39167E-02
         0.39167E-02
         0.39167E-02
         0.39167E-02
         0.39167E-02
         0.39167E-02
         0.39167E-02
         0.39167E-02
         0.39167E-02
         0.39167E-02
         0.39167E-02
         0.39167E-02
         0.39167E-02
         0.48958E-02
         0.48958E-02
         0.48958E-02
         0.48958E-02
         0.48958E-02
         0.48958E-02
         0.48958E-02
         0.48958E-02
         0.48958E-02
         0.48958E-02
         0.48958E-02
         0.48958E-02
         0.48958E-02
         0.48958E-02
         0.48958E-02
         0.48958E-02
         0.48958E-02
         0.48958E-02
         0.48958E-02
         0.48958E-02
         0.48958E-02
         0.48958E-02
         0.48958E-02
         0.48958E-02
         0.48958E-02
         0.48958E-02
         0.48958E-02
         0.48958E-02
         0.48958E-02
         0.48958E-02
         0.48958E-02
         0.48958E-02
         0.48958E-02
         0.48958E-02
         0.48958E-02
         0.48958E-02
         0.48958E-02
         0.48958E-02
         0.48958E-02
         0.48958E-02
         0.48958E-02
         0.48958E-02
         0.48958E-02
         0.48958E-02
         0.48958E-02
         0.48958E-02
         0.48958E-02
         0.48958E-02
         0.48958E-02
         0.48958E-02
         0.48958E-02
         0.48958E-02
         0.48958E-02
         0.48958E-02
         0.48958E-02
         0.48958E-02
         0.48958E-02
         0.48958E-02
         0.48958E-02
         0.48958E-02
         0.48958E-02
         0.48958E-02
         0.48958E-02
         0.48958E-02
         0.48958E-02
         0.48958E-02
         0.48958E-02
         0.48958E-02
         0.48958E-02
         0.48958E-02
         0.48958E-02
         0.48958E-02
         0.48958E-02
         0.48958E-02
         0.48958E-02
         0.48958E-02
         0.48958E-02
         0.48958E-02
         0.58750E-02
         0.58750E-02
         0.58750E-02
         0.58750E-02
         0.58750E-02
         0.58750E-02
         0.58750E-02
         0.58750E-02
         0.58750E-02
         0.58750E-02
         0.58750E-02
         0.58750E-02
         0.58750E-02
         0.58750E-02
         0.58750E-02
         0.58750E-02
         0.58750E-02
         0.58750E-02
         0.58750E-02
         0.58750E-02
         0.58750E-02
         0.58750E-02
         0.58750E-02
         0.58750E-02
         0.58750E-02
         0.58750E-02
         0.58750E-02
         0.58750E-02
         0.58750E-02
         0.58750E-02
         0.58750E-02
         0.58750E-02
         0.58750E-02
         0.58750E-02
         0.58750E-02
         0.58750E-02
         0.58750E-02
         0.58750E-02
         0.58750E-02
         0.58750E-02
         0.58750E-02
         0.58750E-02
         0.58750E-02
         0.58750E-02
         0.58750E-02
         0.58750E-02
         0.58750E-02
         0.58750E-02
         0.58750E-02
         0.58750E-02
         0.58750E-02
         0.58750E-02
         0.58750E-02
         0.58750E-02
         0.58750E-02
         0.58750E-02
         0.58750E-02
         0.58750E-02
         0.58750E-02
         0.58750E-02
         0.58750E-02
         0.58750E-02
         0.58750E-02
         0.58750E-02
         0.58750E-02
         0.58750E-02
         0.58750E-02
         0.58750E-02
         0.58750E-02
         0.58750E-02
         0.58750E-02
         0.58750E-02
         0.58750E-02
         0.58750E-02
         0.58750E-02
         0.58750E-02
         0.58750E-02
         0.58750E-02
         0.68542E-02
         0.68542E-02
         0.68542E-02
         0.68542E-02
         0.68542E-02
         0.68542E-02
         0.68542E-02
         0.68542E-02
         0.68542E-02
         0.68542E-02
         0.68542E-02
         0.68542E-02
         0.68542E-02
         0.68542E-02
         0.68542E-02
         0.68542E-02
         0.68542E-02
         0.68542E-02
         0.68542E-02
         0.68542E-02
         0.68542E-02
         0.68542E-02
         0.68542E-02
         0.68542E-02
         0.68542E-02
         0.68542E-02
         0.68542E-02
         0.68542E-02
         0.68542E-02
         0.68542E-02
         0.68542E-02
         0.68542E-02
         0.68542E-02
         0.68542E-02
         0.68542E-02
         0.68542E-02
         0.68542E-02
         0.68542E-02
         0.68542E-02
         0.68542E-02
         0.68542E-02
         0.68542E-02
         0.68542E-02
         0.68542E-02
         0.68542E-02
         0.68542E-02
         0.68542E-02
         0.68542E-02
         0.68542E-02
         0.68542E-02
         0.68542E-02
         0.68542E-02
         0.68542E-02
         0.68542E-02
         0.68542E-02
         0.68542E-02
         0.68542E-02
         0.68542E-02
         0.68542E-02
         0.68542E-02
         0.68542E-02
         0.68542E-02
         0.68542E-02
         0.68542E-02
         0.68542E-02
         0.68542E-02
         0.68542E-02
         0.68542E-02
         0.68542E-02
         0.68542E-02
         0.68542E-02
         0.68542E-02
         0.68542E-02
         0.68542E-02
         0.68542E-02
         0.68542E-02
         0.68542E-02
         0.68542E-02
         0.78333E-02
         0.78333E-02
         0.78333E-02
         0.78333E-02
         0.78333E-02
         0.78333E-02
         0.78333E-02
         0.78333E-02
         0.78333E-02
         0.78333E-02
         0.78333E-02
         0.78333E-02
         0.78333E-02
         0.78333E-02
         0.78333E-02
         0.78333E-02
         0.78333E-02
         0.78333E-02
         0.78333E-02
         0.78333E-02
         0.78333E-02
         0.78333E-02
         0.78333E-02
         0.78333E-02
         0.78333E-02
         0.78333E-02
         0.78333E-02
         0.78333E-02
         0.78333E-02
         0.78333E-02
         0.78333E-02
         0.78333E-02
         0.78333E-02
         0.78333E-02
         0.78333E-02
         0.78333E-02
         0.78333E-02
         0.78333E-02
         0.78333E-02
         0.78333E-02
         0.78333E-02
         0.78333E-02
         0.78333E-02
         0.78333E-02
         0.78333E-02
         0.78333E-02
         0.78333E-02
         0.78333E-02
         0.78333E-02
         0.78333E-02
         0.78333E-02
         0.78333E-02
         0.78333E-02
         0.78333E-02
         0.78333E-02
         0.78333E-02
         0.78333E-02
         0.78333E-02
         0.78333E-02
         0.78333E-02
         0.78333E-02
         0.78333E-02
         0.78333E-02
         0.78333E-02
         0.78333E-02
         0.78333E-02
         0.78333E-02
         0.78333E-02
         0.78333E-02
         0.78333E-02
         0.78333E-02
         0.78333E-02
         0.78333E-02
         0.78333E-02
         0.78333E-02
         0.78333E-02
         0.78333E-02
         0.78333E-02
         0.88125E-02
         0.88125E-02
         0.88125E-02
         0.88125E-02
         0.88125E-02
         0.88125E-02
         0.88125E-02
         0.88125E-02
         0.88125E-02
         0.88125E-02
         0.88125E-02
         0.88125E-02
         0.88125E-02
         0.88125E-02
         0.88125E-02
         0.88125E-02
         0.88125E-02
         0.88125E-02
         0.88125E-02
         0.88125E-02
         0.88125E-02
         0.88125E-02
         0.88125E-02
         0.88125E-02
         0.88125E-02
         0.88125E-02
         0.88125E-02
         0.88125E-02
         0.88125E-02
         0.88125E-02
         0.88125E-02
         0.88125E-02
         0.88125E-02
         0.88125E-02
         0.88125E-02
         0.88125E-02
         0.88125E-02
         0.88125E-02
         0.88125E-02
         0.88125E-02
         0.88125E-02
         0.88125E-02
         0.88125E-02
         0.88125E-02
         0.88125E-02
         0.88125E-02
         0.88125E-02
         0.88125E-02
         0.88125E-02
         0.88125E-02
         0.88125E-02
         0.88125E-02
         0.88125E-02
         0.88125E-02
         0.88125E-02
         0.88125E-02
         0.88125E-02
         0.88125E-02
         0.88125E-02
         0.88125E-02
         0.88125E-02
         0.88125E-02
         0.88125E-02
         0.88125E-02
         0.88125E-02
         0.88125E-02
         0.88125E-02
         0.88125E-02
         0.88125E-02
         0.88125E-02
         0.88125E-02
         0.88125E-02
         0.88125E-02
         0.88125E-02
         0.88125E-02
         0.88125E-02
         0.88125E-02
         0.88125E-02
         0.97917E-02
         0.97917E-02
         0.97917E-02
         0.97917E-02
         0.97917E-02
         0.97917E-02
         0.97917E-02
         0.97917E-02
         0.97917E-02
         0.97917E-02
         0.97917E-02
         0.97917E-02
         0.97917E-02
         0.97917E-02
         0.97917E-02
         0.97917E-02
         0.97917E-02
         0.97917E-02
         0.97917E-02
         0.97917E-02
         0.97917E-02
         0.97917E-02
         0.97917E-02
         0.97917E-02
         0.97917E-02
         0.97917E-02
         0.97917E-02
         0.97917E-02
         0.97917E-02
         0.97917E-02
         0.97917E-02
         0.97917E-02
         0.97917E-02
         0.97917E-02
         0.97917E-02
         0.97917E-02
         0.97917E-02
         0.97917E-02
         0.97917E-02
         0.97917E-02
         0.97917E-02
         0.97917E-02
         0.97917E-02
         0.97917E-02
         0.97917E-02
         0.97917E-02
         0.97917E-02
         0.97917E-02
         0.97917E-02
         0.97917E-02
         0.97917E-02
         0.97917E-02
         0.97917E-02
         0.97917E-02
         0.97917E-02
         0.97917E-02
         0.97917E-02
         0.97917E-02
         0.97917E-02
         0.97917E-02
         0.97917E-02
         0.97917E-02
         0.97917E-02
         0.97917E-02
         0.97917E-02
         0.97917E-02
         0.97917E-02
         0.97917E-02
         0.97917E-02
         0.97917E-02
         0.97917E-02
         0.97917E-02
         0.97917E-02
         0.97917E-02
         0.97917E-02
         0.97917E-02
         0.97917E-02
         0.97917E-02
         0.10771E-01
         0.10771E-01
         0.10771E-01
         0.10771E-01
         0.10771E-01
         0.10771E-01
         0.10771E-01
         0.10771E-01
         0.10771E-01
         0.10771E-01
         0.10771E-01
         0.10771E-01
         0.10771E-01
         0.10771E-01
         0.10771E-01
         0.10771E-01
         0.10771E-01
         0.10771E-01
         0.10771E-01
         0.10771E-01
         0.10771E-01
         0.10771E-01
         0.10771E-01
         0.10771E-01
         0.10771E-01
         0.10771E-01
         0.10771E-01
         0.10771E-01
         0.10771E-01
         0.10771E-01
         0.10771E-01
         0.10771E-01
         0.10771E-01
         0.10771E-01
         0.10771E-01
         0.10771E-01
         0.10771E-01
         0.10771E-01
         0.10771E-01
         0.10771E-01
         0.10771E-01
         0.10771E-01
         0.10771E-01
         0.10771E-01
         0.10771E-01
         0.10771E-01
         0.10771E-01
         0.10771E-01
         0.10771E-01
         0.10771E-01
         0.10771E-01
         0.10771E-01
         0.10771E-01
         0.10771E-01
         0.10771E-01
         0.10771E-01
         0.10771E-01
         0.10771E-01
         0.10771E-01
         0.10771E-01
         0.10771E-01
         0.10771E-01
         0.10771E-01
         0.10771E-01
         0.10771E-01
         0.10771E-01
         0.10771E-01
         0.10771E-01
         0.10771E-01
         0.10771E-01
         0.10771E-01
         0.10771E-01
         0.10771E-01
         0.10771E-01
         0.10771E-01
         0.10771E-01
         0.10771E-01
         0.10771E-01
         0.11750E-01
         0.11750E-01
         0.11750E-01
         0.11750E-01
         0.11750E-01
         0.11750E-01
         0.11750E-01
         0.11750E-01
         0.11750E-01
         0.11750E-01
         0.11750E-01
         0.11750E-01
         0.11750E-01
         0.11750E-01
         0.11750E-01
         0.11750E-01
         0.11750E-01
         0.11750E-01
         0.11750E-01
         0.11750E-01
         0.11750E-01
         0.11750E-01
         0.11750E-01
         0.11750E-01
         0.11750E-01
         0.11750E-01
         0.11750E-01
         0.11750E-01
         0.11750E-01
         0.11750E-01
         0.11750E-01
         0.11750E-01
         0.11750E-01
         0.11750E-01
         0.11750E-01
         0.11750E-01
         0.11750E-01
         0.11750E-01
         0.11750E-01
         0.11750E-01
         0.11750E-01
         0.11750E-01
         0.11750E-01
         0.11750E-01
         0.11750E-01
         0.11750E-01
         0.11750E-01
         0.11750E-01
         0.11750E-01
         0.11750E-01
         0.11750E-01
         0.11750E-01
         0.11750E-01
         0.11750E-01
         0.11750E-01
         0.11750E-01
         0.11750E-01
         0.11750E-01
         0.11750E-01
         0.11750E-01
         0.11750E-01
         0.11750E-01
         0.11750E-01
         0.11750E-01
         0.11750E-01
         0.11750E-01
         0.11750E-01
         0.11750E-01
         0.11750E-01
         0.11750E-01
         0.11750E-01
         0.11750E-01
         0.11750E-01
         0.11750E-01
         0.11750E-01
         0.11750E-01
         0.11750E-01
         0.11750E-01
  
SCALARS                init_velocity_x  double 1
LOOKUP_TABLE default
         0.00000E+00
         0.00000E+00
         0.00000E+00
         0.00000E+00
         0.00000E+00
         0.00000E+00
         0.00000E+00
         0.00000E+00
         0.00000E+00
         0.00000E+00
         0.00000E+00
         0.00000E+00
         0.00000E+00
         0.00000E+00
         0.00000E+00
         0.00000E+00
         0.00000E+00
         0.00000E+00
         0.00000E+00
         0.00000E+00
         0.00000E+00
         0.00000E+00
         0.00000E+00
         0.00000E+00
         0.00000E+00
         0.00000E+00
         0.00000E+00
         0.00000E+00
         0.00000E+00
         0.00000E+00
         0.00000E+00
         0.00000E+00
         0.00000E+00
         0.00000E+00
         0.00000E+00
         0.00000E+00
         0.00000E+00
         0.00000E+00
         0.00000E+00
         0.00000E+00
         0.00000E+00
         0.00000E+00
         0.00000E+00
         0.00000E+00
         0.00000E+00
         0.00000E+00
         0.00000E+00
         0.00000E+00
         0.00000E+00
         0.00000E+00
         0.00000E+00
         0.00000E+00
         0.00000E+00
         0.00000E+00
         0.00000E+00
         0.00000E+00
         0.00000E+00
         0.00000E+00
         0.00000E+00
         0.00000E+00
         0.00000E+00
         0.00000E+00
         0.00000E+00
         0.00000E+00
         0.00000E+00
         0.00000E+00
         0.00000E+00
         0.00000E+00
         0.00000E+00
         0.00000E+00
         0.00000E+00
         0.00000E+00
         0.00000E+00
         0.00000E+00
         0.00000E+00
         0.00000E+00
         0.00000E+00
         0.00000E+00
         0.00000E+00
         0.00000E+00
         0.00000E+00
         0.00000E+00
         0.00000E+00
         0.00000E+00
         0.00000E+00
         0.00000E+00
         0.00000E+00
         0.00000E+00
         0.00000E+00
         0.00000E+00
         0.00000E+00
         0.00000E+00
         0.00000E+00
         0.00000E+00
         0.00000E+00
         0.00000E+00
         0.00000E+00
         0.00000E+00
         0.00000E+00
         0.00000E+00
         0.00000E+00
         0.00000E+00
         0.00000E+00
         0.00000E+00
         0.00000E+00
         0.00000E+00
         0.00000E+00
         0.00000E+00
         0.00000E+00
         0.00000E+00
         0.00000E+00
         0.00000E+00
         0.00000E+00
         0.00000E+00
         0.00000E+00
         0.00000E+00
         0.00000E+00
         0.00000E+00
         0.00000E+00
         0.00000E+00
         0.00000E+00
         0.00000E+00
         0.00000E+00
         0.00000E+00
         0.00000E+00
         0.00000E+00
         0.00000E+00
         0.00000E+00
         0.00000E+00
         0.00000E+00
         0.00000E+00
         0.00000E+00
         0.00000E+00
         0.00000E+00
         0.00000E+00
         0.00000E+00
         0.00000E+00
         0.00000E+00
         0.00000E+00
         0.00000E+00
         0.00000E+00
         0.00000E+00
         0.00000E+00
         0.00000E+00
         0.00000E+00
         0.00000E+00
         0.00000E+00
         0.00000E+00
         0.00000E+00
         0.00000E+00
         0.00000E+00
         0.00000E+00
         0.00000E+00
         0.00000E+00
         0.00000E+00
         0.00000E+00
         0.00000E+00
         0.00000E+00
         0.00000E+00
         0.00000E+00
         0.00000E+00
         0.00000E+00
         0.00000E+00
         0.00000E+00
         0.00000E+00
         0.00000E+00
         0.00000E+00
         0.00000E+00
         0.00000E+00
         0.00000E+00
         0.00000E+00
         0.00000E+00
         0.00000E+00
         0.00000E+00
         0.00000E+00
         0.00000E+00
         0.00000E+00
         0.00000E+00
         0.00000E+00
         0.00000E+00
         0.00000E+00
         0.00000E+00
         0.00000E+00
         0.00000E+00
         0.00000E+00
         0.00000E+00
         0.00000E+00
         0.00000E+00
         0.00000E+00
         0.00000E+00
         0.00000E+00
         0.00000E+00
         0.00000E+00
         0.00000E+00
         0.00000E+00
         0.00000E+00
         0.00000E+00
         0.00000E+00
         0.00000E+00
         0.00000E+00
         0.00000E+00
         0.00000E+00
         0.00000E+00
         0.00000E+00
         0.00000E+00
         0.00000E+00
         0.00000E+00
         0.00000E+00
         0.00000E+00
         0.00000E+00
         0.00000E+00
         0.00000E+00
         0.00000E+00
         0.00000E+00
         0.00000E+00
         0.00000E+00
         0.00000E+00
         0.00000E+00
         0.00000E+00
         0.00000E+00
         0.00000E+00
         0.00000E+00
         0.00000E+00
         0.00000E+00
         0.00000E+00
         0.00000E+00
         0.00000E+00
         0.00000E+00
         0.00000E+00
         0.00000E+00
         0.00000E+00
         0.00000E+00
         0.00000E+00
         0.00000E+00
         0.00000E+00
         0.00000E+00
         0.00000E+00
         0.00000E+00
         0.00000E+00
         0.00000E+00
         0.00000E+00
         0.00000E+00
         0.00000E+00
         0.00000E+00
         0.00000E+00
         0.00000E+00
         0.00000E+00
         0.00000E+00
         0.00000E+00
         0.00000E+00
         0.00000E+00
         0.00000E+00
         0.00000E+00
         0.00000E+00
         0.00000E+00
         0.00000E+00
         0.00000E+00
         0.00000E+00
         0.00000E+00
         0.00000E+00
         0.00000E+00
         0.00000E+00
         0.00000E+00
         0.00000E+00
         0.00000E+00
         0.00000E+00
         0.00000E+00
         0.00000E+00
         0.00000E+00
         0.00000E+00
         0.00000E+00
         0.00000E+00
         0.00000E+00
         0.00000E+00
         0.00000E+00
         0.00000E+00
         0.00000E+00
         0.00000E+00
         0.00000E+00
         0.00000E+00
         0.00000E+00
         0.00000E+00
         0.00000E+00
         0.00000E+00
         0.00000E+00
         0.00000E+00
         0.00000E+00
         0.00000E+00
         0.00000E+00
         0.00000E+00
         0.00000E+00
         0.00000E+00
         0.00000E+00
         0.00000E+00
         0.00000E+00
         0.00000E+00
         0.00000E+00
         0.00000E+00
         0.00000E+00
         0.00000E+00
         0.00000E+00
         0.00000E+00
         0.00000E+00
         0.00000E+00
         0.00000E+00
         0.00000E+00
         0.00000E+00
         0.00000E+00
         0.00000E+00
         0.00000E+00
         0.00000E+00
         0.00000E+00
         0.00000E+00
         0.00000E+00
         0.00000E+00
         0.00000E+00
         0.00000E+00
         0.00000E+00
         0.00000E+00
         0.00000E+00
         0.00000E+00
         0.00000E+00
         0.00000E+00
         0.00000E+00
         0.00000E+00
         0.00000E+00
         0.00000E+00
         0.00000E+00
         0.00000E+00
         0.00000E+00
         0.00000E+00
         0.00000E+00
         0.00000E+00
         0.00000E+00
         0.00000E+00
         0.00000E+00
         0.00000E+00
         0.00000E+00
         0.00000E+00
         0.00000E+00
         0.00000E+00
         0.00000E+00
         0.00000E+00
         0.00000E+00
         0.00000E+00
         0.00000E+00
         0.00000E+00
         0.00000E+00
         0.00000E+00
         0.00000E+00
         0.00000E+00
         0.00000E+00
         0.00000E+00
         0.00000E+00
         0.00000E+00
         0.00000E+00
         0.00000E+00
         0.00000E+00
         0.00000E+00
         0.00000E+00
         0.00000E+00
         0.00000E+00
         0.00000E+00
         0.00000E+00
         0.00000E+00
         0.00000E+00
         0.00000E+00
         0.00000E+00
         0.00000E+00
         0.00000E+00
         0.00000E+00
         0.00000E+00
         0.00000E+00
         0.00000E+00
         0.00000E+00
         0.00000E+00
         0.00000E+00
         0.00000E+00
         0.00000E+00
         0.00000E+00
         0.00000E+00
         0.00000E+00
         0.00000E+00
         0.00000E+00
         0.00000E+00
         0.00000E+00
         0.00000E+00
         0.00000E+00
         0.00000E+00
         0.00000E+00
         0.00000E+00
         0.00000E+00
         0.00000E+00
         0.00000E+00
         0.00000E+00
         0.00000E+00
         0.00000E+00
         0.00000E+00
         0.00000E+00
         0.00000E+00
         0.00000E+00
         0.00000E+00
         0.00000E+00
         0.00000E+00
         0.00000E+00
         0.00000E+00
         0.00000E+00
         0.00000E+00
         0.00000E+00
         0.00000E+00
         0.00000E+00
         0.00000E+00
         0.00000E+00
         0.00000E+00
         0.00000E+00
         0.00000E+00
         0.00000E+00
         0.00000E+00
         0.00000E+00
         0.00000E+00
         0.00000E+00
         0.00000E+00
         0.00000E+00
         0.00000E+00
         0.00000E+00
         0.00000E+00
         0.00000E+00
         0.00000E+00
         0.00000E+00
         0.00000E+00
         0.00000E+00
         0.00000E+00
         0.00000E+00
         0.00000E+00
         0.00000E+00
         0.00000E+00
         0.00000E+00
         0.00000E+00
         0.00000E+00
         0.00000E+00
         0.00000E+00
         0.00000E+00
         0.00000E+00
         0.00000E+00
         0.00000E+00
         0.00000E+00
         0.00000E+00
         0.00000E+00
         0.00000E+00
         0.00000E+00
         0.00000E+00
         0.00000E+00
         0.00000E+00
         0.00000E+00
         0.00000E+00
         0.00000E+00
         0.00000E+00
         0.00000E+00
         0.00000E+00
         0.00000E+00
         0.00000E+00
         0.00000E+00
         0.00000E+00
         0.00000E+00
         0.00000E+00
         0.00000E+00
         0.00000E+00
         0.00000E+00
         0.00000E+00
         0.00000E+00
         0.00000E+00
         0.00000E+00
         0.00000E+00
         0.00000E+00
         0.00000E+00
         0.00000E+00
         0.00000E+00
         0.00000E+00
         0.00000E+00
         0.00000E+00
         0.00000E+00
         0.00000E+00
         0.00000E+00
         0.00000E+00
         0.00000E+00
         0.00000E+00
         0.00000E+00
         0.00000E+00
         0.00000E+00
         0.00000E+00
         0.00000E+00
         0.00000E+00
         0.00000E+00
         0.00000E+00
         0.00000E+00
         0.00000E+00
         0.00000E+00
         0.00000E+00
         0.00000E+00
         0.00000E+00
         0.00000E+00
         0.00000E+00
         0.00000E+00
         0.00000E+00
         0.00000E+00
         0.00000E+00
         0.00000E+00
         0.00000E+00
         0.00000E+00
         0.00000E+00
         0.00000E+00
         0.00000E+00
         0.00000E+00
         0.00000E+00
         0.00000E+00
         0.00000E+00
         0.00000E+00
         0.00000E+00
         0.00000E+00
         0.00000E+00
         0.00000E+00
         0.00000E+00
         0.00000E+00
         0.00000E+00
         0.00000E+00
         0.00000E+00
         0.00000E+00
         0.00000E+00
         0.00000E+00
         0.00000E+00
         0.00000E+00
         0.00000E+00
         0.00000E+00
         0.00000E+00
         0.00000E+00
         0.00000E+00
         0.00000E+00
         0.00000E+00
         0.00000E+00
         0.00000E+00
         0.00000E+00
         0.00000E+00
         0.00000E+00
         0.00000E+00
         0.00000E+00
         0.00000E+00
         0.00000E+00
         0.00000E+00
         0.00000E+00
         0.00000E+00
         0.00000E+00
         0.00000E+00
         0.00000E+00
         0.00000E+00
         0.00000E+00
         0.00000E+00
         0.00000E+00
         0.00000E+00
         0.00000E+00
         0.00000E+00
         0.00000E+00
         0.00000E+00
         0.00000E+00
         0.00000E+00
         0.00000E+00
         0.00000E+00
         0.00000E+00
         0.00000E+00
         0.00000E+00
         0.00000E+00
         0.00000E+00
         0.00000E+00
         0.00000E+00
         0.00000E+00
         0.00000E+00
         0.00000E+00
         0.00000E+00
         0.00000E+00
         0.00000E+00
         0.00000E+00
         0.00000E+00
         0.00000E+00
         0.00000E+00
         0.00000E+00
         0.00000E+00
         0.00000E+00
         0.00000E+00
         0.00000E+00
         0.00000E+00
         0.00000E+00
         0.00000E+00
         0.00000E+00
         0.00000E+00
         0.00000E+00
         0.00000E+00
         0.00000E+00
         0.00000E+00
         0.00000E+00
         0.00000E+00
         0.00000E+00
         0.00000E+00
         0.00000E+00
         0.00000E+00
         0.00000E+00
         0.00000E+00
         0.00000E+00
         0.00000E+00
         0.00000E+00
         0.00000E+00
         0.00000E+00
         0.00000E+00
         0.00000E+00
         0.00000E+00
         0.00000E+00
         0.00000E+00
         0.00000E+00
         0.00000E+00
         0.00000E+00
         0.00000E+00
         0.00000E+00
         0.00000E+00
         0.00000E+00
         0.00000E+00
         0.00000E+00
         0.00000E+00
         0.00000E+00
         0.00000E+00
         0.00000E+00
         0.00000E+00
         0.00000E+00
         0.00000E+00
         0.00000E+00
         0.00000E+00
         0.00000E+00
         0.00000E+00
         0.00000E+00
         0.00000E+00
         0.00000E+00
         0.00000E+00
         0.00000E+00
         0.00000E+00
         0.00000E+00
         0.00000E+00
         0.00000E+00
         0.00000E+00
         0.00000E+00
         0.00000E+00
         0.00000E+00
         0.00000E+00
         0.00000E+00
         0.00000E+00
         0.00000E+00
         0.00000E+00
         0.00000E+00
         0.00000E+00
         0.00000E+00
         0.00000E+00
         0.00000E+00
         0.00000E+00
         0.00000E+00
         0.00000E+00
         0.00000E+00
         0.00000E+00
         0.00000E+00
         0.00000E+00
         0.00000E+00
         0.00000E+00
         0.00000E+00
         0.00000E+00
         0.00000E+00
         0.00000E+00
         0.00000E+00
         0.00000E+00
         0.00000E+00
         0.00000E+00
         0.00000E+00
         0.00000E+00
         0.00000E+00
         0.00000E+00
         0.00000E+00
         0.00000E+00
         0.00000E+00
         0.00000E+00
         0.00000E+00
         0.00000E+00
         0.00000E+00
         0.00000E+00
         0.00000E+00
         0.00000E+00
         0.00000E+00
         0.00000E+00
         0.00000E+00
         0.00000E+00
         0.00000E+00
         0.00000E+00
         0.00000E+00
         0.00000E+00
         0.00000E+00
         0.00000E+00
         0.00000E+00
         0.00000E+00
         0.00000E+00
         0.00000E+00
         0.00000E+00
         0.00000E+00
         0.00000E+00
         0.00000E+00
         0.00000E+00
         0.00000E+00
         0.00000E+00
         0.00000E+00
         0.00000E+00
         0.00000E+00
         0.00000E+00
         0.00000E+00
         0.00000E+00
         0.00000E+00
         0.00000E+00
         0.00000E+00
         0.00000E+00
         0.00000E+00
         0.00000E+00
         0.00000E+00
         0.00000E+00
         0.00000E+00
         0.00000E+00
         0.00000E+00
         0.00000E+00
         0.00000E+00
         0.00000E+00
         0.00000E+00
         0.00000E+00
         0.00000E+00
         0.00000E+00
         0.00000E+00
         0.00000E+00
         0.00000E+00
         0.00000E+00
         0.00000E+00
         0.00000E+00
         0.00000E+00
         0.00000E+00
         0.00000E+00
         0.00000E+00
         0.00000E+00
         0.00000E+00
         0.00000E+00
         0.00000E+00
         0.00000E+00
         0.00000E+00
         0.00000E+00
         0.00000E+00
         0.00000E+00
         0.00000E+00
         0.00000E+00
         0.00000E+00
         0.00000E+00
         0.00000E+00
         0.00000E+00
         0.00000E+00
         0.00000E+00
         0.00000E+00
         0.00000E+00
         0.00000E+00
         0.00000E+00
         0.00000E+00
         0.00000E+00
         0.00000E+00
         0.00000E+00
         0.00000E+00
         0.00000E+00
         0.00000E+00
         0.00000E+00
         0.00000E+00
         0.00000E+00
         0.00000E+00
         0.00000E+00
         0.00000E+00
         0.00000E+00
         0.00000E+00
         0.00000E+00
         0.00000E+00
         0.00000E+00
         0.00000E+00
         0.00000E+00
         0.00000E+00
         0.00000E+00
         0.00000E+00
         0.00000E+00
         0.00000E+00
         0.00000E+00
         0.00000E+00
         0.00000E+00
         0.00000E+00
         0.00000E+00
         0.00000E+00
         0.00000E+00
         0.00000E+00
         0.00000E+00
         0.00000E+00
         0.00000E+00
         0.00000E+00
         0.00000E+00
         0.00000E+00
         0.00000E+00
         0.00000E+00
         0.00000E+00
         0.00000E+00
         0.00000E+00
         0.00000E+00
         0.00000E+00
         0.00000E+00
         0.00000E+00
         0.00000E+00
         0.00000E+00
         0.00000E+00
         0.00000E+00
         0.00000E+00
         0.00000E+00
         0.00000E+00
         0.00000E+00
         0.00000E+00
         0.00000E+00
         0.00000E+00
         0.00000E+00
         0.00000E+00
         0.00000E+00
         0.00000E+00
         0.00000E+00
         0.00000E+00
         0.00000E+00
         0.00000E+00
         0.00000E+00
         0.00000E+00
         0.00000E+00
         0.00000E+00
         0.00000E+00
         0.00000E+00
         0.00000E+00
         0.00000E+00
         0.00000E+00
         0.00000E+00
         0.00000E+00
         0.00000E+00
         0.00000E+00
         0.00000E+00
         0.00000E+00
         0.00000E+00
         0.00000E+00
         0.00000E+00
         0.00000E+00
         0.00000E+00
         0.00000E+00
         0.00000E+00
         0.00000E+00
         0.00000E+00
         0.00000E+00
         0.00000E+00
         0.00000E+00
         0.00000E+00
         0.00000E+00
         0.00000E+00
         0.00000E+00
         0.00000E+00
         0.00000E+00
         0.00000E+00
         0.00000E+00
         0.00000E+00
         0.00000E+00
         0.00000E+00
         0.00000E+00
         0.00000E+00
         0.00000E+00
         0.00000E+00
         0.00000E+00
         0.00000E+00
         0.00000E+00
         0.00000E+00
         0.00000E+00
         0.00000E+00
         0.00000E+00
         0.00000E+00
         0.00000E+00
         0.00000E+00
         0.00000E+00
         0.00000E+00
         0.00000E+00
         0.00000E+00
         0.00000E+00
         0.00000E+00
         0.00000E+00
         0.00000E+00
         0.00000E+00
         0.00000E+00
         0.00000E+00
         0.00000E+00
         0.00000E+00
         0.00000E+00
         0.00000E+00
         0.00000E+00
         0.00000E+00
         0.00000E+00
         0.00000E+00
         0.00000E+00
         0.00000E+00
         0.00000E+00
         0.00000E+00
         0.00000E+00
         0.00000E+00
         0.00000E+00
         0.00000E+00
         0.00000E+00
         0.00000E+00
         0.00000E+00
         0.00000E+00
         0.00000E+00
         0.00000E+00
         0.00000E+00
         0.00000E+00
         0.00000E+00
         0.00000E+00
         0.00000E+00
         0.00000E+00
         0.00000E+00
         0.00000E+00
         0.00000E+00
         0.00000E+00
         0.00000E+00
         0.00000E+00
         0.00000E+00
         0.00000E+00
         0.00000E+00
         0.00000E+00
         0.00000E+00
         0.00000E+00
         0.00000E+00
         0.00000E+00
         0.00000E+00
         0.00000E+00
         0.00000E+00
         0.00000E+00
         0.00000E+00
         0.00000E+00
         0.00000E+00
         0.00000E+00
         0.00000E+00
         0.00000E+00
         0.00000E+00
         0.00000E+00
         0.00000E+00
         0.00000E+00
         0.00000E+00
         0.00000E+00
         0.00000E+00
         0.00000E+00
         0.00000E+00
         0.00000E+00
         0.00000E+00
         0.00000E+00
         0.00000E+00
         0.00000E+00
         0.00000E+00
         0.00000E+00
         0.00000E+00
         0.00000E+00
         0.00000E+00
         0.00000E+00
         0.00000E+00
         0.00000E+00
         0.00000E+00
         0.00000E+00
         0.00000E+00
         0.00000E+00
         0.00000E+00
         0.00000E+00
         0.00000E+00
         0.00000E+00
         0.00000E+00
         0.00000E+00
         0.00000E+00
         0.00000E+00
         0.00000E+00
         0.00000E+00
         0.00000E+00
         0.00000E+00
         0.00000E+00
         0.00000E+00
         0.00000E+00
         0.00000E+00
         0.00000E+00
         0.00000E+00
         0.00000E+00
         0.00000E+00
         0.00000E+00
         0.00000E+00
         0.00000E+00
         0.00000E+00
         0.00000E+00
         0.00000E+00
         0.00000E+00
         0.00000E+00
         0.00000E+00
         0.00000E+00
         0.00000E+00
         0.00000E+00
         0.00000E+00
         0.00000E+00
         0.00000E+00
         0.00000E+00
         0.00000E+00
         0.00000E+00
         0.00000E+00
         0.00000E+00
         0.00000E+00
         0.00000E+00
         0.00000E+00
         0.00000E+00
         0.00000E+00
         0.00000E+00
         0.00000E+00
         0.00000E+00
         0.00000E+00
         0.00000E+00
         0.00000E+00
         0.00000E+00
         0.00000E+00
         0.00000E+00
         0.00000E+00
         0.00000E+00
         0.00000E+00
         0.00000E+00
         0.00000E+00
         0.00000E+00
         0.00000E+00
         0.00000E+00
         0.00000E+00
         0.00000E+00
         0.00000E+00
         0.00000E+00
         0.00000E+00
         0.00000E+00
         0.00000E+00
         0.00000E+00
         0.00000E+00
         0.00000E+00
         0.00000E+00
         0.00000E+00
         0.00000E+00
         0.00000E+00
         0.00000E+00
         0.00000E+00
         0.00000E+00
         0.00000E+00
         0.00000E+00
         0.00000E+00
         0.00000E+00
         0.00000E+00
         0.00000E+00
         0.00000E+00
         0.00000E+00
         0.00000E+00
         0.00000E+00
         0.00000E+00
         0.00000E+00
         0.00000E+00
         0.00000E+00
         0.00000E+00
         0.00000E+00
         0.00000E+00
         0.00000E+00
         0.00000E+00
         0.00000E+00
         0.00000E+00
         0.00000E+00
         0.00000E+00
         0.00000E+00
         0.00000E+00
         0.00000E+00
         0.00000E+00
         0.00000E+00
         0.00000E+00
         0.00000E+00
         0.00000E+00
         0.00000E+00
         0.00000E+00
         0.00000E+00
         0.00000E+00
         0.00000E+00
         0.00000E+00
         0.00000E+00
         0.00000E+00
         0.00000E+00
         0.00000E+00
         0.00000E+00
         0.00000E+00
         0.00000E+00
         0.00000E+00
         0.00000E+00
         0.00000E+00
         0.00000E+00
         0.00000E+00
         0.00000E+00
         0.00000E+00
         0.00000E+00
         0.00000E+00
         0.00000E+00
         0.00000E+00
         0.00000E+00
         0.00000E+00
         0.00000E+00
         0.00000E+00
         0.00000E+00
         0.00000E+00
         0.00000E+00
         0.00000E+00
         0.00000E+00
         0.00000E+00
         0.00000E+00
         0.00000E+00
         0.00000E+00
         0.00000E+00
         0.00000E+00
         0.00000E+00
         0.00000E+00
         0.00000E+00
         0.00000E+00
         0.00000E+00
         0.00000E+00
         0.00000E+00
         0.00000E+00
         0.00000E+00
         0.00000E+00
         0.00000E+00
         0.00000E+00
         0.00000E+00
         0.00000E+00
         0.00000E+00
         0.00000E+00
         0.00000E+00
         0.00000E+00
         0.00000E+00
         0.00000E+00
         0.00000E+00
         0.00000E+00
         0.00000E+00
         0.00000E+00
         0.00000E+00
         0.00000E+00
         0.00000E+00
         0.00000E+00
         0.00000E+00
         0.00000E+00
         0.00000E+00
         0.00000E+00
         0.00000E+00
         0.00000E+00
         0.00000E+00
         0.00000E+00
         0.00000E+00
         0.00000E+00
         0.00000E+00
         0.00000E+00
         0.00000E+00
         0.00000E+00
         0.00000E+00
         0.00000E+00
         0.00000E+00
         0.00000E+00
         0.00000E+00
         0.00000E+00
         0.00000E+00
         0.00000E+00
         0.00000E+00
         0.00000E+00
         0.00000E+00
         0.00000E+00
         0.00000E+00
         0.00000E+00
         0.00000E+00
         0.00000E+00
         0.00000E+00
         0.00000E+00
         0.00000E+00
         0.00000E+00
         0.00000E+00
         0.00000E+00
         0.00000E+00
         0.00000E+00
         0.00000E+00
         0.00000E+00
         0.00000E+00
         0.00000E+00
         0.00000E+00
         0.00000E+00
         0.00000E+00
         0.00000E+00
         0.00000E+00
         0.00000E+00
         0.00000E+00
         0.00000E+00
         0.00000E+00
         0.00000E+00
         0.00000E+00
         0.00000E+00
         0.00000E+00
         0.00000E+00
         0.00000E+00
         0.00000E+00
         0.00000E+00
         0.00000E+00
         0.00000E+00
         0.00000E+00
         0.00000E+00
         0.00000E+00
         0.00000E+00
         0.00000E+00
         0.00000E+00
         0.00000E+00
         0.00000E+00
         0.00000E+00
         0.00000E+00
         0.00000E+00
         0.00000E+00
         0.00000E+00
         0.00000E+00
         0.00000E+00
         0.00000E+00
         0.00000E+00
         0.00000E+00
         0.00000E+00
         0.00000E+00
         0.00000E+00
         0.00000E+00
         0.00000E+00
         0.00000E+00
         0.00000E+00
         0.00000E+00
         0.00000E+00
         0.00000E+00
         0.00000E+00
         0.00000E+00
         0.00000E+00
         0.00000E+00
         0.00000E+00
         0.00000E+00
         0.00000E+00
         0.00000E+00
         0.00000E+00
         0.00000E+00
         0.00000E+00
         0.00000E+00
         0.00000E+00
         0.00000E+00
         0.00000E+00
         0.00000E+00
         0.00000E+00
         0.00000E+00
         0.00000E+00
         0.00000E+00
         0.00000E+00
         0.00000E+00
         0.00000E+00
         0.00000E+00
         0.00000E+00
         0.00000E+00
         0.00000E+00
         0.00000E+00
         0.00000E+00
         0.00000E+00
         0.00000E+00
         0.00000E+00
         0.00000E+00
         0.00000E+00
         0.00000E+00
         0.00000E+00
         0.00000E+00
         0.00000E+00
         0.00000E+00
         0.00000E+00
         0.00000E+00
         0.00000E+00
         0.00000E+00
         0.00000E+00
         0.00000E+00
         0.00000E+00
         0.00000E+00
         0.00000E+00
         0.00000E+00
         0.00000E+00
         0.00000E+00
         0.00000E+00
         0.00000E+00
         0.00000E+00
         0.00000E+00
         0.00000E+00
         0.00000E+00
         0.00000E+00
         0.00000E+00
         0.00000E+00
         0.00000E+00
         0.00000E+00
         0.00000E+00
         0.00000E+00
         0.00000E+00
         0.00000E+00
         0.00000E+00
         0.00000E+00
         0.00000E+00
         0.00000E+00
         0.00000E+00
         0.00000E+00
         0.00000E+00
         0.00000E+00
         0.00000E+00
         0.00000E+00
         0.00000E+00
         0.00000E+00
         0.00000E+00
         0.00000E+00
         0.00000E+00
         0.00000E+00
         0.00000E+00
         0.00000E+00
         0.00000E+00
         0.00000E+00
         0.00000E+00
         0.00000E+00
         0.00000E+00
         0.00000E+00
         0.00000E+00
         0.00000E+00
         0.00000E+00
         0.00000E+00
         0.00000E+00
         0.00000E+00
         0.00000E+00
         0.00000E+00
         0.00000E+00
         0.00000E+00
         0.00000E+00
         0.00000E+00
         0.00000E+00
         0.00000E+00
         0.00000E+00
         0.00000E+00
         0.00000E+00
         0.00000E+00
         0.00000E+00
         0.00000E+00
         0.00000E+00
         0.00000E+00
         0.00000E+00
         0.00000E+00
         0.00000E+00
         0.00000E+00
         0.00000E+00
         0.00000E+00
         0.00000E+00
         0.00000E+00
         0.00000E+00
         0.00000E+00
         0.00000E+00
         0.00000E+00
         0.00000E+00
         0.00000E+00
         0.00000E+00
         0.00000E+00
         0.00000E+00
         0.00000E+00
         0.00000E+00
         0.00000E+00
         0.00000E+00
         0.00000E+00
         0.00000E+00
         0.00000E+00
         0.00000E+00
         0.00000E+00
         0.00000E+00
         0.00000E+00
         0.00000E+00
         0.00000E+00
         0.00000E+00
         0.00000E+00
         0.00000E+00
         0.00000E+00
         0.00000E+00
         0.00000E+00
         0.00000E+00
         0.00000E+00
         0.00000E+00
         0.00000E+00
         0.00000E+00
         0.00000E+00
         0.00000E+00
         0.00000E+00
         0.00000E+00
         0.00000E+00
         0.00000E+00
         0.00000E+00
         0.00000E+00
         0.00000E+00
         0.00000E+00
         0.00000E+00
         0.00000E+00
         0.00000E+00
         0.00000E+00
         0.00000E+00
         0.00000E+00
         0.00000E+00
         0.00000E+00
         0.00000E+00
         0.00000E+00
         0.00000E+00
         0.00000E+00
         0.00000E+00
         0.00000E+00
         0.00000E+00
         0.00000E+00
         0.00000E+00
         0.00000E+00
         0.00000E+00
         0.00000E+00
         0.00000E+00
         0.00000E+00
         0.00000E+00
         0.00000E+00
         0.00000E+00
         0.00000E+00
         0.00000E+00
         0.00000E+00
         0.00000E+00
         0.00000E+00
         0.00000E+00
         0.00000E+00
         0.00000E+00
         0.00000E+00
         0.00000E+00
         0.00000E+00
         0.00000E+00
         0.00000E+00
         0.00000E+00
         0.00000E+00
         0.00000E+00
         0.00000E+00
         0.00000E+00
         0.00000E+00
         0.00000E+00
         0.00000E+00
         0.00000E+00
         0.00000E+00
         0.00000E+00
         0.00000E+00
         0.00000E+00
         0.00000E+00
         0.00000E+00
         0.00000E+00
         0.00000E+00
         0.00000E+00
         0.00000E+00
         0.00000E+00
         0.00000E+00
         0.00000E+00
         0.00000E+00
         0.00000E+00
         0.00000E+00
         0.00000E+00
         0.00000E+00
         0.00000E+00
         0.00000E+00
         0.00000E+00
         0.00000E+00
         0.00000E+00
         0.00000E+00
         0.00000E+00
         0.00000E+00
         0.00000E+00
         0.00000E+00
         0.00000E+00
         0.00000E+00
         0.00000E+00
         0.00000E+00
         0.00000E+00
         0.00000E+00
         0.00000E+00
         0.00000E+00
         0.00000E+00
         0.00000E+00
         0.00000E+00
         0.00000E+00
         0.00000E+00
         0.00000E+00
         0.00000E+00
         0.00000E+00
         0.00000E+00
         0.00000E+00
         0.00000E+00
         0.00000E+00
         0.00000E+00
         0.00000E+00
         0.00000E+00
         0.00000E+00
         0.00000E+00
         0.00000E+00
         0.00000E+00
         0.00000E+00
         0.00000E+00
         0.00000E+00
         0.00000E+00
         0.00000E+00
         0.00000E+00
         0.00000E+00
         0.00000E+00
         0.00000E+00
         0.00000E+00
         0.00000E+00
         0.00000E+00
         0.00000E+00
         0.00000E+00
         0.00000E+00
         0.00000E+00
         0.00000E+00
         0.00000E+00
         0.00000E+00
         0.00000E+00
         0.00000E+00
         0.00000E+00
         0.00000E+00
         0.00000E+00
         0.00000E+00
         0.00000E+00
         0.00000E+00
         0.00000E+00
         0.00000E+00
         0.00000E+00
         0.00000E+00
         0.00000E+00
         0.00000E+00
         0.00000E+00
         0.00000E+00
         0.00000E+00
         0.00000E+00
         0.00000E+00
         0.00000E+00
         0.00000E+00
         0.00000E+00
         0.00000E+00
         0.00000E+00
         0.00000E+00
         0.00000E+00
         0.00000E+00
         0.00000E+00
         0.00000E+00
         0.00000E+00
         0.00000E+00
         0.00000E+00
         0.00000E+00
         0.00000E+00
         0.00000E+00
         0.00000E+00
         0.00000E+00
         0.00000E+00
         0.00000E+00
         0.00000E+00
         0.00000E+00
         0.00000E+00
         0.00000E+00
         0.00000E+00
         0.00000E+00
         0.00000E+00
         0.00000E+00
         0.00000E+00
         0.00000E+00
         0.00000E+00
         0.00000E+00
         0.00000E+00
         0.00000E+00
         0.00000E+00
         0.00000E+00
         0.00000E+00
         0.00000E+00
         0.00000E+00
         0.00000E+00
         0.00000E+00
         0.00000E+00
         0.00000E+00
         0.00000E+00
         0.00000E+00
         0.00000E+00
         0.00000E+00
         0.00000E+00
         0.00000E+00
         0.00000E+00
         0.00000E+00
         0.00000E+00
         0.00000E+00
         0.00000E+00
         0.00000E+00
         0.00000E+00
         0.00000E+00
         0.00000E+00
         0.00000E+00
         0.00000E+00
         0.00000E+00
         0.00000E+00
         0.00000E+00
         0.00000E+00
         0.00000E+00
         0.00000E+00
         0.00000E+00
         0.00000E+00
         0.00000E+00
         0.00000E+00
         0.00000E+00
         0.00000E+00
         0.00000E+00
         0.00000E+00
         0.00000E+00
         0.00000E+00
         0.00000E+00
         0.00000E+00
         0.00000E+00
         0.00000E+00
         0.00000E+00
         0.00000E+00
         0.00000E+00
         0.00000E+00
         0.00000E+00
         0.00000E+00
         0.00000E+00
         0.00000E+00
         0.00000E+00
         0.00000E+00
         0.00000E+00
         0.00000E+00
         0.00000E+00
         0.00000E+00
         0.00000E+00
         0.00000E+00
         0.00000E+00
         0.00000E+00
         0.00000E+00
         0.00000E+00
         0.00000E+00
         0.00000E+00
         0.00000E+00
         0.00000E+00
         0.00000E+00
         0.00000E+00
         0.00000E+00
         0.00000E+00
         0.00000E+00
         0.00000E+00
         0.00000E+00
         0.00000E+00
         0.00000E+00
         0.00000E+00
         0.00000E+00
         0.00000E+00
         0.00000E+00
         0.00000E+00
         0.00000E+00
         0.00000E+00
         0.00000E+00
         0.00000E+00
         0.00000E+00
         0.00000E+00
         0.00000E+00
         0.00000E+00
         0.00000E+00
         0.00000E+00
         0.00000E+00
         0.00000E+00
         0.00000E+00
         0.00000E+00
         0.00000E+00
         0.00000E+00
         0.00000E+00
         0.00000E+00
         0.00000E+00
         0.00000E+00
         0.00000E+00
         0.00000E+00
         0.00000E+00
         0.00000E+00
         0.00000E+00
         0.00000E+00
         0.00000E+00
         0.00000E+00
         0.00000E+00
         0.00000E+00
         0.00000E+00
         0.00000E+00
         0.00000E+00
         0.00000E+00
         0.00000E+00
         0.00000E+00
         0.00000E+00
         0.00000E+00
         0.00000E+00
         0.00000E+00
         0.00000E+00
         0.00000E+00
         0.00000E+00
         0.00000E+00
         0.00000E+00
         0.00000E+00
         0.00000E+00
         0.00000E+00
         0.00000E+00
         0.00000E+00
         0.00000E+00
         0.00000E+00
         0.00000E+00
         0.00000E+00
         0.00000E+00
         0.00000E+00
         0.00000E+00
         0.00000E+00
         0.00000E+00
         0.00000E+00
         0.00000E+00
         0.00000E+00
         0.00000E+00
         0.00000E+00
         0.00000E+00
         0.00000E+00
         0.00000E+00
         0.00000E+00
         0.00000E+00
         0.00000E+00
         0.00000E+00
         0.00000E+00
         0.00000E+00
         0.00000E+00
         0.00000E+00
         0.00000E+00
         0.00000E+00
         0.00000E+00
         0.00000E+00
         0.00000E+00
         0.00000E+00
         0.00000E+00
         0.00000E+00
         0.00000E+00
         0.00000E+00
         0.00000E+00
         0.00000E+00
         0.00000E+00
         0.00000E+00
         0.00000E+00
         0.00000E+00
         0.00000E+00
         0.00000E+00
         0.00000E+00
         0.00000E+00
         0.00000E+00
         0.00000E+00
         0.00000E+00
         0.00000E+00
         0.00000E+00
         0.00000E+00
         0.00000E+00
         0.00000E+00
         0.00000E+00
         0.00000E+00
         0.00000E+00
         0.00000E+00
         0.00000E+00
         0.00000E+00
         0.00000E+00
         0.00000E+00
         0.00000E+00
         0.00000E+00
         0.00000E+00
         0.00000E+00
         0.00000E+00
         0.00000E+00
         0.00000E+00
         0.00000E+00
         0.00000E+00
         0.00000E+00
         0.00000E+00
         0.00000E+00
         0.00000E+00
         0.00000E+00
         0.00000E+00
         0.00000E+00
         0.00000E+00
         0.00000E+00
         0.00000E+00
         0.00000E+00
         0.00000E+00
         0.00000E+00
         0.00000E+00
         0.00000E+00
         0.00000E+00
         0.00000E+00
         0.00000E+00
         0.00000E+00
         0.00000E+00
         0.00000E+00
         0.00000E+00
         0.00000E+00
         0.00000E+00
         0.00000E+00
         0.00000E+00
         0.00000E+00
         0.00000E+00
         0.00000E+00
         0.00000E+00
         0.00000E+00
         0.00000E+00
         0.00000E+00
         0.00000E+00
         0.00000E+00
         0.00000E+00
         0.00000E+00
         0.00000E+00
         0.00000E+00
         0.00000E+00
         0.00000E+00
         0.00000E+00
         0.00000E+00
         0.00000E+00
         0.00000E+00
         0.00000E+00
         0.00000E+00
         0.00000E+00
         0.00000E+00
         0.00000E+00
         0.00000E+00
         0.00000E+00
         0.00000E+00
         0.00000E+00
         0.00000E+00
         0.00000E+00
         0.00000E+00
         0.00000E+00
         0.00000E+00
         0.00000E+00
         0.00000E+00
         0.00000E+00
         0.00000E+00
         0.00000E+00
         0.00000E+00
         0.00000E+00
         0.00000E+00
         0.00000E+00
         0.00000E+00
         0.00000E+00
         0.00000E+00
         0.00000E+00
         0.00000E+00
         0.00000E+00
         0.00000E+00
         0.00000E+00
         0.00000E+00
         0.00000E+00
         0.00000E+00
         0.00000E+00
         0.00000E+00
         0.00000E+00
         0.00000E+00
         0.00000E+00
         0.00000E+00
         0.00000E+00
         0.00000E+00
         0.00000E+00
         0.00000E+00
         0.00000E+00
         0.00000E+00
         0.00000E+00
         0.00000E+00
         0.00000E+00
         0.00000E+00
         0.00000E+00
         0.00000E+00
         0.00000E+00
         0.00000E+00
         0.00000E+00
         0.00000E+00
         0.00000E+00
         0.00000E+00
         0.00000E+00
         0.00000E+00
         0.00000E+00
         0.00000E+00
         0.00000E+00
         0.00000E+00
         0.00000E+00
         0.00000E+00
         0.00000E+00
         0.00000E+00
         0.00000E+00
         0.00000E+00
         0.00000E+00
         0.00000E+00
         0.00000E+00
         0.00000E+00
         0.00000E+00
         0.00000E+00
         0.00000E+00
         0.00000E+00
         0.00000E+00
         0.00000E+00
         0.00000E+00
         0.00000E+00
         0.00000E+00
         0.00000E+00
         0.00000E+00
         0.00000E+00
         0.00000E+00
         0.00000E+00
         0.00000E+00
         0.00000E+00
         0.00000E+00
         0.00000E+00
         0.00000E+00
         0.00000E+00
         0.00000E+00
         0.00000E+00
         0.00000E+00
         0.00000E+00
         0.00000E+00
         0.00000E+00
         0.00000E+00
         0.00000E+00
         0.00000E+00
         0.00000E+00
         0.00000E+00
         0.00000E+00
         0.00000E+00
         0.00000E+00
         0.00000E+00
         0.00000E+00
         0.00000E+00
         0.00000E+00
         0.00000E+00
         0.00000E+00
         0.00000E+00
         0.00000E+00
         0.00000E+00
         0.00000E+00
         0.00000E+00
         0.00000E+00
         0.00000E+00
         0.00000E+00
         0.00000E+00
         0.00000E+00
         0.00000E+00
  
SCALARS                init_velocity_y  double 1
LOOKUP_TABLE default
         0.00000E+00
         0.00000E+00
         0.00000E+00
         0.00000E+00
         0.00000E+00
         0.00000E+00
         0.00000E+00
         0.00000E+00
         0.00000E+00
         0.00000E+00
         0.00000E+00
         0.00000E+00
         0.00000E+00
         0.00000E+00
         0.00000E+00
         0.00000E+00
         0.00000E+00
         0.00000E+00
         0.00000E+00
         0.00000E+00
         0.00000E+00
         0.00000E+00
         0.00000E+00
         0.00000E+00
         0.00000E+00
         0.00000E+00
         0.00000E+00
         0.00000E+00
         0.00000E+00
         0.00000E+00
         0.00000E+00
         0.00000E+00
         0.00000E+00
         0.00000E+00
         0.00000E+00
         0.00000E+00
         0.00000E+00
         0.00000E+00
         0.00000E+00
         0.00000E+00
         0.00000E+00
         0.00000E+00
         0.00000E+00
         0.00000E+00
         0.00000E+00
         0.00000E+00
         0.00000E+00
         0.00000E+00
         0.00000E+00
         0.00000E+00
         0.00000E+00
         0.00000E+00
         0.00000E+00
         0.00000E+00
         0.00000E+00
         0.00000E+00
         0.00000E+00
         0.00000E+00
         0.00000E+00
         0.00000E+00
         0.00000E+00
         0.00000E+00
         0.00000E+00
         0.00000E+00
         0.00000E+00
         0.00000E+00
         0.00000E+00
         0.00000E+00
         0.00000E+00
         0.00000E+00
         0.00000E+00
         0.00000E+00
         0.00000E+00
         0.00000E+00
         0.00000E+00
         0.00000E+00
         0.00000E+00
         0.00000E+00
         0.00000E+00
         0.00000E+00
         0.00000E+00
         0.00000E+00
         0.00000E+00
         0.00000E+00
         0.00000E+00
         0.00000E+00
         0.00000E+00
         0.00000E+00
         0.00000E+00
         0.00000E+00
         0.00000E+00
         0.00000E+00
         0.00000E+00
         0.00000E+00
         0.00000E+00
         0.00000E+00
         0.00000E+00
         0.00000E+00
         0.00000E+00
         0.00000E+00
         0.00000E+00
         0.00000E+00
         0.00000E+00
         0.00000E+00
         0.00000E+00
         0.00000E+00
         0.00000E+00
         0.00000E+00
         0.00000E+00
         0.00000E+00
         0.00000E+00
         0.00000E+00
         0.00000E+00
         0.00000E+00
         0.00000E+00
         0.00000E+00
         0.00000E+00
         0.00000E+00
         0.00000E+00
         0.00000E+00
         0.00000E+00
         0.00000E+00
         0.00000E+00
         0.00000E+00
         0.00000E+00
         0.00000E+00
         0.00000E+00
         0.00000E+00
         0.00000E+00
         0.00000E+00
         0.00000E+00
         0.00000E+00
         0.00000E+00
         0.00000E+00
         0.00000E+00
         0.00000E+00
         0.00000E+00
         0.00000E+00
         0.00000E+00
         0.00000E+00
         0.00000E+00
         0.00000E+00
         0.00000E+00
         0.00000E+00
         0.00000E+00
         0.00000E+00
         0.00000E+00
         0.00000E+00
         0.00000E+00
         0.00000E+00
         0.00000E+00
         0.00000E+00
         0.00000E+00
         0.00000E+00
         0.00000E+00
         0.00000E+00
         0.00000E+00
         0.00000E+00
         0.00000E+00
         0.00000E+00
         0.00000E+00
         0.00000E+00
         0.00000E+00
         0.00000E+00
         0.00000E+00
         0.00000E+00
         0.00000E+00
         0.00000E+00
         0.00000E+00
         0.00000E+00
         0.00000E+00
         0.00000E+00
         0.00000E+00
         0.00000E+00
         0.00000E+00
         0.00000E+00
         0.00000E+00
         0.00000E+00
         0.00000E+00
         0.00000E+00
         0.00000E+00
         0.00000E+00
         0.00000E+00
         0.00000E+00
         0.00000E+00
         0.00000E+00
         0.00000E+00
         0.00000E+00
         0.00000E+00
         0.00000E+00
         0.00000E+00
         0.00000E+00
         0.00000E+00
         0.00000E+00
         0.00000E+00
         0.00000E+00
         0.00000E+00
         0.00000E+00
         0.00000E+00
         0.00000E+00
         0.00000E+00
         0.00000E+00
         0.00000E+00
         0.00000E+00
         0.00000E+00
         0.00000E+00
         0.00000E+00
         0.00000E+00
         0.00000E+00
         0.00000E+00
         0.00000E+00
         0.00000E+00
         0.00000E+00
         0.00000E+00
         0.00000E+00
         0.00000E+00
         0.00000E+00
         0.00000E+00
         0.00000E+00
         0.00000E+00
         0.00000E+00
         0.00000E+00
         0.00000E+00
         0.00000E+00
         0.00000E+00
         0.00000E+00
         0.00000E+00
         0.00000E+00
         0.00000E+00
         0.00000E+00
         0.00000E+00
         0.00000E+00
         0.00000E+00
         0.00000E+00
         0.00000E+00
         0.00000E+00
         0.00000E+00
         0.00000E+00
         0.00000E+00
         0.00000E+00
         0.00000E+00
         0.00000E+00
         0.00000E+00
         0.00000E+00
         0.00000E+00
         0.00000E+00
         0.00000E+00
         0.00000E+00
         0.00000E+00
         0.00000E+00
         0.00000E+00
         0.00000E+00
         0.00000E+00
         0.00000E+00
         0.00000E+00
         0.00000E+00
         0.00000E+00
         0.00000E+00
         0.00000E+00
         0.00000E+00
         0.00000E+00
         0.00000E+00
         0.00000E+00
         0.00000E+00
         0.00000E+00
         0.00000E+00
         0.00000E+00
         0.00000E+00
         0.00000E+00
         0.00000E+00
         0.00000E+00
         0.00000E+00
         0.00000E+00
         0.00000E+00
         0.00000E+00
         0.00000E+00
         0.00000E+00
         0.00000E+00
         0.00000E+00
         0.00000E+00
         0.00000E+00
         0.00000E+00
         0.00000E+00
         0.00000E+00
         0.00000E+00
         0.00000E+00
         0.00000E+00
         0.00000E+00
         0.00000E+00
         0.00000E+00
         0.00000E+00
         0.00000E+00
         0.00000E+00
         0.00000E+00
         0.00000E+00
         0.00000E+00
         0.00000E+00
         0.00000E+00
         0.00000E+00
         0.00000E+00
         0.00000E+00
         0.00000E+00
         0.00000E+00
         0.00000E+00
         0.00000E+00
         0.00000E+00
         0.00000E+00
         0.00000E+00
         0.00000E+00
         0.00000E+00
         0.00000E+00
         0.00000E+00
         0.00000E+00
         0.00000E+00
         0.00000E+00
         0.00000E+00
         0.00000E+00
         0.00000E+00
         0.00000E+00
         0.00000E+00
         0.00000E+00
         0.00000E+00
         0.00000E+00
         0.00000E+00
         0.00000E+00
         0.00000E+00
         0.00000E+00
         0.00000E+00
         0.00000E+00
         0.00000E+00
         0.00000E+00
         0.00000E+00
         0.00000E+00
         0.00000E+00
         0.00000E+00
         0.00000E+00
         0.00000E+00
         0.00000E+00
         0.00000E+00
         0.00000E+00
         0.00000E+00
         0.00000E+00
         0.00000E+00
         0.00000E+00
         0.00000E+00
         0.00000E+00
         0.00000E+00
         0.00000E+00
         0.00000E+00
         0.00000E+00
         0.00000E+00
         0.00000E+00
         0.00000E+00
         0.00000E+00
         0.00000E+00
         0.00000E+00
         0.00000E+00
         0.00000E+00
         0.00000E+00
         0.00000E+00
         0.00000E+00
         0.00000E+00
         0.00000E+00
         0.00000E+00
         0.00000E+00
         0.00000E+00
         0.00000E+00
         0.00000E+00
         0.00000E+00
         0.00000E+00
         0.00000E+00
         0.00000E+00
         0.00000E+00
         0.00000E+00
         0.00000E+00
         0.00000E+00
         0.00000E+00
         0.00000E+00
         0.00000E+00
         0.00000E+00
         0.00000E+00
         0.00000E+00
         0.00000E+00
         0.00000E+00
         0.00000E+00
         0.00000E+00
         0.00000E+00
         0.00000E+00
         0.00000E+00
         0.00000E+00
         0.00000E+00
         0.00000E+00
         0.00000E+00
         0.00000E+00
         0.00000E+00
         0.00000E+00
         0.00000E+00
         0.00000E+00
         0.00000E+00
         0.00000E+00
         0.00000E+00
         0.00000E+00
         0.00000E+00
         0.00000E+00
         0.00000E+00
         0.00000E+00
         0.00000E+00
         0.00000E+00
         0.00000E+00
         0.00000E+00
         0.00000E+00
         0.00000E+00
         0.00000E+00
         0.00000E+00
         0.00000E+00
         0.00000E+00
         0.00000E+00
         0.00000E+00
         0.00000E+00
         0.00000E+00
         0.00000E+00
         0.00000E+00
         0.00000E+00
         0.00000E+00
         0.00000E+00
         0.00000E+00
         0.00000E+00
         0.00000E+00
         0.00000E+00
         0.00000E+00
         0.00000E+00
         0.00000E+00
         0.00000E+00
         0.00000E+00
         0.00000E+00
         0.00000E+00
         0.00000E+00
         0.00000E+00
         0.00000E+00
         0.00000E+00
         0.00000E+00
         0.00000E+00
         0.00000E+00
         0.00000E+00
         0.00000E+00
         0.00000E+00
         0.00000E+00
         0.00000E+00
         0.00000E+00
         0.00000E+00
         0.00000E+00
         0.00000E+00
         0.00000E+00
         0.00000E+00
         0.00000E+00
         0.00000E+00
         0.00000E+00
         0.00000E+00
         0.00000E+00
         0.00000E+00
         0.00000E+00
         0.00000E+00
         0.00000E+00
         0.00000E+00
         0.00000E+00
         0.00000E+00
         0.00000E+00
         0.00000E+00
         0.00000E+00
         0.00000E+00
         0.00000E+00
         0.00000E+00
         0.00000E+00
         0.00000E+00
         0.00000E+00
         0.00000E+00
         0.00000E+00
         0.00000E+00
         0.00000E+00
         0.00000E+00
         0.00000E+00
         0.00000E+00
         0.00000E+00
         0.00000E+00
         0.00000E+00
         0.00000E+00
         0.00000E+00
         0.00000E+00
         0.00000E+00
         0.00000E+00
         0.00000E+00
         0.00000E+00
         0.00000E+00
         0.00000E+00
         0.00000E+00
         0.00000E+00
         0.00000E+00
         0.00000E+00
         0.00000E+00
         0.00000E+00
         0.00000E+00
         0.00000E+00
         0.00000E+00
         0.00000E+00
         0.00000E+00
         0.00000E+00
         0.00000E+00
         0.00000E+00
         0.00000E+00
         0.00000E+00
         0.00000E+00
         0.00000E+00
         0.00000E+00
         0.00000E+00
         0.00000E+00
         0.00000E+00
         0.00000E+00
         0.00000E+00
         0.00000E+00
         0.00000E+00
         0.00000E+00
         0.00000E+00
         0.00000E+00
         0.00000E+00
         0.00000E+00
         0.00000E+00
         0.00000E+00
         0.00000E+00
         0.00000E+00
         0.00000E+00
         0.00000E+00
         0.00000E+00
         0.00000E+00
         0.00000E+00
         0.00000E+00
         0.00000E+00
         0.00000E+00
         0.00000E+00
         0.00000E+00
         0.00000E+00
         0.00000E+00
         0.00000E+00
         0.00000E+00
         0.00000E+00
         0.00000E+00
         0.00000E+00
         0.00000E+00
         0.00000E+00
         0.00000E+00
         0.00000E+00
         0.00000E+00
         0.00000E+00
         0.00000E+00
         0.00000E+00
         0.00000E+00
         0.00000E+00
         0.00000E+00
         0.00000E+00
         0.00000E+00
         0.00000E+00
         0.00000E+00
         0.00000E+00
         0.00000E+00
         0.00000E+00
         0.00000E+00
         0.00000E+00
         0.00000E+00
         0.00000E+00
         0.00000E+00
         0.00000E+00
         0.00000E+00
         0.00000E+00
         0.00000E+00
         0.00000E+00
         0.00000E+00
         0.00000E+00
         0.00000E+00
         0.00000E+00
         0.00000E+00
         0.00000E+00
         0.00000E+00
         0.00000E+00
         0.00000E+00
         0.00000E+00
         0.00000E+00
         0.00000E+00
         0.00000E+00
         0.00000E+00
         0.00000E+00
         0.00000E+00
         0.00000E+00
         0.00000E+00
         0.00000E+00
         0.00000E+00
         0.00000E+00
         0.00000E+00
         0.00000E+00
         0.00000E+00
         0.00000E+00
         0.00000E+00
         0.00000E+00
         0.00000E+00
         0.00000E+00
         0.00000E+00
         0.00000E+00
         0.00000E+00
         0.00000E+00
         0.00000E+00
         0.00000E+00
         0.00000E+00
         0.00000E+00
         0.00000E+00
         0.00000E+00
         0.00000E+00
         0.00000E+00
         0.00000E+00
         0.00000E+00
         0.00000E+00
         0.00000E+00
         0.00000E+00
         0.00000E+00
         0.00000E+00
         0.00000E+00
         0.00000E+00
         0.00000E+00
         0.00000E+00
         0.00000E+00
         0.00000E+00
         0.00000E+00
         0.00000E+00
         0.00000E+00
         0.00000E+00
         0.00000E+00
         0.00000E+00
         0.00000E+00
         0.00000E+00
         0.00000E+00
         0.00000E+00
         0.00000E+00
         0.00000E+00
         0.00000E+00
         0.00000E+00
         0.00000E+00
         0.00000E+00
         0.00000E+00
         0.00000E+00
         0.00000E+00
         0.00000E+00
         0.00000E+00
         0.00000E+00
         0.00000E+00
         0.00000E+00
         0.00000E+00
         0.00000E+00
         0.00000E+00
         0.00000E+00
         0.00000E+00
         0.00000E+00
         0.00000E+00
         0.00000E+00
         0.00000E+00
         0.00000E+00
         0.00000E+00
         0.00000E+00
         0.00000E+00
         0.00000E+00
         0.00000E+00
         0.00000E+00
         0.00000E+00
         0.00000E+00
         0.00000E+00
         0.00000E+00
         0.00000E+00
         0.00000E+00
         0.00000E+00
         0.00000E+00
         0.00000E+00
         0.00000E+00
         0.00000E+00
         0.00000E+00
         0.00000E+00
         0.00000E+00
         0.00000E+00
         0.00000E+00
         0.00000E+00
         0.00000E+00
         0.00000E+00
         0.00000E+00
         0.00000E+00
         0.00000E+00
         0.00000E+00
         0.00000E+00
         0.00000E+00
         0.00000E+00
         0.00000E+00
         0.00000E+00
         0.00000E+00
         0.00000E+00
         0.00000E+00
         0.00000E+00
         0.00000E+00
         0.00000E+00
         0.00000E+00
         0.00000E+00
         0.00000E+00
         0.00000E+00
         0.00000E+00
         0.00000E+00
         0.00000E+00
         0.00000E+00
         0.00000E+00
         0.00000E+00
         0.00000E+00
         0.00000E+00
         0.00000E+00
         0.00000E+00
         0.00000E+00
         0.00000E+00
         0.00000E+00
         0.00000E+00
         0.00000E+00
         0.00000E+00
         0.00000E+00
         0.00000E+00
         0.00000E+00
         0.00000E+00
         0.00000E+00
         0.00000E+00
         0.00000E+00
         0.00000E+00
         0.00000E+00
         0.00000E+00
         0.00000E+00
         0.00000E+00
         0.00000E+00
         0.00000E+00
         0.00000E+00
         0.00000E+00
         0.00000E+00
         0.00000E+00
         0.00000E+00
         0.00000E+00
         0.00000E+00
         0.00000E+00
         0.00000E+00
         0.00000E+00
         0.00000E+00
         0.00000E+00
         0.00000E+00
         0.00000E+00
         0.00000E+00
         0.00000E+00
         0.00000E+00
         0.00000E+00
         0.00000E+00
         0.00000E+00
         0.00000E+00
         0.00000E+00
         0.00000E+00
         0.00000E+00
         0.00000E+00
         0.00000E+00
         0.00000E+00
         0.00000E+00
         0.00000E+00
         0.00000E+00
         0.00000E+00
         0.00000E+00
         0.00000E+00
         0.00000E+00
         0.00000E+00
         0.00000E+00
         0.00000E+00
         0.00000E+00
         0.00000E+00
         0.00000E+00
         0.00000E+00
         0.00000E+00
         0.00000E+00
         0.00000E+00
         0.00000E+00
         0.00000E+00
         0.00000E+00
         0.00000E+00
         0.00000E+00
         0.00000E+00
         0.00000E+00
         0.00000E+00
         0.00000E+00
         0.00000E+00
         0.00000E+00
         0.00000E+00
         0.00000E+00
         0.00000E+00
         0.00000E+00
         0.00000E+00
         0.00000E+00
         0.00000E+00
         0.00000E+00
         0.00000E+00
         0.00000E+00
         0.00000E+00
         0.00000E+00
         0.00000E+00
         0.00000E+00
         0.00000E+00
         0.00000E+00
         0.00000E+00
         0.00000E+00
         0.00000E+00
         0.00000E+00
         0.00000E+00
         0.00000E+00
         0.00000E+00
         0.00000E+00
         0.00000E+00
         0.00000E+00
         0.00000E+00
         0.00000E+00
         0.00000E+00
         0.00000E+00
         0.00000E+00
         0.00000E+00
         0.00000E+00
         0.00000E+00
         0.00000E+00
         0.00000E+00
         0.00000E+00
         0.00000E+00
         0.00000E+00
         0.00000E+00
         0.00000E+00
         0.00000E+00
         0.00000E+00
         0.00000E+00
         0.00000E+00
         0.00000E+00
         0.00000E+00
         0.00000E+00
         0.00000E+00
         0.00000E+00
         0.00000E+00
         0.00000E+00
         0.00000E+00
         0.00000E+00
         0.00000E+00
         0.00000E+00
         0.00000E+00
         0.00000E+00
         0.00000E+00
         0.00000E+00
         0.00000E+00
         0.00000E+00
         0.00000E+00
         0.00000E+00
         0.00000E+00
         0.00000E+00
         0.00000E+00
         0.00000E+00
         0.00000E+00
         0.00000E+00
         0.00000E+00
         0.00000E+00
         0.00000E+00
         0.00000E+00
         0.00000E+00
         0.00000E+00
         0.00000E+00
         0.00000E+00
         0.00000E+00
         0.00000E+00
         0.00000E+00
         0.00000E+00
         0.00000E+00
         0.00000E+00
         0.00000E+00
         0.00000E+00
         0.00000E+00
         0.00000E+00
         0.00000E+00
         0.00000E+00
         0.00000E+00
         0.00000E+00
         0.00000E+00
         0.00000E+00
         0.00000E+00
         0.00000E+00
         0.00000E+00
         0.00000E+00
         0.00000E+00
         0.00000E+00
         0.00000E+00
         0.00000E+00
         0.00000E+00
         0.00000E+00
         0.00000E+00
         0.00000E+00
         0.00000E+00
         0.00000E+00
         0.00000E+00
         0.00000E+00
         0.00000E+00
         0.00000E+00
         0.00000E+00
         0.00000E+00
         0.00000E+00
         0.00000E+00
         0.00000E+00
         0.00000E+00
         0.00000E+00
         0.00000E+00
         0.00000E+00
         0.00000E+00
         0.00000E+00
         0.00000E+00
         0.00000E+00
         0.00000E+00
         0.00000E+00
         0.00000E+00
         0.00000E+00
         0.00000E+00
         0.00000E+00
         0.00000E+00
         0.00000E+00
         0.00000E+00
         0.00000E+00
         0.00000E+00
         0.00000E+00
         0.00000E+00
         0.00000E+00
         0.00000E+00
         0.00000E+00
         0.00000E+00
         0.00000E+00
         0.00000E+00
         0.00000E+00
         0.00000E+00
         0.00000E+00
         0.00000E+00
         0.00000E+00
         0.00000E+00
         0.00000E+00
         0.00000E+00
         0.00000E+00
         0.00000E+00
         0.00000E+00
         0.00000E+00
         0.00000E+00
         0.00000E+00
         0.00000E+00
         0.00000E+00
         0.00000E+00
         0.00000E+00
         0.00000E+00
         0.00000E+00
         0.00000E+00
         0.00000E+00
         0.00000E+00
         0.00000E+00
         0.00000E+00
         0.00000E+00
         0.00000E+00
         0.00000E+00
         0.00000E+00
         0.00000E+00
         0.00000E+00
         0.00000E+00
         0.00000E+00
         0.00000E+00
         0.00000E+00
         0.00000E+00
         0.00000E+00
         0.00000E+00
         0.00000E+00
         0.00000E+00
         0.00000E+00
         0.00000E+00
         0.00000E+00
         0.00000E+00
         0.00000E+00
         0.00000E+00
         0.00000E+00
         0.00000E+00
         0.00000E+00
         0.00000E+00
         0.00000E+00
         0.00000E+00
         0.00000E+00
         0.00000E+00
         0.00000E+00
         0.00000E+00
         0.00000E+00
         0.00000E+00
         0.00000E+00
         0.00000E+00
         0.00000E+00
         0.00000E+00
         0.00000E+00
         0.00000E+00
         0.00000E+00
         0.00000E+00
         0.00000E+00
         0.00000E+00
         0.00000E+00
         0.00000E+00
         0.00000E+00
         0.00000E+00
         0.00000E+00
         0.00000E+00
         0.00000E+00
         0.00000E+00
         0.00000E+00
         0.00000E+00
         0.00000E+00
         0.00000E+00
         0.00000E+00
         0.00000E+00
         0.00000E+00
         0.00000E+00
         0.00000E+00
         0.00000E+00
         0.00000E+00
         0.00000E+00
         0.00000E+00
         0.00000E+00
         0.00000E+00
         0.00000E+00
         0.00000E+00
         0.00000E+00
         0.00000E+00
         0.00000E+00
         0.00000E+00
         0.00000E+00
         0.00000E+00
         0.00000E+00
         0.00000E+00
         0.00000E+00
         0.00000E+00
         0.00000E+00
         0.00000E+00
         0.00000E+00
         0.00000E+00
         0.00000E+00
         0.00000E+00
         0.00000E+00
         0.00000E+00
         0.00000E+00
         0.00000E+00
         0.00000E+00
         0.00000E+00
         0.00000E+00
         0.00000E+00
         0.00000E+00
         0.00000E+00
         0.00000E+00
         0.00000E+00
         0.00000E+00
         0.00000E+00
         0.00000E+00
         0.00000E+00
         0.00000E+00
         0.00000E+00
         0.00000E+00
         0.00000E+00
         0.00000E+00
         0.00000E+00
         0.00000E+00
         0.00000E+00
         0.00000E+00
         0.00000E+00
         0.00000E+00
         0.00000E+00
         0.00000E+00
         0.00000E+00
         0.00000E+00
         0.00000E+00
         0.00000E+00
         0.00000E+00
         0.00000E+00
         0.00000E+00
         0.00000E+00
         0.00000E+00
         0.00000E+00
         0.00000E+00
         0.00000E+00
         0.00000E+00
         0.00000E+00
         0.00000E+00
         0.00000E+00
         0.00000E+00
         0.00000E+00
         0.00000E+00
         0.00000E+00
         0.00000E+00
         0.00000E+00
         0.00000E+00
         0.00000E+00
         0.00000E+00
         0.00000E+00
         0.00000E+00
         0.00000E+00
         0.00000E+00
         0.00000E+00
         0.00000E+00
         0.00000E+00
         0.00000E+00
         0.00000E+00
         0.00000E+00
         0.00000E+00
         0.00000E+00
         0.00000E+00
         0.00000E+00
         0.00000E+00
         0.00000E+00
         0.00000E+00
         0.00000E+00
         0.00000E+00
         0.00000E+00
         0.00000E+00
         0.00000E+00
         0.00000E+00
         0.00000E+00
         0.00000E+00
         0.00000E+00
         0.00000E+00
         0.00000E+00
         0.00000E+00
         0.00000E+00
         0.00000E+00
         0.00000E+00
         0.00000E+00
         0.00000E+00
         0.00000E+00
         0.00000E+00
         0.00000E+00
         0.00000E+00
         0.00000E+00
         0.00000E+00
         0.00000E+00
         0.00000E+00
         0.00000E+00
         0.00000E+00
         0.00000E+00
         0.00000E+00
         0.00000E+00
         0.00000E+00
         0.00000E+00
         0.00000E+00
         0.00000E+00
         0.00000E+00
         0.00000E+00
         0.00000E+00
         0.00000E+00
         0.00000E+00
         0.00000E+00
         0.00000E+00
         0.00000E+00
         0.00000E+00
         0.00000E+00
         0.00000E+00
         0.00000E+00
         0.00000E+00
         0.00000E+00
         0.00000E+00
         0.00000E+00
         0.00000E+00
         0.00000E+00
         0.00000E+00
         0.00000E+00
         0.00000E+00
         0.00000E+00
         0.00000E+00
         0.00000E+00
         0.00000E+00
         0.00000E+00
         0.00000E+00
         0.00000E+00
         0.00000E+00
         0.00000E+00
         0.00000E+00
         0.00000E+00
         0.00000E+00
         0.00000E+00
         0.00000E+00
         0.00000E+00
         0.00000E+00
         0.00000E+00
         0.00000E+00
         0.00000E+00
         0.00000E+00
         0.00000E+00
         0.00000E+00
         0.00000E+00
         0.00000E+00
         0.00000E+00
         0.00000E+00
         0.00000E+00
         0.00000E+00
         0.00000E+00
         0.00000E+00
         0.00000E+00
         0.00000E+00
         0.00000E+00
         0.00000E+00
         0.00000E+00
         0.00000E+00
         0.00000E+00
         0.00000E+00
         0.00000E+00
         0.00000E+00
         0.00000E+00
         0.00000E+00
         0.00000E+00
         0.00000E+00
         0.00000E+00
         0.00000E+00
         0.00000E+00
         0.00000E+00
         0.00000E+00
         0.00000E+00
         0.00000E+00
         0.00000E+00
         0.00000E+00
         0.00000E+00
         0.00000E+00
         0.00000E+00
         0.00000E+00
         0.00000E+00
         0.00000E+00
         0.00000E+00
         0.00000E+00
         0.00000E+00
         0.00000E+00
         0.00000E+00
         0.00000E+00
         0.00000E+00
         0.00000E+00
         0.00000E+00
         0.00000E+00
         0.00000E+00
         0.00000E+00
         0.00000E+00
         0.00000E+00
         0.00000E+00
         0.00000E+00
         0.00000E+00
         0.00000E+00
         0.00000E+00
         0.00000E+00
         0.00000E+00
         0.00000E+00
         0.00000E+00
         0.00000E+00
         0.00000E+00
         0.00000E+00
         0.00000E+00
         0.00000E+00
         0.00000E+00
         0.00000E+00
         0.00000E+00
         0.00000E+00
         0.00000E+00
         0.00000E+00
         0.00000E+00
         0.00000E+00
         0.00000E+00
         0.00000E+00
         0.00000E+00
         0.00000E+00
         0.00000E+00
         0.00000E+00
         0.00000E+00
         0.00000E+00
         0.00000E+00
         0.00000E+00
         0.00000E+00
         0.00000E+00
         0.00000E+00
         0.00000E+00
         0.00000E+00
         0.00000E+00
         0.00000E+00
         0.00000E+00
         0.00000E+00
         0.00000E+00
         0.00000E+00
         0.00000E+00
         0.00000E+00
         0.00000E+00
         0.00000E+00
         0.00000E+00
         0.00000E+00
         0.00000E+00
         0.00000E+00
         0.00000E+00
         0.00000E+00
         0.00000E+00
         0.00000E+00
         0.00000E+00
         0.00000E+00
         0.00000E+00
         0.00000E+00
         0.00000E+00
         0.00000E+00
         0.00000E+00
         0.00000E+00
         0.00000E+00
         0.00000E+00
         0.00000E+00
         0.00000E+00
         0.00000E+00
         0.00000E+00
         0.00000E+00
         0.00000E+00
         0.00000E+00
         0.00000E+00
         0.00000E+00
         0.00000E+00
         0.00000E+00
         0.00000E+00
         0.00000E+00
         0.00000E+00
         0.00000E+00
         0.00000E+00
         0.00000E+00
         0.00000E+00
         0.00000E+00
         0.00000E+00
         0.00000E+00
         0.00000E+00
         0.00000E+00
         0.00000E+00
         0.00000E+00
         0.00000E+00
         0.00000E+00
         0.00000E+00
         0.00000E+00
         0.00000E+00
         0.00000E+00
         0.00000E+00
         0.00000E+00
         0.00000E+00
         0.00000E+00
         0.00000E+00
         0.00000E+00
         0.00000E+00
         0.00000E+00
         0.00000E+00
         0.00000E+00
         0.00000E+00
         0.00000E+00
         0.00000E+00
         0.00000E+00
         0.00000E+00
         0.00000E+00
         0.00000E+00
         0.00000E+00
         0.00000E+00
         0.00000E+00
         0.00000E+00
         0.00000E+00
         0.00000E+00
         0.00000E+00
         0.00000E+00
         0.00000E+00
         0.00000E+00
         0.00000E+00
         0.00000E+00
         0.00000E+00
         0.00000E+00
         0.00000E+00
         0.00000E+00
         0.00000E+00
         0.00000E+00
         0.00000E+00
         0.00000E+00
         0.00000E+00
         0.00000E+00
         0.00000E+00
         0.00000E+00
         0.00000E+00
         0.00000E+00
         0.00000E+00
         0.00000E+00
         0.00000E+00
         0.00000E+00
         0.00000E+00
         0.00000E+00
         0.00000E+00
         0.00000E+00
         0.00000E+00
         0.00000E+00
         0.00000E+00
         0.00000E+00
         0.00000E+00
         0.00000E+00
         0.00000E+00
         0.00000E+00
         0.00000E+00
         0.00000E+00
         0.00000E+00
         0.00000E+00
         0.00000E+00
         0.00000E+00
         0.00000E+00
         0.00000E+00
         0.00000E+00
         0.00000E+00
         0.00000E+00
         0.00000E+00
         0.00000E+00
         0.00000E+00
         0.00000E+00
         0.00000E+00
         0.00000E+00
         0.00000E+00
         0.00000E+00
         0.00000E+00
         0.00000E+00
         0.00000E+00
         0.00000E+00
         0.00000E+00
         0.00000E+00
         0.00000E+00
         0.00000E+00
         0.00000E+00
         0.00000E+00
         0.00000E+00
         0.00000E+00
         0.00000E+00
         0.00000E+00
         0.00000E+00
         0.00000E+00
         0.00000E+00
         0.00000E+00
         0.00000E+00
         0.00000E+00
         0.00000E+00
         0.00000E+00
         0.00000E+00
         0.00000E+00
         0.00000E+00
         0.00000E+00
         0.00000E+00
         0.00000E+00
         0.00000E+00
         0.00000E+00
         0.00000E+00
         0.00000E+00
         0.00000E+00
         0.00000E+00
         0.00000E+00
         0.00000E+00
         0.00000E+00
         0.00000E+00
         0.00000E+00
         0.00000E+00
         0.00000E+00
         0.00000E+00
         0.00000E+00
         0.00000E+00
         0.00000E+00
         0.00000E+00
         0.00000E+00
         0.00000E+00
         0.00000E+00
         0.00000E+00
         0.00000E+00
         0.00000E+00
         0.00000E+00
         0.00000E+00
         0.00000E+00
         0.00000E+00
         0.00000E+00
         0.00000E+00
         0.00000E+00
         0.00000E+00
         0.00000E+00
         0.00000E+00
         0.00000E+00
         0.00000E+00
         0.00000E+00
         0.00000E+00
         0.00000E+00
         0.00000E+00
         0.00000E+00
         0.00000E+00
         0.00000E+00
         0.00000E+00
         0.00000E+00
         0.00000E+00
         0.00000E+00
         0.00000E+00
         0.00000E+00
         0.00000E+00
         0.00000E+00
         0.00000E+00
         0.00000E+00
         0.00000E+00
         0.00000E+00
         0.00000E+00
         0.00000E+00
         0.00000E+00
         0.00000E+00
         0.00000E+00
         0.00000E+00
         0.00000E+00
         0.00000E+00
         0.00000E+00
         0.00000E+00
         0.00000E+00
         0.00000E+00
         0.00000E+00
         0.00000E+00
         0.00000E+00
         0.00000E+00
         0.00000E+00
         0.00000E+00
         0.00000E+00
         0.00000E+00
         0.00000E+00
         0.00000E+00
         0.00000E+00
         0.00000E+00
         0.00000E+00
         0.00000E+00
         0.00000E+00
         0.00000E+00
         0.00000E+00
         0.00000E+00
         0.00000E+00
         0.00000E+00
         0.00000E+00
         0.00000E+00
         0.00000E+00
         0.00000E+00
         0.00000E+00
         0.00000E+00
         0.00000E+00
         0.00000E+00
         0.00000E+00
         0.00000E+00
         0.00000E+00
         0.00000E+00
         0.00000E+00
         0.00000E+00
         0.00000E+00
         0.00000E+00
         0.00000E+00
         0.00000E+00
         0.00000E+00
         0.00000E+00
         0.00000E+00
         0.00000E+00
         0.00000E+00
         0.00000E+00
         0.00000E+00
         0.00000E+00
         0.00000E+00
         0.00000E+00
         0.00000E+00
         0.00000E+00
         0.00000E+00
         0.00000E+00
         0.00000E+00
         0.00000E+00
         0.00000E+00
         0.00000E+00
         0.00000E+00
         0.00000E+00
         0.00000E+00
         0.00000E+00
         0.00000E+00
         0.00000E+00
         0.00000E+00
         0.00000E+00
         0.00000E+00
         0.00000E+00
         0.00000E+00
         0.00000E+00
         0.00000E+00
         0.00000E+00
         0.00000E+00
         0.00000E+00
         0.00000E+00
         0.00000E+00
         0.00000E+00
         0.00000E+00
         0.00000E+00
         0.00000E+00
         0.00000E+00
         0.00000E+00
         0.00000E+00
         0.00000E+00
         0.00000E+00
         0.00000E+00
         0.00000E+00
         0.00000E+00
         0.00000E+00
         0.00000E+00
         0.00000E+00
         0.00000E+00
         0.00000E+00
         0.00000E+00
         0.00000E+00
         0.00000E+00
         0.00000E+00
         0.00000E+00
         0.00000E+00
         0.00000E+00
         0.00000E+00
         0.00000E+00
         0.00000E+00
         0.00000E+00
         0.00000E+00
         0.00000E+00
         0.00000E+00
         0.00000E+00
         0.00000E+00
         0.00000E+00
         0.00000E+00
         0.00000E+00
         0.00000E+00
         0.00000E+00
         0.00000E+00
         0.00000E+00
         0.00000E+00
         0.00000E+00
         0.00000E+00
         0.00000E+00
         0.00000E+00
         0.00000E+00
         0.00000E+00
         0.00000E+00
         0.00000E+00
         0.00000E+00
         0.00000E+00
         0.00000E+00
         0.00000E+00
         0.00000E+00
         0.00000E+00
         0.00000E+00
         0.00000E+00
         0.00000E+00
         0.00000E+00
         0.00000E+00
         0.00000E+00
         0.00000E+00
         0.00000E+00
         0.00000E+00
         0.00000E+00
         0.00000E+00
         0.00000E+00
         0.00000E+00
         0.00000E+00
         0.00000E+00
         0.00000E+00
         0.00000E+00
         0.00000E+00
         0.00000E+00
         0.00000E+00
         0.00000E+00
         0.00000E+00
         0.00000E+00
         0.00000E+00
         0.00000E+00
         0.00000E+00
         0.00000E+00
         0.00000E+00
         0.00000E+00
         0.00000E+00
         0.00000E+00
         0.00000E+00
         0.00000E+00
         0.00000E+00
         0.00000E+00
         0.00000E+00
         0.00000E+00
         0.00000E+00
         0.00000E+00
         0.00000E+00
         0.00000E+00
         0.00000E+00
         0.00000E+00
         0.00000E+00
         0.00000E+00
         0.00000E+00
         0.00000E+00
         0.00000E+00
         0.00000E+00
         0.00000E+00
         0.00000E+00
         0.00000E+00
         0.00000E+00
         0.00000E+00
         0.00000E+00
         0.00000E+00
         0.00000E+00
         0.00000E+00
         0.00000E+00
         0.00000E+00
         0.00000E+00
         0.00000E+00
         0.00000E+00
         0.00000E+00
         0.00000E+00
         0.00000E+00
         0.00000E+00
         0.00000E+00
         0.00000E+00
         0.00000E+00
         0.00000E+00
         0.00000E+00
         0.00000E+00
         0.00000E+00
         0.00000E+00
         0.00000E+00
         0.00000E+00
         0.00000E+00
         0.00000E+00
         0.00000E+00
         0.00000E+00
         0.00000E+00
         0.00000E+00
         0.00000E+00
         0.00000E+00
         0.00000E+00
         0.00000E+00
         0.00000E+00
         0.00000E+00
         0.00000E+00
         0.00000E+00
         0.00000E+00
         0.00000E+00
         0.00000E+00
         0.00000E+00
         0.00000E+00
         0.00000E+00
         0.00000E+00
         0.00000E+00
         0.00000E+00
         0.00000E+00
         0.00000E+00
         0.00000E+00
         0.00000E+00
         0.00000E+00
         0.00000E+00
         0.00000E+00
         0.00000E+00
         0.00000E+00
         0.00000E+00
         0.00000E+00
         0.00000E+00
         0.00000E+00
         0.00000E+00
         0.00000E+00
         0.00000E+00
         0.00000E+00
         0.00000E+00
         0.00000E+00
         0.00000E+00
         0.00000E+00
         0.00000E+00
         0.00000E+00
         0.00000E+00
         0.00000E+00
         0.00000E+00
         0.00000E+00
         0.00000E+00
         0.00000E+00
         0.00000E+00
         0.00000E+00
         0.00000E+00
         0.00000E+00
         0.00000E+00
         0.00000E+00
         0.00000E+00
         0.00000E+00
         0.00000E+00
         0.00000E+00
         0.00000E+00
         0.00000E+00
         0.00000E+00
         0.00000E+00
         0.00000E+00
         0.00000E+00
         0.00000E+00
         0.00000E+00
         0.00000E+00
         0.00000E+00
         0.00000E+00
         0.00000E+00
         0.00000E+00
         0.00000E+00
         0.00000E+00
         0.00000E+00
         0.00000E+00
         0.00000E+00
         0.00000E+00
         0.00000E+00
         0.00000E+00
         0.00000E+00
         0.00000E+00
         0.00000E+00
         0.00000E+00
         0.00000E+00
         0.00000E+00
         0.00000E+00
         0.00000E+00
         0.00000E+00
         0.00000E+00
         0.00000E+00
         0.00000E+00
         0.00000E+00
         0.00000E+00
         0.00000E+00
         0.00000E+00
         0.00000E+00
         0.00000E+00
         0.00000E+00
         0.00000E+00
         0.00000E+00
         0.00000E+00
         0.00000E+00
         0.00000E+00
         0.00000E+00
         0.00000E+00
         0.00000E+00
         0.00000E+00
         0.00000E+00
         0.00000E+00
         0.00000E+00
         0.00000E+00
         0.00000E+00
         0.00000E+00
         0.00000E+00
         0.00000E+00
         0.00000E+00
         0.00000E+00
         0.00000E+00
         0.00000E+00
         0.00000E+00
         0.00000E+00
         0.00000E+00
         0.00000E+00
         0.00000E+00
         0.00000E+00
         0.00000E+00
         0.00000E+00
         0.00000E+00
         0.00000E+00
         0.00000E+00
         0.00000E+00
         0.00000E+00
         0.00000E+00
         0.00000E+00
         0.00000E+00
         0.00000E+00
         0.00000E+00
         0.00000E+00
         0.00000E+00
         0.00000E+00
         0.00000E+00
         0.00000E+00
         0.00000E+00
         0.00000E+00
         0.00000E+00
         0.00000E+00
         0.00000E+00
         0.00000E+00
         0.00000E+00
         0.00000E+00
         0.00000E+00
         0.00000E+00
         0.00000E+00
         0.00000E+00
         0.00000E+00
         0.00000E+00
         0.00000E+00
         0.00000E+00
         0.00000E+00
         0.00000E+00
         0.00000E+00
         0.00000E+00
         0.00000E+00
         0.00000E+00
         0.00000E+00
         0.00000E+00
         0.00000E+00
         0.00000E+00
         0.00000E+00
         0.00000E+00
         0.00000E+00
         0.00000E+00
         0.00000E+00
         0.00000E+00
         0.00000E+00
         0.00000E+00
         0.00000E+00
         0.00000E+00
         0.00000E+00
         0.00000E+00
         0.00000E+00
         0.00000E+00
         0.00000E+00
         0.00000E+00
         0.00000E+00
         0.00000E+00
         0.00000E+00
         0.00000E+00
         0.00000E+00
         0.00000E+00
         0.00000E+00
         0.00000E+00
         0.00000E+00
         0.00000E+00
         0.00000E+00
         0.00000E+00
         0.00000E+00
         0.00000E+00
         0.00000E+00
         0.00000E+00
         0.00000E+00
         0.00000E+00
         0.00000E+00
         0.00000E+00
         0.00000E+00
         0.00000E+00
         0.00000E+00
         0.00000E+00
         0.00000E+00
         0.00000E+00
         0.00000E+00
         0.00000E+00
         0.00000E+00
         0.00000E+00
         0.00000E+00
         0.00000E+00
         0.00000E+00
         0.00000E+00
         0.00000E+00
         0.00000E+00
         0.00000E+00
         0.00000E+00
         0.00000E+00
         0.00000E+00
         0.00000E+00
         0.00000E+00
         0.00000E+00
         0.00000E+00
  
SCALARS                init_velocity_z  double 1
LOOKUP_TABLE default
        -0.37300E+03
        -0.37300E+03
        -0.37300E+03
        -0.37300E+03
        -0.37300E+03
        -0.37300E+03
        -0.37300E+03
        -0.37300E+03
        -0.37300E+03
        -0.37300E+03
        -0.37300E+03
        -0.37300E+03
        -0.37300E+03
        -0.37300E+03
        -0.37300E+03
        -0.37300E+03
        -0.37300E+03
        -0.37300E+03
        -0.37300E+03
        -0.37300E+03
        -0.37300E+03
        -0.37300E+03
        -0.37300E+03
        -0.37300E+03
        -0.37300E+03
        -0.37300E+03
        -0.37300E+03
        -0.37300E+03
        -0.37300E+03
        -0.37300E+03
        -0.37300E+03
        -0.37300E+03
        -0.37300E+03
        -0.37300E+03
        -0.37300E+03
        -0.37300E+03
        -0.37300E+03
        -0.37300E+03
        -0.37300E+03
        -0.37300E+03
        -0.37300E+03
        -0.37300E+03
        -0.37300E+03
        -0.37300E+03
        -0.37300E+03
        -0.37300E+03
        -0.37300E+03
        -0.37300E+03
        -0.37300E+03
        -0.37300E+03
        -0.37300E+03
        -0.37300E+03
        -0.37300E+03
        -0.37300E+03
        -0.37300E+03
        -0.37300E+03
        -0.37300E+03
        -0.37300E+03
        -0.37300E+03
        -0.37300E+03
        -0.37300E+03
        -0.37300E+03
        -0.37300E+03
        -0.37300E+03
        -0.37300E+03
        -0.37300E+03
        -0.37300E+03
        -0.37300E+03
        -0.37300E+03
        -0.37300E+03
        -0.37300E+03
        -0.37300E+03
        -0.37300E+03
        -0.37300E+03
        -0.37300E+03
        -0.37300E+03
        -0.37300E+03
        -0.37300E+03
        -0.37300E+03
        -0.37300E+03
        -0.37300E+03
        -0.37300E+03
        -0.37300E+03
        -0.37300E+03
        -0.37300E+03
        -0.37300E+03
        -0.37300E+03
        -0.37300E+03
        -0.37300E+03
        -0.37300E+03
        -0.37300E+03
        -0.37300E+03
        -0.37300E+03
        -0.37300E+03
        -0.37300E+03
        -0.37300E+03
        -0.37300E+03
        -0.37300E+03
        -0.37300E+03
        -0.37300E+03
        -0.37300E+03
        -0.37300E+03
        -0.37300E+03
        -0.37300E+03
        -0.37300E+03
        -0.37300E+03
        -0.37300E+03
        -0.37300E+03
        -0.37300E+03
        -0.37300E+03
        -0.37300E+03
        -0.37300E+03
        -0.37300E+03
        -0.37300E+03
        -0.37300E+03
        -0.37300E+03
        -0.37300E+03
        -0.37300E+03
        -0.37300E+03
        -0.37300E+03
        -0.37300E+03
        -0.37300E+03
        -0.37300E+03
        -0.37300E+03
        -0.37300E+03
        -0.37300E+03
        -0.37300E+03
        -0.37300E+03
        -0.37300E+03
        -0.37300E+03
        -0.37300E+03
        -0.37300E+03
        -0.37300E+03
        -0.37300E+03
        -0.37300E+03
        -0.37300E+03
        -0.37300E+03
        -0.37300E+03
        -0.37300E+03
        -0.37300E+03
        -0.37300E+03
        -0.37300E+03
        -0.37300E+03
        -0.37300E+03
        -0.37300E+03
        -0.37300E+03
        -0.37300E+03
        -0.37300E+03
        -0.37300E+03
        -0.37300E+03
        -0.37300E+03
        -0.37300E+03
        -0.37300E+03
        -0.37300E+03
        -0.37300E+03
        -0.37300E+03
        -0.37300E+03
        -0.37300E+03
        -0.37300E+03
        -0.37300E+03
        -0.37300E+03
        -0.37300E+03
        -0.37300E+03
        -0.37300E+03
        -0.37300E+03
        -0.37300E+03
        -0.37300E+03
        -0.37300E+03
        -0.37300E+03
        -0.37300E+03
        -0.37300E+03
        -0.37300E+03
        -0.37300E+03
        -0.37300E+03
        -0.37300E+03
        -0.37300E+03
        -0.37300E+03
        -0.37300E+03
        -0.37300E+03
        -0.37300E+03
        -0.37300E+03
        -0.37300E+03
        -0.37300E+03
        -0.37300E+03
        -0.37300E+03
        -0.37300E+03
        -0.37300E+03
        -0.37300E+03
        -0.37300E+03
        -0.37300E+03
        -0.37300E+03
        -0.37300E+03
        -0.37300E+03
        -0.37300E+03
        -0.37300E+03
        -0.37300E+03
        -0.37300E+03
        -0.37300E+03
        -0.37300E+03
        -0.37300E+03
        -0.37300E+03
        -0.37300E+03
        -0.37300E+03
        -0.37300E+03
        -0.37300E+03
        -0.37300E+03
        -0.37300E+03
        -0.37300E+03
        -0.37300E+03
        -0.37300E+03
        -0.37300E+03
        -0.37300E+03
        -0.37300E+03
        -0.37300E+03
        -0.37300E+03
        -0.37300E+03
        -0.37300E+03
        -0.37300E+03
        -0.37300E+03
        -0.37300E+03
        -0.37300E+03
        -0.37300E+03
        -0.37300E+03
        -0.37300E+03
        -0.37300E+03
        -0.37300E+03
        -0.37300E+03
        -0.37300E+03
        -0.37300E+03
        -0.37300E+03
        -0.37300E+03
        -0.37300E+03
        -0.37300E+03
        -0.37300E+03
        -0.37300E+03
        -0.37300E+03
        -0.37300E+03
        -0.37300E+03
        -0.37300E+03
        -0.37300E+03
        -0.37300E+03
        -0.37300E+03
        -0.37300E+03
        -0.37300E+03
        -0.37300E+03
        -0.37300E+03
        -0.37300E+03
        -0.37300E+03
        -0.37300E+03
        -0.37300E+03
        -0.37300E+03
        -0.37300E+03
        -0.37300E+03
        -0.37300E+03
        -0.37300E+03
        -0.37300E+03
        -0.37300E+03
        -0.37300E+03
        -0.37300E+03
        -0.37300E+03
        -0.37300E+03
        -0.37300E+03
        -0.37300E+03
        -0.37300E+03
        -0.37300E+03
        -0.37300E+03
        -0.37300E+03
        -0.37300E+03
        -0.37300E+03
        -0.37300E+03
        -0.37300E+03
        -0.37300E+03
        -0.37300E+03
        -0.37300E+03
        -0.37300E+03
        -0.37300E+03
        -0.37300E+03
        -0.37300E+03
        -0.37300E+03
        -0.37300E+03
        -0.37300E+03
        -0.37300E+03
        -0.37300E+03
        -0.37300E+03
        -0.37300E+03
        -0.37300E+03
        -0.37300E+03
        -0.37300E+03
        -0.37300E+03
        -0.37300E+03
        -0.37300E+03
        -0.37300E+03
        -0.37300E+03
        -0.37300E+03
        -0.37300E+03
        -0.37300E+03
        -0.37300E+03
        -0.37300E+03
        -0.37300E+03
        -0.37300E+03
        -0.37300E+03
        -0.37300E+03
        -0.37300E+03
        -0.37300E+03
        -0.37300E+03
        -0.37300E+03
        -0.37300E+03
        -0.37300E+03
        -0.37300E+03
        -0.37300E+03
        -0.37300E+03
        -0.37300E+03
        -0.37300E+03
        -0.37300E+03
        -0.37300E+03
        -0.37300E+03
        -0.37300E+03
        -0.37300E+03
        -0.37300E+03
        -0.37300E+03
        -0.37300E+03
        -0.37300E+03
        -0.37300E+03
        -0.37300E+03
        -0.37300E+03
        -0.37300E+03
        -0.37300E+03
        -0.37300E+03
        -0.37300E+03
        -0.37300E+03
        -0.37300E+03
        -0.37300E+03
        -0.37300E+03
        -0.37300E+03
        -0.37300E+03
        -0.37300E+03
        -0.37300E+03
        -0.37300E+03
        -0.37300E+03
        -0.37300E+03
        -0.37300E+03
        -0.37300E+03
        -0.37300E+03
        -0.37300E+03
        -0.37300E+03
        -0.37300E+03
        -0.37300E+03
        -0.37300E+03
        -0.37300E+03
        -0.37300E+03
        -0.37300E+03
        -0.37300E+03
        -0.37300E+03
        -0.37300E+03
        -0.37300E+03
        -0.37300E+03
        -0.37300E+03
        -0.37300E+03
        -0.37300E+03
        -0.37300E+03
        -0.37300E+03
        -0.37300E+03
        -0.37300E+03
        -0.37300E+03
        -0.37300E+03
        -0.37300E+03
        -0.37300E+03
        -0.37300E+03
        -0.37300E+03
        -0.37300E+03
        -0.37300E+03
        -0.37300E+03
        -0.37300E+03
        -0.37300E+03
        -0.37300E+03
        -0.37300E+03
        -0.37300E+03
        -0.37300E+03
        -0.37300E+03
        -0.37300E+03
        -0.37300E+03
        -0.37300E+03
        -0.37300E+03
        -0.37300E+03
        -0.37300E+03
        -0.37300E+03
        -0.37300E+03
        -0.37300E+03
        -0.37300E+03
        -0.37300E+03
        -0.37300E+03
        -0.37300E+03
        -0.37300E+03
        -0.37300E+03
        -0.37300E+03
        -0.37300E+03
        -0.37300E+03
        -0.37300E+03
        -0.37300E+03
        -0.37300E+03
        -0.37300E+03
        -0.37300E+03
        -0.37300E+03
        -0.37300E+03
        -0.37300E+03
        -0.37300E+03
        -0.37300E+03
        -0.37300E+03
        -0.37300E+03
        -0.37300E+03
        -0.37300E+03
        -0.37300E+03
        -0.37300E+03
        -0.37300E+03
        -0.37300E+03
        -0.37300E+03
        -0.37300E+03
        -0.37300E+03
        -0.37300E+03
        -0.37300E+03
        -0.37300E+03
        -0.37300E+03
        -0.37300E+03
        -0.37300E+03
        -0.37300E+03
        -0.37300E+03
        -0.37300E+03
        -0.37300E+03
        -0.37300E+03
        -0.37300E+03
        -0.37300E+03
        -0.37300E+03
        -0.37300E+03
        -0.37300E+03
        -0.37300E+03
        -0.37300E+03
        -0.37300E+03
        -0.37300E+03
        -0.37300E+03
        -0.37300E+03
        -0.37300E+03
        -0.37300E+03
        -0.37300E+03
        -0.37300E+03
        -0.37300E+03
        -0.37300E+03
        -0.37300E+03
        -0.37300E+03
        -0.37300E+03
        -0.37300E+03
        -0.37300E+03
        -0.37300E+03
        -0.37300E+03
        -0.37300E+03
        -0.37300E+03
        -0.37300E+03
        -0.37300E+03
        -0.37300E+03
        -0.37300E+03
        -0.37300E+03
        -0.37300E+03
        -0.37300E+03
        -0.37300E+03
        -0.37300E+03
        -0.37300E+03
        -0.37300E+03
        -0.37300E+03
        -0.37300E+03
        -0.37300E+03
        -0.37300E+03
        -0.37300E+03
        -0.37300E+03
        -0.37300E+03
        -0.37300E+03
        -0.37300E+03
        -0.37300E+03
        -0.37300E+03
        -0.37300E+03
        -0.37300E+03
        -0.37300E+03
        -0.37300E+03
        -0.37300E+03
        -0.37300E+03
        -0.37300E+03
        -0.37300E+03
        -0.37300E+03
        -0.37300E+03
        -0.37300E+03
        -0.37300E+03
        -0.37300E+03
        -0.37300E+03
        -0.37300E+03
        -0.37300E+03
        -0.37300E+03
        -0.37300E+03
        -0.37300E+03
        -0.37300E+03
        -0.37300E+03
        -0.37300E+03
        -0.37300E+03
        -0.37300E+03
        -0.37300E+03
        -0.37300E+03
        -0.37300E+03
        -0.37300E+03
        -0.37300E+03
        -0.37300E+03
        -0.37300E+03
        -0.37300E+03
        -0.37300E+03
        -0.37300E+03
        -0.37300E+03
        -0.37300E+03
        -0.37300E+03
        -0.37300E+03
        -0.37300E+03
        -0.37300E+03
        -0.37300E+03
        -0.37300E+03
        -0.37300E+03
        -0.37300E+03
        -0.37300E+03
        -0.37300E+03
        -0.37300E+03
        -0.37300E+03
        -0.37300E+03
        -0.37300E+03
        -0.37300E+03
        -0.37300E+03
        -0.37300E+03
        -0.37300E+03
        -0.37300E+03
        -0.37300E+03
        -0.37300E+03
        -0.37300E+03
        -0.37300E+03
        -0.37300E+03
        -0.37300E+03
        -0.37300E+03
        -0.37300E+03
        -0.37300E+03
        -0.37300E+03
        -0.37300E+03
        -0.37300E+03
        -0.37300E+03
        -0.37300E+03
        -0.37300E+03
        -0.37300E+03
        -0.37300E+03
        -0.37300E+03
        -0.37300E+03
        -0.37300E+03
        -0.37300E+03
        -0.37300E+03
        -0.37300E+03
        -0.37300E+03
        -0.37300E+03
        -0.37300E+03
        -0.37300E+03
        -0.37300E+03
        -0.37300E+03
        -0.37300E+03
        -0.37300E+03
        -0.37300E+03
        -0.37300E+03
        -0.37300E+03
        -0.37300E+03
        -0.37300E+03
        -0.37300E+03
        -0.37300E+03
        -0.37300E+03
        -0.37300E+03
        -0.37300E+03
        -0.37300E+03
        -0.37300E+03
        -0.37300E+03
        -0.37300E+03
        -0.37300E+03
        -0.37300E+03
        -0.37300E+03
        -0.37300E+03
        -0.37300E+03
        -0.37300E+03
        -0.37300E+03
        -0.37300E+03
        -0.37300E+03
        -0.37300E+03
        -0.37300E+03
        -0.37300E+03
        -0.37300E+03
        -0.37300E+03
        -0.37300E+03
        -0.37300E+03
        -0.37300E+03
        -0.37300E+03
        -0.37300E+03
        -0.37300E+03
        -0.37300E+03
        -0.37300E+03
        -0.37300E+03
        -0.37300E+03
        -0.37300E+03
        -0.37300E+03
        -0.37300E+03
        -0.37300E+03
        -0.37300E+03
        -0.37300E+03
        -0.37300E+03
        -0.37300E+03
        -0.37300E+03
        -0.37300E+03
        -0.37300E+03
        -0.37300E+03
        -0.37300E+03
        -0.37300E+03
        -0.37300E+03
        -0.37300E+03
        -0.37300E+03
        -0.37300E+03
        -0.37300E+03
        -0.37300E+03
        -0.37300E+03
        -0.37300E+03
        -0.37300E+03
        -0.37300E+03
        -0.37300E+03
        -0.37300E+03
        -0.37300E+03
        -0.37300E+03
        -0.37300E+03
        -0.37300E+03
        -0.37300E+03
        -0.37300E+03
        -0.37300E+03
        -0.37300E+03
        -0.37300E+03
        -0.37300E+03
        -0.37300E+03
        -0.37300E+03
        -0.37300E+03
        -0.37300E+03
        -0.37300E+03
        -0.37300E+03
        -0.37300E+03
        -0.37300E+03
        -0.37300E+03
        -0.37300E+03
        -0.37300E+03
        -0.37300E+03
        -0.37300E+03
        -0.37300E+03
        -0.37300E+03
        -0.37300E+03
        -0.37300E+03
        -0.37300E+03
        -0.37300E+03
        -0.37300E+03
        -0.37300E+03
        -0.37300E+03
        -0.37300E+03
        -0.37300E+03
        -0.37300E+03
        -0.37300E+03
        -0.37300E+03
        -0.37300E+03
        -0.37300E+03
        -0.37300E+03
        -0.37300E+03
        -0.37300E+03
        -0.37300E+03
        -0.37300E+03
        -0.37300E+03
        -0.37300E+03
        -0.37300E+03
        -0.37300E+03
        -0.37300E+03
        -0.37300E+03
        -0.37300E+03
        -0.37300E+03
        -0.37300E+03
        -0.37300E+03
        -0.37300E+03
        -0.37300E+03
        -0.37300E+03
        -0.37300E+03
        -0.37300E+03
        -0.37300E+03
        -0.37300E+03
        -0.37300E+03
        -0.37300E+03
        -0.37300E+03
        -0.37300E+03
        -0.37300E+03
        -0.37300E+03
        -0.37300E+03
        -0.37300E+03
        -0.37300E+03
        -0.37300E+03
        -0.37300E+03
        -0.37300E+03
        -0.37300E+03
        -0.37300E+03
        -0.37300E+03
        -0.37300E+03
        -0.37300E+03
        -0.37300E+03
        -0.37300E+03
        -0.37300E+03
        -0.37300E+03
        -0.37300E+03
        -0.37300E+03
        -0.37300E+03
        -0.37300E+03
        -0.37300E+03
        -0.37300E+03
        -0.37300E+03
        -0.37300E+03
        -0.37300E+03
        -0.37300E+03
        -0.37300E+03
        -0.37300E+03
        -0.37300E+03
        -0.37300E+03
        -0.37300E+03
        -0.37300E+03
        -0.37300E+03
        -0.37300E+03
        -0.37300E+03
        -0.37300E+03
        -0.37300E+03
        -0.37300E+03
        -0.37300E+03
        -0.37300E+03
        -0.37300E+03
        -0.37300E+03
        -0.37300E+03
        -0.37300E+03
        -0.37300E+03
        -0.37300E+03
        -0.37300E+03
        -0.37300E+03
        -0.37300E+03
        -0.37300E+03
        -0.37300E+03
        -0.37300E+03
        -0.37300E+03
        -0.37300E+03
        -0.37300E+03
        -0.37300E+03
        -0.37300E+03
        -0.37300E+03
        -0.37300E+03
        -0.37300E+03
        -0.37300E+03
        -0.37300E+03
        -0.37300E+03
        -0.37300E+03
        -0.37300E+03
        -0.37300E+03
        -0.37300E+03
        -0.37300E+03
        -0.37300E+03
        -0.37300E+03
        -0.37300E+03
        -0.37300E+03
        -0.37300E+03
        -0.37300E+03
        -0.37300E+03
        -0.37300E+03
        -0.37300E+03
        -0.37300E+03
        -0.37300E+03
        -0.37300E+03
        -0.37300E+03
        -0.37300E+03
        -0.37300E+03
        -0.37300E+03
        -0.37300E+03
        -0.37300E+03
        -0.37300E+03
        -0.37300E+03
        -0.37300E+03
        -0.37300E+03
        -0.37300E+03
        -0.37300E+03
        -0.37300E+03
        -0.37300E+03
        -0.37300E+03
        -0.37300E+03
        -0.37300E+03
        -0.37300E+03
        -0.37300E+03
        -0.37300E+03
        -0.37300E+03
        -0.37300E+03
        -0.37300E+03
        -0.37300E+03
        -0.37300E+03
        -0.37300E+03
        -0.37300E+03
        -0.37300E+03
        -0.37300E+03
        -0.37300E+03
        -0.37300E+03
        -0.37300E+03
        -0.37300E+03
        -0.37300E+03
        -0.37300E+03
        -0.37300E+03
        -0.37300E+03
        -0.37300E+03
        -0.37300E+03
        -0.37300E+03
        -0.37300E+03
        -0.37300E+03
        -0.37300E+03
        -0.37300E+03
        -0.37300E+03
        -0.37300E+03
        -0.37300E+03
        -0.37300E+03
        -0.37300E+03
        -0.37300E+03
        -0.37300E+03
        -0.37300E+03
        -0.37300E+03
        -0.37300E+03
        -0.37300E+03
        -0.37300E+03
        -0.37300E+03
        -0.37300E+03
        -0.37300E+03
        -0.37300E+03
        -0.37300E+03
        -0.37300E+03
        -0.37300E+03
        -0.37300E+03
        -0.37300E+03
        -0.37300E+03
        -0.37300E+03
        -0.37300E+03
        -0.37300E+03
        -0.37300E+03
        -0.37300E+03
        -0.37300E+03
        -0.37300E+03
        -0.37300E+03
        -0.37300E+03
        -0.37300E+03
        -0.37300E+03
        -0.37300E+03
        -0.37300E+03
        -0.37300E+03
        -0.37300E+03
        -0.37300E+03
        -0.37300E+03
        -0.37300E+03
        -0.37300E+03
        -0.37300E+03
        -0.37300E+03
        -0.37300E+03
        -0.37300E+03
        -0.37300E+03
        -0.37300E+03
        -0.37300E+03
        -0.37300E+03
        -0.37300E+03
        -0.37300E+03
        -0.37300E+03
        -0.37300E+03
        -0.37300E+03
        -0.37300E+03
        -0.37300E+03
        -0.37300E+03
        -0.37300E+03
        -0.37300E+03
        -0.37300E+03
        -0.37300E+03
        -0.37300E+03
        -0.37300E+03
        -0.37300E+03
        -0.37300E+03
        -0.37300E+03
        -0.37300E+03
        -0.37300E+03
        -0.37300E+03
        -0.37300E+03
        -0.37300E+03
        -0.37300E+03
        -0.37300E+03
        -0.37300E+03
        -0.37300E+03
        -0.37300E+03
        -0.37300E+03
        -0.37300E+03
        -0.37300E+03
        -0.37300E+03
        -0.37300E+03
        -0.37300E+03
        -0.37300E+03
        -0.37300E+03
        -0.37300E+03
        -0.37300E+03
        -0.37300E+03
        -0.37300E+03
        -0.37300E+03
        -0.37300E+03
        -0.37300E+03
        -0.37300E+03
        -0.37300E+03
        -0.37300E+03
        -0.37300E+03
        -0.37300E+03
        -0.37300E+03
        -0.37300E+03
        -0.37300E+03
        -0.37300E+03
        -0.37300E+03
        -0.37300E+03
        -0.37300E+03
        -0.37300E+03
        -0.37300E+03
        -0.37300E+03
        -0.37300E+03
        -0.37300E+03
        -0.37300E+03
        -0.37300E+03
        -0.37300E+03
        -0.37300E+03
        -0.37300E+03
        -0.37300E+03
        -0.37300E+03
        -0.37300E+03
        -0.37300E+03
        -0.37300E+03
        -0.37300E+03
        -0.37300E+03
        -0.37300E+03
        -0.37300E+03
        -0.37300E+03
        -0.37300E+03
        -0.37300E+03
        -0.37300E+03
        -0.37300E+03
        -0.37300E+03
        -0.37300E+03
        -0.37300E+03
        -0.37300E+03
        -0.37300E+03
        -0.37300E+03
        -0.37300E+03
        -0.37300E+03
        -0.37300E+03
        -0.37300E+03
        -0.37300E+03
        -0.37300E+03
        -0.37300E+03
        -0.37300E+03
        -0.37300E+03
        -0.37300E+03
        -0.37300E+03
        -0.37300E+03
        -0.37300E+03
        -0.37300E+03
        -0.37300E+03
        -0.37300E+03
        -0.37300E+03
        -0.37300E+03
        -0.37300E+03
        -0.37300E+03
        -0.37300E+03
        -0.37300E+03
        -0.37300E+03
        -0.37300E+03
        -0.37300E+03
        -0.37300E+03
        -0.37300E+03
        -0.37300E+03
        -0.37300E+03
        -0.37300E+03
        -0.37300E+03
        -0.37300E+03
        -0.37300E+03
        -0.37300E+03
        -0.37300E+03
        -0.37300E+03
        -0.37300E+03
        -0.37300E+03
        -0.37300E+03
        -0.37300E+03
        -0.37300E+03
        -0.37300E+03
        -0.37300E+03
        -0.37300E+03
        -0.37300E+03
        -0.37300E+03
        -0.37300E+03
        -0.37300E+03
        -0.37300E+03
        -0.37300E+03
        -0.37300E+03
        -0.37300E+03
        -0.37300E+03
        -0.37300E+03
        -0.37300E+03
        -0.37300E+03
        -0.37300E+03
        -0.37300E+03
        -0.37300E+03
        -0.37300E+03
        -0.37300E+03
        -0.37300E+03
        -0.37300E+03
        -0.37300E+03
        -0.37300E+03
        -0.37300E+03
        -0.37300E+03
        -0.37300E+03
        -0.37300E+03
        -0.37300E+03
        -0.37300E+03
        -0.37300E+03
        -0.37300E+03
        -0.37300E+03
        -0.37300E+03
        -0.37300E+03
        -0.37300E+03
        -0.37300E+03
        -0.37300E+03
        -0.37300E+03
        -0.37300E+03
        -0.37300E+03
        -0.37300E+03
        -0.37300E+03
        -0.37300E+03
        -0.37300E+03
        -0.37300E+03
        -0.37300E+03
        -0.37300E+03
        -0.37300E+03
        -0.37300E+03
        -0.37300E+03
        -0.37300E+03
        -0.37300E+03
        -0.37300E+03
        -0.37300E+03
        -0.37300E+03
        -0.37300E+03
        -0.37300E+03
        -0.37300E+03
        -0.37300E+03
        -0.37300E+03
        -0.37300E+03
        -0.37300E+03
        -0.37300E+03
        -0.37300E+03
        -0.37300E+03
        -0.37300E+03
        -0.37300E+03
        -0.37300E+03
        -0.37300E+03
        -0.37300E+03
        -0.37300E+03
        -0.37300E+03
        -0.37300E+03
        -0.37300E+03
        -0.37300E+03
        -0.37300E+03
        -0.37300E+03
        -0.37300E+03
        -0.37300E+03
        -0.37300E+03
        -0.37300E+03
        -0.37300E+03
        -0.37300E+03
        -0.37300E+03
        -0.37300E+03
        -0.37300E+03
        -0.37300E+03
        -0.37300E+03
        -0.37300E+03
        -0.37300E+03
        -0.37300E+03
        -0.37300E+03
        -0.37300E+03
        -0.37300E+03
        -0.37300E+03
        -0.37300E+03
        -0.37300E+03
        -0.37300E+03
        -0.37300E+03
        -0.37300E+03
        -0.37300E+03
        -0.37300E+03
        -0.37300E+03
        -0.37300E+03
        -0.37300E+03
        -0.37300E+03
        -0.37300E+03
        -0.37300E+03
        -0.37300E+03
        -0.37300E+03
        -0.37300E+03
        -0.37300E+03
        -0.37300E+03
        -0.37300E+03
        -0.37300E+03
        -0.37300E+03
        -0.37300E+03
        -0.37300E+03
        -0.37300E+03
        -0.37300E+03
        -0.37300E+03
        -0.37300E+03
        -0.37300E+03
        -0.37300E+03
        -0.37300E+03
        -0.37300E+03
        -0.37300E+03
        -0.37300E+03
        -0.37300E+03
        -0.37300E+03
        -0.37300E+03
        -0.37300E+03
        -0.37300E+03
        -0.37300E+03
        -0.37300E+03
        -0.37300E+03
        -0.37300E+03
        -0.37300E+03
        -0.37300E+03
        -0.37300E+03
        -0.37300E+03
        -0.37300E+03
        -0.37300E+03
        -0.37300E+03
        -0.37300E+03
        -0.37300E+03
        -0.37300E+03
        -0.37300E+03
        -0.37300E+03
        -0.37300E+03
        -0.37300E+03
        -0.37300E+03
        -0.37300E+03
        -0.37300E+03
        -0.37300E+03
        -0.37300E+03
        -0.37300E+03
        -0.37300E+03
        -0.37300E+03
        -0.37300E+03
        -0.37300E+03
        -0.37300E+03
        -0.37300E+03
        -0.37300E+03
        -0.37300E+03
        -0.37300E+03
        -0.37300E+03
        -0.37300E+03
        -0.37300E+03
        -0.37300E+03
        -0.37300E+03
        -0.37300E+03
        -0.37300E+03
        -0.37300E+03
        -0.37300E+03
        -0.37300E+03
        -0.37300E+03
        -0.37300E+03
        -0.37300E+03
        -0.37300E+03
        -0.37300E+03
        -0.37300E+03
        -0.37300E+03
        -0.37300E+03
        -0.37300E+03
        -0.37300E+03
        -0.37300E+03
        -0.37300E+03
        -0.37300E+03
        -0.37300E+03
        -0.37300E+03
        -0.37300E+03
        -0.37300E+03
        -0.37300E+03
        -0.37300E+03
        -0.37300E+03
        -0.37300E+03
        -0.37300E+03
        -0.37300E+03
        -0.37300E+03
        -0.37300E+03
        -0.37300E+03
        -0.37300E+03
        -0.37300E+03
        -0.37300E+03
        -0.37300E+03
        -0.37300E+03
        -0.37300E+03
        -0.37300E+03
        -0.37300E+03
        -0.37300E+03
        -0.37300E+03
        -0.37300E+03
        -0.37300E+03
        -0.37300E+03
        -0.37300E+03
        -0.37300E+03
        -0.37300E+03
        -0.37300E+03
        -0.37300E+03
        -0.37300E+03
        -0.37300E+03
        -0.37300E+03
        -0.37300E+03
        -0.37300E+03
        -0.37300E+03
        -0.37300E+03
        -0.37300E+03
        -0.37300E+03
        -0.37300E+03
        -0.37300E+03
        -0.37300E+03
        -0.37300E+03
        -0.37300E+03
        -0.37300E+03
        -0.37300E+03
        -0.37300E+03
        -0.37300E+03
        -0.37300E+03
        -0.37300E+03
        -0.37300E+03
        -0.37300E+03
        -0.37300E+03
        -0.37300E+03
        -0.37300E+03
        -0.37300E+03
        -0.37300E+03
        -0.37300E+03
        -0.37300E+03
        -0.37300E+03
        -0.37300E+03
        -0.37300E+03
        -0.37300E+03
        -0.37300E+03
        -0.37300E+03
        -0.37300E+03
        -0.37300E+03
        -0.37300E+03
        -0.37300E+03
        -0.37300E+03
        -0.37300E+03
        -0.37300E+03
        -0.37300E+03
        -0.37300E+03
        -0.37300E+03
        -0.37300E+03
        -0.37300E+03
        -0.37300E+03
        -0.37300E+03
        -0.37300E+03
        -0.37300E+03
        -0.37300E+03
        -0.37300E+03
        -0.37300E+03
        -0.37300E+03
        -0.37300E+03
        -0.37300E+03
        -0.37300E+03
        -0.37300E+03
        -0.37300E+03
        -0.37300E+03
        -0.37300E+03
        -0.37300E+03
        -0.37300E+03
        -0.37300E+03
        -0.37300E+03
        -0.37300E+03
        -0.37300E+03
        -0.37300E+03
        -0.37300E+03
        -0.37300E+03
        -0.37300E+03
        -0.37300E+03
        -0.37300E+03
        -0.37300E+03
        -0.37300E+03
        -0.37300E+03
        -0.37300E+03
        -0.37300E+03
        -0.37300E+03
        -0.37300E+03
        -0.37300E+03
        -0.37300E+03
        -0.37300E+03
        -0.37300E+03
        -0.37300E+03
        -0.37300E+03
        -0.37300E+03
        -0.37300E+03
        -0.37300E+03
        -0.37300E+03
        -0.37300E+03
        -0.37300E+03
        -0.37300E+03
        -0.37300E+03
        -0.37300E+03
        -0.37300E+03
        -0.37300E+03
        -0.37300E+03
        -0.37300E+03
        -0.37300E+03
        -0.37300E+03
        -0.37300E+03
        -0.37300E+03
        -0.37300E+03
        -0.37300E+03
        -0.37300E+03
        -0.37300E+03
        -0.37300E+03
        -0.37300E+03
        -0.37300E+03
        -0.37300E+03
        -0.37300E+03
        -0.37300E+03
        -0.37300E+03
        -0.37300E+03
        -0.37300E+03
        -0.37300E+03
        -0.37300E+03
        -0.37300E+03
        -0.37300E+03
        -0.37300E+03
        -0.37300E+03
        -0.37300E+03
        -0.37300E+03
        -0.37300E+03
        -0.37300E+03
        -0.37300E+03
        -0.37300E+03
        -0.37300E+03
        -0.37300E+03
        -0.37300E+03
        -0.37300E+03
        -0.37300E+03
        -0.37300E+03
        -0.37300E+03
        -0.37300E+03
        -0.37300E+03
        -0.37300E+03
        -0.37300E+03
        -0.37300E+03
        -0.37300E+03
        -0.37300E+03
        -0.37300E+03
        -0.37300E+03
        -0.37300E+03
        -0.37300E+03
        -0.37300E+03
        -0.37300E+03
        -0.37300E+03
        -0.37300E+03
        -0.37300E+03
        -0.37300E+03
        -0.37300E+03
        -0.37300E+03
        -0.37300E+03
        -0.37300E+03
        -0.37300E+03
        -0.37300E+03
        -0.37300E+03
        -0.37300E+03
        -0.37300E+03
        -0.37300E+03
        -0.37300E+03
        -0.37300E+03
        -0.37300E+03
        -0.37300E+03
        -0.37300E+03
        -0.37300E+03
        -0.37300E+03
        -0.37300E+03
        -0.37300E+03
        -0.37300E+03
        -0.37300E+03
        -0.37300E+03
        -0.37300E+03
        -0.37300E+03
        -0.37300E+03
        -0.37300E+03
        -0.37300E+03
        -0.37300E+03
        -0.37300E+03
        -0.37300E+03
        -0.37300E+03
        -0.37300E+03
        -0.37300E+03
        -0.37300E+03
        -0.37300E+03
        -0.37300E+03
        -0.37300E+03
        -0.37300E+03
        -0.37300E+03
        -0.37300E+03
        -0.37300E+03
        -0.37300E+03
        -0.37300E+03
        -0.37300E+03
        -0.37300E+03
        -0.37300E+03
        -0.37300E+03
        -0.37300E+03
        -0.37300E+03
        -0.37300E+03
        -0.37300E+03
        -0.37300E+03
        -0.37300E+03
        -0.37300E+03
        -0.37300E+03
        -0.37300E+03
        -0.37300E+03
        -0.37300E+03
        -0.37300E+03
        -0.37300E+03
        -0.37300E+03
        -0.37300E+03
        -0.37300E+03
        -0.37300E+03
        -0.37300E+03
        -0.37300E+03
        -0.37300E+03
        -0.37300E+03
        -0.37300E+03
        -0.37300E+03
        -0.37300E+03
        -0.37300E+03
        -0.37300E+03
        -0.37300E+03
        -0.37300E+03
        -0.37300E+03
        -0.37300E+03
        -0.37300E+03
        -0.37300E+03
        -0.37300E+03
        -0.37300E+03
        -0.37300E+03
        -0.37300E+03
        -0.37300E+03
        -0.37300E+03
        -0.37300E+03
        -0.37300E+03
        -0.37300E+03
        -0.37300E+03
        -0.37300E+03
        -0.37300E+03
        -0.37300E+03
        -0.37300E+03
        -0.37300E+03
        -0.37300E+03
        -0.37300E+03
        -0.37300E+03
        -0.37300E+03
        -0.37300E+03
        -0.37300E+03
        -0.37300E+03
        -0.37300E+03
        -0.37300E+03
        -0.37300E+03
        -0.37300E+03
        -0.37300E+03
        -0.37300E+03
        -0.37300E+03
        -0.37300E+03
        -0.37300E+03
        -0.37300E+03
        -0.37300E+03
        -0.37300E+03
        -0.37300E+03
        -0.37300E+03
        -0.37300E+03
        -0.37300E+03
        -0.37300E+03
        -0.37300E+03
        -0.37300E+03
        -0.37300E+03
        -0.37300E+03
        -0.37300E+03
        -0.37300E+03
        -0.37300E+03
        -0.37300E+03
        -0.37300E+03
        -0.37300E+03
        -0.37300E+03
        -0.37300E+03
        -0.37300E+03
        -0.37300E+03
        -0.37300E+03
        -0.37300E+03
        -0.37300E+03
        -0.37300E+03
        -0.37300E+03
        -0.37300E+03
        -0.37300E+03
        -0.37300E+03
        -0.37300E+03
        -0.37300E+03
        -0.37300E+03
        -0.37300E+03
        -0.37300E+03
        -0.37300E+03
        -0.37300E+03
        -0.37300E+03
        -0.37300E+03
        -0.37300E+03
        -0.37300E+03
        -0.37300E+03
        -0.37300E+03
        -0.37300E+03
        -0.37300E+03
        -0.37300E+03
        -0.37300E+03
        -0.37300E+03
        -0.37300E+03
        -0.37300E+03
        -0.37300E+03
        -0.37300E+03
        -0.37300E+03
        -0.37300E+03
        -0.37300E+03
        -0.37300E+03
        -0.37300E+03
        -0.37300E+03
        -0.37300E+03
        -0.37300E+03
        -0.37300E+03
        -0.37300E+03
        -0.37300E+03
        -0.37300E+03
        -0.37300E+03
        -0.37300E+03
        -0.37300E+03
        -0.37300E+03
        -0.37300E+03
        -0.37300E+03
        -0.37300E+03
        -0.37300E+03
        -0.37300E+03
        -0.37300E+03
        -0.37300E+03
        -0.37300E+03
        -0.37300E+03
        -0.37300E+03
        -0.37300E+03
        -0.37300E+03
        -0.37300E+03
        -0.37300E+03
        -0.37300E+03
        -0.37300E+03
        -0.37300E+03
        -0.37300E+03
        -0.37300E+03
        -0.37300E+03
        -0.37300E+03
        -0.37300E+03
        -0.37300E+03
        -0.37300E+03
        -0.37300E+03
        -0.37300E+03
        -0.37300E+03
        -0.37300E+03
        -0.37300E+03
        -0.37300E+03
        -0.37300E+03
        -0.37300E+03
        -0.37300E+03
        -0.37300E+03
        -0.37300E+03
        -0.37300E+03
        -0.37300E+03
        -0.37300E+03
        -0.37300E+03
        -0.37300E+03
        -0.37300E+03
        -0.37300E+03
        -0.37300E+03
        -0.37300E+03
        -0.37300E+03
        -0.37300E+03
        -0.37300E+03
        -0.37300E+03
        -0.37300E+03
        -0.37300E+03
        -0.37300E+03
        -0.37300E+03
        -0.37300E+03
        -0.37300E+03
        -0.37300E+03
        -0.37300E+03
        -0.37300E+03
        -0.37300E+03
        -0.37300E+03
        -0.37300E+03
        -0.37300E+03
        -0.37300E+03
        -0.37300E+03
        -0.37300E+03
        -0.37300E+03
        -0.37300E+03
        -0.37300E+03
        -0.37300E+03
        -0.37300E+03
        -0.37300E+03
        -0.37300E+03
        -0.37300E+03
        -0.37300E+03
        -0.37300E+03
        -0.37300E+03
        -0.37300E+03
        -0.37300E+03
        -0.37300E+03
        -0.37300E+03
        -0.37300E+03
        -0.37300E+03
        -0.37300E+03
        -0.37300E+03
        -0.37300E+03
        -0.37300E+03
        -0.37300E+03
        -0.37300E+03
        -0.37300E+03
        -0.37300E+03
        -0.37300E+03
        -0.37300E+03
        -0.37300E+03
        -0.37300E+03
        -0.37300E+03
        -0.37300E+03
        -0.37300E+03
        -0.37300E+03
        -0.37300E+03
        -0.37300E+03
        -0.37300E+03
        -0.37300E+03
        -0.37300E+03
        -0.37300E+03
        -0.37300E+03
        -0.37300E+03
        -0.37300E+03
        -0.37300E+03
        -0.37300E+03
        -0.37300E+03
        -0.37300E+03
        -0.37300E+03
        -0.37300E+03
        -0.37300E+03
        -0.37300E+03
        -0.37300E+03
        -0.37300E+03
        -0.37300E+03
        -0.37300E+03
        -0.37300E+03
        -0.37300E+03
        -0.37300E+03
        -0.37300E+03
        -0.37300E+03
        -0.37300E+03
        -0.37300E+03
        -0.37300E+03
        -0.37300E+03
        -0.37300E+03
        -0.37300E+03
        -0.37300E+03
        -0.37300E+03
        -0.37300E+03
        -0.37300E+03
        -0.37300E+03
        -0.37300E+03
        -0.37300E+03
        -0.37300E+03
        -0.37300E+03
        -0.37300E+03
        -0.37300E+03
        -0.37300E+03
        -0.37300E+03
        -0.37300E+03
        -0.37300E+03
        -0.37300E+03
        -0.37300E+03
        -0.37300E+03
        -0.37300E+03
        -0.37300E+03
        -0.37300E+03
        -0.37300E+03
        -0.37300E+03
        -0.37300E+03
        -0.37300E+03
        -0.37300E+03
        -0.37300E+03
        -0.37300E+03
        -0.37300E+03
        -0.37300E+03
        -0.37300E+03
        -0.37300E+03
        -0.37300E+03
        -0.37300E+03
        -0.37300E+03
        -0.37300E+03
        -0.37300E+03
        -0.37300E+03
        -0.37300E+03
        -0.37300E+03
        -0.37300E+03
        -0.37300E+03
        -0.37300E+03
        -0.37300E+03
        -0.37300E+03
        -0.37300E+03
        -0.37300E+03
        -0.37300E+03
        -0.37300E+03
        -0.37300E+03
        -0.37300E+03
        -0.37300E+03
        -0.37300E+03
        -0.37300E+03
        -0.37300E+03
        -0.37300E+03
        -0.37300E+03
        -0.37300E+03
        -0.37300E+03
        -0.37300E+03
        -0.37300E+03
        -0.37300E+03
        -0.37300E+03
        -0.37300E+03
        -0.37300E+03
        -0.37300E+03
        -0.37300E+03
        -0.37300E+03
        -0.37300E+03
        -0.37300E+03
        -0.37300E+03
        -0.37300E+03
        -0.37300E+03
        -0.37300E+03
        -0.37300E+03
        -0.37300E+03
        -0.37300E+03
        -0.37300E+03
        -0.37300E+03
        -0.37300E+03
        -0.37300E+03
        -0.37300E+03
        -0.37300E+03
        -0.37300E+03
        -0.37300E+03
        -0.37300E+03
        -0.37300E+03
        -0.37300E+03
        -0.37300E+03
        -0.37300E+03
        -0.37300E+03
        -0.37300E+03
        -0.37300E+03
        -0.37300E+03
        -0.37300E+03
        -0.37300E+03
        -0.37300E+03
        -0.37300E+03
        -0.37300E+03
        -0.37300E+03
        -0.37300E+03
        -0.37300E+03
        -0.37300E+03
        -0.37300E+03
        -0.37300E+03
        -0.37300E+03
        -0.37300E+03
        -0.37300E+03
        -0.37300E+03
        -0.37300E+03
        -0.37300E+03
        -0.37300E+03
        -0.37300E+03
        -0.37300E+03
        -0.37300E+03
        -0.37300E+03
        -0.37300E+03
        -0.37300E+03
        -0.37300E+03
        -0.37300E+03
        -0.37300E+03
        -0.37300E+03
        -0.37300E+03
        -0.37300E+03
        -0.37300E+03
        -0.37300E+03
        -0.37300E+03
        -0.37300E+03
        -0.37300E+03
        -0.37300E+03
        -0.37300E+03
        -0.37300E+03
        -0.37300E+03
        -0.37300E+03
        -0.37300E+03
        -0.37300E+03
        -0.37300E+03
        -0.37300E+03
        -0.37300E+03
        -0.37300E+03
        -0.37300E+03
        -0.37300E+03
        -0.37300E+03
        -0.37300E+03
        -0.37300E+03
        -0.37300E+03
        -0.37300E+03
        -0.37300E+03
        -0.37300E+03
        -0.37300E+03
        -0.37300E+03
        -0.37300E+03
        -0.37300E+03
        -0.37300E+03
        -0.37300E+03
        -0.37300E+03
        -0.37300E+03
        -0.37300E+03
        -0.37300E+03
        -0.37300E+03
        -0.37300E+03
        -0.37300E+03
        -0.37300E+03
        -0.37300E+03
        -0.37300E+03
        -0.37300E+03
        -0.37300E+03
        -0.37300E+03
        -0.37300E+03
        -0.37300E+03
        -0.37300E+03
        -0.37300E+03
        -0.37300E+03
        -0.37300E+03
        -0.37300E+03
        -0.37300E+03
        -0.37300E+03
        -0.37300E+03
        -0.37300E+03
        -0.37300E+03
        -0.37300E+03
        -0.37300E+03
        -0.37300E+03
        -0.37300E+03
        -0.37300E+03
        -0.37300E+03
        -0.37300E+03
        -0.37300E+03
        -0.37300E+03
        -0.37300E+03
        -0.37300E+03
        -0.37300E+03
        -0.37300E+03
        -0.37300E+03
        -0.37300E+03
        -0.37300E+03
        -0.37300E+03
        -0.37300E+03
        -0.37300E+03
        -0.37300E+03
        -0.37300E+03
        -0.37300E+03
        -0.37300E+03
        -0.37300E+03
        -0.37300E+03
        -0.37300E+03
        -0.37300E+03
        -0.37300E+03
        -0.37300E+03
        -0.37300E+03
        -0.37300E+03
        -0.37300E+03
        -0.37300E+03
        -0.37300E+03
        -0.37300E+03
        -0.37300E+03
        -0.37300E+03
        -0.37300E+03
        -0.37300E+03
        -0.37300E+03
        -0.37300E+03
        -0.37300E+03
        -0.37300E+03
        -0.37300E+03
        -0.37300E+03
        -0.37300E+03
        -0.37300E+03
        -0.37300E+03
        -0.37300E+03
        -0.37300E+03
        -0.37300E+03
        -0.37300E+03
        -0.37300E+03
        -0.37300E+03
        -0.37300E+03
        -0.37300E+03
        -0.37300E+03
        -0.37300E+03
        -0.37300E+03
        -0.37300E+03
        -0.37300E+03
        -0.37300E+03
        -0.37300E+03
        -0.37300E+03
        -0.37300E+03
        -0.37300E+03
        -0.37300E+03
        -0.37300E+03
        -0.37300E+03
        -0.37300E+03
        -0.37300E+03
        -0.37300E+03
        -0.37300E+03
        -0.37300E+03
        -0.37300E+03
        -0.37300E+03
        -0.37300E+03
        -0.37300E+03
        -0.37300E+03
        -0.37300E+03
        -0.37300E+03
        -0.37300E+03
        -0.37300E+03
        -0.37300E+03
        -0.37300E+03
        -0.37300E+03
        -0.37300E+03
        -0.37300E+03
        -0.37300E+03
        -0.37300E+03
        -0.37300E+03
        -0.37300E+03
        -0.37300E+03
        -0.37300E+03
        -0.37300E+03
        -0.37300E+03
        -0.37300E+03
        -0.37300E+03
  
SCALARS              normalized_window  double 1
LOOKUP_TABLE default
         0.27500E+01
         0.27500E+01
         0.27500E+01
         0.27500E+01
         0.27500E+01
         0.27500E+01
         0.27500E+01
         0.27500E+01
         0.27500E+01
         0.27500E+01
         0.27500E+01
         0.27500E+01
         0.27500E+01
         0.27500E+01
         0.27500E+01
         0.27500E+01
         0.27500E+01
         0.27500E+01
         0.27500E+01
         0.27500E+01
         0.27500E+01
         0.27500E+01
         0.27500E+01
         0.27500E+01
         0.27500E+01
         0.27500E+01
         0.27500E+01
         0.27500E+01
         0.27500E+01
         0.27500E+01
         0.27500E+01
         0.27500E+01
         0.27500E+01
         0.27500E+01
         0.27500E+01
         0.27500E+01
         0.27500E+01
         0.27500E+01
         0.27500E+01
         0.27500E+01
         0.27500E+01
         0.27500E+01
         0.27500E+01
         0.27500E+01
         0.27500E+01
         0.27500E+01
         0.27500E+01
         0.27500E+01
         0.27500E+01
         0.27500E+01
         0.27500E+01
         0.27500E+01
         0.27500E+01
         0.27500E+01
         0.27500E+01
         0.27500E+01
         0.27500E+01
         0.27500E+01
         0.27500E+01
         0.27500E+01
         0.27500E+01
         0.27500E+01
         0.27500E+01
         0.27500E+01
         0.27500E+01
         0.27500E+01
         0.27500E+01
         0.27500E+01
         0.27500E+01
         0.27500E+01
         0.27500E+01
         0.27500E+01
         0.27500E+01
         0.27500E+01
         0.27500E+01
         0.27500E+01
         0.27500E+01
         0.27500E+01
         0.27500E+01
         0.27500E+01
         0.27500E+01
         0.27500E+01
         0.27500E+01
         0.27500E+01
         0.27500E+01
         0.27500E+01
         0.27500E+01
         0.27500E+01
         0.27500E+01
         0.27500E+01
         0.27500E+01
         0.27500E+01
         0.27500E+01
         0.27500E+01
         0.27500E+01
         0.27500E+01
         0.27500E+01
         0.27500E+01
         0.27500E+01
         0.27500E+01
         0.27500E+01
         0.27500E+01
         0.27500E+01
         0.27500E+01
         0.27500E+01
         0.27500E+01
         0.27500E+01
         0.27500E+01
         0.27500E+01
         0.27500E+01
         0.27500E+01
         0.27500E+01
         0.27500E+01
         0.27500E+01
         0.27500E+01
         0.27500E+01
         0.27500E+01
         0.27500E+01
         0.27500E+01
         0.27500E+01
         0.27500E+01
         0.27500E+01
         0.27500E+01
         0.27500E+01
         0.27500E+01
         0.27500E+01
         0.27500E+01
         0.27500E+01
         0.27500E+01
         0.27500E+01
         0.27500E+01
         0.27500E+01
         0.27500E+01
         0.27500E+01
         0.27500E+01
         0.27500E+01
         0.27500E+01
         0.27500E+01
         0.27500E+01
         0.27500E+01
         0.27500E+01
         0.27500E+01
         0.27500E+01
         0.27500E+01
         0.27500E+01
         0.27500E+01
         0.27500E+01
         0.27500E+01
         0.27500E+01
         0.27500E+01
         0.27500E+01
         0.27500E+01
         0.27500E+01
         0.27500E+01
         0.27500E+01
         0.27500E+01
         0.27500E+01
         0.27500E+01
         0.27500E+01
         0.27500E+01
         0.27500E+01
         0.27500E+01
         0.27500E+01
         0.27500E+01
         0.27500E+01
         0.27500E+01
         0.27500E+01
         0.27500E+01
         0.27500E+01
         0.27500E+01
         0.27500E+01
         0.27500E+01
         0.27500E+01
         0.27500E+01
         0.27500E+01
         0.27500E+01
         0.27500E+01
         0.27500E+01
         0.27500E+01
         0.27500E+01
         0.27500E+01
         0.27500E+01
         0.27500E+01
         0.27500E+01
         0.27500E+01
         0.27500E+01
         0.27500E+01
         0.27500E+01
         0.27500E+01
         0.27500E+01
         0.27500E+01
         0.27500E+01
         0.27500E+01
         0.27500E+01
         0.27500E+01
         0.27500E+01
         0.27500E+01
         0.27500E+01
         0.27500E+01
         0.27500E+01
         0.27500E+01
         0.27500E+01
         0.27500E+01
         0.27500E+01
         0.27500E+01
         0.27500E+01
         0.27500E+01
         0.27500E+01
         0.27500E+01
         0.27500E+01
         0.27500E+01
         0.27500E+01
         0.27500E+01
         0.27500E+01
         0.27500E+01
         0.27500E+01
         0.27500E+01
         0.27500E+01
         0.27500E+01
         0.27500E+01
         0.27500E+01
         0.27500E+01
         0.27500E+01
         0.27500E+01
         0.27500E+01
         0.27500E+01
         0.27500E+01
         0.27500E+01
         0.27500E+01
         0.27500E+01
         0.27500E+01
         0.27500E+01
         0.27500E+01
         0.27500E+01
         0.27500E+01
         0.27500E+01
         0.27500E+01
         0.27500E+01
         0.27500E+01
         0.27500E+01
         0.27500E+01
         0.27500E+01
         0.27500E+01
         0.27500E+01
         0.27500E+01
         0.27500E+01
         0.27500E+01
         0.27500E+01
         0.27500E+01
         0.27500E+01
         0.27500E+01
         0.27500E+01
         0.27500E+01
         0.27500E+01
         0.27500E+01
         0.27500E+01
         0.27500E+01
         0.27500E+01
         0.27500E+01
         0.27500E+01
         0.27500E+01
         0.27500E+01
         0.27500E+01
         0.27500E+01
         0.27500E+01
         0.27500E+01
         0.27500E+01
         0.27500E+01
         0.27500E+01
         0.27500E+01
         0.27500E+01
         0.27500E+01
         0.27500E+01
         0.27500E+01
         0.27500E+01
         0.27500E+01
         0.27500E+01
         0.27500E+01
         0.27500E+01
         0.27500E+01
         0.27500E+01
         0.27500E+01
         0.27500E+01
         0.27500E+01
         0.27500E+01
         0.27500E+01
         0.27500E+01
         0.27500E+01
         0.27500E+01
         0.27500E+01
         0.27500E+01
         0.27500E+01
         0.27500E+01
         0.27500E+01
         0.27500E+01
         0.27500E+01
         0.27500E+01
         0.27500E+01
         0.27500E+01
         0.27500E+01
         0.27500E+01
         0.27500E+01
         0.27500E+01
         0.27500E+01
         0.27500E+01
         0.27500E+01
         0.27500E+01
         0.27500E+01
         0.27500E+01
         0.27500E+01
         0.27500E+01
         0.27500E+01
         0.27500E+01
         0.27500E+01
         0.27500E+01
         0.27500E+01
         0.27500E+01
         0.27500E+01
         0.27500E+01
         0.27500E+01
         0.27500E+01
         0.27500E+01
         0.27500E+01
         0.27500E+01
         0.27500E+01
         0.27500E+01
         0.27500E+01
         0.27500E+01
         0.27500E+01
         0.27500E+01
         0.27500E+01
         0.27500E+01
         0.27500E+01
         0.27500E+01
         0.27500E+01
         0.27500E+01
         0.27500E+01
         0.27500E+01
         0.27500E+01
         0.27500E+01
         0.27500E+01
         0.27500E+01
         0.27500E+01
         0.27500E+01
         0.27500E+01
         0.27500E+01
         0.27500E+01
         0.27500E+01
         0.27500E+01
         0.27500E+01
         0.27500E+01
         0.27500E+01
         0.27500E+01
         0.27500E+01
         0.27500E+01
         0.27500E+01
         0.27500E+01
         0.27500E+01
         0.27500E+01
         0.27500E+01
         0.27500E+01
         0.27500E+01
         0.27500E+01
         0.27500E+01
         0.27500E+01
         0.27500E+01
         0.27500E+01
         0.27500E+01
         0.27500E+01
         0.27500E+01
         0.27500E+01
         0.27500E+01
         0.27500E+01
         0.27500E+01
         0.27500E+01
         0.27500E+01
         0.27500E+01
         0.27500E+01
         0.27500E+01
         0.27500E+01
         0.27500E+01
         0.27500E+01
         0.27500E+01
         0.27500E+01
         0.27500E+01
         0.27500E+01
         0.27500E+01
         0.27500E+01
         0.27500E+01
         0.27500E+01
         0.27500E+01
         0.27500E+01
         0.27500E+01
         0.27500E+01
         0.27500E+01
         0.27500E+01
         0.27500E+01
         0.27500E+01
         0.27500E+01
         0.27500E+01
         0.27500E+01
         0.27500E+01
         0.27500E+01
         0.27500E+01
         0.27500E+01
         0.27500E+01
         0.27500E+01
         0.27500E+01
         0.27500E+01
         0.27500E+01
         0.27500E+01
         0.27500E+01
         0.27500E+01
         0.27500E+01
         0.27500E+01
         0.27500E+01
         0.27500E+01
         0.27500E+01
         0.27500E+01
         0.27500E+01
         0.27500E+01
         0.27500E+01
         0.27500E+01
         0.27500E+01
         0.27500E+01
         0.27500E+01
         0.27500E+01
         0.27500E+01
         0.27500E+01
         0.27500E+01
         0.27500E+01
         0.27500E+01
         0.27500E+01
         0.27500E+01
         0.27500E+01
         0.27500E+01
         0.27500E+01
         0.27500E+01
         0.27500E+01
         0.27500E+01
         0.27500E+01
         0.27500E+01
         0.27500E+01
         0.27500E+01
         0.27500E+01
         0.27500E+01
         0.27500E+01
         0.27500E+01
         0.27500E+01
         0.27500E+01
         0.27500E+01
         0.27500E+01
         0.27500E+01
         0.27500E+01
         0.27500E+01
         0.27500E+01
         0.27500E+01
         0.27500E+01
         0.27500E+01
         0.27500E+01
         0.27500E+01
         0.27500E+01
         0.27500E+01
         0.27500E+01
         0.27500E+01
         0.27500E+01
         0.27500E+01
         0.27500E+01
         0.27500E+01
         0.27500E+01
         0.27500E+01
         0.27500E+01
         0.27500E+01
         0.27500E+01
         0.27500E+01
         0.27500E+01
         0.27500E+01
         0.27500E+01
         0.27500E+01
         0.27500E+01
         0.27500E+01
         0.27500E+01
         0.27500E+01
         0.27500E+01
         0.27500E+01
         0.27500E+01
         0.27500E+01
         0.27500E+01
         0.27500E+01
         0.27500E+01
         0.27500E+01
         0.27500E+01
         0.27500E+01
         0.27500E+01
         0.27500E+01
         0.27500E+01
         0.27500E+01
         0.27500E+01
         0.27500E+01
         0.27500E+01
         0.27500E+01
         0.27500E+01
         0.27500E+01
         0.27500E+01
         0.27500E+01
         0.27500E+01
         0.27500E+01
         0.27500E+01
         0.27500E+01
         0.27500E+01
         0.27500E+01
         0.27500E+01
         0.27500E+01
         0.27500E+01
         0.27500E+01
         0.27500E+01
         0.27500E+01
         0.27500E+01
         0.27500E+01
         0.27500E+01
         0.27500E+01
         0.27500E+01
         0.27500E+01
         0.27500E+01
         0.27500E+01
         0.27500E+01
         0.27500E+01
         0.27500E+01
         0.27500E+01
         0.27500E+01
         0.27500E+01
         0.27500E+01
         0.27500E+01
         0.27500E+01
         0.27500E+01
         0.27500E+01
         0.27500E+01
         0.27500E+01
         0.27500E+01
         0.27500E+01
         0.27500E+01
         0.27500E+01
         0.27500E+01
         0.27500E+01
         0.27500E+01
         0.27500E+01
         0.27500E+01
         0.27500E+01
         0.27500E+01
         0.27500E+01
         0.27500E+01
         0.27500E+01
         0.27500E+01
         0.27500E+01
         0.27500E+01
         0.27500E+01
         0.27500E+01
         0.27500E+01
         0.27500E+01
         0.27500E+01
         0.27500E+01
         0.27500E+01
         0.27500E+01
         0.27500E+01
         0.27500E+01
         0.27500E+01
         0.27500E+01
         0.27500E+01
         0.27500E+01
         0.27500E+01
         0.27500E+01
         0.27500E+01
         0.27500E+01
         0.27500E+01
         0.27500E+01
         0.27500E+01
         0.27500E+01
         0.27500E+01
         0.27500E+01
         0.27500E+01
         0.27500E+01
         0.27500E+01
         0.27500E+01
         0.27500E+01
         0.27500E+01
         0.27500E+01
         0.27500E+01
         0.27500E+01
         0.27500E+01
         0.27500E+01
         0.27500E+01
         0.27500E+01
         0.27500E+01
         0.27500E+01
         0.27500E+01
         0.27500E+01
         0.27500E+01
         0.27500E+01
         0.27500E+01
         0.27500E+01
         0.27500E+01
         0.27500E+01
         0.27500E+01
         0.27500E+01
         0.27500E+01
         0.27500E+01
         0.27500E+01
         0.27500E+01
         0.27500E+01
         0.27500E+01
         0.27500E+01
         0.27500E+01
         0.27500E+01
         0.27500E+01
         0.27500E+01
         0.27500E+01
         0.27500E+01
         0.27500E+01
         0.27500E+01
         0.27500E+01
         0.27500E+01
         0.27500E+01
         0.27500E+01
         0.27500E+01
         0.27500E+01
         0.27500E+01
         0.27500E+01
         0.27500E+01
         0.27500E+01
         0.27500E+01
         0.27500E+01
         0.27500E+01
         0.27500E+01
         0.27500E+01
         0.27500E+01
         0.27500E+01
         0.27500E+01
         0.27500E+01
         0.27500E+01
         0.27500E+01
         0.27500E+01
         0.27500E+01
         0.27500E+01
         0.27500E+01
         0.27500E+01
         0.27500E+01
         0.27500E+01
         0.27500E+01
         0.27500E+01
         0.27500E+01
         0.27500E+01
         0.27500E+01
         0.27500E+01
         0.27500E+01
         0.27500E+01
         0.27500E+01
         0.27500E+01
         0.27500E+01
         0.27500E+01
         0.27500E+01
         0.27500E+01
         0.27500E+01
         0.27500E+01
         0.27500E+01
         0.27500E+01
         0.27500E+01
         0.27500E+01
         0.27500E+01
         0.27500E+01
         0.27500E+01
         0.27500E+01
         0.27500E+01
         0.27500E+01
         0.27500E+01
         0.27500E+01
         0.27500E+01
         0.27500E+01
         0.27500E+01
         0.27500E+01
         0.27500E+01
         0.27500E+01
         0.27500E+01
         0.27500E+01
         0.27500E+01
         0.27500E+01
         0.27500E+01
         0.27500E+01
         0.27500E+01
         0.27500E+01
         0.27500E+01
         0.27500E+01
         0.27500E+01
         0.27500E+01
         0.27500E+01
         0.27500E+01
         0.27500E+01
         0.27500E+01
         0.27500E+01
         0.27500E+01
         0.27500E+01
         0.27500E+01
         0.27500E+01
         0.27500E+01
         0.27500E+01
         0.27500E+01
         0.27500E+01
         0.27500E+01
         0.27500E+01
         0.27500E+01
         0.27500E+01
         0.27500E+01
         0.27500E+01
         0.27500E+01
         0.27500E+01
         0.27500E+01
         0.27500E+01
         0.27500E+01
         0.27500E+01
         0.27500E+01
         0.27500E+01
         0.27500E+01
         0.27500E+01
         0.27500E+01
         0.27500E+01
         0.27500E+01
         0.27500E+01
         0.27500E+01
         0.27500E+01
         0.27500E+01
         0.27500E+01
         0.27500E+01
         0.27500E+01
         0.27500E+01
         0.27500E+01
         0.27500E+01
         0.27500E+01
         0.27500E+01
         0.27500E+01
         0.27500E+01
         0.27500E+01
         0.27500E+01
         0.27500E+01
         0.27500E+01
         0.27500E+01
         0.27500E+01
         0.27500E+01
         0.27500E+01
         0.27500E+01
         0.27500E+01
         0.27500E+01
         0.27500E+01
         0.27500E+01
         0.27500E+01
         0.27500E+01
         0.27500E+01
         0.27500E+01
         0.27500E+01
         0.27500E+01
         0.27500E+01
         0.27500E+01
         0.27500E+01
         0.27500E+01
         0.27500E+01
         0.27500E+01
         0.27500E+01
         0.27500E+01
         0.27500E+01
         0.27500E+01
         0.27500E+01
         0.27500E+01
         0.27500E+01
         0.27500E+01
         0.27500E+01
         0.27500E+01
         0.27500E+01
         0.27500E+01
         0.27500E+01
         0.27500E+01
         0.27500E+01
         0.27500E+01
         0.27500E+01
         0.27500E+01
         0.27500E+01
         0.27500E+01
         0.27500E+01
         0.27500E+01
         0.27500E+01
         0.27500E+01
         0.27500E+01
         0.27500E+01
         0.27500E+01
         0.27500E+01
         0.27500E+01
         0.27500E+01
         0.27500E+01
         0.27500E+01
         0.27500E+01
         0.27500E+01
         0.27500E+01
         0.27500E+01
         0.27500E+01
         0.27500E+01
         0.27500E+01
         0.27500E+01
         0.27500E+01
         0.27500E+01
         0.27500E+01
         0.27500E+01
         0.27500E+01
         0.27500E+01
         0.27500E+01
         0.27500E+01
         0.27500E+01
         0.27500E+01
         0.27500E+01
         0.27500E+01
         0.27500E+01
         0.27500E+01
         0.27500E+01
         0.27500E+01
         0.27500E+01
         0.27500E+01
         0.27500E+01
         0.27500E+01
         0.27500E+01
         0.27500E+01
         0.27500E+01
         0.27500E+01
         0.27500E+01
         0.27500E+01
         0.27500E+01
         0.27500E+01
         0.27500E+01
         0.27500E+01
         0.27500E+01
         0.27500E+01
         0.27500E+01
         0.27500E+01
         0.27500E+01
         0.27500E+01
         0.27500E+01
         0.27500E+01
         0.27500E+01
         0.27500E+01
         0.27500E+01
         0.27500E+01
         0.27500E+01
         0.27500E+01
         0.27500E+01
         0.27500E+01
         0.27500E+01
         0.27500E+01
         0.27500E+01
         0.27500E+01
         0.27500E+01
         0.27500E+01
         0.27500E+01
         0.27500E+01
         0.27500E+01
         0.27500E+01
         0.27500E+01
         0.27500E+01
         0.27500E+01
         0.27500E+01
         0.27500E+01
         0.27500E+01
         0.27500E+01
         0.27500E+01
         0.27500E+01
         0.27500E+01
         0.27500E+01
         0.27500E+01
         0.27500E+01
         0.27500E+01
         0.27500E+01
         0.27500E+01
         0.27500E+01
         0.27500E+01
         0.27500E+01
         0.27500E+01
         0.27500E+01
         0.27500E+01
         0.27500E+01
         0.27500E+01
         0.27500E+01
         0.27500E+01
         0.27500E+01
         0.27500E+01
         0.27500E+01
         0.27500E+01
         0.27500E+01
         0.27500E+01
         0.27500E+01
         0.27500E+01
         0.27500E+01
         0.27500E+01
         0.27500E+01
         0.27500E+01
         0.27500E+01
         0.27500E+01
         0.27500E+01
         0.27500E+01
         0.27500E+01
         0.27500E+01
         0.27500E+01
         0.27500E+01
         0.27500E+01
         0.27500E+01
         0.27500E+01
         0.27500E+01
         0.27500E+01
         0.27500E+01
         0.27500E+01
         0.27500E+01
         0.27500E+01
         0.27500E+01
         0.27500E+01
         0.27500E+01
         0.27500E+01
         0.27500E+01
         0.27500E+01
         0.27500E+01
         0.27500E+01
         0.27500E+01
         0.27500E+01
         0.27500E+01
         0.27500E+01
         0.27500E+01
         0.27500E+01
         0.27500E+01
         0.27500E+01
         0.27500E+01
         0.27500E+01
         0.27500E+01
         0.27500E+01
         0.27500E+01
         0.27500E+01
         0.27500E+01
         0.27500E+01
         0.27500E+01
         0.27500E+01
         0.27500E+01
         0.27500E+01
         0.27500E+01
         0.27500E+01
         0.27500E+01
         0.27500E+01
         0.27500E+01
         0.27500E+01
         0.27500E+01
         0.27500E+01
         0.27500E+01
         0.27500E+01
         0.27500E+01
         0.27500E+01
         0.27500E+01
         0.27500E+01
         0.27500E+01
         0.27500E+01
         0.27500E+01
         0.27500E+01
         0.27500E+01
         0.27500E+01
         0.27500E+01
         0.27500E+01
         0.27500E+01
         0.27500E+01
         0.27500E+01
         0.27500E+01
         0.27500E+01
         0.27500E+01
         0.27500E+01
         0.27500E+01
         0.27500E+01
         0.27500E+01
         0.27500E+01
         0.27500E+01
         0.27500E+01
         0.27500E+01
         0.27500E+01
         0.27500E+01
         0.27500E+01
         0.27500E+01
         0.27500E+01
         0.27500E+01
         0.27500E+01
         0.27500E+01
         0.27500E+01
         0.27500E+01
         0.27500E+01
         0.27500E+01
         0.27500E+01
         0.27500E+01
         0.27500E+01
         0.27500E+01
         0.27500E+01
         0.27500E+01
         0.27500E+01
         0.27500E+01
         0.27500E+01
         0.27500E+01
         0.27500E+01
         0.27500E+01
         0.27500E+01
         0.27500E+01
         0.27500E+01
         0.27500E+01
         0.27500E+01
         0.27500E+01
         0.27500E+01
         0.27500E+01
         0.27500E+01
         0.27500E+01
         0.27500E+01
         0.27500E+01
         0.27500E+01
         0.27500E+01
         0.27500E+01
         0.27500E+01
         0.27500E+01
         0.27500E+01
         0.27500E+01
         0.27500E+01
         0.27500E+01
         0.27500E+01
         0.27500E+01
         0.27500E+01
         0.27500E+01
         0.27500E+01
         0.27500E+01
         0.27500E+01
         0.27500E+01
         0.27500E+01
         0.27500E+01
         0.27500E+01
         0.27500E+01
         0.27500E+01
         0.27500E+01
         0.27500E+01
         0.27500E+01
         0.27500E+01
         0.27500E+01
         0.27500E+01
         0.27500E+01
         0.27500E+01
         0.27500E+01
         0.27500E+01
         0.27500E+01
         0.27500E+01
         0.27500E+01
         0.27500E+01
         0.27500E+01
         0.27500E+01
         0.27500E+01
         0.27500E+01
         0.27500E+01
         0.27500E+01
         0.27500E+01
         0.27500E+01
         0.27500E+01
         0.27500E+01
         0.27500E+01
         0.27500E+01
         0.27500E+01
         0.27500E+01
         0.27500E+01
         0.27500E+01
         0.27500E+01
         0.27500E+01
         0.27500E+01
         0.27500E+01
         0.27500E+01
         0.27500E+01
         0.27500E+01
         0.27500E+01
         0.27500E+01
         0.27500E+01
         0.27500E+01
         0.27500E+01
         0.27500E+01
         0.27500E+01
         0.27500E+01
         0.27500E+01
         0.27500E+01
         0.27500E+01
         0.27500E+01
         0.27500E+01
         0.27500E+01
         0.27500E+01
         0.27500E+01
         0.27500E+01
         0.27500E+01
         0.27500E+01
         0.27500E+01
         0.27500E+01
         0.27500E+01
         0.27500E+01
         0.27500E+01
         0.27500E+01
         0.27500E+01
         0.27500E+01
         0.27500E+01
         0.27500E+01
         0.27500E+01
         0.27500E+01
         0.27500E+01
         0.27500E+01
         0.27500E+01
         0.27500E+01
         0.27500E+01
         0.27500E+01
         0.27500E+01
         0.27500E+01
         0.27500E+01
         0.27500E+01
         0.27500E+01
         0.27500E+01
         0.27500E+01
         0.27500E+01
         0.27500E+01
         0.27500E+01
         0.27500E+01
         0.27500E+01
         0.27500E+01
         0.27500E+01
         0.27500E+01
         0.27500E+01
         0.27500E+01
         0.27500E+01
         0.27500E+01
         0.27500E+01
         0.27500E+01
         0.27500E+01
         0.27500E+01
         0.27500E+01
         0.27500E+01
         0.27500E+01
         0.27500E+01
         0.27500E+01
         0.27500E+01
         0.27500E+01
         0.27500E+01
         0.27500E+01
         0.27500E+01
         0.27500E+01
         0.27500E+01
         0.27500E+01
         0.27500E+01
         0.27500E+01
         0.27500E+01
         0.27500E+01
         0.27500E+01
         0.27500E+01
         0.27500E+01
         0.27500E+01
         0.27500E+01
         0.27500E+01
         0.27500E+01
         0.27500E+01
         0.27500E+01
         0.27500E+01
         0.27500E+01
         0.27500E+01
         0.27500E+01
         0.27500E+01
         0.27500E+01
         0.27500E+01
         0.27500E+01
         0.27500E+01
         0.27500E+01
         0.27500E+01
         0.27500E+01
         0.27500E+01
         0.27500E+01
         0.27500E+01
         0.27500E+01
         0.27500E+01
         0.27500E+01
         0.27500E+01
         0.27500E+01
         0.27500E+01
         0.27500E+01
         0.27500E+01
         0.27500E+01
         0.27500E+01
         0.27500E+01
         0.27500E+01
         0.27500E+01
         0.27500E+01
         0.27500E+01
         0.27500E+01
         0.27500E+01
         0.27500E+01
         0.27500E+01
         0.27500E+01
         0.27500E+01
         0.27500E+01
         0.27500E+01
         0.27500E+01
         0.27500E+01
         0.27500E+01
         0.27500E+01
         0.27500E+01
         0.27500E+01
         0.27500E+01
         0.27500E+01
         0.27500E+01
         0.27500E+01
         0.27500E+01
         0.27500E+01
         0.27500E+01
         0.27500E+01
         0.27500E+01
         0.27500E+01
         0.27500E+01
         0.27500E+01
         0.27500E+01
         0.27500E+01
         0.27500E+01
         0.27500E+01
         0.27500E+01
         0.27500E+01
         0.27500E+01
         0.27500E+01
         0.27500E+01
         0.27500E+01
         0.27500E+01
         0.27500E+01
         0.27500E+01
         0.27500E+01
         0.27500E+01
         0.27500E+01
         0.27500E+01
         0.27500E+01
         0.27500E+01
         0.27500E+01
         0.27500E+01
         0.27500E+01
         0.27500E+01
         0.27500E+01
         0.27500E+01
         0.27500E+01
         0.27500E+01
         0.27500E+01
         0.27500E+01
         0.27500E+01
         0.27500E+01
         0.27500E+01
         0.27500E+01
         0.27500E+01
         0.27500E+01
         0.27500E+01
         0.27500E+01
         0.27500E+01
         0.27500E+01
         0.27500E+01
         0.27500E+01
         0.27500E+01
         0.27500E+01
         0.27500E+01
         0.27500E+01
         0.27500E+01
         0.27500E+01
         0.27500E+01
         0.27500E+01
         0.27500E+01
         0.27500E+01
         0.27500E+01
         0.27500E+01
         0.27500E+01
         0.27500E+01
         0.27500E+01
         0.27500E+01
         0.27500E+01
         0.27500E+01
         0.27500E+01
         0.27500E+01
         0.27500E+01
         0.27500E+01
         0.27500E+01
         0.27500E+01
         0.27500E+01
         0.27500E+01
         0.27500E+01
         0.27500E+01
         0.27500E+01
         0.27500E+01
         0.27500E+01
         0.27500E+01
         0.27500E+01
         0.27500E+01
         0.27500E+01
         0.27500E+01
         0.27500E+01
         0.27500E+01
         0.27500E+01
         0.27500E+01
         0.27500E+01
         0.27500E+01
         0.27500E+01
         0.27500E+01
         0.27500E+01
         0.27500E+01
         0.27500E+01
         0.27500E+01
         0.27500E+01
         0.27500E+01
         0.27500E+01
         0.27500E+01
         0.27500E+01
         0.27500E+01
         0.27500E+01
         0.27500E+01
         0.27500E+01
         0.27500E+01
         0.27500E+01
         0.27500E+01
         0.27500E+01
         0.27500E+01
         0.27500E+01
         0.27500E+01
         0.27500E+01
         0.27500E+01
         0.27500E+01
         0.27500E+01
         0.27500E+01
         0.27500E+01
         0.27500E+01
         0.27500E+01
         0.27500E+01
         0.27500E+01
         0.27500E+01
         0.27500E+01
         0.27500E+01
         0.27500E+01
         0.27500E+01
         0.27500E+01
         0.27500E+01
         0.27500E+01
         0.27500E+01
         0.27500E+01
         0.27500E+01
         0.27500E+01
         0.27500E+01
         0.27500E+01
         0.27500E+01
         0.27500E+01
         0.27500E+01
         0.27500E+01
         0.27500E+01
         0.27500E+01
         0.27500E+01
         0.27500E+01
         0.27500E+01
         0.27500E+01
         0.27500E+01
         0.27500E+01
         0.27500E+01
         0.27500E+01
         0.27500E+01
         0.27500E+01
         0.27500E+01
         0.27500E+01
         0.27500E+01
         0.27500E+01
         0.27500E+01
         0.27500E+01
         0.27500E+01
         0.27500E+01
         0.27500E+01
         0.27500E+01
         0.27500E+01
         0.27500E+01
         0.27500E+01
         0.27500E+01
         0.27500E+01
         0.27500E+01
         0.27500E+01
         0.27500E+01
         0.27500E+01
         0.27500E+01
         0.27500E+01
         0.27500E+01
         0.27500E+01
         0.27500E+01
         0.27500E+01
         0.27500E+01
         0.27500E+01
         0.27500E+01
         0.27500E+01
         0.27500E+01
         0.27500E+01
         0.27500E+01
         0.27500E+01
         0.27500E+01
         0.27500E+01
         0.27500E+01
         0.27500E+01
         0.27500E+01
         0.27500E+01
         0.27500E+01
         0.27500E+01
         0.27500E+01
         0.27500E+01
         0.27500E+01
         0.27500E+01
         0.27500E+01
         0.27500E+01
         0.27500E+01
         0.27500E+01
         0.27500E+01
         0.27500E+01
         0.27500E+01
         0.27500E+01
         0.27500E+01
         0.27500E+01
         0.27500E+01
         0.27500E+01
         0.27500E+01
         0.27500E+01
         0.27500E+01
         0.27500E+01
         0.27500E+01
         0.27500E+01
         0.27500E+01
         0.27500E+01
         0.27500E+01
         0.27500E+01
         0.27500E+01
         0.27500E+01
         0.27500E+01
         0.27500E+01
         0.27500E+01
         0.27500E+01
         0.27500E+01
         0.27500E+01
         0.27500E+01
         0.27500E+01
         0.27500E+01
         0.27500E+01
         0.27500E+01
         0.27500E+01
         0.27500E+01
         0.27500E+01
         0.27500E+01
         0.27500E+01
         0.27500E+01
         0.27500E+01
         0.27500E+01
         0.27500E+01
         0.27500E+01
         0.27500E+01
         0.27500E+01
         0.27500E+01
         0.27500E+01
         0.27500E+01
         0.27500E+01
         0.27500E+01
         0.27500E+01
         0.27500E+01
         0.27500E+01
         0.27500E+01
         0.27500E+01
         0.27500E+01
         0.27500E+01
         0.27500E+01
         0.27500E+01
         0.27500E+01
         0.27500E+01
         0.27500E+01
         0.27500E+01
         0.27500E+01
         0.27500E+01
         0.27500E+01
         0.27500E+01
         0.27500E+01
         0.27500E+01
         0.27500E+01
         0.27500E+01
         0.27500E+01
         0.27500E+01
         0.27500E+01
         0.27500E+01
         0.27500E+01
         0.27500E+01
         0.27500E+01
         0.27500E+01
         0.27500E+01
         0.27500E+01
         0.27500E+01
         0.27500E+01
         0.27500E+01
         0.27500E+01
         0.27500E+01
         0.27500E+01
         0.27500E+01
         0.27500E+01
         0.27500E+01
         0.27500E+01
         0.27500E+01
         0.27500E+01
         0.27500E+01
         0.27500E+01
         0.27500E+01
         0.27500E+01
         0.27500E+01
         0.27500E+01
         0.27500E+01
         0.27500E+01
         0.27500E+01
         0.27500E+01
         0.27500E+01
         0.27500E+01
         0.27500E+01
         0.27500E+01
         0.27500E+01
         0.27500E+01
         0.27500E+01
         0.27500E+01
         0.27500E+01
         0.27500E+01
         0.27500E+01
         0.27500E+01
         0.27500E+01
         0.27500E+01
         0.27500E+01
         0.27500E+01
         0.27500E+01
         0.27500E+01
         0.27500E+01
         0.27500E+01
         0.27500E+01
         0.27500E+01
         0.27500E+01
         0.27500E+01
         0.27500E+01
         0.27500E+01
         0.27500E+01
         0.27500E+01
         0.27500E+01
         0.27500E+01
         0.27500E+01
         0.27500E+01
         0.27500E+01
         0.27500E+01
         0.27500E+01
         0.27500E+01
         0.27500E+01
         0.27500E+01
         0.27500E+01
         0.27500E+01
         0.27500E+01
         0.27500E+01
         0.27500E+01
         0.27500E+01
         0.27500E+01
         0.27500E+01
         0.27500E+01
         0.27500E+01
         0.27500E+01
         0.27500E+01
         0.27500E+01
         0.27500E+01
         0.27500E+01
         0.27500E+01
         0.27500E+01
         0.27500E+01
         0.27500E+01
         0.27500E+01
         0.27500E+01
         0.27500E+01
         0.27500E+01
         0.27500E+01
         0.27500E+01
         0.27500E+01
         0.27500E+01
         0.27500E+01
         0.27500E+01
         0.27500E+01
         0.27500E+01
         0.27500E+01
         0.27500E+01
         0.27500E+01
         0.27500E+01
         0.27500E+01
         0.27500E+01
         0.27500E+01
         0.27500E+01
         0.27500E+01
         0.27500E+01
         0.27500E+01
         0.27500E+01
         0.27500E+01
         0.27500E+01
         0.27500E+01
         0.27500E+01
         0.27500E+01
         0.27500E+01
         0.27500E+01
         0.27500E+01
         0.27500E+01
         0.27500E+01
         0.27500E+01
         0.27500E+01
         0.27500E+01
         0.27500E+01
         0.27500E+01
         0.27500E+01
         0.27500E+01
         0.27500E+01
         0.27500E+01
         0.27500E+01
         0.27500E+01
         0.27500E+01
         0.27500E+01
         0.27500E+01
         0.27500E+01
         0.27500E+01
         0.27500E+01
         0.27500E+01
         0.27500E+01
         0.27500E+01
         0.27500E+01
         0.27500E+01
         0.27500E+01
         0.27500E+01
         0.27500E+01
         0.27500E+01
         0.27500E+01
         0.27500E+01
         0.27500E+01
         0.27500E+01
         0.27500E+01
         0.27500E+01
         0.27500E+01
         0.27500E+01
         0.27500E+01
         0.27500E+01
         0.27500E+01
         0.27500E+01
         0.27500E+01
         0.27500E+01
         0.27500E+01
         0.27500E+01
         0.27500E+01
         0.27500E+01
         0.27500E+01
         0.27500E+01
         0.27500E+01
         0.27500E+01
         0.27500E+01
         0.27500E+01
         0.27500E+01
         0.27500E+01
         0.27500E+01
         0.27500E+01
         0.27500E+01
         0.27500E+01
         0.27500E+01
         0.27500E+01
         0.27500E+01
         0.27500E+01
         0.27500E+01
         0.27500E+01
         0.27500E+01
         0.27500E+01
         0.27500E+01
         0.27500E+01
         0.27500E+01
         0.27500E+01
         0.27500E+01
         0.27500E+01
         0.27500E+01
         0.27500E+01
         0.27500E+01
         0.27500E+01
         0.27500E+01
         0.27500E+01
         0.27500E+01
         0.27500E+01
         0.27500E+01
         0.27500E+01
         0.27500E+01
         0.27500E+01
         0.27500E+01
         0.27500E+01
         0.27500E+01
         0.27500E+01
         0.27500E+01
         0.27500E+01
         0.27500E+01
         0.27500E+01
         0.27500E+01
         0.27500E+01
         0.27500E+01
         0.27500E+01
         0.27500E+01
         0.27500E+01
         0.27500E+01
         0.27500E+01
         0.27500E+01
         0.27500E+01
         0.27500E+01
         0.27500E+01
         0.27500E+01
         0.27500E+01
         0.27500E+01
         0.27500E+01
         0.27500E+01
         0.27500E+01
         0.27500E+01
         0.27500E+01
         0.27500E+01
         0.27500E+01
         0.27500E+01
         0.27500E+01
         0.27500E+01
         0.27500E+01
         0.27500E+01
         0.27500E+01
         0.27500E+01
         0.27500E+01
         0.27500E+01
         0.27500E+01
         0.27500E+01
         0.27500E+01
         0.27500E+01
         0.27500E+01
         0.27500E+01
         0.27500E+01
         0.27500E+01
         0.27500E+01
         0.27500E+01
         0.27500E+01
         0.27500E+01
         0.27500E+01
         0.27500E+01
         0.27500E+01
         0.27500E+01
         0.27500E+01
         0.27500E+01
         0.27500E+01
         0.27500E+01
         0.27500E+01
         0.27500E+01
         0.27500E+01
         0.27500E+01
         0.27500E+01
         0.27500E+01
         0.27500E+01
         0.27500E+01
         0.27500E+01
         0.27500E+01
         0.27500E+01
         0.27500E+01
         0.27500E+01
         0.27500E+01
         0.27500E+01
         0.27500E+01
         0.27500E+01
         0.27500E+01
         0.27500E+01
         0.27500E+01
         0.27500E+01
         0.27500E+01
         0.27500E+01
         0.27500E+01
         0.27500E+01
         0.27500E+01
         0.27500E+01
         0.27500E+01
         0.27500E+01
         0.27500E+01
         0.27500E+01
         0.27500E+01
         0.27500E+01
         0.27500E+01
         0.27500E+01
         0.27500E+01
         0.27500E+01
         0.27500E+01
         0.27500E+01
         0.27500E+01
         0.27500E+01
         0.27500E+01
         0.27500E+01
         0.27500E+01
         0.27500E+01
         0.27500E+01
         0.27500E+01
         0.27500E+01
         0.27500E+01
         0.27500E+01
         0.27500E+01
         0.27500E+01
         0.27500E+01
         0.27500E+01
         0.27500E+01
         0.27500E+01
         0.27500E+01
         0.27500E+01
         0.27500E+01
         0.27500E+01
         0.27500E+01
         0.27500E+01
         0.27500E+01
         0.27500E+01
         0.27500E+01
         0.27500E+01
         0.27500E+01
         0.27500E+01
         0.27500E+01
         0.27500E+01
         0.27500E+01
         0.27500E+01
         0.27500E+01
         0.27500E+01
         0.27500E+01
         0.27500E+01
         0.27500E+01
         0.27500E+01
         0.27500E+01
         0.27500E+01
         0.27500E+01
         0.27500E+01
         0.27500E+01
         0.27500E+01
         0.27500E+01
         0.27500E+01
         0.27500E+01
         0.27500E+01
         0.27500E+01
         0.27500E+01
         0.27500E+01
         0.27500E+01
         0.27500E+01
         0.27500E+01
         0.27500E+01
         0.27500E+01
         0.27500E+01
         0.27500E+01
         0.27500E+01
         0.27500E+01
         0.27500E+01
         0.27500E+01
         0.27500E+01
         0.27500E+01
         0.27500E+01
         0.27500E+01
         0.27500E+01
         0.27500E+01
         0.27500E+01
         0.27500E+01
         0.27500E+01
         0.27500E+01
         0.27500E+01
         0.27500E+01
         0.27500E+01
         0.27500E+01
         0.27500E+01
         0.27500E+01
         0.27500E+01
         0.27500E+01
         0.27500E+01
         0.27500E+01
         0.27500E+01
         0.27500E+01
         0.27500E+01
         0.27500E+01
         0.27500E+01
         0.27500E+01
         0.27500E+01
         0.27500E+01
         0.27500E+01
         0.27500E+01
         0.27500E+01
         0.27500E+01
         0.27500E+01
         0.27500E+01
         0.27500E+01
         0.27500E+01
         0.27500E+01
         0.27500E+01
         0.27500E+01
         0.27500E+01
         0.27500E+01
         0.27500E+01
         0.27500E+01
         0.27500E+01
         0.27500E+01
         0.27500E+01
         0.27500E+01
         0.27500E+01
         0.27500E+01
         0.27500E+01
         0.27500E+01
         0.27500E+01
         0.27500E+01
         0.27500E+01
         0.27500E+01
         0.27500E+01
         0.27500E+01
         0.27500E+01
         0.27500E+01
         0.27500E+01
         0.27500E+01
         0.27500E+01
         0.27500E+01
         0.27500E+01
         0.27500E+01
         0.27500E+01
         0.27500E+01
         0.27500E+01
         0.27500E+01
         0.27500E+01
         0.27500E+01
         0.27500E+01
         0.27500E+01
         0.27500E+01
         0.27500E+01
         0.27500E+01
         0.27500E+01
         0.27500E+01
         0.27500E+01
         0.27500E+01
         0.27500E+01
         0.27500E+01
         0.27500E+01
         0.27500E+01
         0.27500E+01
         0.27500E+01
         0.27500E+01
         0.27500E+01
         0.27500E+01
         0.27500E+01
         0.27500E+01
         0.27500E+01
         0.27500E+01
         0.27500E+01
         0.27500E+01
         0.27500E+01
         0.27500E+01
         0.27500E+01
         0.27500E+01
         0.27500E+01
         0.27500E+01
         0.27500E+01
         0.27500E+01
         0.27500E+01
         0.27500E+01
  
SCALARS              physical_window_x  double 1
LOOKUP_TABLE default
         0.42419E-02
         0.35201E-02
         0.37624E-02
         0.42419E-02
         0.42417E-02
         0.35201E-02
         0.37618E-02
         0.42417E-02
         0.37624E-02
         0.37624E-02
         0.37618E-02
         0.37618E-02
         0.30086E-02
         0.32069E-02
         0.30084E-02
         0.32067E-02
         0.42419E-02
         0.32069E-02
         0.42417E-02
         0.32067E-02
         0.24180E-02
         0.29942E-02
         0.32396E-02
         0.24180E-02
         0.29933E-02
         0.32385E-02
         0.26608E-02
         0.27190E-02
         0.26608E-02
         0.27190E-02
         0.42687E-02
         0.36511E-02
         0.42687E-02
         0.42687E-02
         0.36511E-02
         0.42687E-02
         0.32069E-02
         0.29739E-02
         0.32066E-02
         0.29739E-02
         0.34652E-02
         0.32621E-02
         0.34652E-02
         0.32621E-02
         0.37123E-02
         0.32069E-02
         0.37123E-02
         0.32066E-02
         0.30844E-02
         0.30844E-02
         0.35191E-02
         0.35189E-02
         0.26925E-02
         0.26925E-02
         0.26925E-02
         0.26925E-02
         0.24643E-02
         0.27651E-02
         0.24643E-02
         0.27651E-02
         0.42687E-02
         0.35191E-02
         0.42687E-02
         0.35189E-02
         0.42687E-02
         0.42687E-02
         0.34658E-02
         0.34648E-02
         0.27274E-02
         0.31799E-02
         0.27273E-02
         0.31796E-02
         0.32396E-02
         0.32385E-02
         0.26964E-02
         0.26960E-02
         0.27828E-02
         0.27828E-02
         0.27828E-02
         0.27828E-02
         0.27004E-02
         0.31883E-02
         0.27003E-02
         0.31880E-02
         0.31883E-02
         0.31880E-02
         0.37123E-02
         0.37123E-02
         0.36245E-02
         0.36245E-02
         0.28253E-02
         0.31642E-02
         0.28253E-02
         0.31636E-02
         0.33485E-02
         0.33485E-02
         0.33485E-02
         0.33485E-02
         0.31978E-02
         0.31969E-02
         0.29849E-02
         0.32843E-02
         0.29849E-02
         0.32843E-02
         0.27274E-02
         0.31109E-02
         0.27273E-02
         0.31109E-02
         0.31799E-02
         0.31796E-02
         0.32396E-02
         0.32385E-02
         0.32396E-02
         0.32385E-02
         0.29942E-02
         0.29933E-02
         0.27190E-02
         0.27190E-02
         0.26964E-02
         0.26960E-02
         0.27828E-02
         0.27828E-02
         0.27828E-02
         0.27828E-02
         0.27004E-02
         0.27003E-02
         0.31883E-02
         0.31880E-02
         0.31883E-02
         0.31880E-02
         0.32621E-02
         0.32621E-02
         0.34652E-02
         0.34652E-02
         0.37123E-02
         0.37123E-02
         0.37123E-02
         0.37123E-02
         0.36245E-02
         0.36245E-02
         0.28253E-02
         0.28253E-02
         0.29097E-02
         0.29087E-02
         0.32389E-02
         0.32378E-02
         0.32389E-02
         0.32378E-02
         0.31978E-02
         0.31969E-02
         0.29849E-02
         0.29849E-02
         0.32843E-02
         0.32843E-02
         0.32843E-02
         0.32843E-02
         0.42420E-02
         0.35201E-02
         0.37629E-02
         0.42420E-02
         0.37629E-02
         0.37629E-02
         0.30087E-02
         0.32071E-02
         0.42420E-02
         0.32071E-02
         0.24178E-02
         0.29952E-02
         0.32407E-02
         0.26596E-02
         0.27191E-02
         0.42679E-02
         0.36502E-02
         0.42679E-02
         0.32071E-02
         0.29727E-02
         0.34648E-02
         0.32622E-02
         0.37119E-02
         0.32071E-02
         0.30833E-02
         0.35193E-02
         0.26910E-02
         0.26910E-02
         0.24638E-02
         0.27644E-02
         0.42679E-02
         0.35193E-02
         0.42679E-02
         0.34670E-02
         0.27274E-02
         0.31802E-02
         0.32407E-02
         0.26968E-02
         0.27828E-02
         0.27828E-02
         0.27005E-02
         0.31885E-02
         0.31885E-02
         0.37119E-02
         0.36244E-02
         0.28250E-02
         0.31647E-02
         0.33484E-02
         0.33484E-02
         0.31986E-02
         0.29848E-02
         0.32841E-02
         0.27274E-02
         0.31099E-02
         0.31802E-02
         0.32407E-02
         0.32407E-02
         0.29952E-02
         0.27191E-02
         0.26968E-02
         0.27828E-02
         0.27828E-02
         0.27005E-02
         0.31885E-02
         0.31885E-02
         0.32622E-02
         0.34648E-02
         0.37119E-02
         0.37119E-02
         0.36244E-02
         0.28250E-02
         0.29106E-02
         0.32401E-02
         0.32401E-02
         0.31986E-02
         0.29848E-02
         0.32841E-02
         0.32841E-02
         0.42421E-02
         0.35201E-02
         0.37634E-02
         0.42421E-02
         0.37634E-02
         0.37634E-02
         0.30089E-02
         0.32073E-02
         0.42421E-02
         0.32073E-02
         0.24177E-02
         0.29961E-02
         0.32418E-02
         0.26584E-02
         0.27191E-02
         0.42670E-02
         0.36493E-02
         0.42670E-02
         0.32073E-02
         0.29714E-02
         0.34644E-02
         0.32623E-02
         0.37115E-02
         0.32073E-02
         0.30822E-02
         0.35195E-02
         0.26896E-02
         0.26896E-02
         0.24633E-02
         0.27638E-02
         0.42670E-02
         0.35195E-02
         0.42670E-02
         0.34681E-02
         0.27275E-02
         0.31805E-02
         0.32418E-02
         0.26972E-02
         0.27828E-02
         0.27828E-02
         0.27006E-02
         0.31888E-02
         0.31888E-02
         0.37115E-02
         0.36243E-02
         0.28247E-02
         0.31652E-02
         0.33483E-02
         0.33483E-02
         0.31995E-02
         0.29847E-02
         0.32839E-02
         0.27275E-02
         0.31090E-02
         0.31805E-02
         0.32418E-02
         0.32418E-02
         0.29961E-02
         0.27191E-02
         0.26972E-02
         0.27828E-02
         0.27828E-02
         0.27006E-02
         0.31888E-02
         0.31888E-02
         0.32623E-02
         0.34644E-02
         0.37115E-02
         0.37115E-02
         0.36243E-02
         0.28247E-02
         0.29116E-02
         0.32412E-02
         0.32412E-02
         0.31995E-02
         0.29847E-02
         0.32839E-02
         0.32839E-02
         0.42423E-02
         0.35200E-02
         0.37639E-02
         0.42423E-02
         0.37639E-02
         0.37639E-02
         0.30091E-02
         0.32075E-02
         0.42423E-02
         0.32075E-02
         0.24176E-02
         0.29970E-02
         0.32428E-02
         0.26572E-02
         0.27192E-02
         0.42662E-02
         0.36483E-02
         0.42662E-02
         0.32075E-02
         0.29702E-02
         0.34639E-02
         0.32624E-02
         0.37111E-02
         0.32075E-02
         0.30811E-02
         0.35197E-02
         0.26881E-02
         0.26881E-02
         0.24628E-02
         0.27631E-02
         0.42662E-02
         0.35197E-02
         0.42662E-02
         0.34692E-02
         0.27276E-02
         0.31808E-02
         0.32428E-02
         0.26975E-02
         0.27828E-02
         0.27828E-02
         0.27007E-02
         0.31890E-02
         0.31890E-02
         0.37111E-02
         0.36242E-02
         0.28243E-02
         0.31658E-02
         0.33482E-02
         0.33482E-02
         0.32003E-02
         0.29846E-02
         0.32837E-02
         0.27276E-02
         0.31081E-02
         0.31808E-02
         0.32428E-02
         0.32428E-02
         0.29970E-02
         0.27192E-02
         0.26975E-02
         0.27828E-02
         0.27828E-02
         0.27007E-02
         0.31890E-02
         0.31890E-02
         0.32624E-02
         0.34639E-02
         0.37111E-02
         0.37111E-02
         0.36242E-02
         0.28243E-02
         0.29125E-02
         0.32423E-02
         0.32423E-02
         0.32003E-02
         0.29846E-02
         0.32837E-02
         0.32837E-02
         0.42424E-02
         0.35200E-02
         0.37644E-02
         0.42424E-02
         0.37644E-02
         0.37644E-02
         0.30093E-02
         0.32077E-02
         0.42424E-02
         0.32077E-02
         0.24174E-02
         0.29979E-02
         0.32439E-02
         0.26559E-02
         0.27192E-02
         0.42653E-02
         0.36474E-02
         0.42653E-02
         0.32077E-02
         0.29690E-02
         0.34635E-02
         0.32624E-02
         0.37108E-02
         0.32077E-02
         0.30799E-02
         0.35199E-02
         0.26867E-02
         0.26867E-02
         0.24623E-02
         0.27625E-02
         0.42653E-02
         0.35199E-02
         0.42653E-02
         0.34703E-02
         0.27276E-02
         0.31812E-02
         0.32439E-02
         0.26979E-02
         0.27828E-02
         0.27828E-02
         0.27008E-02
         0.31893E-02
         0.31893E-02
         0.37108E-02
         0.36241E-02
         0.28240E-02
         0.31663E-02
         0.33481E-02
         0.33481E-02
         0.32012E-02
         0.29844E-02
         0.32835E-02
         0.27276E-02
         0.31071E-02
         0.31812E-02
         0.32439E-02
         0.32439E-02
         0.29979E-02
         0.27192E-02
         0.26979E-02
         0.27828E-02
         0.27828E-02
         0.27008E-02
         0.31893E-02
         0.31893E-02
         0.32624E-02
         0.34635E-02
         0.37108E-02
         0.37108E-02
         0.36241E-02
         0.28240E-02
         0.29135E-02
         0.32434E-02
         0.32434E-02
         0.32012E-02
         0.29844E-02
         0.32835E-02
         0.32835E-02
         0.42425E-02
         0.35200E-02
         0.37649E-02
         0.42425E-02
         0.37649E-02
         0.37649E-02
         0.30095E-02
         0.32079E-02
         0.42425E-02
         0.32079E-02
         0.24173E-02
         0.29989E-02
         0.32450E-02
         0.26547E-02
         0.27193E-02
         0.42645E-02
         0.36465E-02
         0.42645E-02
         0.32079E-02
         0.29677E-02
         0.34631E-02
         0.32625E-02
         0.37104E-02
         0.32079E-02
         0.30788E-02
         0.35201E-02
         0.26852E-02
         0.26852E-02
         0.24618E-02
         0.27618E-02
         0.42645E-02
         0.35201E-02
         0.42645E-02
         0.34715E-02
         0.27277E-02
         0.31815E-02
         0.32450E-02
         0.26983E-02
         0.27828E-02
         0.27828E-02
         0.27009E-02
         0.31895E-02
         0.31895E-02
         0.37104E-02
         0.36239E-02
         0.28237E-02
         0.31668E-02
         0.33480E-02
         0.33480E-02
         0.32020E-02
         0.29843E-02
         0.32833E-02
         0.27277E-02
         0.31062E-02
         0.31815E-02
         0.32450E-02
         0.32450E-02
         0.29989E-02
         0.27193E-02
         0.26983E-02
         0.27828E-02
         0.27828E-02
         0.27009E-02
         0.31895E-02
         0.31895E-02
         0.32625E-02
         0.34631E-02
         0.37104E-02
         0.37104E-02
         0.36239E-02
         0.28237E-02
         0.29145E-02
         0.32445E-02
         0.32445E-02
         0.32020E-02
         0.29843E-02
         0.32833E-02
         0.32833E-02
         0.42427E-02
         0.35200E-02
         0.37654E-02
         0.42427E-02
         0.37654E-02
         0.37654E-02
         0.30097E-02
         0.32081E-02
         0.42427E-02
         0.32081E-02
         0.24171E-02
         0.29998E-02
         0.32461E-02
         0.26535E-02
         0.27193E-02
         0.42636E-02
         0.36455E-02
         0.42636E-02
         0.32081E-02
         0.29665E-02
         0.34626E-02
         0.32626E-02
         0.37100E-02
         0.32081E-02
         0.30777E-02
         0.35203E-02
         0.26838E-02
         0.26838E-02
         0.24613E-02
         0.27611E-02
         0.42636E-02
         0.35203E-02
         0.42636E-02
         0.34726E-02
         0.27278E-02
         0.31818E-02
         0.32461E-02
         0.26987E-02
         0.27827E-02
         0.27827E-02
         0.27010E-02
         0.31898E-02
         0.31898E-02
         0.37100E-02
         0.36238E-02
         0.28234E-02
         0.31673E-02
         0.33479E-02
         0.33479E-02
         0.32029E-02
         0.29842E-02
         0.32831E-02
         0.27278E-02
         0.31052E-02
         0.31818E-02
         0.32461E-02
         0.32461E-02
         0.29998E-02
         0.27193E-02
         0.26987E-02
         0.27827E-02
         0.27827E-02
         0.27010E-02
         0.31898E-02
         0.31898E-02
         0.32626E-02
         0.34626E-02
         0.37100E-02
         0.37100E-02
         0.36238E-02
         0.28234E-02
         0.29154E-02
         0.32457E-02
         0.32457E-02
         0.32029E-02
         0.29842E-02
         0.32831E-02
         0.32831E-02
         0.42428E-02
         0.35199E-02
         0.37660E-02
         0.42428E-02
         0.37660E-02
         0.37660E-02
         0.30099E-02
         0.32083E-02
         0.42428E-02
         0.32083E-02
         0.24170E-02
         0.30007E-02
         0.32471E-02
         0.26523E-02
         0.27194E-02
         0.42628E-02
         0.36446E-02
         0.42628E-02
         0.32083E-02
         0.29652E-02
         0.34622E-02
         0.32627E-02
         0.37096E-02
         0.32083E-02
         0.30766E-02
         0.35205E-02
         0.26823E-02
         0.26823E-02
         0.24608E-02
         0.27605E-02
         0.42628E-02
         0.35205E-02
         0.42628E-02
         0.34737E-02
         0.27279E-02
         0.31821E-02
         0.32471E-02
         0.26991E-02
         0.27827E-02
         0.27827E-02
         0.27011E-02
         0.31900E-02
         0.31900E-02
         0.37096E-02
         0.36237E-02
         0.28231E-02
         0.31679E-02
         0.33478E-02
         0.33478E-02
         0.32038E-02
         0.29841E-02
         0.32829E-02
         0.27279E-02
         0.31043E-02
         0.31821E-02
         0.32471E-02
         0.32471E-02
         0.30007E-02
         0.27194E-02
         0.26991E-02
         0.27827E-02
         0.27827E-02
         0.27011E-02
         0.31900E-02
         0.31900E-02
         0.32627E-02
         0.34622E-02
         0.37096E-02
         0.37096E-02
         0.36237E-02
         0.28231E-02
         0.29164E-02
         0.32468E-02
         0.32468E-02
         0.32038E-02
         0.29841E-02
         0.32829E-02
         0.32829E-02
         0.42429E-02
         0.35199E-02
         0.37665E-02
         0.42429E-02
         0.37665E-02
         0.37665E-02
         0.30101E-02
         0.32085E-02
         0.42429E-02
         0.32085E-02
         0.24168E-02
         0.30017E-02
         0.32482E-02
         0.26510E-02
         0.27194E-02
         0.42619E-02
         0.36437E-02
         0.42619E-02
         0.32085E-02
         0.29640E-02
         0.34618E-02
         0.32627E-02
         0.37092E-02
         0.32085E-02
         0.30755E-02
         0.35207E-02
         0.26808E-02
         0.26808E-02
         0.24603E-02
         0.27599E-02
         0.42619E-02
         0.35207E-02
         0.42619E-02
         0.34748E-02
         0.27279E-02
         0.31824E-02
         0.32482E-02
         0.26994E-02
         0.27827E-02
         0.27827E-02
         0.27012E-02
         0.31902E-02
         0.31902E-02
         0.37092E-02
         0.36236E-02
         0.28227E-02
         0.31684E-02
         0.33477E-02
         0.33477E-02
         0.32046E-02
         0.29840E-02
         0.32827E-02
         0.27279E-02
         0.31034E-02
         0.31824E-02
         0.32482E-02
         0.32482E-02
         0.30017E-02
         0.27194E-02
         0.26994E-02
         0.27827E-02
         0.27827E-02
         0.27012E-02
         0.31902E-02
         0.31902E-02
         0.32627E-02
         0.34618E-02
         0.37092E-02
         0.37092E-02
         0.36236E-02
         0.28227E-02
         0.29173E-02
         0.32479E-02
         0.32479E-02
         0.32046E-02
         0.29840E-02
         0.32827E-02
         0.32827E-02
         0.42431E-02
         0.35199E-02
         0.37670E-02
         0.42431E-02
         0.37670E-02
         0.37670E-02
         0.30102E-02
         0.32087E-02
         0.42431E-02
         0.32087E-02
         0.24167E-02
         0.30026E-02
         0.32493E-02
         0.26498E-02
         0.27194E-02
         0.42611E-02
         0.36427E-02
         0.42611E-02
         0.32087E-02
         0.29628E-02
         0.34613E-02
         0.32628E-02
         0.37089E-02
         0.32087E-02
         0.30744E-02
         0.35209E-02
         0.26794E-02
         0.26794E-02
         0.24598E-02
         0.27592E-02
         0.42611E-02
         0.35209E-02
         0.42611E-02
         0.34759E-02
         0.27280E-02
         0.31827E-02
         0.32493E-02
         0.26998E-02
         0.27827E-02
         0.27827E-02
         0.27013E-02
         0.31905E-02
         0.31905E-02
         0.37089E-02
         0.36235E-02
         0.28224E-02
         0.31689E-02
         0.33476E-02
         0.33476E-02
         0.32055E-02
         0.29839E-02
         0.32825E-02
         0.27280E-02
         0.31024E-02
         0.31827E-02
         0.32493E-02
         0.32493E-02
         0.30026E-02
         0.27194E-02
         0.26998E-02
         0.27827E-02
         0.27827E-02
         0.27013E-02
         0.31905E-02
         0.31905E-02
         0.32628E-02
         0.34613E-02
         0.37089E-02
         0.37089E-02
         0.36235E-02
         0.28224E-02
         0.29183E-02
         0.32490E-02
         0.32490E-02
         0.32055E-02
         0.29839E-02
         0.32825E-02
         0.32825E-02
         0.42432E-02
         0.35199E-02
         0.37675E-02
         0.42432E-02
         0.37675E-02
         0.37675E-02
         0.30104E-02
         0.32089E-02
         0.42432E-02
         0.32089E-02
         0.24166E-02
         0.30035E-02
         0.32504E-02
         0.26486E-02
         0.27195E-02
         0.42603E-02
         0.36418E-02
         0.42603E-02
         0.32089E-02
         0.29615E-02
         0.34609E-02
         0.32629E-02
         0.37085E-02
         0.32089E-02
         0.30732E-02
         0.35211E-02
         0.26779E-02
         0.26779E-02
         0.24593E-02
         0.27585E-02
         0.42603E-02
         0.35211E-02
         0.42603E-02
         0.34771E-02
         0.27281E-02
         0.31830E-02
         0.32504E-02
         0.27002E-02
         0.27827E-02
         0.27827E-02
         0.27014E-02
         0.31907E-02
         0.31907E-02
         0.37085E-02
         0.36233E-02
         0.28221E-02
         0.31694E-02
         0.33475E-02
         0.33475E-02
         0.32063E-02
         0.29838E-02
         0.32823E-02
         0.27281E-02
         0.31015E-02
         0.31830E-02
         0.32504E-02
         0.32504E-02
         0.30035E-02
         0.27195E-02
         0.27002E-02
         0.27827E-02
         0.27827E-02
         0.27014E-02
         0.31907E-02
         0.31907E-02
         0.32629E-02
         0.34609E-02
         0.37085E-02
         0.37085E-02
         0.36233E-02
         0.28221E-02
         0.29193E-02
         0.32501E-02
         0.32501E-02
         0.32063E-02
         0.29838E-02
         0.32823E-02
         0.32823E-02
         0.42433E-02
         0.35199E-02
         0.37680E-02
         0.42433E-02
         0.37680E-02
         0.37680E-02
         0.30106E-02
         0.32091E-02
         0.42433E-02
         0.32091E-02
         0.24164E-02
         0.30045E-02
         0.32514E-02
         0.26474E-02
         0.27195E-02
         0.42594E-02
         0.36409E-02
         0.42594E-02
         0.32091E-02
         0.29603E-02
         0.34605E-02
         0.32630E-02
         0.37081E-02
         0.32091E-02
         0.30721E-02
         0.35213E-02
         0.26765E-02
         0.26765E-02
         0.24588E-02
         0.27579E-02
         0.42594E-02
         0.35213E-02
         0.42594E-02
         0.34782E-02
         0.27281E-02
         0.31833E-02
         0.32514E-02
         0.27006E-02
         0.27826E-02
         0.27826E-02
         0.27015E-02
         0.31910E-02
         0.31910E-02
         0.37081E-02
         0.36232E-02
         0.28218E-02
         0.31700E-02
         0.33474E-02
         0.33474E-02
         0.32072E-02
         0.29836E-02
         0.32821E-02
         0.27281E-02
         0.31005E-02
         0.31833E-02
         0.32514E-02
         0.32514E-02
         0.30045E-02
         0.27195E-02
         0.27006E-02
         0.27826E-02
         0.27826E-02
         0.27015E-02
         0.31910E-02
         0.31910E-02
         0.32630E-02
         0.34605E-02
         0.37081E-02
         0.37081E-02
         0.36232E-02
         0.28218E-02
         0.29202E-02
         0.32512E-02
         0.32512E-02
         0.32072E-02
         0.29836E-02
         0.32821E-02
         0.32821E-02
         0.42435E-02
         0.35199E-02
         0.37685E-02
         0.42435E-02
         0.37685E-02
         0.37685E-02
         0.30108E-02
         0.32093E-02
         0.42435E-02
         0.32093E-02
         0.24163E-02
         0.30054E-02
         0.32525E-02
         0.26461E-02
         0.27196E-02
         0.42586E-02
         0.36399E-02
         0.42586E-02
         0.32093E-02
         0.29591E-02
         0.34601E-02
         0.32630E-02
         0.37077E-02
         0.32093E-02
         0.30710E-02
         0.35215E-02
         0.26750E-02
         0.26750E-02
         0.24583E-02
         0.27572E-02
         0.42586E-02
         0.35215E-02
         0.42586E-02
         0.34793E-02
         0.27282E-02
         0.31836E-02
         0.32525E-02
         0.27010E-02
         0.27826E-02
         0.27826E-02
         0.27016E-02
         0.31912E-02
         0.31912E-02
         0.37077E-02
         0.36231E-02
         0.28215E-02
         0.31705E-02
         0.33473E-02
         0.33473E-02
         0.32080E-02
         0.29835E-02
         0.32819E-02
         0.27282E-02
         0.30996E-02
         0.31836E-02
         0.32525E-02
         0.32525E-02
         0.30054E-02
         0.27196E-02
         0.27010E-02
         0.27826E-02
         0.27826E-02
         0.27016E-02
         0.31912E-02
         0.31912E-02
         0.32630E-02
         0.34601E-02
         0.37077E-02
         0.37077E-02
         0.36231E-02
         0.28215E-02
         0.29212E-02
         0.32524E-02
         0.32524E-02
         0.32080E-02
         0.29835E-02
         0.32819E-02
         0.32819E-02
         0.42436E-02
         0.35198E-02
         0.37690E-02
         0.42436E-02
         0.37690E-02
         0.37690E-02
         0.30110E-02
         0.32095E-02
         0.42436E-02
         0.32095E-02
         0.24162E-02
         0.30064E-02
         0.32536E-02
         0.26449E-02
         0.27196E-02
         0.42577E-02
         0.36390E-02
         0.42577E-02
         0.32096E-02
         0.29578E-02
         0.34596E-02
         0.32631E-02
         0.37074E-02
         0.32096E-02
         0.30699E-02
         0.35217E-02
         0.26735E-02
         0.26735E-02
         0.24578E-02
         0.27566E-02
         0.42577E-02
         0.35217E-02
         0.42577E-02
         0.34804E-02
         0.27283E-02
         0.31839E-02
         0.32536E-02
         0.27013E-02
         0.27826E-02
         0.27826E-02
         0.27017E-02
         0.31915E-02
         0.31915E-02
         0.37074E-02
         0.36230E-02
         0.28211E-02
         0.31710E-02
         0.33472E-02
         0.33472E-02
         0.32089E-02
         0.29834E-02
         0.32817E-02
         0.27283E-02
         0.30986E-02
         0.31839E-02
         0.32536E-02
         0.32536E-02
         0.30064E-02
         0.27196E-02
         0.27013E-02
         0.27826E-02
         0.27826E-02
         0.27017E-02
         0.31915E-02
         0.31915E-02
         0.32631E-02
         0.34596E-02
         0.37074E-02
         0.37074E-02
         0.36230E-02
         0.28211E-02
         0.29221E-02
         0.32535E-02
         0.32535E-02
         0.32089E-02
         0.29834E-02
         0.32817E-02
         0.32817E-02
         0.42437E-02
         0.35198E-02
         0.37695E-02
         0.42437E-02
         0.37695E-02
         0.37695E-02
         0.30112E-02
         0.32097E-02
         0.42437E-02
         0.32097E-02
         0.24160E-02
         0.30073E-02
         0.32547E-02
         0.26437E-02
         0.27197E-02
         0.42569E-02
         0.36381E-02
         0.42569E-02
         0.32098E-02
         0.29566E-02
         0.34592E-02
         0.32632E-02
         0.37070E-02
         0.32098E-02
         0.30688E-02
         0.35219E-02
         0.26721E-02
         0.26721E-02
         0.24573E-02
         0.27560E-02
         0.42569E-02
         0.35219E-02
         0.42569E-02
         0.34815E-02
         0.27284E-02
         0.31843E-02
         0.32547E-02
         0.27017E-02
         0.27826E-02
         0.27826E-02
         0.27018E-02
         0.31917E-02
         0.31917E-02
         0.37070E-02
         0.36229E-02
         0.28208E-02
         0.31716E-02
         0.33471E-02
         0.33471E-02
         0.32097E-02
         0.29833E-02
         0.32815E-02
         0.27284E-02
         0.30977E-02
         0.31843E-02
         0.32547E-02
         0.32547E-02
         0.30073E-02
         0.27197E-02
         0.27017E-02
         0.27826E-02
         0.27826E-02
         0.27018E-02
         0.31917E-02
         0.31917E-02
         0.32632E-02
         0.34592E-02
         0.37070E-02
         0.37070E-02
         0.36229E-02
         0.28208E-02
         0.29231E-02
         0.32546E-02
         0.32546E-02
         0.32097E-02
         0.29833E-02
         0.32815E-02
         0.32815E-02
         0.42439E-02
         0.35198E-02
         0.37701E-02
         0.42439E-02
         0.37701E-02
         0.37701E-02
         0.30113E-02
         0.32099E-02
         0.42439E-02
         0.32099E-02
         0.24159E-02
         0.30082E-02
         0.32558E-02
         0.26425E-02
         0.27197E-02
         0.42560E-02
         0.36371E-02
         0.42560E-02
         0.32100E-02
         0.29554E-02
         0.34588E-02
         0.32633E-02
         0.37066E-02
         0.32100E-02
         0.30677E-02
         0.35221E-02
         0.26706E-02
         0.26706E-02
         0.24568E-02
         0.27553E-02
         0.42560E-02
         0.35221E-02
         0.42560E-02
         0.34827E-02
         0.27284E-02
         0.31846E-02
         0.32558E-02
         0.27021E-02
         0.27826E-02
         0.27826E-02
         0.27019E-02
         0.31920E-02
         0.31920E-02
         0.37066E-02
         0.36227E-02
         0.28205E-02
         0.31721E-02
         0.33470E-02
         0.33470E-02
         0.32106E-02
         0.29831E-02
         0.32813E-02
         0.27284E-02
         0.30968E-02
         0.31846E-02
         0.32558E-02
         0.32558E-02
         0.30082E-02
         0.27197E-02
         0.27021E-02
         0.27826E-02
         0.27826E-02
         0.27019E-02
         0.31920E-02
         0.31920E-02
         0.32633E-02
         0.34588E-02
         0.37066E-02
         0.37066E-02
         0.36227E-02
         0.28205E-02
         0.29241E-02
         0.32557E-02
         0.32557E-02
         0.32106E-02
         0.29831E-02
         0.32813E-02
         0.32813E-02
         0.42440E-02
         0.35198E-02
         0.37706E-02
         0.42440E-02
         0.37706E-02
         0.37706E-02
         0.30115E-02
         0.32101E-02
         0.42440E-02
         0.32101E-02
         0.24158E-02
         0.30091E-02
         0.32568E-02
         0.26412E-02
         0.27198E-02
         0.42552E-02
         0.36362E-02
         0.42552E-02
         0.32102E-02
         0.29541E-02
         0.34583E-02
         0.32633E-02
         0.37062E-02
         0.32102E-02
         0.30665E-02
         0.35223E-02
         0.26692E-02
         0.26692E-02
         0.24563E-02
         0.27546E-02
         0.42552E-02
         0.35223E-02
         0.42552E-02
         0.34838E-02
         0.27285E-02
         0.31849E-02
         0.32568E-02
         0.27025E-02
         0.27826E-02
         0.27826E-02
         0.27020E-02
         0.31922E-02
         0.31922E-02
         0.37062E-02
         0.36226E-02
         0.28202E-02
         0.31726E-02
         0.33469E-02
         0.33469E-02
         0.32114E-02
         0.29830E-02
         0.32811E-02
         0.27285E-02
         0.30958E-02
         0.31849E-02
         0.32568E-02
         0.32568E-02
         0.30091E-02
         0.27198E-02
         0.27025E-02
         0.27826E-02
         0.27826E-02
         0.27020E-02
         0.31922E-02
         0.31922E-02
         0.32633E-02
         0.34583E-02
         0.37062E-02
         0.37062E-02
         0.36226E-02
         0.28202E-02
         0.29250E-02
         0.32568E-02
         0.32568E-02
         0.32114E-02
         0.29830E-02
         0.32811E-02
         0.32811E-02
         0.42441E-02
         0.35198E-02
         0.37711E-02
         0.42441E-02
         0.37711E-02
         0.37711E-02
         0.30117E-02
         0.32103E-02
         0.42441E-02
         0.32103E-02
         0.24156E-02
         0.30101E-02
         0.32579E-02
         0.26400E-02
         0.27198E-02
         0.42543E-02
         0.36353E-02
         0.42543E-02
         0.32104E-02
         0.29529E-02
         0.34579E-02
         0.32634E-02
         0.37058E-02
         0.32104E-02
         0.30654E-02
         0.35225E-02
         0.26677E-02
         0.26677E-02
         0.24558E-02
         0.27540E-02
         0.42543E-02
         0.35225E-02
         0.42543E-02
         0.34849E-02
         0.27286E-02
         0.31852E-02
         0.32579E-02
         0.27029E-02
         0.27826E-02
         0.27826E-02
         0.27021E-02
         0.31924E-02
         0.31924E-02
         0.37058E-02
         0.36225E-02
         0.28198E-02
         0.31731E-02
         0.33468E-02
         0.33468E-02
         0.32123E-02
         0.29829E-02
         0.32809E-02
         0.27286E-02
         0.30949E-02
         0.31852E-02
         0.32579E-02
         0.32579E-02
         0.30101E-02
         0.27198E-02
         0.27029E-02
         0.27826E-02
         0.27826E-02
         0.27021E-02
         0.31924E-02
         0.31924E-02
         0.32634E-02
         0.34579E-02
         0.37058E-02
         0.37058E-02
         0.36225E-02
         0.28198E-02
         0.29260E-02
         0.32579E-02
         0.32579E-02
         0.32123E-02
         0.29829E-02
         0.32809E-02
         0.32809E-02
         0.42443E-02
         0.35197E-02
         0.37716E-02
         0.42443E-02
         0.37716E-02
         0.37716E-02
         0.30119E-02
         0.32105E-02
         0.42443E-02
         0.32105E-02
         0.24155E-02
         0.30110E-02
         0.32590E-02
         0.26388E-02
         0.27199E-02
         0.42535E-02
         0.36343E-02
         0.42535E-02
         0.32106E-02
         0.29517E-02
         0.34575E-02
         0.32635E-02
         0.37055E-02
         0.32106E-02
         0.30643E-02
         0.35227E-02
         0.26663E-02
         0.26663E-02
         0.24553E-02
         0.27533E-02
         0.42535E-02
         0.35227E-02
         0.42535E-02
         0.34860E-02
         0.27286E-02
         0.31855E-02
         0.32590E-02
         0.27032E-02
         0.27826E-02
         0.27826E-02
         0.27022E-02
         0.31927E-02
         0.31927E-02
         0.37055E-02
         0.36224E-02
         0.28195E-02
         0.31737E-02
         0.33467E-02
         0.33467E-02
         0.32132E-02
         0.29828E-02
         0.32807E-02
         0.27286E-02
         0.30939E-02
         0.31855E-02
         0.32590E-02
         0.32590E-02
         0.30110E-02
         0.27199E-02
         0.27032E-02
         0.27826E-02
         0.27826E-02
         0.27022E-02
         0.31927E-02
         0.31927E-02
         0.32635E-02
         0.34575E-02
         0.37055E-02
         0.37055E-02
         0.36224E-02
         0.28195E-02
         0.29269E-02
         0.32591E-02
         0.32591E-02
         0.32132E-02
         0.29828E-02
         0.32807E-02
         0.32807E-02
         0.42444E-02
         0.35197E-02
         0.37721E-02
         0.42444E-02
         0.37721E-02
         0.37721E-02
         0.30121E-02
         0.32107E-02
         0.42444E-02
         0.32107E-02
         0.24154E-02
         0.30119E-02
         0.32601E-02
         0.26376E-02
         0.27199E-02
         0.42527E-02
         0.36334E-02
         0.42527E-02
         0.32108E-02
         0.29504E-02
         0.34571E-02
         0.32636E-02
         0.37051E-02
         0.32108E-02
         0.30632E-02
         0.35229E-02
         0.26648E-02
         0.26648E-02
         0.24552E-02
         0.27527E-02
         0.42527E-02
         0.35229E-02
         0.42527E-02
         0.34871E-02
         0.27287E-02
         0.31858E-02
         0.32601E-02
         0.27036E-02
         0.27825E-02
         0.27825E-02
         0.27023E-02
         0.31929E-02
         0.31929E-02
         0.37051E-02
         0.36223E-02
         0.28192E-02
         0.31742E-02
         0.33466E-02
         0.33466E-02
         0.32140E-02
         0.29827E-02
         0.32805E-02
         0.27287E-02
         0.30930E-02
         0.31858E-02
         0.32601E-02
         0.32601E-02
         0.30119E-02
         0.27199E-02
         0.27036E-02
         0.27825E-02
         0.27825E-02
         0.27023E-02
         0.31929E-02
         0.31929E-02
         0.32636E-02
         0.34571E-02
         0.37051E-02
         0.37051E-02
         0.36223E-02
         0.28192E-02
         0.29279E-02
         0.32602E-02
         0.32602E-02
         0.32140E-02
         0.29827E-02
         0.32805E-02
         0.32805E-02
         0.42445E-02
         0.35197E-02
         0.37726E-02
         0.42445E-02
         0.37726E-02
         0.37726E-02
         0.30123E-02
         0.32108E-02
         0.42445E-02
         0.32108E-02
         0.24152E-02
         0.30129E-02
         0.32611E-02
         0.26363E-02
         0.27200E-02
         0.42518E-02
         0.36325E-02
         0.42518E-02
         0.32110E-02
         0.29492E-02
         0.34566E-02
         0.32636E-02
         0.37047E-02
         0.32110E-02
         0.30621E-02
         0.35231E-02
         0.26633E-02
         0.26633E-02
         0.24554E-02
         0.27520E-02
         0.42518E-02
         0.35231E-02
         0.42518E-02
         0.34882E-02
         0.27288E-02
         0.31861E-02
         0.32611E-02
         0.27040E-02
         0.27825E-02
         0.27825E-02
         0.27024E-02
         0.31932E-02
         0.31932E-02
         0.37047E-02
         0.36222E-02
         0.28189E-02
         0.31747E-02
         0.33465E-02
         0.33465E-02
         0.32149E-02
         0.29826E-02
         0.32803E-02
         0.27288E-02
         0.30921E-02
         0.31861E-02
         0.32611E-02
         0.32611E-02
         0.30129E-02
         0.27200E-02
         0.27040E-02
         0.27825E-02
         0.27825E-02
         0.27024E-02
         0.31932E-02
         0.31932E-02
         0.32636E-02
         0.34566E-02
         0.37047E-02
         0.37047E-02
         0.36222E-02
         0.28189E-02
         0.29289E-02
         0.32613E-02
         0.32613E-02
         0.32149E-02
         0.29826E-02
         0.32803E-02
         0.32803E-02
         0.42447E-02
         0.35196E-02
         0.37732E-02
         0.42447E-02
         0.37732E-02
         0.37732E-02
         0.30125E-02
         0.32111E-02
         0.42447E-02
         0.32111E-02
         0.24151E-02
         0.30138E-02
         0.32622E-02
         0.26351E-02
         0.27200E-02
         0.42510E-02
         0.36315E-02
         0.42510E-02
         0.32112E-02
         0.29480E-02
         0.34562E-02
         0.32637E-02
         0.37043E-02
         0.32112E-02
         0.30610E-02
         0.35233E-02
         0.26619E-02
         0.26619E-02
         0.24557E-02
         0.27514E-02
         0.42510E-02
         0.35233E-02
         0.42510E-02
         0.34894E-02
         0.27289E-02
         0.31864E-02
         0.32622E-02
         0.27044E-02
         0.27825E-02
         0.27825E-02
         0.27025E-02
         0.31934E-02
         0.31934E-02
         0.37043E-02
         0.36220E-02
         0.28186E-02
         0.31753E-02
         0.33464E-02
         0.33464E-02
         0.32157E-02
         0.29824E-02
         0.32801E-02
         0.27289E-02
         0.30911E-02
         0.31864E-02
         0.32622E-02
         0.32622E-02
         0.30138E-02
         0.27200E-02
         0.27044E-02
         0.27825E-02
         0.27825E-02
         0.27025E-02
         0.31934E-02
         0.31934E-02
         0.32637E-02
         0.34562E-02
         0.37043E-02
         0.37043E-02
         0.36220E-02
         0.28186E-02
         0.29298E-02
         0.32624E-02
         0.32624E-02
         0.32157E-02
         0.29824E-02
         0.32801E-02
         0.32801E-02
         0.42448E-02
         0.35196E-02
         0.37737E-02
         0.42448E-02
         0.37737E-02
         0.37737E-02
         0.30126E-02
         0.32112E-02
         0.42448E-02
         0.32112E-02
         0.24150E-02
         0.30147E-02
         0.32633E-02
         0.26339E-02
         0.27200E-02
         0.42501E-02
         0.36306E-02
         0.42501E-02
         0.32114E-02
         0.29467E-02
         0.34558E-02
         0.32638E-02
         0.37039E-02
         0.32114E-02
         0.30598E-02
         0.35235E-02
         0.26604E-02
         0.26604E-02
         0.24559E-02
         0.27507E-02
         0.42501E-02
         0.35235E-02
         0.42501E-02
         0.34905E-02
         0.27289E-02
         0.31867E-02
         0.32633E-02
         0.27048E-02
         0.27825E-02
         0.27825E-02
         0.27026E-02
         0.31937E-02
         0.31937E-02
         0.37039E-02
         0.36219E-02
         0.28183E-02
         0.31758E-02
         0.33463E-02
         0.33463E-02
         0.32166E-02
         0.29823E-02
         0.32799E-02
         0.27289E-02
         0.30902E-02
         0.31867E-02
         0.32633E-02
         0.32633E-02
         0.30147E-02
         0.27200E-02
         0.27048E-02
         0.27825E-02
         0.27825E-02
         0.27026E-02
         0.31937E-02
         0.31937E-02
         0.32638E-02
         0.34558E-02
         0.37039E-02
         0.37039E-02
         0.36219E-02
         0.28183E-02
         0.29308E-02
         0.32635E-02
         0.32635E-02
         0.32166E-02
         0.29823E-02
         0.32799E-02
         0.32799E-02
         0.42448E-02
         0.35196E-02
         0.37737E-02
         0.42448E-02
         0.37737E-02
         0.37737E-02
         0.30126E-02
         0.32112E-02
         0.42448E-02
         0.32112E-02
         0.24148E-02
         0.30147E-02
         0.32633E-02
         0.26327E-02
         0.27200E-02
         0.42493E-02
         0.36297E-02
         0.42493E-02
         0.32114E-02
         0.29455E-02
         0.34553E-02
         0.32638E-02
         0.37036E-02
         0.32114E-02
         0.30587E-02
         0.35235E-02
         0.26590E-02
         0.26590E-02
         0.24559E-02
         0.27501E-02
         0.42493E-02
         0.35235E-02
         0.42493E-02
         0.34905E-02
         0.27289E-02
         0.31867E-02
         0.32633E-02
         0.27048E-02
         0.27825E-02
         0.27825E-02
         0.27026E-02
         0.31937E-02
         0.31937E-02
         0.37036E-02
         0.36218E-02
         0.28180E-02
         0.31758E-02
         0.33462E-02
         0.33462E-02
         0.32166E-02
         0.29822E-02
         0.32797E-02
         0.27289E-02
         0.30892E-02
         0.31867E-02
         0.32633E-02
         0.32633E-02
         0.30147E-02
         0.27200E-02
         0.27048E-02
         0.27825E-02
         0.27825E-02
         0.27026E-02
         0.31937E-02
         0.31937E-02
         0.32638E-02
         0.34553E-02
         0.37036E-02
         0.37036E-02
         0.36218E-02
         0.28180E-02
         0.29308E-02
         0.32635E-02
         0.32635E-02
         0.32166E-02
         0.29822E-02
         0.32797E-02
         0.32797E-02
  
SCALARS              physical_window_y  double 1
LOOKUP_TABLE default
         0.43155E-02
         0.43155E-02
         0.43155E-02
         0.43155E-02
         0.43155E-02
         0.43155E-02
         0.43155E-02
         0.43155E-02
         0.34883E-02
         0.34883E-02
         0.34882E-02
         0.34882E-02
         0.32826E-02
         0.32142E-02
         0.32826E-02
         0.32142E-02
         0.37863E-02
         0.31884E-02
         0.37863E-02
         0.31884E-02
         0.27172E-02
         0.33887E-02
         0.37164E-02
         0.27172E-02
         0.33887E-02
         0.37164E-02
         0.27582E-02
         0.28966E-02
         0.27582E-02
         0.28954E-02
         0.37007E-02
         0.35859E-02
         0.37863E-02
         0.37007E-02
         0.35824E-02
         0.37863E-02
         0.29875E-02
         0.29875E-02
         0.29867E-02
         0.29867E-02
         0.28561E-02
         0.26860E-02
         0.28556E-02
         0.26852E-02
         0.29518E-02
         0.28068E-02
         0.29517E-02
         0.28066E-02
         0.29975E-02
         0.29949E-02
         0.37007E-02
         0.37007E-02
         0.28693E-02
         0.28693E-02
         0.28693E-02
         0.28693E-02
         0.27602E-02
         0.26193E-02
         0.27602E-02
         0.26193E-02
         0.37007E-02
         0.37007E-02
         0.37007E-02
         0.37007E-02
         0.37685E-02
         0.37665E-02
         0.37685E-02
         0.37665E-02
         0.30230E-02
         0.37003E-02
         0.30229E-02
         0.37003E-02
         0.37164E-02
         0.37164E-02
         0.31934E-02
         0.31921E-02
         0.32777E-02
         0.32771E-02
         0.32777E-02
         0.32771E-02
         0.27006E-02
         0.25920E-02
         0.27006E-02
         0.25920E-02
         0.25916E-02
         0.25916E-02
         0.29715E-02
         0.29715E-02
         0.29715E-02
         0.29715E-02
         0.26477E-02
         0.29102E-02
         0.26477E-02
         0.29102E-02
         0.34085E-02
         0.34085E-02
         0.35350E-02
         0.35350E-02
         0.35350E-02
         0.35350E-02
         0.29766E-02
         0.32272E-02
         0.29763E-02
         0.32254E-02
         0.29087E-02
         0.29835E-02
         0.29087E-02
         0.29825E-02
         0.37003E-02
         0.37003E-02
         0.37164E-02
         0.37164E-02
         0.37164E-02
         0.37164E-02
         0.33887E-02
         0.33887E-02
         0.28966E-02
         0.28954E-02
         0.31934E-02
         0.31921E-02
         0.32777E-02
         0.32771E-02
         0.32777E-02
         0.32771E-02
         0.27006E-02
         0.27006E-02
         0.25920E-02
         0.25920E-02
         0.25916E-02
         0.25916E-02
         0.26860E-02
         0.26852E-02
         0.28561E-02
         0.28556E-02
         0.29518E-02
         0.29517E-02
         0.29715E-02
         0.29715E-02
         0.29715E-02
         0.29715E-02
         0.26477E-02
         0.26477E-02
         0.27685E-02
         0.27685E-02
         0.34085E-02
         0.34085E-02
         0.35350E-02
         0.35350E-02
         0.35350E-02
         0.35350E-02
         0.29766E-02
         0.29763E-02
         0.31381E-02
         0.31368E-02
         0.31381E-02
         0.31368E-02
         0.43153E-02
         0.43153E-02
         0.43153E-02
         0.43153E-02
         0.34883E-02
         0.34883E-02
         0.32812E-02
         0.32132E-02
         0.37858E-02
         0.31880E-02
         0.27155E-02
         0.33883E-02
         0.37163E-02
         0.27535E-02
         0.28978E-02
         0.37004E-02
         0.35894E-02
         0.37858E-02
         0.29882E-02
         0.29882E-02
         0.28566E-02
         0.26867E-02
         0.29519E-02
         0.28071E-02
         0.30001E-02
         0.37004E-02
         0.28667E-02
         0.28667E-02
         0.27589E-02
         0.26183E-02
         0.37004E-02
         0.37004E-02
         0.37706E-02
         0.37706E-02
         0.30232E-02
         0.36991E-02
         0.37163E-02
         0.31947E-02
         0.32784E-02
         0.32784E-02
         0.27006E-02
         0.25920E-02
         0.25909E-02
         0.29715E-02
         0.29715E-02
         0.26476E-02
         0.29101E-02
         0.34078E-02
         0.35344E-02
         0.35344E-02
         0.29769E-02
         0.32290E-02
         0.29059E-02
         0.29845E-02
         0.36991E-02
         0.37163E-02
         0.37163E-02
         0.33883E-02
         0.28978E-02
         0.31947E-02
         0.32784E-02
         0.32784E-02
         0.27006E-02
         0.25920E-02
         0.25909E-02
         0.26867E-02
         0.28566E-02
         0.29519E-02
         0.29715E-02
         0.29715E-02
         0.26476E-02
         0.27685E-02
         0.34078E-02
         0.35344E-02
         0.35344E-02
         0.29769E-02
         0.31395E-02
         0.31395E-02
         0.43150E-02
         0.43150E-02
         0.43150E-02
         0.43150E-02
         0.34884E-02
         0.34884E-02
         0.32798E-02
         0.32122E-02
         0.37853E-02
         0.31876E-02
         0.27137E-02
         0.33879E-02
         0.37162E-02
         0.27488E-02
         0.28990E-02
         0.37001E-02
         0.35930E-02
         0.37853E-02
         0.29889E-02
         0.29889E-02
         0.28571E-02
         0.26875E-02
         0.29521E-02
         0.28074E-02
         0.30027E-02
         0.37001E-02
         0.28641E-02
         0.28641E-02
         0.27576E-02
         0.26173E-02
         0.37001E-02
         0.37001E-02
         0.37727E-02
         0.37727E-02
         0.30234E-02
         0.36979E-02
         0.37162E-02
         0.31960E-02
         0.32790E-02
         0.32790E-02
         0.27006E-02
         0.25920E-02
         0.25902E-02
         0.29715E-02
         0.29715E-02
         0.26476E-02
         0.29100E-02
         0.34071E-02
         0.35339E-02
         0.35339E-02
         0.29772E-02
         0.32307E-02
         0.29032E-02
         0.29855E-02
         0.36979E-02
         0.37162E-02
         0.37162E-02
         0.33879E-02
         0.28990E-02
         0.31960E-02
         0.32790E-02
         0.32790E-02
         0.27006E-02
         0.25920E-02
         0.25902E-02
         0.26875E-02
         0.28571E-02
         0.29521E-02
         0.29715E-02
         0.29715E-02
         0.26476E-02
         0.27684E-02
         0.34071E-02
         0.35339E-02
         0.35339E-02
         0.29772E-02
         0.31408E-02
         0.31408E-02
         0.43148E-02
         0.43148E-02
         0.43148E-02
         0.43148E-02
         0.34885E-02
         0.34885E-02
         0.32783E-02
         0.32112E-02
         0.37849E-02
         0.31872E-02
         0.27120E-02
         0.33875E-02
         0.37161E-02
         0.27441E-02
         0.29003E-02
         0.36998E-02
         0.35965E-02
         0.37849E-02
         0.29896E-02
         0.29896E-02
         0.28575E-02
         0.26882E-02
         0.29522E-02
         0.28077E-02
         0.30053E-02
         0.36998E-02
         0.28615E-02
         0.28615E-02
         0.27563E-02
         0.26163E-02
         0.36998E-02
         0.36998E-02
         0.37747E-02
         0.37747E-02
         0.30236E-02
         0.36967E-02
         0.37161E-02
         0.31973E-02
         0.32796E-02
         0.32796E-02
         0.27006E-02
         0.25920E-02
         0.25895E-02
         0.29714E-02
         0.29714E-02
         0.26475E-02
         0.29099E-02
         0.34063E-02
         0.35333E-02
         0.35333E-02
         0.29775E-02
         0.32325E-02
         0.29004E-02
         0.29865E-02
         0.36967E-02
         0.37161E-02
         0.37161E-02
         0.33875E-02
         0.29003E-02
         0.31973E-02
         0.32796E-02
         0.32796E-02
         0.27006E-02
         0.25920E-02
         0.25895E-02
         0.26882E-02
         0.28575E-02
         0.29522E-02
         0.29714E-02
         0.29714E-02
         0.26475E-02
         0.27684E-02
         0.34063E-02
         0.35333E-02
         0.35333E-02
         0.29775E-02
         0.31422E-02
         0.31422E-02
         0.43145E-02
         0.43145E-02
         0.43145E-02
         0.43145E-02
         0.34886E-02
         0.34886E-02
         0.32769E-02
         0.32102E-02
         0.37844E-02
         0.31868E-02
         0.27103E-02
         0.33871E-02
         0.37160E-02
         0.27394E-02
         0.29015E-02
         0.36995E-02
         0.36000E-02
         0.37844E-02
         0.29903E-02
         0.29903E-02
         0.28580E-02
         0.26890E-02
         0.29523E-02
         0.28079E-02
         0.30079E-02
         0.36995E-02
         0.28589E-02
         0.28589E-02
         0.27550E-02
         0.26152E-02
         0.36995E-02
         0.36995E-02
         0.37768E-02
         0.37768E-02
         0.30238E-02
         0.36956E-02
         0.37160E-02
         0.31986E-02
         0.32802E-02
         0.32802E-02
         0.27006E-02
         0.25920E-02
         0.25887E-02
         0.29714E-02
         0.29714E-02
         0.26475E-02
         0.29098E-02
         0.34056E-02
         0.35327E-02
         0.35327E-02
         0.29778E-02
         0.32342E-02
         0.28977E-02
         0.29875E-02
         0.36956E-02
         0.37160E-02
         0.37160E-02
         0.33871E-02
         0.29015E-02
         0.31986E-02
         0.32802E-02
         0.32802E-02
         0.27006E-02
         0.25920E-02
         0.25887E-02
         0.26890E-02
         0.28580E-02
         0.29523E-02
         0.29714E-02
         0.29714E-02
         0.26475E-02
         0.27683E-02
         0.34056E-02
         0.35327E-02
         0.35327E-02
         0.29778E-02
         0.31435E-02
         0.31435E-02
         0.43143E-02
         0.43143E-02
         0.43143E-02
         0.43143E-02
         0.34887E-02
         0.34887E-02
         0.32755E-02
         0.32091E-02
         0.37839E-02
         0.31864E-02
         0.27086E-02
         0.33867E-02
         0.37159E-02
         0.27347E-02
         0.29027E-02
         0.36991E-02
         0.36036E-02
         0.37839E-02
         0.29920E-02
         0.29920E-02
         0.28585E-02
         0.26897E-02
         0.29525E-02
         0.28082E-02
         0.30105E-02
         0.36991E-02
         0.28563E-02
         0.28563E-02
         0.27537E-02
         0.26142E-02
         0.36991E-02
         0.36991E-02
         0.37789E-02
         0.37789E-02
         0.30240E-02
         0.36944E-02
         0.37159E-02
         0.31999E-02
         0.32808E-02
         0.32808E-02
         0.27006E-02
         0.25920E-02
         0.25880E-02
         0.29714E-02
         0.29714E-02
         0.26474E-02
         0.29097E-02
         0.34049E-02
         0.35322E-02
         0.35322E-02
         0.29781E-02
         0.32360E-02
         0.28949E-02
         0.29885E-02
         0.36944E-02
         0.37159E-02
         0.37159E-02
         0.33867E-02
         0.29027E-02
         0.31999E-02
         0.32808E-02
         0.32808E-02
         0.27006E-02
         0.25920E-02
         0.25880E-02
         0.26897E-02
         0.28585E-02
         0.29525E-02
         0.29714E-02
         0.29714E-02
         0.26474E-02
         0.27683E-02
         0.34049E-02
         0.35322E-02
         0.35322E-02
         0.29781E-02
         0.31449E-02
         0.31449E-02
         0.43140E-02
         0.43140E-02
         0.43140E-02
         0.43140E-02
         0.34888E-02
         0.34888E-02
         0.32740E-02
         0.32081E-02
         0.37834E-02
         0.31860E-02
         0.27069E-02
         0.33863E-02
         0.37158E-02
         0.27299E-02
         0.29039E-02
         0.36988E-02
         0.36071E-02
         0.37834E-02
         0.29946E-02
         0.29946E-02
         0.28589E-02
         0.26905E-02
         0.29526E-02
         0.28085E-02
         0.30131E-02
         0.36988E-02
         0.28538E-02
         0.28538E-02
         0.27524E-02
         0.26132E-02
         0.36988E-02
         0.36988E-02
         0.37809E-02
         0.37809E-02
         0.30241E-02
         0.36932E-02
         0.37158E-02
         0.32012E-02
         0.32814E-02
         0.32814E-02
         0.27006E-02
         0.25920E-02
         0.25873E-02
         0.29714E-02
         0.29714E-02
         0.26473E-02
         0.29097E-02
         0.34041E-02
         0.35316E-02
         0.35316E-02
         0.29784E-02
         0.32378E-02
         0.28921E-02
         0.29895E-02
         0.36932E-02
         0.37158E-02
         0.37158E-02
         0.33863E-02
         0.29039E-02
         0.32012E-02
         0.32814E-02
         0.32814E-02
         0.27006E-02
         0.25920E-02
         0.25873E-02
         0.26905E-02
         0.28589E-02
         0.29526E-02
         0.29714E-02
         0.29714E-02
         0.26473E-02
         0.27683E-02
         0.34041E-02
         0.35316E-02
         0.35316E-02
         0.29784E-02
         0.31463E-02
         0.31463E-02
         0.43138E-02
         0.43138E-02
         0.43138E-02
         0.43138E-02
         0.34888E-02
         0.34888E-02
         0.32726E-02
         0.32071E-02
         0.37830E-02
         0.31856E-02
         0.27051E-02
         0.33859E-02
         0.37157E-02
         0.27252E-02
         0.29051E-02
         0.36985E-02
         0.36106E-02
         0.37830E-02
         0.29972E-02
         0.29972E-02
         0.28594E-02
         0.26912E-02
         0.29528E-02
         0.28087E-02
         0.30156E-02
         0.36985E-02
         0.28512E-02
         0.28512E-02
         0.27512E-02
         0.26122E-02
         0.36985E-02
         0.36985E-02
         0.37830E-02
         0.37830E-02
         0.30243E-02
         0.36920E-02
         0.37157E-02
         0.32025E-02
         0.32821E-02
         0.32821E-02
         0.27006E-02
         0.25920E-02
         0.25866E-02
         0.29714E-02
         0.29714E-02
         0.26473E-02
         0.29096E-02
         0.34034E-02
         0.35310E-02
         0.35310E-02
         0.29787E-02
         0.32396E-02
         0.28894E-02
         0.29905E-02
         0.36920E-02
         0.37157E-02
         0.37157E-02
         0.33859E-02
         0.29051E-02
         0.32025E-02
         0.32821E-02
         0.32821E-02
         0.27006E-02
         0.25920E-02
         0.25866E-02
         0.26912E-02
         0.28594E-02
         0.29528E-02
         0.29714E-02
         0.29714E-02
         0.26473E-02
         0.27682E-02
         0.34034E-02
         0.35310E-02
         0.35310E-02
         0.29787E-02
         0.31476E-02
         0.31476E-02
         0.43135E-02
         0.43135E-02
         0.43135E-02
         0.43135E-02
         0.34889E-02
         0.34889E-02
         0.32712E-02
         0.32061E-02
         0.37825E-02
         0.31852E-02
         0.27034E-02
         0.33856E-02
         0.37156E-02
         0.27205E-02
         0.29063E-02
         0.36982E-02
         0.36142E-02
         0.37851E-02
         0.29998E-02
         0.29998E-02
         0.28599E-02
         0.26920E-02
         0.29529E-02
         0.28090E-02
         0.30182E-02
         0.36982E-02
         0.28486E-02
         0.28486E-02
         0.27499E-02
         0.26112E-02
         0.36982E-02
         0.36982E-02
         0.37851E-02
         0.37851E-02
         0.30245E-02
         0.36908E-02
         0.37156E-02
         0.32038E-02
         0.32827E-02
         0.32827E-02
         0.27006E-02
         0.25920E-02
         0.25859E-02
         0.29714E-02
         0.29714E-02
         0.26472E-02
         0.29095E-02
         0.34027E-02
         0.35304E-02
         0.35304E-02
         0.29790E-02
         0.32413E-02
         0.28866E-02
         0.29915E-02
         0.36908E-02
         0.37156E-02
         0.37156E-02
         0.33856E-02
         0.29063E-02
         0.32038E-02
         0.32827E-02
         0.32827E-02
         0.27006E-02
         0.25920E-02
         0.25859E-02
         0.26920E-02
         0.28599E-02
         0.29529E-02
         0.29714E-02
         0.29714E-02
         0.26472E-02
         0.27682E-02
         0.34027E-02
         0.35304E-02
         0.35304E-02
         0.29790E-02
         0.31490E-02
         0.31490E-02
         0.43133E-02
         0.43133E-02
         0.43133E-02
         0.43133E-02
         0.34890E-02
         0.34890E-02
         0.32698E-02
         0.32051E-02
         0.37820E-02
         0.31848E-02
         0.27017E-02
         0.33851E-02
         0.37155E-02
         0.27158E-02
         0.29075E-02
         0.36979E-02
         0.36177E-02
         0.37871E-02
         0.30024E-02
         0.30024E-02
         0.28603E-02
         0.26927E-02
         0.29530E-02
         0.28093E-02
         0.30208E-02
         0.36979E-02
         0.28460E-02
         0.28460E-02
         0.27486E-02
         0.26101E-02
         0.36979E-02
         0.36979E-02
         0.37871E-02
         0.37871E-02
         0.30247E-02
         0.36896E-02
         0.37155E-02
         0.32051E-02
         0.32833E-02
         0.32833E-02
         0.27006E-02
         0.25920E-02
         0.25851E-02
         0.29714E-02
         0.29714E-02
         0.26472E-02
         0.29094E-02
         0.34019E-02
         0.35299E-02
         0.35299E-02
         0.29793E-02
         0.32431E-02
         0.28838E-02
         0.29925E-02
         0.36896E-02
         0.37155E-02
         0.37155E-02
         0.33851E-02
         0.29075E-02
         0.32051E-02
         0.32833E-02
         0.32833E-02
         0.27006E-02
         0.25920E-02
         0.25851E-02
         0.26927E-02
         0.28603E-02
         0.29530E-02
         0.29714E-02
         0.29714E-02
         0.26472E-02
         0.27681E-02
         0.34019E-02
         0.35299E-02
         0.35299E-02
         0.29793E-02
         0.31503E-02
         0.31503E-02
         0.43130E-02
         0.43130E-02
         0.43130E-02
         0.43130E-02
         0.34891E-02
         0.34891E-02
         0.32683E-02
         0.32041E-02
         0.37816E-02
         0.31844E-02
         0.27000E-02
         0.33848E-02
         0.37154E-02
         0.27111E-02
         0.29087E-02
         0.36976E-02
         0.36213E-02
         0.37892E-02
         0.30050E-02
         0.30050E-02
         0.28608E-02
         0.26935E-02
         0.29532E-02
         0.28096E-02
         0.30234E-02
         0.36976E-02
         0.28434E-02
         0.28434E-02
         0.27472E-02
         0.26091E-02
         0.36976E-02
         0.36976E-02
         0.37892E-02
         0.37892E-02
         0.30249E-02
         0.36885E-02
         0.37154E-02
         0.32064E-02
         0.32839E-02
         0.32839E-02
         0.27006E-02
         0.25920E-02
         0.25844E-02
         0.29714E-02
         0.29714E-02
         0.26471E-02
         0.29094E-02
         0.34012E-02
         0.35293E-02
         0.35293E-02
         0.29797E-02
         0.32449E-02
         0.28811E-02
         0.29935E-02
         0.36885E-02
         0.37154E-02
         0.37154E-02
         0.33848E-02
         0.29087E-02
         0.32064E-02
         0.32839E-02
         0.32839E-02
         0.27006E-02
         0.25920E-02
         0.25844E-02
         0.26935E-02
         0.28608E-02
         0.29532E-02
         0.29714E-02
         0.29714E-02
         0.26471E-02
         0.27681E-02
         0.34012E-02
         0.35293E-02
         0.35293E-02
         0.29797E-02
         0.31517E-02
         0.31517E-02
         0.43128E-02
         0.43128E-02
         0.43128E-02
         0.43128E-02
         0.34892E-02
         0.34892E-02
         0.32669E-02
         0.32031E-02
         0.37811E-02
         0.31840E-02
         0.26982E-02
         0.33844E-02
         0.37152E-02
         0.27063E-02
         0.29099E-02
         0.36973E-02
         0.36248E-02
         0.37913E-02
         0.30076E-02
         0.30076E-02
         0.28613E-02
         0.26942E-02
         0.29533E-02
         0.28099E-02
         0.30260E-02
         0.36973E-02
         0.28408E-02
         0.28408E-02
         0.27460E-02
         0.26081E-02
         0.36973E-02
         0.36973E-02
         0.37913E-02
         0.37913E-02
         0.30250E-02
         0.36873E-02
         0.37152E-02
         0.32077E-02
         0.32845E-02
         0.32845E-02
         0.27006E-02
         0.25920E-02
         0.25837E-02
         0.29714E-02
         0.29714E-02
         0.26471E-02
         0.29093E-02
         0.34005E-02
         0.35287E-02
         0.35287E-02
         0.29800E-02
         0.32467E-02
         0.28783E-02
         0.29945E-02
         0.36873E-02
         0.37152E-02
         0.37152E-02
         0.33844E-02
         0.29099E-02
         0.32077E-02
         0.32845E-02
         0.32845E-02
         0.27006E-02
         0.25920E-02
         0.25837E-02
         0.26942E-02
         0.28613E-02
         0.29533E-02
         0.29714E-02
         0.29714E-02
         0.26471E-02
         0.27681E-02
         0.34005E-02
         0.35287E-02
         0.35287E-02
         0.29800E-02
         0.31530E-02
         0.31530E-02
         0.43125E-02
         0.43125E-02
         0.43125E-02
         0.43125E-02
         0.34893E-02
         0.34893E-02
         0.32655E-02
         0.32021E-02
         0.37806E-02
         0.31836E-02
         0.26965E-02
         0.33840E-02
         0.37151E-02
         0.27016E-02
         0.29111E-02
         0.36969E-02
         0.36283E-02
         0.37933E-02
         0.30102E-02
         0.30102E-02
         0.28617E-02
         0.26950E-02
         0.29535E-02
         0.28101E-02
         0.30286E-02
         0.36969E-02
         0.28382E-02
         0.28382E-02
         0.27447E-02
         0.26071E-02
         0.36969E-02
         0.36969E-02
         0.37933E-02
         0.37933E-02
         0.30252E-02
         0.36861E-02
         0.37151E-02
         0.32090E-02
         0.32852E-02
         0.32852E-02
         0.27006E-02
         0.25920E-02
         0.25830E-02
         0.29714E-02
         0.29714E-02
         0.26470E-02
         0.29092E-02
         0.33997E-02
         0.35282E-02
         0.35282E-02
         0.29803E-02
         0.32484E-02
         0.28755E-02
         0.29955E-02
         0.36861E-02
         0.37151E-02
         0.37151E-02
         0.33840E-02
         0.29111E-02
         0.32090E-02
         0.32852E-02
         0.32852E-02
         0.27006E-02
         0.25920E-02
         0.25830E-02
         0.26950E-02
         0.28617E-02
         0.29535E-02
         0.29714E-02
         0.29714E-02
         0.26470E-02
         0.27680E-02
         0.33997E-02
         0.35282E-02
         0.35282E-02
         0.29803E-02
         0.31544E-02
         0.31544E-02
         0.43123E-02
         0.43123E-02
         0.43123E-02
         0.43123E-02
         0.34893E-02
         0.34893E-02
         0.32640E-02
         0.32011E-02
         0.37801E-02
         0.31832E-02
         0.26948E-02
         0.33836E-02
         0.37150E-02
         0.26969E-02
         0.29123E-02
         0.36966E-02
         0.36319E-02
         0.37954E-02
         0.30128E-02
         0.30128E-02
         0.28622E-02
         0.26957E-02
         0.29536E-02
         0.28104E-02
         0.30312E-02
         0.36966E-02
         0.28357E-02
         0.28357E-02
         0.27434E-02
         0.26061E-02
         0.36966E-02
         0.36966E-02
         0.37954E-02
         0.37954E-02
         0.30254E-02
         0.36849E-02
         0.37150E-02
         0.32103E-02
         0.32858E-02
         0.32858E-02
         0.27006E-02
         0.25920E-02
         0.25823E-02
         0.29714E-02
         0.29714E-02
         0.26470E-02
         0.29091E-02
         0.33990E-02
         0.35276E-02
         0.35276E-02
         0.29806E-02
         0.32502E-02
         0.28728E-02
         0.29965E-02
         0.36849E-02
         0.37150E-02
         0.37150E-02
         0.33836E-02
         0.29123E-02
         0.32103E-02
         0.32858E-02
         0.32858E-02
         0.27006E-02
         0.25920E-02
         0.25823E-02
         0.26957E-02
         0.28622E-02
         0.29536E-02
         0.29714E-02
         0.29714E-02
         0.26470E-02
         0.27680E-02
         0.33990E-02
         0.35276E-02
         0.35276E-02
         0.29806E-02
         0.31557E-02
         0.31557E-02
         0.43120E-02
         0.43120E-02
         0.43120E-02
         0.43120E-02
         0.34894E-02
         0.34894E-02
         0.32626E-02
         0.32001E-02
         0.37797E-02
         0.31828E-02
         0.26931E-02
         0.33832E-02
         0.37149E-02
         0.26922E-02
         0.29135E-02
         0.36963E-02
         0.36354E-02
         0.37975E-02
         0.30154E-02
         0.30154E-02
         0.28627E-02
         0.26965E-02
         0.29537E-02
         0.28107E-02
         0.30338E-02
         0.36963E-02
         0.28331E-02
         0.28331E-02
         0.27421E-02
         0.26051E-02
         0.36963E-02
         0.36963E-02
         0.37975E-02
         0.37975E-02
         0.30256E-02
         0.36838E-02
         0.37149E-02
         0.32116E-02
         0.32864E-02
         0.32864E-02
         0.27006E-02
         0.25920E-02
         0.25815E-02
         0.29714E-02
         0.29714E-02
         0.26469E-02
         0.29090E-02
         0.33983E-02
         0.35270E-02
         0.35270E-02
         0.29809E-02
         0.32519E-02
         0.28700E-02
         0.29975E-02
         0.36838E-02
         0.37149E-02
         0.37149E-02
         0.33832E-02
         0.29135E-02
         0.32116E-02
         0.32864E-02
         0.32864E-02
         0.27006E-02
         0.25920E-02
         0.25815E-02
         0.26965E-02
         0.28627E-02
         0.29537E-02
         0.29714E-02
         0.29714E-02
         0.26469E-02
         0.27680E-02
         0.33983E-02
         0.35270E-02
         0.35270E-02
         0.29809E-02
         0.31571E-02
         0.31571E-02
         0.43118E-02
         0.43118E-02
         0.43118E-02
         0.43118E-02
         0.34895E-02
         0.34895E-02
         0.32612E-02
         0.31990E-02
         0.37792E-02
         0.31824E-02
         0.26913E-02
         0.33828E-02
         0.37148E-02
         0.26875E-02
         0.29148E-02
         0.36960E-02
         0.36390E-02
         0.37995E-02
         0.30180E-02
         0.30180E-02
         0.28631E-02
         0.26972E-02
         0.29539E-02
         0.28110E-02
         0.30364E-02
         0.36960E-02
         0.28305E-02
         0.28305E-02
         0.27408E-02
         0.26040E-02
         0.36960E-02
         0.36960E-02
         0.37995E-02
         0.37995E-02
         0.30258E-02
         0.36826E-02
         0.37148E-02
         0.32129E-02
         0.32870E-02
         0.32870E-02
         0.27006E-02
         0.25920E-02
         0.25808E-02
         0.29713E-02
         0.29713E-02
         0.26468E-02
         0.29089E-02
         0.33975E-02
         0.35264E-02
         0.35264E-02
         0.29812E-02
         0.32537E-02
         0.28672E-02
         0.29985E-02
         0.36826E-02
         0.37148E-02
         0.37148E-02
         0.33828E-02
         0.29148E-02
         0.32129E-02
         0.32870E-02
         0.32870E-02
         0.27006E-02
         0.25920E-02
         0.25808E-02
         0.26972E-02
         0.28631E-02
         0.29539E-02
         0.29713E-02
         0.29713E-02
         0.26468E-02
         0.27679E-02
         0.33975E-02
         0.35264E-02
         0.35264E-02
         0.29812E-02
         0.31585E-02
         0.31585E-02
         0.43115E-02
         0.43115E-02
         0.43115E-02
         0.43115E-02
         0.34896E-02
         0.34896E-02
         0.32597E-02
         0.31980E-02
         0.37787E-02
         0.31820E-02
         0.26896E-02
         0.33824E-02
         0.37147E-02
         0.26827E-02
         0.29160E-02
         0.36957E-02
         0.36425E-02
         0.38016E-02
         0.30206E-02
         0.30206E-02
         0.28636E-02
         0.26980E-02
         0.29540E-02
         0.28112E-02
         0.30390E-02
         0.36957E-02
         0.28279E-02
         0.28279E-02
         0.27395E-02
         0.26030E-02
         0.36957E-02
         0.36957E-02
         0.38016E-02
         0.38016E-02
         0.30260E-02
         0.36814E-02
         0.37147E-02
         0.32141E-02
         0.32876E-02
         0.32876E-02
         0.27006E-02
         0.25920E-02
         0.25801E-02
         0.29713E-02
         0.29713E-02
         0.26468E-02
         0.29089E-02
         0.33968E-02
         0.35259E-02
         0.35259E-02
         0.29815E-02
         0.32555E-02
         0.28645E-02
         0.29995E-02
         0.36814E-02
         0.37147E-02
         0.37147E-02
         0.33824E-02
         0.29160E-02
         0.32141E-02
         0.32876E-02
         0.32876E-02
         0.27006E-02
         0.25920E-02
         0.25801E-02
         0.26980E-02
         0.28636E-02
         0.29540E-02
         0.29713E-02
         0.29713E-02
         0.26468E-02
         0.27679E-02
         0.33968E-02
         0.35259E-02
         0.35259E-02
         0.29815E-02
         0.31598E-02
         0.31598E-02
         0.43113E-02
         0.43113E-02
         0.43113E-02
         0.43113E-02
         0.34897E-02
         0.34897E-02
         0.32583E-02
         0.31970E-02
         0.37783E-02
         0.31816E-02
         0.26879E-02
         0.33820E-02
         0.37146E-02
         0.26780E-02
         0.29172E-02
         0.36954E-02
         0.36460E-02
         0.38037E-02
         0.30232E-02
         0.30232E-02
         0.28641E-02
         0.26987E-02
         0.29542E-02
         0.28115E-02
         0.30416E-02
         0.36954E-02
         0.28253E-02
         0.28253E-02
         0.27382E-02
         0.26020E-02
         0.36954E-02
         0.36954E-02
         0.38037E-02
         0.38037E-02
         0.30261E-02
         0.36802E-02
         0.37146E-02
         0.32154E-02
         0.32882E-02
         0.32882E-02
         0.27006E-02
         0.25921E-02
         0.25794E-02
         0.29713E-02
         0.29713E-02
         0.26467E-02
         0.29088E-02
         0.33961E-02
         0.35253E-02
         0.35253E-02
         0.29818E-02
         0.32573E-02
         0.28617E-02
         0.30005E-02
         0.36802E-02
         0.37146E-02
         0.37146E-02
         0.33820E-02
         0.29172E-02
         0.32154E-02
         0.32882E-02
         0.32882E-02
         0.27006E-02
         0.25921E-02
         0.25794E-02
         0.26987E-02
         0.28641E-02
         0.29542E-02
         0.29713E-02
         0.29713E-02
         0.26467E-02
         0.27678E-02
         0.33961E-02
         0.35253E-02
         0.35253E-02
         0.29818E-02
         0.31612E-02
         0.31612E-02
         0.43110E-02
         0.43110E-02
         0.43110E-02
         0.43110E-02
         0.34898E-02
         0.34898E-02
         0.32569E-02
         0.31960E-02
         0.37778E-02
         0.31812E-02
         0.26862E-02
         0.33816E-02
         0.37145E-02
         0.26733E-02
         0.29184E-02
         0.36950E-02
         0.36495E-02
         0.38057E-02
         0.30258E-02
         0.30258E-02
         0.28645E-02
         0.26995E-02
         0.29543E-02
         0.28118E-02
         0.30442E-02
         0.36950E-02
         0.28227E-02
         0.28227E-02
         0.27369E-02
         0.26010E-02
         0.36950E-02
         0.36950E-02
         0.38057E-02
         0.38057E-02
         0.30263E-02
         0.36790E-02
         0.37145E-02
         0.32167E-02
         0.32889E-02
         0.32889E-02
         0.27006E-02
         0.25921E-02
         0.25787E-02
         0.29713E-02
         0.29713E-02
         0.26467E-02
         0.29087E-02
         0.33953E-02
         0.35247E-02
         0.35247E-02
         0.29821E-02
         0.32590E-02
         0.28589E-02
         0.30015E-02
         0.36790E-02
         0.37145E-02
         0.37145E-02
         0.33816E-02
         0.29184E-02
         0.32167E-02
         0.32889E-02
         0.32889E-02
         0.27006E-02
         0.25921E-02
         0.25787E-02
         0.26995E-02
         0.28645E-02
         0.29543E-02
         0.29713E-02
         0.29713E-02
         0.26467E-02
         0.27678E-02
         0.33953E-02
         0.35247E-02
         0.35247E-02
         0.29821E-02
         0.31625E-02
         0.31625E-02
         0.43108E-02
         0.43108E-02
         0.43108E-02
         0.43108E-02
         0.34898E-02
         0.34898E-02
         0.32555E-02
         0.31950E-02
         0.37773E-02
         0.31808E-02
         0.26845E-02
         0.33812E-02
         0.37144E-02
         0.26686E-02
         0.29196E-02
         0.36948E-02
         0.36531E-02
         0.38078E-02
         0.30285E-02
         0.30285E-02
         0.28650E-02
         0.27002E-02
         0.29544E-02
         0.28120E-02
         0.30467E-02
         0.36948E-02
         0.28201E-02
         0.28201E-02
         0.27356E-02
         0.26000E-02
         0.36948E-02
         0.36948E-02
         0.38078E-02
         0.38078E-02
         0.30265E-02
         0.36779E-02
         0.37144E-02
         0.32181E-02
         0.32895E-02
         0.32895E-02
         0.27006E-02
         0.25921E-02
         0.25779E-02
         0.29713E-02
         0.29713E-02
         0.26466E-02
         0.29086E-02
         0.33946E-02
         0.35242E-02
         0.35242E-02
         0.29824E-02
         0.32608E-02
         0.28562E-02
         0.30025E-02
         0.36779E-02
         0.37144E-02
         0.37144E-02
         0.33812E-02
         0.29196E-02
         0.32181E-02
         0.32895E-02
         0.32895E-02
         0.27006E-02
         0.25921E-02
         0.25779E-02
         0.27002E-02
         0.28650E-02
         0.29544E-02
         0.29713E-02
         0.29713E-02
         0.26466E-02
         0.27678E-02
         0.33946E-02
         0.35242E-02
         0.35242E-02
         0.29824E-02
         0.31639E-02
         0.31639E-02
         0.43105E-02
         0.43105E-02
         0.43105E-02
         0.43105E-02
         0.34899E-02
         0.34899E-02
         0.32540E-02
         0.31940E-02
         0.37768E-02
         0.31804E-02
         0.26827E-02
         0.33808E-02
         0.37143E-02
         0.26639E-02
         0.29208E-02
         0.36944E-02
         0.36566E-02
         0.38099E-02
         0.30311E-02
         0.30311E-02
         0.28655E-02
         0.27010E-02
         0.29546E-02
         0.28123E-02
         0.30493E-02
         0.36944E-02
         0.28175E-02
         0.28175E-02
         0.27343E-02
         0.25990E-02
         0.36944E-02
         0.36944E-02
         0.38099E-02
         0.38099E-02
         0.30267E-02
         0.36767E-02
         0.37143E-02
         0.32193E-02
         0.32901E-02
         0.32901E-02
         0.27006E-02
         0.25921E-02
         0.25772E-02
         0.29713E-02
         0.29713E-02
         0.26466E-02
         0.29085E-02
         0.33939E-02
         0.35236E-02
         0.35236E-02
         0.29827E-02
         0.32626E-02
         0.28534E-02
         0.30035E-02
         0.36767E-02
         0.37143E-02
         0.37143E-02
         0.33808E-02
         0.29208E-02
         0.32193E-02
         0.32901E-02
         0.32901E-02
         0.27006E-02
         0.25921E-02
         0.25772E-02
         0.27010E-02
         0.28655E-02
         0.29546E-02
         0.29713E-02
         0.29713E-02
         0.26466E-02
         0.27677E-02
         0.33939E-02
         0.35236E-02
         0.35236E-02
         0.29827E-02
         0.31652E-02
         0.31652E-02
         0.43103E-02
         0.43103E-02
         0.43103E-02
         0.43103E-02
         0.34900E-02
         0.34900E-02
         0.32526E-02
         0.31930E-02
         0.37764E-02
         0.31800E-02
         0.26810E-02
         0.33804E-02
         0.37142E-02
         0.26591E-02
         0.29220E-02
         0.36941E-02
         0.36602E-02
         0.38119E-02
         0.30337E-02
         0.30337E-02
         0.28660E-02
         0.27017E-02
         0.29547E-02
         0.28126E-02
         0.30519E-02
         0.36941E-02
         0.28150E-02
         0.28150E-02
         0.27330E-02
         0.25979E-02
         0.36941E-02
         0.36941E-02
         0.38119E-02
         0.38119E-02
         0.30269E-02
         0.36755E-02
         0.37142E-02
         0.32206E-02
         0.32907E-02
         0.32907E-02
         0.27006E-02
         0.25921E-02
         0.25765E-02
         0.29713E-02
         0.29713E-02
         0.26465E-02
         0.29085E-02
         0.33931E-02
         0.35230E-02
         0.35230E-02
         0.29830E-02
         0.32643E-02
         0.28507E-02
         0.30045E-02
         0.36755E-02
         0.37142E-02
         0.37142E-02
         0.33804E-02
         0.29220E-02
         0.32206E-02
         0.32907E-02
         0.32907E-02
         0.27006E-02
         0.25921E-02
         0.25765E-02
         0.27017E-02
         0.28660E-02
         0.29547E-02
         0.29713E-02
         0.29713E-02
         0.26465E-02
         0.27677E-02
         0.33931E-02
         0.35230E-02
         0.35230E-02
         0.29830E-02
         0.31666E-02
         0.31666E-02
         0.43100E-02
         0.43100E-02
         0.43100E-02
         0.43100E-02
         0.34901E-02
         0.34901E-02
         0.32512E-02
         0.31920E-02
         0.37759E-02
         0.31796E-02
         0.26793E-02
         0.33800E-02
         0.37141E-02
         0.26544E-02
         0.29232E-02
         0.36938E-02
         0.36637E-02
         0.38140E-02
         0.30363E-02
         0.30363E-02
         0.28664E-02
         0.27025E-02
         0.29548E-02
         0.28129E-02
         0.30545E-02
         0.36938E-02
         0.28124E-02
         0.28124E-02
         0.27317E-02
         0.25969E-02
         0.36938E-02
         0.36938E-02
         0.38140E-02
         0.38140E-02
         0.30271E-02
         0.36743E-02
         0.37141E-02
         0.32219E-02
         0.32913E-02
         0.32913E-02
         0.27006E-02
         0.25921E-02
         0.25758E-02
         0.29713E-02
         0.29713E-02
         0.26465E-02
         0.29084E-02
         0.33924E-02
         0.35224E-02
         0.35224E-02
         0.29833E-02
         0.32661E-02
         0.28479E-02
         0.30055E-02
         0.36743E-02
         0.37141E-02
         0.37141E-02
         0.33800E-02
         0.29232E-02
         0.32219E-02
         0.32913E-02
         0.32913E-02
         0.27006E-02
         0.25921E-02
         0.25758E-02
         0.27025E-02
         0.28664E-02
         0.29548E-02
         0.29713E-02
         0.29713E-02
         0.26465E-02
         0.27677E-02
         0.33924E-02
         0.35224E-02
         0.35224E-02
         0.29833E-02
         0.31680E-02
         0.31680E-02
         0.43098E-02
         0.43098E-02
         0.43098E-02
         0.43098E-02
         0.34901E-02
         0.34901E-02
         0.32498E-02
         0.31910E-02
         0.37754E-02
         0.31792E-02
         0.26776E-02
         0.33796E-02
         0.37140E-02
         0.26497E-02
         0.29232E-02
         0.36935E-02
         0.36637E-02
         0.38140E-02
         0.30363E-02
         0.30363E-02
         0.28664E-02
         0.27025E-02
         0.29548E-02
         0.28129E-02
         0.30545E-02
         0.36935E-02
         0.28098E-02
         0.28098E-02
         0.27304E-02
         0.25959E-02
         0.36935E-02
         0.36935E-02
         0.38140E-02
         0.38140E-02
         0.30271E-02
         0.36731E-02
         0.37140E-02
         0.32219E-02
         0.32913E-02
         0.32913E-02
         0.27006E-02
         0.25921E-02
         0.25751E-02
         0.29713E-02
         0.29713E-02
         0.26464E-02
         0.29083E-02
         0.33916E-02
         0.35219E-02
         0.35219E-02
         0.29833E-02
         0.32661E-02
         0.28451E-02
         0.30055E-02
         0.36731E-02
         0.37140E-02
         0.37140E-02
         0.33796E-02
         0.29232E-02
         0.32219E-02
         0.32913E-02
         0.32913E-02
         0.27006E-02
         0.25921E-02
         0.25751E-02
         0.27025E-02
         0.28664E-02
         0.29548E-02
         0.29713E-02
         0.29713E-02
         0.26464E-02
         0.27676E-02
         0.33916E-02
         0.35219E-02
         0.35219E-02
         0.29833E-02
         0.31680E-02
         0.31680E-02
  
SCALARS              physical_window_z  double 1
LOOKUP_TABLE default
         0.26928E-02
         0.26928E-02
         0.26928E-02
         0.26928E-02
         0.26928E-02
         0.26928E-02
         0.26928E-02
         0.26928E-02
         0.26928E-02
         0.26928E-02
         0.26928E-02
         0.26928E-02
         0.26928E-02
         0.26928E-02
         0.26928E-02
         0.26928E-02
         0.26928E-02
         0.26928E-02
         0.26928E-02
         0.26928E-02
         0.26928E-02
         0.26928E-02
         0.26928E-02
         0.26928E-02
         0.26928E-02
         0.26928E-02
         0.26928E-02
         0.26928E-02
         0.26928E-02
         0.26928E-02
         0.26928E-02
         0.26928E-02
         0.26928E-02
         0.26928E-02
         0.26928E-02
         0.26928E-02
         0.26928E-02
         0.26928E-02
         0.26928E-02
         0.26928E-02
         0.26928E-02
         0.26928E-02
         0.26928E-02
         0.26928E-02
         0.26928E-02
         0.26928E-02
         0.26928E-02
         0.26928E-02
         0.26928E-02
         0.26928E-02
         0.26928E-02
         0.26928E-02
         0.26928E-02
         0.26928E-02
         0.26928E-02
         0.26928E-02
         0.26928E-02
         0.26928E-02
         0.26928E-02
         0.26928E-02
         0.26928E-02
         0.26928E-02
         0.26928E-02
         0.26928E-02
         0.26928E-02
         0.26928E-02
         0.26928E-02
         0.26928E-02
         0.26928E-02
         0.26928E-02
         0.26928E-02
         0.26928E-02
         0.26928E-02
         0.26928E-02
         0.26928E-02
         0.26928E-02
         0.26928E-02
         0.26928E-02
         0.26928E-02
         0.26928E-02
         0.26928E-02
         0.26928E-02
         0.26928E-02
         0.26928E-02
         0.26928E-02
         0.26928E-02
         0.26928E-02
         0.26928E-02
         0.26928E-02
         0.26928E-02
         0.26928E-02
         0.26928E-02
         0.26928E-02
         0.26928E-02
         0.26928E-02
         0.26928E-02
         0.26928E-02
         0.26928E-02
         0.26928E-02
         0.26928E-02
         0.26928E-02
         0.26928E-02
         0.26928E-02
         0.26928E-02
         0.26928E-02
         0.26928E-02
         0.26928E-02
         0.26928E-02
         0.26928E-02
         0.26928E-02
         0.26928E-02
         0.26928E-02
         0.26928E-02
         0.26928E-02
         0.26928E-02
         0.26928E-02
         0.26928E-02
         0.26928E-02
         0.26928E-02
         0.26928E-02
         0.26928E-02
         0.26928E-02
         0.26928E-02
         0.26928E-02
         0.26928E-02
         0.26928E-02
         0.26928E-02
         0.26928E-02
         0.26928E-02
         0.26928E-02
         0.26928E-02
         0.26928E-02
         0.26928E-02
         0.26928E-02
         0.26928E-02
         0.26928E-02
         0.26928E-02
         0.26928E-02
         0.26928E-02
         0.26928E-02
         0.26928E-02
         0.26928E-02
         0.26928E-02
         0.26928E-02
         0.26928E-02
         0.26928E-02
         0.26928E-02
         0.26928E-02
         0.26928E-02
         0.26928E-02
         0.26928E-02
         0.26928E-02
         0.26928E-02
         0.26928E-02
         0.26928E-02
         0.26928E-02
         0.26927E-02
         0.26927E-02
         0.26927E-02
         0.26927E-02
         0.26927E-02
         0.26927E-02
         0.26927E-02
         0.26927E-02
         0.26927E-02
         0.26927E-02
         0.26927E-02
         0.26927E-02
         0.26927E-02
         0.26927E-02
         0.26927E-02
         0.26927E-02
         0.26927E-02
         0.26927E-02
         0.26927E-02
         0.26927E-02
         0.26927E-02
         0.26927E-02
         0.26927E-02
         0.26927E-02
         0.26927E-02
         0.26927E-02
         0.26927E-02
         0.26927E-02
         0.26927E-02
         0.26927E-02
         0.26927E-02
         0.26927E-02
         0.26927E-02
         0.26927E-02
         0.26927E-02
         0.26927E-02
         0.26927E-02
         0.26927E-02
         0.26927E-02
         0.26927E-02
         0.26927E-02
         0.26927E-02
         0.26927E-02
         0.26927E-02
         0.26927E-02
         0.26927E-02
         0.26927E-02
         0.26927E-02
         0.26927E-02
         0.26927E-02
         0.26927E-02
         0.26927E-02
         0.26927E-02
         0.26927E-02
         0.26927E-02
         0.26927E-02
         0.26927E-02
         0.26927E-02
         0.26927E-02
         0.26927E-02
         0.26927E-02
         0.26927E-02
         0.26927E-02
         0.26927E-02
         0.26927E-02
         0.26927E-02
         0.26927E-02
         0.26927E-02
         0.26927E-02
         0.26927E-02
         0.26927E-02
         0.26927E-02
         0.26927E-02
         0.26927E-02
         0.26927E-02
         0.26927E-02
         0.26927E-02
         0.26927E-02
         0.26927E-02
         0.26927E-02
         0.26927E-02
         0.26927E-02
         0.26927E-02
         0.26927E-02
         0.26927E-02
         0.26927E-02
         0.26927E-02
         0.26927E-02
         0.26927E-02
         0.26927E-02
         0.26927E-02
         0.26927E-02
         0.26927E-02
         0.26927E-02
         0.26927E-02
         0.26927E-02
         0.26927E-02
         0.26927E-02
         0.26927E-02
         0.26927E-02
         0.26927E-02
         0.26927E-02
         0.26927E-02
         0.26927E-02
         0.26927E-02
         0.26927E-02
         0.26927E-02
         0.26927E-02
         0.26927E-02
         0.26927E-02
         0.26927E-02
         0.26927E-02
         0.26927E-02
         0.26927E-02
         0.26927E-02
         0.26927E-02
         0.26927E-02
         0.26927E-02
         0.26927E-02
         0.26927E-02
         0.26927E-02
         0.26927E-02
         0.26927E-02
         0.26927E-02
         0.26927E-02
         0.26927E-02
         0.26927E-02
         0.26927E-02
         0.26927E-02
         0.26927E-02
         0.26927E-02
         0.26927E-02
         0.26927E-02
         0.26927E-02
         0.26927E-02
         0.26927E-02
         0.26927E-02
         0.26927E-02
         0.26927E-02
         0.26927E-02
         0.26927E-02
         0.26927E-02
         0.26927E-02
         0.26927E-02
         0.26927E-02
         0.26927E-02
         0.26927E-02
         0.26927E-02
         0.26927E-02
         0.26927E-02
         0.26927E-02
         0.26927E-02
         0.26927E-02
         0.26927E-02
         0.26927E-02
         0.26927E-02
         0.26927E-02
         0.26927E-02
         0.26927E-02
         0.26927E-02
         0.26927E-02
         0.26927E-02
         0.26927E-02
         0.26927E-02
         0.26927E-02
         0.26927E-02
         0.26927E-02
         0.26927E-02
         0.26927E-02
         0.26927E-02
         0.26927E-02
         0.26927E-02
         0.26927E-02
         0.26927E-02
         0.26927E-02
         0.26927E-02
         0.26927E-02
         0.26927E-02
         0.26927E-02
         0.26927E-02
         0.26927E-02
         0.26927E-02
         0.26927E-02
         0.26927E-02
         0.26927E-02
         0.26927E-02
         0.26927E-02
         0.26927E-02
         0.26927E-02
         0.26927E-02
         0.26927E-02
         0.26927E-02
         0.26927E-02
         0.26927E-02
         0.26927E-02
         0.26927E-02
         0.26927E-02
         0.26927E-02
         0.26927E-02
         0.26927E-02
         0.26927E-02
         0.26927E-02
         0.26927E-02
         0.26927E-02
         0.26927E-02
         0.26927E-02
         0.26927E-02
         0.26927E-02
         0.26927E-02
         0.26927E-02
         0.26927E-02
         0.26927E-02
         0.26927E-02
         0.26927E-02
         0.26927E-02
         0.26927E-02
         0.26927E-02
         0.26927E-02
         0.26927E-02
         0.26927E-02
         0.26927E-02
         0.26927E-02
         0.26927E-02
         0.26927E-02
         0.26927E-02
         0.26927E-02
         0.26927E-02
         0.26927E-02
         0.26927E-02
         0.26927E-02
         0.26927E-02
         0.26927E-02
         0.26927E-02
         0.26927E-02
         0.26927E-02
         0.26927E-02
         0.26927E-02
         0.26927E-02
         0.26927E-02
         0.26927E-02
         0.26927E-02
         0.26927E-02
         0.26927E-02
         0.26927E-02
         0.26927E-02
         0.26927E-02
         0.26927E-02
         0.26927E-02
         0.26927E-02
         0.26927E-02
         0.26927E-02
         0.26927E-02
         0.26927E-02
         0.26927E-02
         0.26927E-02
         0.26927E-02
         0.26927E-02
         0.26927E-02
         0.26927E-02
         0.26927E-02
         0.26927E-02
         0.26927E-02
         0.26927E-02
         0.26927E-02
         0.26927E-02
         0.26927E-02
         0.26927E-02
         0.26927E-02
         0.26927E-02
         0.26927E-02
         0.26927E-02
         0.26927E-02
         0.26927E-02
         0.26927E-02
         0.26927E-02
         0.26927E-02
         0.26927E-02
         0.26927E-02
         0.26927E-02
         0.26927E-02
         0.26927E-02
         0.26927E-02
         0.26927E-02
         0.26927E-02
         0.26927E-02
         0.26927E-02
         0.26927E-02
         0.26927E-02
         0.26927E-02
         0.26927E-02
         0.26927E-02
         0.26927E-02
         0.26927E-02
         0.26927E-02
         0.26927E-02
         0.26927E-02
         0.26927E-02
         0.26927E-02
         0.26927E-02
         0.26927E-02
         0.26927E-02
         0.26927E-02
         0.26927E-02
         0.26927E-02
         0.26927E-02
         0.26927E-02
         0.26927E-02
         0.26927E-02
         0.26927E-02
         0.26927E-02
         0.26927E-02
         0.26927E-02
         0.26927E-02
         0.26927E-02
         0.26927E-02
         0.26927E-02
         0.26927E-02
         0.26927E-02
         0.26927E-02
         0.26927E-02
         0.26927E-02
         0.26927E-02
         0.26927E-02
         0.26927E-02
         0.26927E-02
         0.26927E-02
         0.26927E-02
         0.26927E-02
         0.26927E-02
         0.26927E-02
         0.26927E-02
         0.26927E-02
         0.26927E-02
         0.26927E-02
         0.26927E-02
         0.26927E-02
         0.26927E-02
         0.26927E-02
         0.26927E-02
         0.26927E-02
         0.26927E-02
         0.26927E-02
         0.26927E-02
         0.26927E-02
         0.26927E-02
         0.26927E-02
         0.26927E-02
         0.26927E-02
         0.26927E-02
         0.26927E-02
         0.26927E-02
         0.26927E-02
         0.26927E-02
         0.26927E-02
         0.26927E-02
         0.26927E-02
         0.26927E-02
         0.26927E-02
         0.26927E-02
         0.26927E-02
         0.26927E-02
         0.26927E-02
         0.26927E-02
         0.26927E-02
         0.26927E-02
         0.26927E-02
         0.26927E-02
         0.26927E-02
         0.26927E-02
         0.26927E-02
         0.26927E-02
         0.26927E-02
         0.26927E-02
         0.26927E-02
         0.26927E-02
         0.26927E-02
         0.26927E-02
         0.26927E-02
         0.26927E-02
         0.26927E-02
         0.26927E-02
         0.26927E-02
         0.26927E-02
         0.26927E-02
         0.26927E-02
         0.26927E-02
         0.26927E-02
         0.26927E-02
         0.26927E-02
         0.26927E-02
         0.26927E-02
         0.26927E-02
         0.26927E-02
         0.26927E-02
         0.26927E-02
         0.26927E-02
         0.26927E-02
         0.26927E-02
         0.26927E-02
         0.26927E-02
         0.26927E-02
         0.26927E-02
         0.26927E-02
         0.26927E-02
         0.26927E-02
         0.26927E-02
         0.26927E-02
         0.26927E-02
         0.26927E-02
         0.26927E-02
         0.26927E-02
         0.26927E-02
         0.26927E-02
         0.26927E-02
         0.26927E-02
         0.26927E-02
         0.26927E-02
         0.26927E-02
         0.26927E-02
         0.26927E-02
         0.26927E-02
         0.26927E-02
         0.26927E-02
         0.26927E-02
         0.26927E-02
         0.26927E-02
         0.26927E-02
         0.26927E-02
         0.26927E-02
         0.26927E-02
         0.26927E-02
         0.26927E-02
         0.26927E-02
         0.26927E-02
         0.26927E-02
         0.26927E-02
         0.26927E-02
         0.26927E-02
         0.26927E-02
         0.26927E-02
         0.26927E-02
         0.26927E-02
         0.26927E-02
         0.26927E-02
         0.26927E-02
         0.26927E-02
         0.26927E-02
         0.26927E-02
         0.26927E-02
         0.26927E-02
         0.26927E-02
         0.26927E-02
         0.26927E-02
         0.26927E-02
         0.26927E-02
         0.26927E-02
         0.26927E-02
         0.26927E-02
         0.26927E-02
         0.26927E-02
         0.26927E-02
         0.26927E-02
         0.26927E-02
         0.26927E-02
         0.26927E-02
         0.26927E-02
         0.26927E-02
         0.26927E-02
         0.26927E-02
         0.26927E-02
         0.26927E-02
         0.26927E-02
         0.26927E-02
         0.26927E-02
         0.26927E-02
         0.26927E-02
         0.26927E-02
         0.26927E-02
         0.26927E-02
         0.26927E-02
         0.26927E-02
         0.26927E-02
         0.26927E-02
         0.26927E-02
         0.26927E-02
         0.26927E-02
         0.26927E-02
         0.26927E-02
         0.26927E-02
         0.26927E-02
         0.26927E-02
         0.26927E-02
         0.26927E-02
         0.26927E-02
         0.26927E-02
         0.26927E-02
         0.26927E-02
         0.26927E-02
         0.26927E-02
         0.26927E-02
         0.26927E-02
         0.26927E-02
         0.26927E-02
         0.26927E-02
         0.26927E-02
         0.26927E-02
         0.26927E-02
         0.26927E-02
         0.26927E-02
         0.26927E-02
         0.26927E-02
         0.26927E-02
         0.26927E-02
         0.26927E-02
         0.26927E-02
         0.26927E-02
         0.26927E-02
         0.26927E-02
         0.26927E-02
         0.26927E-02
         0.26927E-02
         0.26927E-02
         0.26927E-02
         0.26927E-02
         0.26927E-02
         0.26927E-02
         0.26927E-02
         0.26927E-02
         0.26927E-02
         0.26927E-02
         0.26927E-02
         0.26927E-02
         0.26927E-02
         0.26927E-02
         0.26927E-02
         0.26927E-02
         0.26927E-02
         0.26927E-02
         0.26927E-02
         0.26927E-02
         0.26927E-02
         0.26927E-02
         0.26927E-02
         0.26927E-02
         0.26927E-02
         0.26927E-02
         0.26927E-02
         0.26927E-02
         0.26927E-02
         0.26927E-02
         0.26927E-02
         0.26927E-02
         0.26927E-02
         0.26927E-02
         0.26927E-02
         0.26927E-02
         0.26927E-02
         0.26927E-02
         0.26927E-02
         0.26927E-02
         0.26927E-02
         0.26927E-02
         0.26927E-02
         0.26927E-02
         0.26927E-02
         0.26927E-02
         0.26927E-02
         0.26927E-02
         0.26927E-02
         0.26927E-02
         0.26927E-02
         0.26927E-02
         0.26927E-02
         0.26927E-02
         0.26927E-02
         0.26927E-02
         0.26927E-02
         0.26927E-02
         0.26927E-02
         0.26927E-02
         0.26927E-02
         0.26927E-02
         0.26927E-02
         0.26927E-02
         0.26927E-02
         0.26927E-02
         0.26927E-02
         0.26927E-02
         0.26927E-02
         0.26927E-02
         0.26927E-02
         0.26927E-02
         0.26927E-02
         0.26927E-02
         0.26927E-02
         0.26927E-02
         0.26927E-02
         0.26927E-02
         0.26927E-02
         0.26927E-02
         0.26927E-02
         0.26927E-02
         0.26927E-02
         0.26927E-02
         0.26927E-02
         0.26927E-02
         0.26927E-02
         0.26927E-02
         0.26927E-02
         0.26927E-02
         0.26927E-02
         0.26927E-02
         0.26927E-02
         0.26927E-02
         0.26927E-02
         0.26927E-02
         0.26927E-02
         0.26927E-02
         0.26927E-02
         0.26927E-02
         0.26927E-02
         0.26927E-02
         0.26927E-02
         0.26927E-02
         0.26927E-02
         0.26927E-02
         0.26927E-02
         0.26927E-02
         0.26927E-02
         0.26927E-02
         0.26927E-02
         0.26927E-02
         0.26927E-02
         0.26927E-02
         0.26927E-02
         0.26927E-02
         0.26927E-02
         0.26927E-02
         0.26927E-02
         0.26927E-02
         0.26927E-02
         0.26927E-02
         0.26927E-02
         0.26927E-02
         0.26927E-02
         0.26927E-02
         0.26927E-02
         0.26927E-02
         0.26927E-02
         0.26927E-02
         0.26927E-02
         0.26927E-02
         0.26927E-02
         0.26927E-02
         0.26927E-02
         0.26927E-02
         0.26927E-02
         0.26927E-02
         0.26927E-02
         0.26927E-02
         0.26927E-02
         0.26927E-02
         0.26927E-02
         0.26927E-02
         0.26927E-02
         0.26927E-02
         0.26927E-02
         0.26927E-02
         0.26927E-02
         0.26927E-02
         0.26927E-02
         0.26927E-02
         0.26927E-02
         0.26927E-02
         0.26927E-02
         0.26927E-02
         0.26927E-02
         0.26927E-02
         0.26927E-02
         0.26927E-02
         0.26927E-02
         0.26927E-02
         0.26927E-02
         0.26927E-02
         0.26927E-02
         0.26927E-02
         0.26927E-02
         0.26927E-02
         0.26927E-02
         0.26927E-02
         0.26927E-02
         0.26927E-02
         0.26927E-02
         0.26927E-02
         0.26927E-02
         0.26927E-02
         0.26927E-02
         0.26927E-02
         0.26927E-02
         0.26927E-02
         0.26927E-02
         0.26927E-02
         0.26927E-02
         0.26927E-02
         0.26927E-02
         0.26927E-02
         0.26927E-02
         0.26927E-02
         0.26927E-02
         0.26927E-02
         0.26927E-02
         0.26927E-02
         0.26927E-02
         0.26927E-02
         0.26927E-02
         0.26927E-02
         0.26927E-02
         0.26927E-02
         0.26927E-02
         0.26927E-02
         0.26927E-02
         0.26927E-02
         0.26927E-02
         0.26927E-02
         0.26927E-02
         0.26927E-02
         0.26927E-02
         0.26927E-02
         0.26927E-02
         0.26927E-02
         0.26927E-02
         0.26927E-02
         0.26927E-02
         0.26927E-02
         0.26927E-02
         0.26927E-02
         0.26927E-02
         0.26927E-02
         0.26927E-02
         0.26927E-02
         0.26927E-02
         0.26927E-02
         0.26927E-02
         0.26927E-02
         0.26927E-02
         0.26927E-02
         0.26927E-02
         0.26927E-02
         0.26927E-02
         0.26927E-02
         0.26927E-02
         0.26927E-02
         0.26927E-02
         0.26927E-02
         0.26927E-02
         0.26927E-02
         0.26927E-02
         0.26927E-02
         0.26927E-02
         0.26927E-02
         0.26927E-02
         0.26927E-02
         0.26927E-02
         0.26927E-02
         0.26927E-02
         0.26927E-02
         0.26927E-02
         0.26927E-02
         0.26927E-02
         0.26927E-02
         0.26927E-02
         0.26927E-02
         0.26927E-02
         0.26927E-02
         0.26927E-02
         0.26927E-02
         0.26927E-02
         0.26927E-02
         0.26927E-02
         0.26927E-02
         0.26927E-02
         0.26927E-02
         0.26927E-02
         0.26927E-02
         0.26927E-02
         0.26927E-02
         0.26927E-02
         0.26927E-02
         0.26927E-02
         0.26927E-02
         0.26927E-02
         0.26927E-02
         0.26927E-02
         0.26927E-02
         0.26927E-02
         0.26927E-02
         0.26927E-02
         0.26927E-02
         0.26927E-02
         0.26927E-02
         0.26927E-02
         0.26927E-02
         0.26927E-02
         0.26927E-02
         0.26927E-02
         0.26927E-02
         0.26927E-02
         0.26927E-02
         0.26927E-02
         0.26927E-02
         0.26927E-02
         0.26927E-02
         0.26927E-02
         0.26927E-02
         0.26927E-02
         0.26927E-02
         0.26927E-02
         0.26927E-02
         0.26927E-02
         0.26927E-02
         0.26927E-02
         0.26927E-02
         0.26927E-02
         0.26927E-02
         0.26927E-02
         0.26927E-02
         0.26927E-02
         0.26927E-02
         0.26927E-02
         0.26927E-02
         0.26927E-02
         0.26927E-02
         0.26927E-02
         0.26927E-02
         0.26927E-02
         0.26927E-02
         0.26927E-02
         0.26927E-02
         0.26927E-02
         0.26927E-02
         0.26927E-02
         0.26927E-02
         0.26927E-02
         0.26927E-02
         0.26927E-02
         0.26927E-02
         0.26927E-02
         0.26927E-02
         0.26927E-02
         0.26927E-02
         0.26927E-02
         0.26927E-02
         0.26927E-02
         0.26927E-02
         0.26927E-02
         0.26927E-02
         0.26927E-02
         0.26927E-02
         0.26927E-02
         0.26927E-02
         0.26927E-02
         0.26927E-02
         0.26927E-02
         0.26927E-02
         0.26927E-02
         0.26927E-02
         0.26927E-02
         0.26927E-02
         0.26927E-02
         0.26927E-02
         0.26927E-02
         0.26927E-02
         0.26927E-02
         0.26927E-02
         0.26927E-02
         0.26927E-02
         0.26927E-02
         0.26927E-02
         0.26927E-02
         0.26927E-02
         0.26927E-02
         0.26927E-02
         0.26927E-02
         0.26927E-02
         0.26927E-02
         0.26927E-02
         0.26927E-02
         0.26927E-02
         0.26927E-02
         0.26927E-02
         0.26927E-02
         0.26927E-02
         0.26927E-02
         0.26927E-02
         0.26927E-02
         0.26927E-02
         0.26927E-02
         0.26927E-02
         0.26927E-02
         0.26927E-02
         0.26927E-02
         0.26927E-02
         0.26927E-02
         0.26927E-02
         0.26927E-02
         0.26927E-02
         0.26927E-02
         0.26927E-02
         0.26927E-02
         0.26927E-02
         0.26927E-02
         0.26927E-02
         0.26927E-02
         0.26927E-02
         0.26927E-02
         0.26927E-02
         0.26927E-02
         0.26927E-02
         0.26927E-02
         0.26927E-02
         0.26927E-02
         0.26927E-02
         0.26927E-02
         0.26927E-02
         0.26927E-02
         0.26927E-02
         0.26927E-02
         0.26927E-02
         0.26927E-02
         0.26927E-02
         0.26927E-02
         0.26927E-02
         0.26927E-02
         0.26927E-02
         0.26927E-02
         0.26927E-02
         0.26927E-02
         0.26927E-02
         0.26927E-02
         0.26927E-02
         0.26927E-02
         0.26927E-02
         0.26927E-02
         0.26927E-02
         0.26927E-02
         0.26927E-02
         0.26927E-02
         0.26927E-02
         0.26927E-02
         0.26927E-02
         0.26927E-02
         0.26927E-02
         0.26927E-02
         0.26927E-02
         0.26927E-02
         0.26927E-02
         0.26927E-02
         0.26927E-02
         0.26927E-02
         0.26927E-02
         0.26927E-02
         0.26927E-02
         0.26927E-02
         0.26927E-02
         0.26927E-02
         0.26927E-02
         0.26927E-02
         0.26927E-02
         0.26927E-02
         0.26927E-02
         0.26927E-02
         0.26927E-02
         0.26927E-02
         0.26927E-02
         0.26927E-02
         0.26927E-02
         0.26927E-02
         0.26927E-02
         0.26927E-02
         0.26927E-02
         0.26927E-02
         0.26927E-02
         0.26927E-02
         0.26927E-02
         0.26927E-02
         0.26927E-02
         0.26927E-02
         0.26927E-02
         0.26927E-02
         0.26927E-02
         0.26927E-02
         0.26927E-02
         0.26927E-02
         0.26927E-02
         0.26927E-02
         0.26927E-02
         0.26927E-02
         0.26927E-02
         0.26927E-02
         0.26927E-02
         0.26927E-02
         0.26927E-02
         0.26927E-02
         0.26927E-02
         0.26927E-02
         0.26927E-02
         0.26927E-02
         0.26927E-02
         0.26927E-02
         0.26927E-02
         0.26927E-02
         0.26927E-02
         0.26927E-02
         0.26927E-02
         0.26927E-02
         0.26927E-02
         0.26927E-02
         0.26927E-02
         0.26927E-02
         0.26927E-02
         0.26927E-02
         0.26927E-02
         0.26927E-02
         0.26927E-02
         0.26927E-02
         0.26927E-02
         0.26927E-02
         0.26927E-02
         0.26927E-02
         0.26927E-02
         0.26927E-02
         0.26927E-02
         0.26927E-02
         0.26927E-02
         0.26927E-02
         0.26927E-02
         0.26927E-02
         0.26927E-02
         0.26927E-02
         0.26927E-02
         0.26927E-02
         0.26927E-02
         0.26927E-02
         0.26927E-02
         0.26927E-02
         0.26927E-02
         0.26927E-02
         0.26927E-02
         0.26927E-02
         0.26927E-02
         0.26927E-02
         0.26927E-02
         0.26927E-02
         0.26927E-02
         0.26927E-02
         0.26927E-02
         0.26927E-02
         0.26927E-02
         0.26927E-02
         0.26927E-02
         0.26927E-02
         0.26927E-02
         0.26927E-02
         0.26927E-02
         0.26927E-02
         0.26927E-02
         0.26927E-02
         0.26927E-02
         0.26927E-02
         0.26927E-02
         0.26927E-02
         0.26927E-02
         0.26927E-02
         0.26927E-02
         0.26927E-02
         0.26927E-02
         0.26927E-02
         0.26927E-02
         0.26927E-02
         0.26927E-02
         0.26927E-02
         0.26927E-02
         0.26927E-02
         0.26927E-02
         0.26927E-02
         0.26927E-02
         0.26927E-02
         0.26927E-02
         0.26927E-02
         0.26927E-02
         0.26927E-02
         0.26927E-02
         0.26927E-02
         0.26927E-02
         0.26927E-02
         0.26927E-02
         0.26927E-02
         0.26927E-02
         0.26927E-02
         0.26927E-02
         0.26927E-02
         0.26927E-02
         0.26927E-02
         0.26927E-02
         0.26927E-02
         0.26927E-02
         0.26927E-02
         0.26927E-02
         0.26927E-02
         0.26927E-02
         0.26927E-02
         0.26927E-02
         0.26927E-02
         0.26927E-02
         0.26927E-02
         0.26927E-02
         0.26927E-02
         0.26927E-02
         0.26927E-02
         0.26927E-02
         0.26927E-02
         0.26927E-02
         0.26927E-02
         0.26927E-02
         0.26927E-02
         0.26927E-02
         0.26927E-02
         0.26927E-02
         0.26927E-02
         0.26927E-02
         0.26927E-02
         0.26927E-02
         0.26927E-02
         0.26927E-02
         0.26927E-02
         0.26927E-02
         0.26927E-02
         0.26927E-02
         0.26927E-02
         0.26927E-02
         0.26927E-02
         0.26927E-02
         0.26927E-02
         0.26927E-02
         0.26927E-02
         0.26927E-02
         0.26927E-02
         0.26927E-02
         0.26927E-02
         0.26927E-02
         0.26927E-02
         0.26927E-02
         0.26927E-02
         0.26927E-02
         0.26927E-02
         0.26927E-02
         0.26927E-02
         0.26927E-02
         0.26927E-02
         0.26927E-02
         0.26927E-02
         0.26927E-02
         0.26927E-02
         0.26927E-02
         0.26927E-02
         0.26927E-02
         0.26927E-02
         0.26927E-02
         0.26927E-02
         0.26927E-02
         0.26927E-02
         0.26927E-02
         0.26927E-02
         0.26927E-02
         0.26927E-02
         0.26927E-02
         0.26927E-02
         0.26927E-02
         0.26927E-02
         0.26927E-02
         0.26927E-02
         0.26927E-02
         0.26927E-02
         0.26927E-02
         0.26927E-02
         0.26927E-02
         0.26927E-02
         0.26927E-02
         0.26927E-02
         0.26927E-02
         0.26927E-02
         0.26927E-02
         0.26927E-02
         0.26927E-02
         0.26927E-02
         0.26927E-02
         0.26927E-02
         0.26927E-02
         0.26927E-02
         0.26927E-02
         0.26927E-02
         0.26927E-02
         0.26927E-02
         0.26927E-02
         0.26927E-02
         0.26927E-02
         0.26927E-02
         0.26927E-02
         0.26927E-02
         0.26927E-02
         0.26927E-02
         0.26927E-02
         0.26927E-02
         0.26927E-02
         0.26927E-02
         0.26927E-02
         0.26927E-02
         0.26927E-02
         0.26927E-02
         0.26927E-02
         0.26927E-02
         0.26927E-02
         0.26927E-02
         0.26927E-02
         0.26927E-02
         0.26927E-02
         0.26927E-02
         0.26927E-02
         0.26927E-02
         0.26927E-02
         0.26927E-02
         0.26927E-02
         0.26927E-02
         0.26927E-02
         0.26927E-02
         0.26927E-02
         0.26927E-02
         0.26927E-02
         0.26927E-02
         0.26927E-02
         0.26927E-02
         0.26927E-02
         0.26927E-02
         0.26927E-02
         0.26927E-02
         0.26927E-02
         0.26927E-02
         0.26927E-02
         0.26927E-02
         0.26927E-02
         0.26927E-02
         0.26927E-02
         0.26927E-02
         0.26927E-02
         0.26927E-02
         0.26927E-02
         0.26927E-02
         0.26927E-02
         0.26927E-02
         0.26927E-02
         0.26927E-02
         0.26927E-02
         0.26927E-02
         0.26927E-02
         0.26927E-02
         0.26927E-02
         0.26927E-02
         0.26927E-02
         0.26927E-02
         0.26927E-02
         0.26927E-02
         0.26927E-02
         0.26927E-02
         0.26927E-02
         0.26927E-02
         0.26927E-02
         0.26927E-02
         0.26927E-02
         0.26927E-02
         0.26927E-02
         0.26927E-02
         0.26927E-02
         0.26927E-02
         0.26927E-02
         0.26927E-02
         0.26927E-02
         0.26927E-02
         0.26927E-02
         0.26927E-02
         0.26927E-02
         0.26927E-02
         0.26927E-02
         0.26927E-02
         0.26927E-02
         0.26927E-02
         0.26927E-02
         0.26927E-02
         0.26927E-02
         0.26927E-02
         0.26927E-02
         0.26927E-02
         0.26927E-02
         0.26927E-02
         0.26927E-02
         0.26927E-02
         0.26927E-02
         0.26927E-02
         0.26927E-02
         0.26927E-02
         0.26927E-02
         0.26927E-02
         0.26927E-02
         0.26927E-02
         0.26927E-02
         0.26927E-02
         0.26927E-02
         0.26927E-02
         0.26927E-02
         0.26927E-02
         0.26927E-02
         0.26927E-02
         0.26927E-02
         0.26927E-02
         0.26927E-02
         0.26927E-02
         0.26927E-02
         0.26927E-02
         0.26927E-02
         0.26927E-02
         0.26927E-02
         0.26927E-02
         0.26927E-02
         0.26927E-02
         0.26927E-02
         0.26927E-02
         0.26927E-02
         0.26927E-02
         0.26927E-02
         0.26927E-02
         0.26927E-02
         0.26927E-02
         0.26927E-02
         0.26927E-02
         0.26927E-02
         0.26927E-02
         0.26927E-02
         0.26927E-02
         0.26927E-02
         0.26927E-02
         0.26927E-02
         0.26927E-02
         0.26927E-02
         0.26927E-02
         0.26927E-02
         0.26927E-02
         0.26927E-02
         0.26927E-02
         0.26927E-02
         0.26927E-02
         0.26927E-02
         0.26927E-02
         0.26927E-02
         0.26927E-02
         0.26927E-02
         0.26927E-02
         0.26927E-02
         0.26927E-02
         0.26927E-02
         0.26927E-02
         0.26927E-02
         0.26927E-02
         0.26927E-02
         0.26927E-02
         0.26927E-02
         0.26927E-02
         0.26927E-02
         0.26927E-02
         0.26927E-02
         0.26927E-02
         0.26927E-02
         0.26927E-02
         0.26927E-02
         0.26927E-02
         0.26927E-02
         0.26927E-02
         0.26927E-02
         0.26927E-02
         0.26927E-02
         0.26927E-02
         0.26927E-02
         0.26927E-02
         0.26927E-02
         0.26927E-02
         0.26927E-02
         0.26927E-02
         0.26927E-02
         0.26927E-02
         0.26927E-02
         0.26927E-02
         0.26927E-02
         0.26927E-02
         0.26927E-02
         0.26927E-02
         0.26927E-02
         0.26927E-02
         0.26927E-02
         0.26927E-02
         0.26927E-02
         0.26927E-02
         0.26927E-02
         0.26927E-02
         0.26927E-02
         0.26927E-02
         0.26927E-02
         0.26927E-02
         0.26927E-02
         0.26927E-02
         0.26927E-02
         0.26927E-02
         0.26927E-02
         0.26927E-02
         0.26927E-02
         0.26927E-02
         0.26927E-02
         0.26927E-02
         0.26927E-02
         0.26927E-02
         0.26927E-02
         0.26927E-02
         0.26927E-02
         0.26927E-02
         0.26927E-02
         0.26927E-02
         0.26927E-02
         0.26927E-02
         0.26927E-02
         0.26927E-02
         0.26927E-02
         0.26927E-02
         0.26927E-02
         0.26927E-02
         0.26927E-02
         0.26927E-02
         0.26927E-02
         0.26927E-02
         0.26927E-02
         0.26927E-02
         0.26927E-02
         0.26927E-02
         0.26927E-02
         0.26927E-02
         0.26927E-02
         0.26927E-02
         0.26927E-02
         0.26927E-02
         0.26927E-02
         0.26927E-02
         0.26927E-02
         0.26927E-02
         0.26927E-02
         0.26927E-02
         0.26927E-02
         0.26927E-02
         0.26927E-02
         0.26927E-02
         0.26927E-02
         0.26927E-02
         0.26927E-02
         0.26927E-02
         0.26927E-02
         0.26927E-02
         0.26927E-02
         0.26927E-02
         0.26927E-02
         0.26927E-02
         0.26927E-02
         0.26927E-02
         0.26927E-02
         0.26927E-02
         0.26927E-02
         0.26927E-02
         0.26927E-02
         0.26927E-02
         0.26927E-02
         0.26927E-02
         0.26927E-02
         0.26927E-02
         0.26927E-02
         0.26927E-02
         0.26927E-02
         0.26927E-02
         0.26927E-02
         0.26927E-02
         0.26927E-02
         0.26927E-02
         0.26927E-02
         0.26927E-02
         0.26927E-02
         0.26927E-02
         0.26927E-02
         0.26927E-02
         0.26927E-02
         0.26927E-02
         0.26927E-02
         0.26927E-02
         0.26927E-02
         0.26927E-02
         0.26927E-02
         0.26927E-02
         0.26927E-02
         0.26927E-02
         0.26927E-02
         0.26927E-02
         0.26927E-02
         0.26927E-02
         0.26927E-02
         0.26927E-02
         0.26927E-02
         0.26927E-02
         0.26927E-02
         0.26927E-02
         0.26927E-02
         0.26927E-02
         0.26927E-02
         0.26927E-02
         0.26927E-02
         0.26927E-02
         0.26927E-02
         0.26927E-02
         0.26927E-02
         0.26927E-02
         0.26927E-02
         0.26927E-02
         0.26927E-02
         0.26927E-02
         0.26927E-02
         0.26927E-02
         0.26927E-02
         0.26927E-02
         0.26927E-02
         0.26927E-02
         0.26927E-02
         0.26927E-02
         0.26927E-02
         0.26927E-02
         0.26927E-02
         0.26927E-02
         0.26927E-02
         0.26927E-02
         0.26927E-02
         0.26927E-02
         0.26927E-02
         0.26927E-02
         0.26927E-02
         0.26927E-02
         0.26927E-02
         0.26927E-02
         0.26927E-02
         0.26927E-02
         0.26927E-02
         0.26927E-02
         0.26927E-02
         0.26927E-02
         0.26927E-02
         0.26927E-02
         0.26927E-02
         0.26927E-02
         0.26927E-02
         0.26927E-02
         0.26927E-02
         0.26927E-02
         0.26927E-02
         0.26927E-02
         0.26927E-02
         0.26927E-02
         0.26927E-02
         0.26927E-02
         0.26927E-02
         0.26927E-02
         0.26927E-02
         0.26927E-02
         0.26927E-02
         0.26927E-02
         0.26927E-02
         0.26927E-02
         0.26927E-02
         0.26927E-02
         0.26927E-02
         0.26927E-02
         0.26927E-02
         0.26927E-02
         0.26927E-02
         0.26927E-02
         0.26927E-02
         0.26927E-02
         0.26927E-02
         0.26927E-02
         0.26927E-02
         0.26927E-02
         0.26927E-02
         0.26927E-02
         0.26927E-02
         0.26927E-02
         0.26927E-02
         0.26927E-02
         0.26927E-02
         0.26927E-02
         0.26927E-02
         0.26927E-02
         0.26927E-02
         0.26927E-02
         0.26927E-02
         0.26927E-02
         0.26927E-02
         0.26927E-02
         0.26927E-02
         0.26927E-02
         0.26927E-02
         0.26927E-02
         0.26927E-02
         0.26927E-02
         0.26927E-02
         0.26927E-02
         0.26927E-02
         0.26927E-02
         0.26927E-02
         0.26927E-02
         0.26927E-02
         0.26927E-02
         0.26927E-02
         0.26927E-02
         0.26927E-02
         0.26927E-02
         0.26927E-02
         0.26927E-02
         0.26927E-02
         0.26927E-02
         0.26927E-02
         0.26928E-02
         0.26928E-02
         0.26928E-02
         0.26928E-02
         0.26928E-02
         0.26928E-02
         0.26928E-02
         0.26928E-02
         0.26928E-02
         0.26928E-02
         0.26928E-02
         0.26928E-02
         0.26928E-02
         0.26928E-02
         0.26928E-02
         0.26928E-02
         0.26928E-02
         0.26928E-02
         0.26928E-02
         0.26928E-02
         0.26928E-02
         0.26928E-02
         0.26928E-02
         0.26928E-02
         0.26928E-02
         0.26928E-02
         0.26928E-02
         0.26928E-02
         0.26928E-02
         0.26928E-02
         0.26928E-02
         0.26928E-02
         0.26928E-02
         0.26928E-02
         0.26928E-02
         0.26928E-02
         0.26928E-02
         0.26928E-02
         0.26928E-02
         0.26928E-02
         0.26928E-02
         0.26928E-02
         0.26928E-02
         0.26928E-02
         0.26928E-02
         0.26928E-02
         0.26928E-02
         0.26928E-02
         0.26928E-02
         0.26928E-02
         0.26928E-02
         0.26928E-02
         0.26928E-02
         0.26928E-02
         0.26928E-02
         0.26928E-02
         0.26928E-02
         0.26928E-02
         0.26928E-02
         0.26928E-02
         0.26928E-02
         0.26928E-02
         0.26928E-02
         0.26928E-02
         0.26928E-02
         0.26928E-02
         0.26928E-02
         0.26928E-02
         0.26928E-02
         0.26928E-02
         0.26928E-02
         0.26928E-02
         0.26928E-02
         0.26928E-02
         0.26928E-02
         0.26928E-02
         0.26928E-02
         0.26928E-02
         0.26928E-02
         0.26928E-02
         0.26928E-02
         0.26928E-02
         0.26928E-02
         0.26928E-02
         0.26928E-02
         0.26928E-02
         0.26928E-02
         0.26928E-02
         0.26928E-02
         0.26928E-02
         0.26928E-02
         0.26928E-02
         0.26928E-02
         0.26928E-02
         0.26928E-02
         0.26928E-02
         0.26928E-02
         0.26928E-02
         0.26928E-02
         0.26928E-02
         0.26928E-02
         0.26928E-02
         0.26928E-02
         0.26928E-02
         0.26928E-02
         0.26928E-02
         0.26928E-02
         0.26928E-02
         0.26928E-02
         0.26928E-02
         0.26928E-02
         0.26928E-02
         0.26928E-02
         0.26928E-02
         0.26928E-02
         0.26928E-02
         0.26928E-02
         0.26928E-02
         0.26928E-02
         0.26928E-02
         0.26928E-02
         0.26928E-02
         0.26928E-02
         0.26928E-02
         0.26928E-02
         0.26928E-02
         0.26928E-02
         0.26928E-02
         0.26928E-02
         0.26928E-02
         0.26928E-02
         0.26928E-02
         0.26928E-02
         0.26928E-02
         0.26928E-02
         0.26928E-02
         0.26928E-02
         0.26928E-02
         0.26928E-02
         0.26928E-02
         0.26928E-02
         0.26928E-02
         0.26928E-02
         0.26928E-02
         0.26928E-02
         0.26928E-02
         0.26928E-02
         0.26928E-02
         0.26928E-02
         0.26928E-02
         0.26928E-02
         0.26928E-02
         0.26928E-02
         0.26928E-02
         0.26928E-02
         0.26928E-02
  
SCALARS                   nodal_volume  double 1
LOOKUP_TABLE default
         0.91140E-09
         0.72412E-09
         0.77574E-09
         0.13316E-08
         0.45570E-09
         0.36211E-09
         0.38787E-09
         0.66566E-09
         0.71537E-09
         0.91211E-09
         0.35767E-09
         0.45600E-09
         0.51195E-09
         0.61532E-09
         0.25605E-09
         0.30776E-09
         0.10101E-08
         0.74536E-09
         0.50500E-09
         0.37281E-09
         0.30273E-09
         0.57012E-09
         0.62699E-09
         0.15144E-09
         0.28509E-09
         0.31352E-09
         0.51329E-09
         0.64933E-09
         0.25683E-09
         0.32471E-09
         0.12026E-08
         0.93909E-09
         0.11935E-08
         0.60122E-09
         0.46945E-09
         0.59663E-09
         0.70296E-09
         0.80270E-09
         0.35149E-09
         0.40134E-09
         0.75859E-09
         0.84013E-09
         0.37932E-09
         0.42007E-09
         0.64542E-09
         0.40086E-09
         0.32274E-09
         0.20045E-09
         0.76288E-09
         0.38153E-09
         0.63346E-09
         0.31675E-09
         0.66583E-09
         0.33318E-09
         0.68008E-09
         0.34022E-09
         0.58930E-09
         0.71738E-09
         0.29472E-09
         0.35874E-09
         0.90938E-09
         0.64302E-09
         0.45469E-09
         0.32154E-09
         0.10152E-08
         0.50747E-09
         0.88120E-09
         0.44042E-09
         0.40077E-09
         0.61872E-09
         0.20039E-09
         0.30940E-09
         0.70206E-09
         0.35106E-09
         0.74172E-09
         0.37089E-09
         0.71539E-09
         0.35770E-09
         0.56226E-09
         0.28113E-09
         0.35349E-09
         0.58452E-09
         0.17675E-09
         0.29229E-09
         0.77354E-09
         0.38679E-09
         0.62469E-09
         0.31238E-09
         0.54957E-09
         0.27483E-09
         0.36009E-09
         0.61365E-09
         0.18007E-09
         0.30685E-09
         0.83268E-09
         0.41635E-09
         0.87287E-09
         0.43642E-09
         0.70438E-09
         0.35217E-09
         0.43365E-09
         0.74413E-09
         0.21683E-09
         0.37198E-09
         0.27660E-09
         0.35144E-09
         0.13833E-09
         0.17573E-09
         0.32921E-09
         0.16465E-09
         0.38764E-09
         0.19382E-09
         0.37797E-09
         0.18897E-09
         0.36707E-09
         0.18352E-09
         0.39112E-09
         0.19552E-09
         0.41268E-09
         0.20627E-09
         0.38876E-09
         0.19433E-09
         0.30402E-09
         0.15200E-09
         0.24796E-09
         0.12398E-09
         0.31999E-09
         0.16000E-09
         0.42608E-09
         0.21303E-09
         0.46805E-09
         0.23401E-09
         0.44933E-09
         0.22466E-09
         0.40550E-09
         0.20276E-09
         0.36826E-09
         0.18414E-09
         0.29911E-09
         0.14956E-09
         0.25178E-09
         0.12591E-09
         0.32888E-09
         0.16445E-09
         0.43529E-09
         0.21765E-09
         0.44963E-09
         0.22482E-09
         0.36384E-09
         0.18194E-09
         0.29543E-09
         0.14774E-09
         0.36126E-09
         0.18063E-09
         0.42771E-09
         0.21386E-09
         0.91143E-09
         0.72396E-09
         0.77579E-09
         0.13322E-08
         0.71547E-09
         0.91237E-09
         0.51167E-09
         0.61494E-09
         0.10105E-08
         0.74486E-09
         0.30244E-09
         0.57001E-09
         0.62694E-09
         0.51257E-09
         0.64918E-09
         0.12029E-08
         0.93950E-09
         0.11941E-08
         0.70298E-09
         0.80279E-09
         0.75855E-09
         0.84015E-09
         0.64535E-09
         0.40081E-09
         0.76254E-09
         0.63339E-09
         0.66483E-09
         0.67941E-09
         0.58904E-09
         0.71721E-09
         0.90946E-09
         0.64293E-09
         0.10157E-08
         0.88199E-09
         0.40076E-09
         0.61859E-09
         0.70195E-09
         0.74166E-09
         0.71543E-09
         0.56228E-09
         0.35349E-09
         0.58443E-09
         0.77349E-09
         0.62459E-09
         0.54943E-09
         0.35999E-09
         0.61359E-09
         0.83268E-09
         0.87299E-09
         0.70451E-09
         0.43366E-09
         0.74449E-09
         0.27651E-09
         0.35143E-09
         0.32904E-09
         0.38765E-09
         0.37805E-09
         0.36714E-09
         0.39129E-09
         0.41297E-09
         0.38899E-09
         0.30408E-09
         0.24798E-09
         0.31999E-09
         0.42613E-09
         0.46815E-09
         0.44938E-09
         0.40548E-09
         0.36823E-09
         0.29908E-09
         0.25174E-09
         0.32885E-09
         0.43527E-09
         0.44962E-09
         0.36376E-09
         0.29536E-09
         0.36130E-09
         0.42769E-09
         0.91151E-09
         0.72383E-09
         0.77587E-09
         0.13329E-08
         0.71560E-09
         0.91267E-09
         0.51142E-09
         0.61459E-09
         0.10109E-08
         0.74439E-09
         0.30216E-09
         0.56992E-09
         0.62691E-09
         0.51187E-09
         0.64906E-09
         0.12033E-08
         0.93995E-09
         0.11947E-08
         0.70302E-09
         0.80291E-09
         0.75853E-09
         0.84020E-09
         0.64530E-09
         0.40078E-09
         0.76223E-09
         0.63335E-09
         0.66385E-09
         0.67875E-09
         0.58880E-09
         0.71706E-09
         0.90957E-09
         0.64286E-09
         0.10162E-08
         0.88281E-09
         0.40076E-09
         0.61849E-09
         0.70188E-09
         0.74162E-09
         0.71550E-09
         0.56232E-09
         0.35350E-09
         0.58436E-09
         0.77347E-09
         0.62452E-09
         0.54931E-09
         0.35990E-09
         0.61355E-09
         0.83270E-09
         0.87315E-09
         0.70467E-09
         0.43368E-09
         0.74487E-09
         0.27643E-09
         0.35143E-09
         0.32889E-09
         0.38767E-09
         0.37814E-09
         0.36723E-09
         0.39147E-09
         0.41328E-09
         0.38923E-09
         0.30416E-09
         0.24800E-09
         0.32001E-09
         0.42620E-09
         0.46826E-09
         0.44944E-09
         0.40548E-09
         0.36821E-09
         0.29906E-09
         0.25171E-09
         0.32883E-09
         0.43527E-09
         0.44963E-09
         0.36369E-09
         0.29530E-09
         0.36135E-09
         0.42769E-09
         0.91156E-09
         0.72368E-09
         0.77594E-09
         0.13335E-08
         0.71571E-09
         0.91295E-09
         0.51115E-09
         0.61422E-09
         0.10112E-08
         0.74389E-09
         0.30187E-09
         0.56982E-09
         0.62686E-09
         0.51116E-09
         0.64892E-09
         0.12036E-08
         0.94038E-09
         0.11953E-08
         0.70304E-09
         0.80300E-09
         0.75850E-09
         0.84023E-09
         0.64523E-09
         0.40073E-09
         0.76190E-09
         0.63330E-09
         0.66285E-09
         0.67809E-09
         0.58855E-09
         0.71689E-09
         0.90966E-09
         0.64278E-09
         0.10168E-08
         0.88361E-09
         0.40076E-09
         0.61837E-09
         0.70178E-09
         0.74156E-09
         0.71554E-09
         0.56234E-09
         0.35350E-09
         0.58428E-09
         0.77343E-09
         0.62442E-09
         0.54918E-09
         0.35981E-09
         0.61349E-09
         0.83271E-09
         0.87328E-09
         0.70481E-09
         0.43369E-09
         0.74524E-09
         0.27634E-09
         0.35142E-09
         0.32873E-09
         0.38768E-09
         0.37823E-09
         0.36731E-09
         0.39163E-09
         0.41358E-09
         0.38945E-09
         0.30422E-09
         0.24802E-09
         0.32001E-09
         0.42625E-09
         0.46837E-09
         0.44949E-09
         0.40546E-09
         0.36819E-09
         0.29904E-09
         0.25167E-09
         0.32881E-09
         0.43526E-09
         0.44963E-09
         0.36362E-09
         0.29523E-09
         0.36139E-09
         0.42768E-09
         0.91161E-09
         0.72353E-09
         0.77600E-09
         0.13341E-08
         0.71583E-09
         0.91323E-09
         0.51088E-09
         0.61386E-09
         0.10116E-08
         0.74341E-09
         0.30158E-09
         0.56972E-09
         0.62682E-09
         0.51045E-09
         0.64879E-09
         0.12040E-08
         0.94081E-09
         0.11959E-08
         0.70307E-09
         0.80310E-09
         0.75847E-09
         0.84027E-09
         0.64517E-09
         0.40069E-09
         0.76158E-09
         0.63325E-09
         0.66186E-09
         0.67742E-09
         0.58831E-09
         0.71673E-09
         0.90975E-09
         0.64270E-09
         0.10173E-08
         0.88441E-09
         0.40075E-09
         0.61825E-09
         0.70169E-09
         0.74151E-09
         0.71559E-09
         0.56237E-09
         0.35350E-09
         0.58420E-09
         0.77339E-09
         0.62433E-09
         0.54905E-09
         0.35972E-09
         0.61344E-09
         0.83272E-09
         0.87341E-09
         0.70496E-09
         0.43370E-09
         0.74562E-09
         0.27626E-09
         0.35142E-09
         0.32857E-09
         0.38770E-09
         0.37832E-09
         0.36739E-09
         0.39181E-09
         0.41387E-09
         0.38968E-09
         0.30429E-09
         0.24804E-09
         0.32002E-09
         0.42631E-09
         0.46847E-09
         0.44954E-09
         0.40545E-09
         0.36816E-09
         0.29901E-09
         0.25163E-09
         0.32878E-09
         0.43525E-09
         0.44963E-09
         0.36354E-09
         0.29517E-09
         0.36144E-09
         0.42766E-09
         0.91167E-09
         0.72338E-09
         0.77607E-09
         0.13348E-08
         0.71594E-09
         0.91351E-09
         0.51062E-09
         0.61349E-09
         0.10119E-08
         0.74292E-09
         0.30129E-09
         0.56962E-09
         0.62678E-09
         0.50974E-09
         0.64865E-09
         0.12044E-08
         0.94125E-09
         0.11965E-08
         0.70310E-09
         0.80321E-09
         0.75844E-09
         0.84031E-09
         0.64511E-09
         0.40065E-09
         0.76125E-09
         0.63320E-09
         0.66087E-09
         0.67676E-09
         0.58806E-09
         0.71657E-09
         0.90984E-09
         0.64263E-09
         0.10179E-08
         0.88522E-09
         0.40075E-09
         0.61813E-09
         0.70160E-09
         0.74146E-09
         0.71564E-09
         0.56240E-09
         0.35350E-09
         0.58412E-09
         0.77336E-09
         0.62425E-09
         0.54892E-09
         0.35963E-09
         0.61339E-09
         0.83274E-09
         0.87355E-09
         0.70511E-09
         0.43371E-09
         0.74599E-09
         0.27618E-09
         0.35141E-09
         0.32841E-09
         0.38771E-09
         0.37841E-09
         0.36747E-09
         0.39198E-09
         0.41417E-09
         0.38992E-09
         0.30436E-09
         0.24806E-09
         0.32003E-09
         0.42637E-09
         0.46858E-09
         0.44960E-09
         0.40544E-09
         0.36814E-09
         0.29899E-09
         0.25159E-09
         0.32876E-09
         0.43525E-09
         0.44963E-09
         0.36347E-09
         0.29511E-09
         0.36148E-09
         0.42766E-09
         0.91171E-09
         0.72323E-09
         0.77613E-09
         0.13354E-08
         0.71606E-09
         0.91379E-09
         0.51035E-09
         0.61313E-09
         0.10123E-08
         0.74243E-09
         0.30101E-09
         0.56952E-09
         0.62674E-09
         0.50903E-09
         0.64851E-09
         0.12047E-08
         0.94167E-09
         0.11971E-08
         0.70312E-09
         0.80331E-09
         0.75840E-09
         0.84034E-09
         0.64504E-09
         0.40061E-09
         0.76092E-09
         0.63314E-09
         0.65988E-09
         0.67609E-09
         0.58781E-09
         0.71641E-09
         0.90993E-09
         0.64255E-09
         0.10184E-08
         0.88601E-09
         0.40075E-09
         0.61801E-09
         0.70151E-09
         0.74140E-09
         0.71569E-09
         0.56243E-09
         0.35350E-09
         0.58404E-09
         0.77332E-09
         0.62416E-09
         0.54879E-09
         0.35953E-09
         0.61334E-09
         0.83274E-09
         0.87368E-09
         0.70525E-09
         0.43372E-09
         0.74636E-09
         0.27609E-09
         0.35141E-09
         0.32825E-09
         0.38772E-09
         0.37849E-09
         0.36754E-09
         0.39215E-09
         0.41447E-09
         0.39014E-09
         0.30443E-09
         0.24808E-09
         0.32004E-09
         0.42642E-09
         0.46868E-09
         0.44965E-09
         0.40543E-09
         0.36812E-09
         0.29897E-09
         0.25155E-09
         0.32874E-09
         0.43524E-09
         0.44963E-09
         0.36340E-09
         0.29504E-09
         0.36153E-09
         0.42764E-09
         0.91176E-09
         0.72308E-09
         0.77620E-09
         0.13360E-08
         0.71617E-09
         0.91407E-09
         0.51008E-09
         0.61276E-09
         0.10126E-08
         0.74195E-09
         0.30072E-09
         0.56942E-09
         0.62670E-09
         0.50832E-09
         0.64838E-09
         0.12051E-08
         0.94210E-09
         0.11977E-08
         0.70314E-09
         0.80341E-09
         0.75837E-09
         0.84038E-09
         0.64498E-09
         0.40056E-09
         0.76060E-09
         0.63309E-09
         0.65888E-09
         0.67542E-09
         0.58756E-09
         0.71624E-09
         0.91002E-09
         0.64247E-09
         0.10189E-08
         0.88682E-09
         0.40074E-09
         0.61790E-09
         0.70142E-09
         0.74135E-09
         0.71574E-09
         0.56245E-09
         0.35351E-09
         0.58396E-09
         0.77328E-09
         0.62407E-09
         0.54866E-09
         0.35944E-09
         0.61329E-09
         0.83275E-09
         0.87382E-09
         0.70539E-09
         0.43373E-09
         0.74673E-09
         0.27601E-09
         0.35140E-09
         0.32809E-09
         0.38774E-09
         0.37858E-09
         0.36762E-09
         0.39232E-09
         0.41477E-09
         0.39037E-09
         0.30450E-09
         0.24810E-09
         0.32005E-09
         0.42648E-09
         0.46879E-09
         0.44970E-09
         0.40541E-09
         0.36809E-09
         0.29894E-09
         0.25151E-09
         0.32871E-09
         0.43523E-09
         0.44963E-09
         0.36333E-09
         0.29497E-09
         0.36157E-09
         0.42763E-09
         0.91182E-09
         0.72293E-09
         0.77627E-09
         0.13367E-08
         0.71629E-09
         0.91436E-09
         0.50982E-09
         0.61240E-09
         0.10130E-08
         0.74146E-09
         0.30043E-09
         0.56932E-09
         0.62666E-09
         0.50762E-09
         0.64825E-09
         0.12054E-08
         0.94253E-09
         0.11983E-08
         0.70317E-09
         0.80351E-09
         0.75834E-09
         0.84041E-09
         0.64491E-09
         0.40053E-09
         0.76028E-09
         0.63304E-09
         0.65790E-09
         0.67476E-09
         0.58731E-09
         0.71609E-09
         0.91012E-09
         0.64239E-09
         0.10195E-08
         0.88762E-09
         0.40074E-09
         0.61778E-09
         0.70133E-09
         0.74130E-09
         0.71579E-09
         0.56249E-09
         0.35351E-09
         0.58388E-09
         0.77324E-09
         0.62398E-09
         0.54853E-09
         0.35935E-09
         0.61324E-09
         0.83277E-09
         0.87396E-09
         0.70554E-09
         0.43375E-09
         0.74711E-09
         0.27592E-09
         0.35140E-09
         0.32793E-09
         0.38775E-09
         0.37867E-09
         0.36770E-09
         0.39249E-09
         0.41507E-09
         0.39061E-09
         0.30457E-09
         0.24812E-09
         0.32006E-09
         0.42654E-09
         0.46890E-09
         0.44975E-09
         0.40540E-09
         0.36807E-09
         0.29892E-09
         0.25148E-09
         0.32869E-09
         0.43522E-09
         0.44963E-09
         0.36325E-09
         0.29491E-09
         0.36162E-09
         0.42762E-09
         0.91187E-09
         0.72278E-09
         0.77633E-09
         0.13373E-08
         0.71640E-09
         0.91463E-09
         0.50955E-09
         0.61204E-09
         0.10134E-08
         0.74098E-09
         0.30015E-09
         0.56922E-09
         0.62662E-09
         0.50691E-09
         0.64811E-09
         0.12058E-08
         0.94296E-09
         0.11989E-08
         0.70320E-09
         0.80361E-09
         0.75831E-09
         0.84045E-09
         0.64485E-09
         0.40048E-09
         0.75995E-09
         0.63298E-09
         0.65690E-09
         0.67409E-09
         0.58706E-09
         0.71592E-09
         0.91020E-09
         0.64231E-09
         0.10200E-08
         0.88843E-09
         0.40074E-09
         0.61766E-09
         0.70124E-09
         0.74124E-09
         0.71584E-09
         0.56251E-09
         0.35351E-09
         0.58380E-09
         0.77320E-09
         0.62389E-09
         0.54840E-09
         0.35926E-09
         0.61318E-09
         0.83277E-09
         0.87409E-09
         0.70568E-09
         0.43376E-09
         0.74748E-09
         0.27584E-09
         0.35139E-09
         0.32777E-09
         0.38777E-09
         0.37876E-09
         0.36778E-09
         0.39266E-09
         0.41536E-09
         0.39084E-09
         0.30464E-09
         0.24814E-09
         0.32006E-09
         0.42659E-09
         0.46900E-09
         0.44980E-09
         0.40539E-09
         0.36805E-09
         0.29890E-09
         0.25144E-09
         0.32867E-09
         0.43521E-09
         0.44963E-09
         0.36318E-09
         0.29485E-09
         0.36166E-09
         0.42761E-09
         0.91192E-09
         0.72263E-09
         0.77640E-09
         0.13380E-08
         0.71652E-09
         0.91491E-09
         0.50928E-09
         0.61167E-09
         0.10137E-08
         0.74049E-09
         0.29986E-09
         0.56912E-09
         0.62657E-09
         0.50620E-09
         0.64797E-09
         0.12061E-08
         0.94339E-09
         0.11995E-08
         0.70322E-09
         0.80371E-09
         0.75827E-09
         0.84048E-09
         0.64478E-09
         0.40044E-09
         0.75962E-09
         0.63293E-09
         0.65591E-09
         0.67343E-09
         0.58681E-09
         0.71576E-09
         0.91029E-09
         0.64223E-09
         0.10205E-08
         0.88923E-09
         0.40073E-09
         0.61754E-09
         0.70114E-09
         0.74119E-09
         0.71588E-09
         0.56254E-09
         0.35351E-09
         0.58372E-09
         0.77316E-09
         0.62380E-09
         0.54827E-09
         0.35917E-09
         0.61313E-09
         0.83278E-09
         0.87422E-09
         0.70582E-09
         0.43377E-09
         0.74785E-09
         0.27575E-09
         0.35138E-09
         0.32761E-09
         0.38778E-09
         0.37885E-09
         0.36786E-09
         0.39283E-09
         0.41566E-09
         0.39107E-09
         0.30470E-09
         0.24816E-09
         0.32007E-09
         0.42665E-09
         0.46911E-09
         0.44985E-09
         0.40538E-09
         0.36802E-09
         0.29887E-09
         0.25140E-09
         0.32864E-09
         0.43520E-09
         0.44963E-09
         0.36310E-09
         0.29478E-09
         0.36170E-09
         0.42760E-09
         0.91198E-09
         0.72248E-09
         0.77646E-09
         0.13386E-08
         0.71663E-09
         0.91520E-09
         0.50901E-09
         0.61131E-09
         0.10141E-08
         0.74000E-09
         0.29957E-09
         0.56902E-09
         0.62653E-09
         0.50549E-09
         0.64784E-09
         0.12065E-08
         0.94382E-09
         0.12002E-08
         0.70325E-09
         0.80381E-09
         0.75824E-09
         0.84052E-09
         0.64472E-09
         0.40040E-09
         0.75929E-09
         0.63288E-09
         0.65492E-09
         0.67276E-09
         0.58657E-09
         0.71560E-09
         0.91038E-09
         0.64216E-09
         0.10211E-08
         0.89003E-09
         0.40073E-09
         0.61742E-09
         0.70105E-09
         0.74114E-09
         0.71593E-09
         0.56257E-09
         0.35351E-09
         0.58364E-09
         0.77313E-09
         0.62371E-09
         0.54814E-09
         0.35908E-09
         0.61308E-09
         0.83280E-09
         0.87436E-09
         0.70597E-09
         0.43378E-09
         0.74823E-09
         0.27567E-09
         0.35138E-09
         0.32745E-09
         0.38779E-09
         0.37893E-09
         0.36794E-09
         0.39300E-09
         0.41596E-09
         0.39130E-09
         0.30477E-09
         0.24818E-09
         0.32008E-09
         0.42671E-09
         0.46921E-09
         0.44991E-09
         0.40537E-09
         0.36800E-09
         0.29885E-09
         0.25136E-09
         0.32862E-09
         0.43520E-09
         0.44963E-09
         0.36303E-09
         0.29472E-09
         0.36175E-09
         0.42759E-09
         0.91203E-09
         0.72233E-09
         0.77653E-09
         0.13392E-08
         0.71675E-09
         0.91547E-09
         0.50875E-09
         0.61094E-09
         0.10144E-08
         0.73952E-09
         0.29928E-09
         0.56892E-09
         0.62649E-09
         0.50478E-09
         0.64770E-09
         0.12068E-08
         0.94424E-09
         0.12008E-08
         0.70327E-09
         0.80391E-09
         0.75821E-09
         0.84055E-09
         0.64465E-09
         0.40035E-09
         0.75896E-09
         0.63282E-09
         0.65393E-09
         0.67210E-09
         0.58632E-09
         0.71543E-09
         0.91047E-09
         0.64208E-09
         0.10216E-08
         0.89084E-09
         0.40073E-09
         0.61730E-09
         0.70096E-09
         0.74108E-09
         0.71598E-09
         0.56259E-09
         0.35351E-09
         0.58356E-09
         0.77309E-09
         0.62362E-09
         0.54801E-09
         0.35898E-09
         0.61303E-09
         0.83281E-09
         0.87449E-09
         0.70611E-09
         0.43379E-09
         0.74860E-09
         0.27558E-09
         0.35137E-09
         0.32729E-09
         0.38781E-09
         0.37902E-09
         0.36802E-09
         0.39317E-09
         0.41625E-09
         0.39153E-09
         0.30484E-09
         0.24820E-09
         0.32009E-09
         0.42677E-09
         0.46932E-09
         0.44996E-09
         0.40536E-09
         0.36798E-09
         0.29883E-09
         0.25132E-09
         0.32859E-09
         0.43519E-09
         0.44963E-09
         0.36296E-09
         0.29465E-09
         0.36179E-09
         0.42758E-09
         0.91208E-09
         0.72218E-09
         0.77659E-09
         0.13399E-08
         0.71686E-09
         0.91576E-09
         0.50848E-09
         0.61058E-09
         0.10148E-08
         0.73903E-09
         0.29900E-09
         0.56882E-09
         0.62645E-09
         0.50408E-09
         0.64757E-09
         0.12072E-08
         0.94467E-09
         0.12014E-08
         0.70330E-09
         0.80401E-09
         0.75818E-09
         0.84059E-09
         0.64459E-09
         0.40031E-09
         0.75864E-09
         0.63277E-09
         0.65294E-09
         0.67143E-09
         0.58607E-09
         0.71527E-09
         0.91057E-09
         0.64200E-09
         0.10221E-08
         0.89164E-09
         0.40072E-09
         0.61719E-09
         0.70087E-09
         0.74103E-09
         0.71603E-09
         0.56262E-09
         0.35352E-09
         0.58348E-09
         0.77305E-09
         0.62354E-09
         0.54788E-09
         0.35889E-09
         0.61298E-09
         0.83282E-09
         0.87463E-09
         0.70626E-09
         0.43380E-09
         0.74897E-09
         0.27550E-09
         0.35137E-09
         0.32713E-09
         0.38782E-09
         0.37911E-09
         0.36810E-09
         0.39334E-09
         0.41655E-09
         0.39176E-09
         0.30491E-09
         0.24822E-09
         0.32010E-09
         0.42682E-09
         0.46942E-09
         0.45001E-09
         0.40534E-09
         0.36796E-09
         0.29881E-09
         0.25128E-09
         0.32857E-09
         0.43518E-09
         0.44963E-09
         0.36288E-09
         0.29459E-09
         0.36184E-09
         0.42757E-09
         0.91214E-09
         0.72204E-09
         0.77666E-09
         0.13405E-08
         0.71698E-09
         0.91604E-09
         0.50822E-09
         0.61022E-09
         0.10151E-08
         0.73855E-09
         0.29871E-09
         0.56872E-09
         0.62641E-09
         0.50337E-09
         0.64743E-09
         0.12075E-08
         0.94510E-09
         0.12020E-08
         0.70333E-09
         0.80411E-09
         0.75815E-09
         0.84063E-09
         0.64453E-09
         0.40027E-09
         0.75831E-09
         0.63272E-09
         0.65196E-09
         0.67077E-09
         0.58582E-09
         0.71511E-09
         0.91066E-09
         0.64192E-09
         0.10227E-08
         0.89245E-09
         0.40072E-09
         0.61707E-09
         0.70078E-09
         0.74098E-09
         0.71608E-09
         0.56265E-09
         0.35352E-09
         0.58340E-09
         0.77301E-09
         0.62345E-09
         0.54775E-09
         0.35880E-09
         0.61293E-09
         0.83283E-09
         0.87476E-09
         0.70641E-09
         0.43382E-09
         0.74935E-09
         0.27541E-09
         0.35136E-09
         0.32697E-09
         0.38784E-09
         0.37920E-09
         0.36818E-09
         0.39352E-09
         0.41685E-09
         0.39199E-09
         0.30498E-09
         0.24824E-09
         0.32011E-09
         0.42688E-09
         0.46953E-09
         0.45007E-09
         0.40533E-09
         0.36793E-09
         0.29878E-09
         0.25124E-09
         0.32855E-09
         0.43517E-09
         0.44963E-09
         0.36281E-09
         0.29452E-09
         0.36188E-09
         0.42756E-09
         0.91219E-09
         0.72188E-09
         0.77672E-09
         0.13412E-08
         0.71709E-09
         0.91632E-09
         0.50795E-09
         0.60986E-09
         0.10155E-08
         0.73806E-09
         0.29842E-09
         0.56862E-09
         0.62636E-09
         0.50266E-09
         0.64730E-09
         0.12079E-08
         0.94552E-09
         0.12026E-08
         0.70335E-09
         0.80421E-09
         0.75811E-09
         0.84066E-09
         0.64446E-09
         0.40023E-09
         0.75798E-09
         0.63267E-09
         0.65096E-09
         0.67010E-09
         0.58557E-09
         0.71494E-09
         0.91074E-09
         0.64184E-09
         0.10232E-08
         0.89325E-09
         0.40072E-09
         0.61695E-09
         0.70069E-09
         0.74092E-09
         0.71612E-09
         0.56268E-09
         0.35352E-09
         0.58332E-09
         0.77297E-09
         0.62336E-09
         0.54762E-09
         0.35871E-09
         0.61287E-09
         0.83284E-09
         0.87489E-09
         0.70655E-09
         0.43383E-09
         0.74972E-09
         0.27533E-09
         0.35136E-09
         0.32681E-09
         0.38785E-09
         0.37929E-09
         0.36825E-09
         0.39369E-09
         0.41715E-09
         0.39222E-09
         0.30505E-09
         0.24826E-09
         0.32011E-09
         0.42694E-09
         0.46963E-09
         0.45011E-09
         0.40532E-09
         0.36791E-09
         0.29876E-09
         0.25120E-09
         0.32853E-09
         0.43516E-09
         0.44962E-09
         0.36274E-09
         0.29445E-09
         0.36192E-09
         0.42755E-09
         0.91224E-09
         0.72173E-09
         0.77679E-09
         0.13418E-08
         0.71720E-09
         0.91660E-09
         0.50768E-09
         0.60949E-09
         0.10158E-08
         0.73758E-09
         0.29814E-09
         0.56852E-09
         0.62632E-09
         0.50195E-09
         0.64716E-09
         0.12082E-08
         0.94595E-09
         0.12032E-08
         0.70337E-09
         0.80431E-09
         0.75808E-09
         0.84069E-09
         0.64440E-09
         0.40018E-09
         0.75766E-09
         0.63262E-09
         0.64998E-09
         0.66943E-09
         0.58532E-09
         0.71478E-09
         0.91083E-09
         0.64176E-09
         0.10238E-08
         0.89406E-09
         0.40071E-09
         0.61683E-09
         0.70059E-09
         0.74087E-09
         0.71617E-09
         0.56270E-09
         0.35352E-09
         0.58324E-09
         0.77294E-09
         0.62327E-09
         0.54749E-09
         0.35861E-09
         0.61282E-09
         0.83284E-09
         0.87503E-09
         0.70669E-09
         0.43384E-09
         0.75009E-09
         0.27524E-09
         0.35135E-09
         0.32665E-09
         0.38786E-09
         0.37937E-09
         0.36833E-09
         0.39386E-09
         0.41745E-09
         0.39245E-09
         0.30512E-09
         0.24828E-09
         0.32012E-09
         0.42699E-09
         0.46974E-09
         0.45017E-09
         0.40531E-09
         0.36788E-09
         0.29873E-09
         0.25117E-09
         0.32850E-09
         0.43515E-09
         0.44962E-09
         0.36266E-09
         0.29439E-09
         0.36197E-09
         0.42754E-09
         0.91230E-09
         0.72159E-09
         0.77686E-09
         0.13425E-08
         0.71732E-09
         0.91688E-09
         0.50742E-09
         0.60913E-09
         0.10162E-08
         0.73710E-09
         0.29785E-09
         0.56842E-09
         0.62628E-09
         0.50125E-09
         0.64703E-09
         0.12086E-08
         0.94638E-09
         0.12038E-08
         0.70340E-09
         0.80441E-09
         0.75805E-09
         0.84073E-09
         0.64433E-09
         0.40014E-09
         0.75733E-09
         0.63257E-09
         0.64899E-09
         0.66877E-09
         0.58508E-09
         0.71462E-09
         0.91093E-09
         0.64169E-09
         0.10243E-08
         0.89487E-09
         0.40071E-09
         0.61671E-09
         0.70051E-09
         0.74082E-09
         0.71622E-09
         0.56273E-09
         0.35352E-09
         0.58316E-09
         0.77290E-09
         0.62318E-09
         0.54737E-09
         0.35852E-09
         0.61277E-09
         0.83286E-09
         0.87517E-09
         0.70684E-09
         0.43385E-09
         0.75047E-09
         0.27516E-09
         0.35135E-09
         0.32649E-09
         0.38788E-09
         0.37946E-09
         0.36841E-09
         0.39403E-09
         0.41775E-09
         0.39268E-09
         0.30519E-09
         0.24830E-09
         0.32013E-09
         0.42705E-09
         0.46985E-09
         0.45022E-09
         0.40530E-09
         0.36786E-09
         0.29871E-09
         0.25113E-09
         0.32848E-09
         0.43515E-09
         0.44962E-09
         0.36259E-09
         0.29433E-09
         0.36201E-09
         0.42753E-09
         0.91235E-09
         0.72143E-09
         0.77692E-09
         0.13431E-08
         0.71743E-09
         0.91716E-09
         0.50715E-09
         0.60877E-09
         0.10165E-08
         0.73661E-09
         0.29757E-09
         0.56832E-09
         0.62624E-09
         0.50054E-09
         0.64689E-09
         0.12089E-08
         0.94680E-09
         0.12044E-08
         0.70342E-09
         0.80450E-09
         0.75802E-09
         0.84076E-09
         0.64427E-09
         0.40010E-09
         0.75700E-09
         0.63251E-09
         0.64800E-09
         0.66810E-09
         0.58482E-09
         0.71445E-09
         0.91101E-09
         0.64161E-09
         0.10248E-08
         0.89567E-09
         0.40071E-09
         0.61659E-09
         0.70041E-09
         0.74077E-09
         0.71627E-09
         0.56276E-09
         0.35352E-09
         0.58308E-09
         0.77286E-09
         0.62309E-09
         0.54723E-09
         0.35843E-09
         0.61272E-09
         0.83287E-09
         0.87530E-09
         0.70698E-09
         0.43386E-09
         0.75084E-09
         0.27507E-09
         0.35134E-09
         0.32633E-09
         0.38789E-09
         0.37955E-09
         0.36849E-09
         0.39420E-09
         0.41804E-09
         0.39291E-09
         0.30525E-09
         0.24832E-09
         0.32014E-09
         0.42711E-09
         0.46995E-09
         0.45027E-09
         0.40528E-09
         0.36784E-09
         0.29869E-09
         0.25109E-09
         0.32845E-09
         0.43514E-09
         0.44962E-09
         0.36252E-09
         0.29426E-09
         0.36206E-09
         0.42751E-09
         0.91240E-09
         0.72128E-09
         0.77698E-09
         0.13437E-08
         0.71755E-09
         0.91744E-09
         0.50688E-09
         0.60841E-09
         0.10169E-08
         0.73612E-09
         0.29728E-09
         0.56822E-09
         0.62619E-09
         0.49984E-09
         0.64676E-09
         0.12093E-08
         0.94723E-09
         0.12050E-08
         0.70345E-09
         0.80460E-09
         0.75798E-09
         0.84080E-09
         0.64420E-09
         0.40006E-09
         0.75667E-09
         0.63246E-09
         0.64701E-09
         0.66744E-09
         0.58457E-09
         0.71429E-09
         0.91110E-09
         0.64153E-09
         0.10254E-08
         0.89648E-09
         0.40070E-09
         0.61647E-09
         0.70032E-09
         0.74071E-09
         0.71632E-09
         0.56279E-09
         0.35353E-09
         0.58300E-09
         0.77282E-09
         0.62300E-09
         0.54710E-09
         0.35834E-09
         0.61266E-09
         0.83288E-09
         0.87543E-09
         0.70713E-09
         0.43387E-09
         0.75122E-09
         0.27499E-09
         0.35133E-09
         0.32617E-09
         0.38790E-09
         0.37964E-09
         0.36857E-09
         0.39437E-09
         0.41834E-09
         0.39314E-09
         0.30532E-09
         0.24834E-09
         0.32014E-09
         0.42716E-09
         0.47005E-09
         0.45032E-09
         0.40527E-09
         0.36781E-09
         0.29866E-09
         0.25105E-09
         0.32843E-09
         0.43513E-09
         0.44962E-09
         0.36244E-09
         0.29419E-09
         0.36210E-09
         0.42750E-09
         0.91246E-09
         0.72114E-09
         0.77705E-09
         0.13444E-08
         0.71767E-09
         0.91773E-09
         0.50662E-09
         0.60805E-09
         0.10173E-08
         0.73564E-09
         0.29700E-09
         0.56812E-09
         0.62616E-09
         0.49914E-09
         0.64663E-09
         0.12097E-08
         0.94766E-09
         0.12056E-08
         0.70348E-09
         0.80471E-09
         0.75796E-09
         0.84084E-09
         0.64414E-09
         0.40002E-09
         0.75635E-09
         0.63241E-09
         0.64603E-09
         0.66678E-09
         0.58433E-09
         0.71413E-09
         0.91120E-09
         0.64146E-09
         0.10259E-08
         0.89729E-09
         0.40070E-09
         0.61636E-09
         0.70023E-09
         0.74067E-09
         0.71637E-09
         0.56282E-09
         0.35353E-09
         0.58293E-09
         0.77279E-09
         0.62291E-09
         0.54698E-09
         0.35825E-09
         0.61261E-09
         0.83289E-09
         0.87557E-09
         0.70728E-09
         0.43389E-09
         0.75160E-09
         0.27491E-09
         0.35133E-09
         0.32601E-09
         0.38792E-09
         0.37972E-09
         0.36865E-09
         0.39454E-09
         0.41864E-09
         0.39337E-09
         0.30539E-09
         0.24836E-09
         0.32015E-09
         0.42722E-09
         0.47016E-09
         0.45038E-09
         0.40526E-09
         0.36779E-09
         0.29864E-09
         0.25101E-09
         0.32841E-09
         0.43512E-09
         0.44962E-09
         0.36237E-09
         0.29413E-09
         0.36215E-09
         0.42750E-09
         0.91249E-09
         0.72097E-09
         0.77710E-09
         0.13450E-08
         0.71777E-09
         0.91799E-09
         0.50634E-09
         0.60767E-09
         0.10176E-08
         0.73514E-09
         0.29670E-09
         0.56801E-09
         0.62610E-09
         0.49842E-09
         0.64648E-09
         0.12100E-08
         0.94806E-09
         0.12062E-08
         0.70349E-09
         0.80479E-09
         0.75791E-09
         0.84086E-09
         0.64406E-09
         0.39997E-09
         0.75600E-09
         0.63234E-09
         0.64503E-09
         0.66610E-09
         0.58407E-09
         0.71395E-09
         0.91127E-09
         0.64136E-09
         0.10264E-08
         0.89808E-09
         0.40069E-09
         0.61622E-09
         0.70012E-09
         0.74060E-09
         0.71641E-09
         0.56283E-09
         0.35352E-09
         0.58283E-09
         0.77273E-09
         0.62281E-09
         0.54684E-09
         0.35815E-09
         0.61255E-09
         0.83288E-09
         0.87569E-09
         0.70741E-09
         0.43389E-09
         0.75195E-09
         0.27482E-09
         0.35132E-09
         0.32584E-09
         0.38793E-09
         0.37980E-09
         0.36872E-09
         0.39470E-09
         0.41893E-09
         0.39360E-09
         0.30545E-09
         0.24837E-09
         0.32016E-09
         0.42727E-09
         0.47026E-09
         0.45042E-09
         0.40524E-09
         0.36776E-09
         0.29861E-09
         0.25097E-09
         0.32838E-09
         0.43510E-09
         0.44961E-09
         0.36229E-09
         0.29406E-09
         0.36218E-09
         0.42748E-09
         0.91256E-09
         0.72083E-09
         0.77718E-09
         0.13457E-08
         0.71789E-09
         0.91829E-09
         0.50608E-09
         0.60732E-09
         0.10180E-08
         0.73467E-09
         0.29642E-09
         0.56792E-09
         0.62607E-09
         0.49772E-09
         0.64636E-09
         0.12103E-08
         0.94850E-09
         0.12068E-08
         0.70352E-09
         0.80490E-09
         0.75789E-09
         0.84091E-09
         0.64401E-09
         0.39993E-09
         0.75569E-09
         0.63230E-09
         0.64405E-09
         0.66544E-09
         0.58382E-09
         0.71379E-09
         0.91137E-09
         0.64129E-09
         0.10270E-08
         0.89890E-09
         0.40069E-09
         0.61611E-09
         0.70004E-09
         0.74056E-09
         0.71646E-09
         0.56287E-09
         0.35353E-09
         0.58276E-09
         0.77271E-09
         0.62273E-09
         0.54672E-09
         0.35806E-09
         0.61251E-09
         0.83291E-09
         0.87583E-09
         0.70756E-09
         0.43391E-09
         0.75234E-09
         0.27474E-09
         0.35132E-09
         0.32569E-09
         0.38794E-09
         0.37990E-09
         0.36881E-09
         0.39488E-09
         0.41923E-09
         0.39383E-09
         0.30553E-09
         0.24840E-09
         0.32017E-09
         0.42734E-09
         0.47037E-09
         0.45048E-09
         0.40524E-09
         0.36774E-09
         0.29859E-09
         0.25093E-09
         0.32836E-09
         0.43510E-09
         0.44962E-09
         0.36222E-09
         0.29400E-09
         0.36223E-09
         0.42747E-09
         0.45631E-09
         0.36039E-09
         0.38862E-09
         0.67302E-09
         0.35899E-09
         0.45923E-09
         0.25298E-09
         0.30358E-09
         0.50909E-09
         0.36723E-09
         0.14815E-09
         0.28394E-09
         0.31303E-09
         0.24869E-09
         0.32316E-09
         0.60528E-09
         0.47437E-09
         0.60357E-09
         0.35178E-09
         0.40249E-09
         0.37895E-09
         0.42048E-09
         0.32200E-09
         0.19996E-09
         0.37777E-09
         0.31615E-09
         0.32179E-09
         0.33257E-09
         0.29186E-09
         0.35687E-09
         0.45572E-09
         0.32064E-09
         0.51365E-09
         0.44967E-09
         0.20035E-09
         0.30804E-09
         0.35001E-09
         0.37028E-09
         0.35826E-09
         0.28145E-09
         0.17677E-09
         0.29137E-09
         0.38636E-09
         0.31135E-09
         0.27333E-09
         0.17901E-09
         0.30625E-09
         0.41647E-09
         0.43797E-09
         0.35383E-09
         0.21697E-09
         0.37628E-09
         0.13735E-09
         0.17566E-09
         0.16281E-09
         0.19398E-09
         0.18998E-09
         0.18443E-09
         0.19749E-09
         0.20970E-09
         0.19698E-09
         0.15279E-09
         0.12421E-09
         0.16009E-09
         0.21369E-09
         0.23522E-09
         0.22526E-09
         0.20262E-09
         0.18387E-09
         0.14930E-09
         0.12546E-09
         0.16418E-09
         0.21756E-09
         0.22482E-09
         0.18110E-09
         0.14699E-09
         0.18113E-09
         0.21374E-09
  
SCALARS               pre_disp_force_x  double 1
LOOKUP_TABLE default
         0.00000E+00
         0.00000E+00
         0.00000E+00
         0.00000E+00
         0.00000E+00
         0.00000E+00
         0.00000E+00
         0.00000E+00
         0.00000E+00
         0.00000E+00
         0.00000E+00
         0.00000E+00
         0.00000E+00
         0.00000E+00
         0.00000E+00
         0.00000E+00
         0.00000E+00
         0.00000E+00
         0.00000E+00
         0.00000E+00
         0.00000E+00
         0.00000E+00
         0.00000E+00
         0.00000E+00
         0.00000E+00
         0.00000E+00
         0.00000E+00
         0.00000E+00
         0.00000E+00
         0.00000E+00
         0.00000E+00
         0.00000E+00
         0.00000E+00
         0.00000E+00
         0.00000E+00
         0.00000E+00
         0.00000E+00
         0.00000E+00
         0.00000E+00
         0.00000E+00
         0.00000E+00
         0.00000E+00
         0.00000E+00
         0.00000E+00
         0.00000E+00
         0.00000E+00
         0.00000E+00
         0.00000E+00
         0.00000E+00
         0.00000E+00
         0.00000E+00
         0.00000E+00
         0.00000E+00
         0.00000E+00
         0.00000E+00
         0.00000E+00
         0.00000E+00
         0.00000E+00
         0.00000E+00
         0.00000E+00
         0.00000E+00
         0.00000E+00
         0.00000E+00
         0.00000E+00
         0.00000E+00
         0.00000E+00
         0.00000E+00
         0.00000E+00
         0.00000E+00
         0.00000E+00
         0.00000E+00
         0.00000E+00
         0.00000E+00
         0.00000E+00
         0.00000E+00
         0.00000E+00
         0.00000E+00
         0.00000E+00
         0.00000E+00
         0.00000E+00
         0.00000E+00
         0.00000E+00
         0.00000E+00
         0.00000E+00
         0.00000E+00
         0.00000E+00
         0.00000E+00
         0.00000E+00
         0.00000E+00
         0.00000E+00
         0.00000E+00
         0.00000E+00
         0.00000E+00
         0.00000E+00
         0.00000E+00
         0.00000E+00
         0.00000E+00
         0.00000E+00
         0.00000E+00
         0.00000E+00
         0.00000E+00
         0.00000E+00
         0.00000E+00
         0.00000E+00
         0.00000E+00
         0.00000E+00
         0.00000E+00
         0.00000E+00
         0.00000E+00
         0.00000E+00
         0.00000E+00
         0.00000E+00
         0.00000E+00
         0.00000E+00
         0.00000E+00
         0.00000E+00
         0.00000E+00
         0.00000E+00
         0.00000E+00
         0.00000E+00
         0.00000E+00
         0.00000E+00
         0.00000E+00
         0.00000E+00
         0.00000E+00
         0.00000E+00
         0.00000E+00
         0.00000E+00
         0.00000E+00
         0.00000E+00
         0.00000E+00
         0.00000E+00
         0.00000E+00
         0.00000E+00
         0.00000E+00
         0.00000E+00
         0.00000E+00
         0.00000E+00
         0.00000E+00
         0.00000E+00
         0.00000E+00
         0.00000E+00
         0.00000E+00
         0.00000E+00
         0.00000E+00
         0.00000E+00
         0.00000E+00
         0.00000E+00
         0.00000E+00
         0.00000E+00
         0.00000E+00
         0.00000E+00
         0.00000E+00
         0.00000E+00
         0.00000E+00
         0.00000E+00
         0.00000E+00
         0.00000E+00
         0.00000E+00
         0.00000E+00
         0.00000E+00
         0.00000E+00
         0.00000E+00
         0.00000E+00
         0.00000E+00
         0.00000E+00
         0.00000E+00
         0.00000E+00
         0.00000E+00
         0.00000E+00
         0.00000E+00
         0.00000E+00
         0.00000E+00
         0.00000E+00
         0.00000E+00
         0.00000E+00
         0.00000E+00
         0.00000E+00
         0.00000E+00
         0.00000E+00
         0.00000E+00
         0.00000E+00
         0.00000E+00
         0.00000E+00
         0.00000E+00
         0.00000E+00
         0.00000E+00
         0.00000E+00
         0.00000E+00
         0.00000E+00
         0.00000E+00
         0.00000E+00
         0.00000E+00
         0.00000E+00
         0.00000E+00
         0.00000E+00
         0.00000E+00
         0.00000E+00
         0.00000E+00
         0.00000E+00
         0.00000E+00
         0.00000E+00
         0.00000E+00
         0.00000E+00
         0.00000E+00
         0.00000E+00
         0.00000E+00
         0.00000E+00
         0.00000E+00
         0.00000E+00
         0.00000E+00
         0.00000E+00
         0.00000E+00
         0.00000E+00
         0.00000E+00
         0.00000E+00
         0.00000E+00
         0.00000E+00
         0.00000E+00
         0.00000E+00
         0.00000E+00
         0.00000E+00
         0.00000E+00
         0.00000E+00
         0.00000E+00
         0.00000E+00
         0.00000E+00
         0.00000E+00
         0.00000E+00
         0.00000E+00
         0.00000E+00
         0.00000E+00
         0.00000E+00
         0.00000E+00
         0.00000E+00
         0.00000E+00
         0.00000E+00
         0.00000E+00
         0.00000E+00
         0.00000E+00
         0.00000E+00
         0.00000E+00
         0.00000E+00
         0.00000E+00
         0.00000E+00
         0.00000E+00
         0.00000E+00
         0.00000E+00
         0.00000E+00
         0.00000E+00
         0.00000E+00
         0.00000E+00
         0.00000E+00
         0.00000E+00
         0.00000E+00
         0.00000E+00
         0.00000E+00
         0.00000E+00
         0.00000E+00
         0.00000E+00
         0.00000E+00
         0.00000E+00
         0.00000E+00
         0.00000E+00
         0.00000E+00
         0.00000E+00
         0.00000E+00
         0.00000E+00
         0.00000E+00
         0.00000E+00
         0.00000E+00
         0.00000E+00
         0.00000E+00
         0.00000E+00
         0.00000E+00
         0.00000E+00
         0.00000E+00
         0.00000E+00
         0.00000E+00
         0.00000E+00
         0.00000E+00
         0.00000E+00
         0.00000E+00
         0.00000E+00
         0.00000E+00
         0.00000E+00
         0.00000E+00
         0.00000E+00
         0.00000E+00
         0.00000E+00
         0.00000E+00
         0.00000E+00
         0.00000E+00
         0.00000E+00
         0.00000E+00
         0.00000E+00
         0.00000E+00
         0.00000E+00
         0.00000E+00
         0.00000E+00
         0.00000E+00
         0.00000E+00
         0.00000E+00
         0.00000E+00
         0.00000E+00
         0.00000E+00
         0.00000E+00
         0.00000E+00
         0.00000E+00
         0.00000E+00
         0.00000E+00
         0.00000E+00
         0.00000E+00
         0.00000E+00
         0.00000E+00
         0.00000E+00
         0.00000E+00
         0.00000E+00
         0.00000E+00
         0.00000E+00
         0.00000E+00
         0.00000E+00
         0.00000E+00
         0.00000E+00
         0.00000E+00
         0.00000E+00
         0.00000E+00
         0.00000E+00
         0.00000E+00
         0.00000E+00
         0.00000E+00
         0.00000E+00
         0.00000E+00
         0.00000E+00
         0.00000E+00
         0.00000E+00
         0.00000E+00
         0.00000E+00
         0.00000E+00
         0.00000E+00
         0.00000E+00
         0.00000E+00
         0.00000E+00
         0.00000E+00
         0.00000E+00
         0.00000E+00
         0.00000E+00
         0.00000E+00
         0.00000E+00
         0.00000E+00
         0.00000E+00
         0.00000E+00
         0.00000E+00
         0.00000E+00
         0.00000E+00
         0.00000E+00
         0.00000E+00
         0.00000E+00
         0.00000E+00
         0.00000E+00
         0.00000E+00
         0.00000E+00
         0.00000E+00
         0.00000E+00
         0.00000E+00
         0.00000E+00
         0.00000E+00
         0.00000E+00
         0.00000E+00
         0.00000E+00
         0.00000E+00
         0.00000E+00
         0.00000E+00
         0.00000E+00
         0.00000E+00
         0.00000E+00
         0.00000E+00
         0.00000E+00
         0.00000E+00
         0.00000E+00
         0.00000E+00
         0.00000E+00
         0.00000E+00
         0.00000E+00
         0.00000E+00
         0.00000E+00
         0.00000E+00
         0.00000E+00
         0.00000E+00
         0.00000E+00
         0.00000E+00
         0.00000E+00
         0.00000E+00
         0.00000E+00
         0.00000E+00
         0.00000E+00
         0.00000E+00
         0.00000E+00
         0.00000E+00
         0.00000E+00
         0.00000E+00
         0.00000E+00
         0.00000E+00
         0.00000E+00
         0.00000E+00
         0.00000E+00
         0.00000E+00
         0.00000E+00
         0.00000E+00
         0.00000E+00
         0.00000E+00
         0.00000E+00
         0.00000E+00
         0.00000E+00
         0.00000E+00
         0.00000E+00
         0.00000E+00
         0.00000E+00
         0.00000E+00
         0.00000E+00
         0.00000E+00
         0.00000E+00
         0.00000E+00
         0.00000E+00
         0.00000E+00
         0.00000E+00
         0.00000E+00
         0.00000E+00
         0.00000E+00
         0.00000E+00
         0.00000E+00
         0.00000E+00
         0.00000E+00
         0.00000E+00
         0.00000E+00
         0.00000E+00
         0.00000E+00
         0.00000E+00
         0.00000E+00
         0.00000E+00
         0.00000E+00
         0.00000E+00
         0.00000E+00
         0.00000E+00
         0.00000E+00
         0.00000E+00
         0.00000E+00
         0.00000E+00
         0.00000E+00
         0.00000E+00
         0.00000E+00
         0.00000E+00
         0.00000E+00
         0.00000E+00
         0.00000E+00
         0.00000E+00
         0.00000E+00
         0.00000E+00
         0.00000E+00
         0.00000E+00
         0.00000E+00
         0.00000E+00
         0.00000E+00
         0.00000E+00
         0.00000E+00
         0.00000E+00
         0.00000E+00
         0.00000E+00
         0.00000E+00
         0.00000E+00
         0.00000E+00
         0.00000E+00
         0.00000E+00
         0.00000E+00
         0.00000E+00
         0.00000E+00
         0.00000E+00
         0.00000E+00
         0.00000E+00
         0.00000E+00
         0.00000E+00
         0.00000E+00
         0.00000E+00
         0.00000E+00
         0.00000E+00
         0.00000E+00
         0.00000E+00
         0.00000E+00
         0.00000E+00
         0.00000E+00
         0.00000E+00
         0.00000E+00
         0.00000E+00
         0.00000E+00
         0.00000E+00
         0.00000E+00
         0.00000E+00
         0.00000E+00
         0.00000E+00
         0.00000E+00
         0.00000E+00
         0.00000E+00
         0.00000E+00
         0.00000E+00
         0.00000E+00
         0.00000E+00
         0.00000E+00
         0.00000E+00
         0.00000E+00
         0.00000E+00
         0.00000E+00
         0.00000E+00
         0.00000E+00
         0.00000E+00
         0.00000E+00
         0.00000E+00
         0.00000E+00
         0.00000E+00
         0.00000E+00
         0.00000E+00
         0.00000E+00
         0.00000E+00
         0.00000E+00
         0.00000E+00
         0.00000E+00
         0.00000E+00
         0.00000E+00
         0.00000E+00
         0.00000E+00
         0.00000E+00
         0.00000E+00
         0.00000E+00
         0.00000E+00
         0.00000E+00
         0.00000E+00
         0.00000E+00
         0.00000E+00
         0.00000E+00
         0.00000E+00
         0.00000E+00
         0.00000E+00
         0.00000E+00
         0.00000E+00
         0.00000E+00
         0.00000E+00
         0.00000E+00
         0.00000E+00
         0.00000E+00
         0.00000E+00
         0.00000E+00
         0.00000E+00
         0.00000E+00
         0.00000E+00
         0.00000E+00
         0.00000E+00
         0.00000E+00
         0.00000E+00
         0.00000E+00
         0.00000E+00
         0.00000E+00
         0.00000E+00
         0.00000E+00
         0.00000E+00
         0.00000E+00
         0.00000E+00
         0.00000E+00
         0.00000E+00
         0.00000E+00
         0.00000E+00
         0.00000E+00
         0.00000E+00
         0.00000E+00
         0.00000E+00
         0.00000E+00
         0.00000E+00
         0.00000E+00
         0.00000E+00
         0.00000E+00
         0.00000E+00
         0.00000E+00
         0.00000E+00
         0.00000E+00
         0.00000E+00
         0.00000E+00
         0.00000E+00
         0.00000E+00
         0.00000E+00
         0.00000E+00
         0.00000E+00
         0.00000E+00
         0.00000E+00
         0.00000E+00
         0.00000E+00
         0.00000E+00
         0.00000E+00
         0.00000E+00
         0.00000E+00
         0.00000E+00
         0.00000E+00
         0.00000E+00
         0.00000E+00
         0.00000E+00
         0.00000E+00
         0.00000E+00
         0.00000E+00
         0.00000E+00
         0.00000E+00
         0.00000E+00
         0.00000E+00
         0.00000E+00
         0.00000E+00
         0.00000E+00
         0.00000E+00
         0.00000E+00
         0.00000E+00
         0.00000E+00
         0.00000E+00
         0.00000E+00
         0.00000E+00
         0.00000E+00
         0.00000E+00
         0.00000E+00
         0.00000E+00
         0.00000E+00
         0.00000E+00
         0.00000E+00
         0.00000E+00
         0.00000E+00
         0.00000E+00
         0.00000E+00
         0.00000E+00
         0.00000E+00
         0.00000E+00
         0.00000E+00
         0.00000E+00
         0.00000E+00
         0.00000E+00
         0.00000E+00
         0.00000E+00
         0.00000E+00
         0.00000E+00
         0.00000E+00
         0.00000E+00
         0.00000E+00
         0.00000E+00
         0.00000E+00
         0.00000E+00
         0.00000E+00
         0.00000E+00
         0.00000E+00
         0.00000E+00
         0.00000E+00
         0.00000E+00
         0.00000E+00
         0.00000E+00
         0.00000E+00
         0.00000E+00
         0.00000E+00
         0.00000E+00
         0.00000E+00
         0.00000E+00
         0.00000E+00
         0.00000E+00
         0.00000E+00
         0.00000E+00
         0.00000E+00
         0.00000E+00
         0.00000E+00
         0.00000E+00
         0.00000E+00
         0.00000E+00
         0.00000E+00
         0.00000E+00
         0.00000E+00
         0.00000E+00
         0.00000E+00
         0.00000E+00
         0.00000E+00
         0.00000E+00
         0.00000E+00
         0.00000E+00
         0.00000E+00
         0.00000E+00
         0.00000E+00
         0.00000E+00
         0.00000E+00
         0.00000E+00
         0.00000E+00
         0.00000E+00
         0.00000E+00
         0.00000E+00
         0.00000E+00
         0.00000E+00
         0.00000E+00
         0.00000E+00
         0.00000E+00
         0.00000E+00
         0.00000E+00
         0.00000E+00
         0.00000E+00
         0.00000E+00
         0.00000E+00
         0.00000E+00
         0.00000E+00
         0.00000E+00
         0.00000E+00
         0.00000E+00
         0.00000E+00
         0.00000E+00
         0.00000E+00
         0.00000E+00
         0.00000E+00
         0.00000E+00
         0.00000E+00
         0.00000E+00
         0.00000E+00
         0.00000E+00
         0.00000E+00
         0.00000E+00
         0.00000E+00
         0.00000E+00
         0.00000E+00
         0.00000E+00
         0.00000E+00
         0.00000E+00
         0.00000E+00
         0.00000E+00
         0.00000E+00
         0.00000E+00
         0.00000E+00
         0.00000E+00
         0.00000E+00
         0.00000E+00
         0.00000E+00
         0.00000E+00
         0.00000E+00
         0.00000E+00
         0.00000E+00
         0.00000E+00
         0.00000E+00
         0.00000E+00
         0.00000E+00
         0.00000E+00
         0.00000E+00
         0.00000E+00
         0.00000E+00
         0.00000E+00
         0.00000E+00
         0.00000E+00
         0.00000E+00
         0.00000E+00
         0.00000E+00
         0.00000E+00
         0.00000E+00
         0.00000E+00
         0.00000E+00
         0.00000E+00
         0.00000E+00
         0.00000E+00
         0.00000E+00
         0.00000E+00
         0.00000E+00
         0.00000E+00
         0.00000E+00
         0.00000E+00
         0.00000E+00
         0.00000E+00
         0.00000E+00
         0.00000E+00
         0.00000E+00
         0.00000E+00
         0.00000E+00
         0.00000E+00
         0.00000E+00
         0.00000E+00
         0.00000E+00
         0.00000E+00
         0.00000E+00
         0.00000E+00
         0.00000E+00
         0.00000E+00
         0.00000E+00
         0.00000E+00
         0.00000E+00
         0.00000E+00
         0.00000E+00
         0.00000E+00
         0.00000E+00
         0.00000E+00
         0.00000E+00
         0.00000E+00
         0.00000E+00
         0.00000E+00
         0.00000E+00
         0.00000E+00
         0.00000E+00
         0.00000E+00
         0.00000E+00
         0.00000E+00
         0.00000E+00
         0.00000E+00
         0.00000E+00
         0.00000E+00
         0.00000E+00
         0.00000E+00
         0.00000E+00
         0.00000E+00
         0.00000E+00
         0.00000E+00
         0.00000E+00
         0.00000E+00
         0.00000E+00
         0.00000E+00
         0.00000E+00
         0.00000E+00
         0.00000E+00
         0.00000E+00
         0.00000E+00
         0.00000E+00
         0.00000E+00
         0.00000E+00
         0.00000E+00
         0.00000E+00
         0.00000E+00
         0.00000E+00
         0.00000E+00
         0.00000E+00
         0.00000E+00
         0.00000E+00
         0.00000E+00
         0.00000E+00
         0.00000E+00
         0.00000E+00
         0.00000E+00
         0.00000E+00
         0.00000E+00
         0.00000E+00
         0.00000E+00
         0.00000E+00
         0.00000E+00
         0.00000E+00
         0.00000E+00
         0.00000E+00
         0.00000E+00
         0.00000E+00
         0.00000E+00
         0.00000E+00
         0.00000E+00
         0.00000E+00
         0.00000E+00
         0.00000E+00
         0.00000E+00
         0.00000E+00
         0.00000E+00
         0.00000E+00
         0.00000E+00
         0.00000E+00
         0.00000E+00
         0.00000E+00
         0.00000E+00
         0.00000E+00
         0.00000E+00
         0.00000E+00
         0.00000E+00
         0.00000E+00
         0.00000E+00
         0.00000E+00
         0.00000E+00
         0.00000E+00
         0.00000E+00
         0.00000E+00
         0.00000E+00
         0.00000E+00
         0.00000E+00
         0.00000E+00
         0.00000E+00
         0.00000E+00
         0.00000E+00
         0.00000E+00
         0.00000E+00
         0.00000E+00
         0.00000E+00
         0.00000E+00
         0.00000E+00
         0.00000E+00
         0.00000E+00
         0.00000E+00
         0.00000E+00
         0.00000E+00
         0.00000E+00
         0.00000E+00
         0.00000E+00
         0.00000E+00
         0.00000E+00
         0.00000E+00
         0.00000E+00
         0.00000E+00
         0.00000E+00
         0.00000E+00
         0.00000E+00
         0.00000E+00
         0.00000E+00
         0.00000E+00
         0.00000E+00
         0.00000E+00
         0.00000E+00
         0.00000E+00
         0.00000E+00
         0.00000E+00
         0.00000E+00
         0.00000E+00
         0.00000E+00
         0.00000E+00
         0.00000E+00
         0.00000E+00
         0.00000E+00
         0.00000E+00
         0.00000E+00
         0.00000E+00
         0.00000E+00
         0.00000E+00
         0.00000E+00
         0.00000E+00
         0.00000E+00
         0.00000E+00
         0.00000E+00
         0.00000E+00
         0.00000E+00
         0.00000E+00
         0.00000E+00
         0.00000E+00
         0.00000E+00
         0.00000E+00
         0.00000E+00
         0.00000E+00
         0.00000E+00
         0.00000E+00
         0.00000E+00
         0.00000E+00
         0.00000E+00
         0.00000E+00
         0.00000E+00
         0.00000E+00
         0.00000E+00
         0.00000E+00
         0.00000E+00
         0.00000E+00
         0.00000E+00
         0.00000E+00
         0.00000E+00
         0.00000E+00
         0.00000E+00
         0.00000E+00
         0.00000E+00
         0.00000E+00
         0.00000E+00
         0.00000E+00
         0.00000E+00
         0.00000E+00
         0.00000E+00
         0.00000E+00
         0.00000E+00
         0.00000E+00
         0.00000E+00
         0.00000E+00
         0.00000E+00
         0.00000E+00
         0.00000E+00
         0.00000E+00
         0.00000E+00
         0.00000E+00
         0.00000E+00
         0.00000E+00
         0.00000E+00
         0.00000E+00
         0.00000E+00
         0.00000E+00
         0.00000E+00
         0.00000E+00
         0.00000E+00
         0.00000E+00
         0.00000E+00
         0.00000E+00
         0.00000E+00
         0.00000E+00
         0.00000E+00
         0.00000E+00
         0.00000E+00
         0.00000E+00
         0.00000E+00
         0.00000E+00
         0.00000E+00
         0.00000E+00
         0.00000E+00
         0.00000E+00
         0.00000E+00
         0.00000E+00
         0.00000E+00
         0.00000E+00
         0.00000E+00
         0.00000E+00
         0.00000E+00
         0.00000E+00
         0.00000E+00
         0.00000E+00
         0.00000E+00
         0.00000E+00
         0.00000E+00
         0.00000E+00
         0.00000E+00
         0.00000E+00
         0.00000E+00
         0.00000E+00
         0.00000E+00
         0.00000E+00
         0.00000E+00
         0.00000E+00
         0.00000E+00
         0.00000E+00
         0.00000E+00
         0.00000E+00
         0.00000E+00
         0.00000E+00
         0.00000E+00
         0.00000E+00
         0.00000E+00
         0.00000E+00
         0.00000E+00
         0.00000E+00
         0.00000E+00
         0.00000E+00
         0.00000E+00
         0.00000E+00
         0.00000E+00
         0.00000E+00
         0.00000E+00
         0.00000E+00
         0.00000E+00
         0.00000E+00
         0.00000E+00
         0.00000E+00
         0.00000E+00
         0.00000E+00
         0.00000E+00
         0.00000E+00
         0.00000E+00
         0.00000E+00
         0.00000E+00
         0.00000E+00
         0.00000E+00
         0.00000E+00
         0.00000E+00
         0.00000E+00
         0.00000E+00
         0.00000E+00
         0.00000E+00
         0.00000E+00
         0.00000E+00
         0.00000E+00
         0.00000E+00
         0.00000E+00
         0.00000E+00
         0.00000E+00
         0.00000E+00
         0.00000E+00
         0.00000E+00
         0.00000E+00
         0.00000E+00
         0.00000E+00
         0.00000E+00
         0.00000E+00
         0.00000E+00
         0.00000E+00
         0.00000E+00
         0.00000E+00
         0.00000E+00
         0.00000E+00
         0.00000E+00
         0.00000E+00
         0.00000E+00
         0.00000E+00
         0.00000E+00
         0.00000E+00
         0.00000E+00
         0.00000E+00
         0.00000E+00
         0.00000E+00
         0.00000E+00
         0.00000E+00
         0.00000E+00
         0.00000E+00
         0.00000E+00
         0.00000E+00
         0.00000E+00
         0.00000E+00
         0.00000E+00
         0.00000E+00
         0.00000E+00
         0.00000E+00
         0.00000E+00
         0.00000E+00
         0.00000E+00
         0.00000E+00
         0.00000E+00
         0.00000E+00
         0.00000E+00
         0.00000E+00
         0.00000E+00
         0.00000E+00
         0.00000E+00
         0.00000E+00
         0.00000E+00
         0.00000E+00
         0.00000E+00
         0.00000E+00
         0.00000E+00
         0.00000E+00
         0.00000E+00
         0.00000E+00
         0.00000E+00
         0.00000E+00
         0.00000E+00
         0.00000E+00
         0.00000E+00
         0.00000E+00
         0.00000E+00
         0.00000E+00
         0.00000E+00
         0.00000E+00
         0.00000E+00
         0.00000E+00
         0.00000E+00
         0.00000E+00
         0.00000E+00
         0.00000E+00
         0.00000E+00
         0.00000E+00
         0.00000E+00
         0.00000E+00
         0.00000E+00
         0.00000E+00
         0.00000E+00
         0.00000E+00
         0.00000E+00
         0.00000E+00
         0.00000E+00
         0.00000E+00
         0.00000E+00
         0.00000E+00
         0.00000E+00
         0.00000E+00
         0.00000E+00
         0.00000E+00
         0.00000E+00
         0.00000E+00
         0.00000E+00
         0.00000E+00
         0.00000E+00
         0.00000E+00
         0.00000E+00
         0.00000E+00
         0.00000E+00
         0.00000E+00
         0.00000E+00
         0.00000E+00
         0.00000E+00
         0.00000E+00
         0.00000E+00
         0.00000E+00
         0.00000E+00
         0.00000E+00
         0.00000E+00
         0.00000E+00
         0.00000E+00
         0.00000E+00
         0.00000E+00
         0.00000E+00
         0.00000E+00
         0.00000E+00
         0.00000E+00
         0.00000E+00
         0.00000E+00
         0.00000E+00
         0.00000E+00
         0.00000E+00
         0.00000E+00
         0.00000E+00
         0.00000E+00
         0.00000E+00
         0.00000E+00
         0.00000E+00
         0.00000E+00
         0.00000E+00
         0.00000E+00
         0.00000E+00
         0.00000E+00
         0.00000E+00
         0.00000E+00
         0.00000E+00
         0.00000E+00
         0.00000E+00
         0.00000E+00
         0.00000E+00
         0.00000E+00
         0.00000E+00
         0.00000E+00
         0.00000E+00
         0.00000E+00
         0.00000E+00
         0.00000E+00
         0.00000E+00
         0.00000E+00
         0.00000E+00
         0.00000E+00
         0.00000E+00
         0.00000E+00
         0.00000E+00
         0.00000E+00
         0.00000E+00
         0.00000E+00
         0.00000E+00
         0.00000E+00
         0.00000E+00
         0.00000E+00
         0.00000E+00
         0.00000E+00
         0.00000E+00
         0.00000E+00
         0.00000E+00
         0.00000E+00
         0.00000E+00
         0.00000E+00
         0.00000E+00
         0.00000E+00
         0.00000E+00
         0.00000E+00
         0.00000E+00
         0.00000E+00
         0.00000E+00
         0.00000E+00
         0.00000E+00
         0.00000E+00
         0.00000E+00
         0.00000E+00
         0.00000E+00
         0.00000E+00
         0.00000E+00
         0.00000E+00
         0.00000E+00
         0.00000E+00
         0.00000E+00
         0.00000E+00
         0.00000E+00
         0.00000E+00
         0.00000E+00
         0.00000E+00
         0.00000E+00
         0.00000E+00
         0.00000E+00
         0.00000E+00
         0.00000E+00
         0.00000E+00
         0.00000E+00
         0.00000E+00
         0.00000E+00
         0.00000E+00
         0.00000E+00
         0.00000E+00
         0.00000E+00
         0.00000E+00
         0.00000E+00
         0.00000E+00
         0.00000E+00
         0.00000E+00
         0.00000E+00
         0.00000E+00
         0.00000E+00
         0.00000E+00
         0.00000E+00
         0.00000E+00
         0.00000E+00
         0.00000E+00
         0.00000E+00
         0.00000E+00
         0.00000E+00
         0.00000E+00
         0.00000E+00
         0.00000E+00
         0.00000E+00
         0.00000E+00
         0.00000E+00
         0.00000E+00
         0.00000E+00
         0.00000E+00
         0.00000E+00
         0.00000E+00
         0.00000E+00
         0.00000E+00
         0.00000E+00
         0.00000E+00
         0.00000E+00
         0.00000E+00
         0.00000E+00
         0.00000E+00
         0.00000E+00
         0.00000E+00
         0.00000E+00
         0.00000E+00
         0.00000E+00
         0.00000E+00
         0.00000E+00
         0.00000E+00
         0.00000E+00
         0.00000E+00
         0.00000E+00
         0.00000E+00
         0.00000E+00
         0.00000E+00
         0.00000E+00
         0.00000E+00
         0.00000E+00
         0.00000E+00
         0.00000E+00
         0.00000E+00
         0.00000E+00
         0.00000E+00
         0.00000E+00
         0.00000E+00
         0.00000E+00
         0.00000E+00
         0.00000E+00
         0.00000E+00
         0.00000E+00
         0.00000E+00
         0.00000E+00
         0.00000E+00
         0.00000E+00
         0.00000E+00
         0.00000E+00
         0.00000E+00
         0.00000E+00
         0.00000E+00
         0.00000E+00
         0.00000E+00
         0.00000E+00
         0.00000E+00
         0.00000E+00
         0.00000E+00
         0.00000E+00
         0.00000E+00
         0.00000E+00
         0.00000E+00
         0.00000E+00
         0.00000E+00
         0.00000E+00
         0.00000E+00
         0.00000E+00
         0.00000E+00
         0.00000E+00
         0.00000E+00
         0.00000E+00
         0.00000E+00
         0.00000E+00
         0.00000E+00
         0.00000E+00
         0.00000E+00
         0.00000E+00
         0.00000E+00
         0.00000E+00
         0.00000E+00
         0.00000E+00
         0.00000E+00
         0.00000E+00
         0.00000E+00
         0.00000E+00
         0.00000E+00
         0.00000E+00
         0.00000E+00
         0.00000E+00
         0.00000E+00
         0.00000E+00
         0.00000E+00
         0.00000E+00
         0.00000E+00
         0.00000E+00
         0.00000E+00
         0.00000E+00
         0.00000E+00
         0.00000E+00
         0.00000E+00
         0.00000E+00
         0.00000E+00
         0.00000E+00
         0.00000E+00
         0.00000E+00
         0.00000E+00
         0.00000E+00
         0.00000E+00
         0.00000E+00
         0.00000E+00
         0.00000E+00
         0.00000E+00
         0.00000E+00
         0.00000E+00
         0.00000E+00
         0.00000E+00
         0.00000E+00
         0.00000E+00
         0.00000E+00
         0.00000E+00
         0.00000E+00
         0.00000E+00
         0.00000E+00
         0.00000E+00
         0.00000E+00
         0.00000E+00
         0.00000E+00
         0.00000E+00
         0.00000E+00
         0.00000E+00
         0.00000E+00
         0.00000E+00
         0.00000E+00
         0.00000E+00
         0.00000E+00
         0.00000E+00
         0.00000E+00
         0.00000E+00
         0.00000E+00
         0.00000E+00
         0.00000E+00
         0.00000E+00
         0.00000E+00
         0.00000E+00
         0.00000E+00
         0.00000E+00
         0.00000E+00
         0.00000E+00
         0.00000E+00
         0.00000E+00
         0.00000E+00
         0.00000E+00
         0.00000E+00
         0.00000E+00
         0.00000E+00
         0.00000E+00
         0.00000E+00
         0.00000E+00
         0.00000E+00
         0.00000E+00
         0.00000E+00
         0.00000E+00
         0.00000E+00
         0.00000E+00
         0.00000E+00
         0.00000E+00
         0.00000E+00
         0.00000E+00
         0.00000E+00
         0.00000E+00
         0.00000E+00
         0.00000E+00
         0.00000E+00
         0.00000E+00
         0.00000E+00
         0.00000E+00
         0.00000E+00
         0.00000E+00
         0.00000E+00
         0.00000E+00
         0.00000E+00
         0.00000E+00
         0.00000E+00
         0.00000E+00
         0.00000E+00
         0.00000E+00
         0.00000E+00
         0.00000E+00
         0.00000E+00
         0.00000E+00
         0.00000E+00
         0.00000E+00
         0.00000E+00
         0.00000E+00
         0.00000E+00
         0.00000E+00
         0.00000E+00
         0.00000E+00
         0.00000E+00
         0.00000E+00
         0.00000E+00
         0.00000E+00
         0.00000E+00
         0.00000E+00
         0.00000E+00
         0.00000E+00
         0.00000E+00
         0.00000E+00
         0.00000E+00
         0.00000E+00
         0.00000E+00
         0.00000E+00
         0.00000E+00
         0.00000E+00
         0.00000E+00
         0.00000E+00
         0.00000E+00
         0.00000E+00
         0.00000E+00
         0.00000E+00
         0.00000E+00
         0.00000E+00
         0.00000E+00
         0.00000E+00
         0.00000E+00
         0.00000E+00
         0.00000E+00
         0.00000E+00
         0.00000E+00
         0.00000E+00
         0.00000E+00
         0.00000E+00
         0.00000E+00
         0.00000E+00
         0.00000E+00
         0.00000E+00
         0.00000E+00
         0.00000E+00
         0.00000E+00
         0.00000E+00
         0.00000E+00
         0.00000E+00
         0.00000E+00
         0.00000E+00
         0.00000E+00
         0.00000E+00
         0.00000E+00
         0.00000E+00
         0.00000E+00
         0.00000E+00
         0.00000E+00
         0.00000E+00
         0.00000E+00
         0.00000E+00
         0.00000E+00
         0.00000E+00
         0.00000E+00
         0.00000E+00
         0.00000E+00
         0.00000E+00
         0.00000E+00
         0.00000E+00
         0.00000E+00
         0.00000E+00
         0.00000E+00
         0.00000E+00
         0.00000E+00
         0.00000E+00
         0.00000E+00
         0.00000E+00
         0.00000E+00
         0.00000E+00
         0.00000E+00
         0.00000E+00
         0.00000E+00
         0.00000E+00
         0.00000E+00
         0.00000E+00
         0.00000E+00
         0.00000E+00
         0.00000E+00
         0.00000E+00
         0.00000E+00
         0.00000E+00
         0.00000E+00
         0.00000E+00
         0.00000E+00
         0.00000E+00
         0.00000E+00
         0.00000E+00
         0.00000E+00
         0.00000E+00
         0.00000E+00
         0.00000E+00
         0.00000E+00
         0.00000E+00
         0.00000E+00
         0.00000E+00
         0.00000E+00
         0.00000E+00
         0.00000E+00
         0.00000E+00
         0.00000E+00
         0.00000E+00
         0.00000E+00
         0.00000E+00
         0.00000E+00
         0.00000E+00
         0.00000E+00
         0.00000E+00
         0.00000E+00
         0.00000E+00
         0.00000E+00
         0.00000E+00
         0.00000E+00
         0.00000E+00
         0.00000E+00
         0.00000E+00
         0.00000E+00
         0.00000E+00
         0.00000E+00
         0.00000E+00
         0.00000E+00
         0.00000E+00
         0.00000E+00
         0.00000E+00
         0.00000E+00
         0.00000E+00
         0.00000E+00
         0.00000E+00
         0.00000E+00
         0.00000E+00
         0.00000E+00
         0.00000E+00
         0.00000E+00
         0.00000E+00
         0.00000E+00
         0.00000E+00
         0.00000E+00
         0.00000E+00
         0.00000E+00
         0.00000E+00
         0.00000E+00
         0.00000E+00
         0.00000E+00
         0.00000E+00
         0.00000E+00
         0.00000E+00
         0.00000E+00
         0.00000E+00
         0.00000E+00
         0.00000E+00
         0.00000E+00
         0.00000E+00
         0.00000E+00
         0.00000E+00
         0.00000E+00
         0.00000E+00
         0.00000E+00
         0.00000E+00
         0.00000E+00
         0.00000E+00
         0.00000E+00
         0.00000E+00
         0.00000E+00
         0.00000E+00
         0.00000E+00
         0.00000E+00
         0.00000E+00
         0.00000E+00
         0.00000E+00
         0.00000E+00
         0.00000E+00
         0.00000E+00
         0.00000E+00
         0.00000E+00
         0.00000E+00
         0.00000E+00
         0.00000E+00
         0.00000E+00
         0.00000E+00
         0.00000E+00
         0.00000E+00
         0.00000E+00
         0.00000E+00
         0.00000E+00
         0.00000E+00
         0.00000E+00
         0.00000E+00
         0.00000E+00
         0.00000E+00
         0.00000E+00
         0.00000E+00
         0.00000E+00
         0.00000E+00
         0.00000E+00
         0.00000E+00
         0.00000E+00
         0.00000E+00
         0.00000E+00
         0.00000E+00
         0.00000E+00
         0.00000E+00
         0.00000E+00
         0.00000E+00
         0.00000E+00
         0.00000E+00
         0.00000E+00
         0.00000E+00
         0.00000E+00
         0.00000E+00
         0.00000E+00
         0.00000E+00
         0.00000E+00
         0.00000E+00
         0.00000E+00
         0.00000E+00
         0.00000E+00
         0.00000E+00
         0.00000E+00
         0.00000E+00
         0.00000E+00
         0.00000E+00
         0.00000E+00
         0.00000E+00
         0.00000E+00
         0.00000E+00
         0.00000E+00
         0.00000E+00
         0.00000E+00
         0.00000E+00
         0.00000E+00
         0.00000E+00
         0.00000E+00
         0.00000E+00
         0.00000E+00
         0.00000E+00
         0.00000E+00
         0.00000E+00
         0.00000E+00
         0.00000E+00
         0.00000E+00
         0.00000E+00
         0.00000E+00
         0.00000E+00
         0.00000E+00
         0.00000E+00
         0.00000E+00
         0.00000E+00
         0.00000E+00
         0.00000E+00
         0.00000E+00
         0.00000E+00
         0.00000E+00
         0.00000E+00
         0.00000E+00
         0.00000E+00
         0.00000E+00
         0.00000E+00
         0.00000E+00
         0.00000E+00
         0.00000E+00
         0.00000E+00
         0.00000E+00
         0.00000E+00
         0.00000E+00
         0.00000E+00
         0.00000E+00
         0.00000E+00
         0.00000E+00
         0.00000E+00
         0.00000E+00
         0.00000E+00
         0.00000E+00
         0.00000E+00
         0.00000E+00
         0.00000E+00
         0.00000E+00
         0.00000E+00
         0.00000E+00
         0.00000E+00
         0.00000E+00
         0.00000E+00
         0.00000E+00
         0.00000E+00
         0.00000E+00
         0.00000E+00
         0.00000E+00
         0.00000E+00
         0.00000E+00
         0.00000E+00
         0.00000E+00
         0.00000E+00
         0.00000E+00
         0.00000E+00
         0.00000E+00
         0.00000E+00
         0.00000E+00
         0.00000E+00
         0.00000E+00
         0.00000E+00
         0.00000E+00
         0.00000E+00
         0.00000E+00
         0.00000E+00
         0.00000E+00
         0.00000E+00
         0.00000E+00
         0.00000E+00
         0.00000E+00
         0.00000E+00
         0.00000E+00
         0.00000E+00
         0.00000E+00
         0.00000E+00
         0.00000E+00
         0.00000E+00
         0.00000E+00
         0.00000E+00
         0.00000E+00
         0.00000E+00
         0.00000E+00
         0.00000E+00
         0.00000E+00
         0.00000E+00
         0.00000E+00
         0.00000E+00
         0.00000E+00
         0.00000E+00
         0.00000E+00
         0.00000E+00
         0.00000E+00
         0.00000E+00
         0.00000E+00
         0.00000E+00
         0.00000E+00
         0.00000E+00
         0.00000E+00
         0.00000E+00
         0.00000E+00
         0.00000E+00
         0.00000E+00
         0.00000E+00
         0.00000E+00
         0.00000E+00
         0.00000E+00
         0.00000E+00
         0.00000E+00
         0.00000E+00
         0.00000E+00
         0.00000E+00
         0.00000E+00
         0.00000E+00
         0.00000E+00
         0.00000E+00
         0.00000E+00
         0.00000E+00
         0.00000E+00
         0.00000E+00
         0.00000E+00
         0.00000E+00
         0.00000E+00
         0.00000E+00
         0.00000E+00
         0.00000E+00
         0.00000E+00
         0.00000E+00
         0.00000E+00
         0.00000E+00
         0.00000E+00
         0.00000E+00
         0.00000E+00
         0.00000E+00
         0.00000E+00
         0.00000E+00
         0.00000E+00
         0.00000E+00
         0.00000E+00
         0.00000E+00
         0.00000E+00
         0.00000E+00
         0.00000E+00
         0.00000E+00
         0.00000E+00
         0.00000E+00
         0.00000E+00
         0.00000E+00
         0.00000E+00
         0.00000E+00
         0.00000E+00
         0.00000E+00
         0.00000E+00
         0.00000E+00
         0.00000E+00
         0.00000E+00
         0.00000E+00
         0.00000E+00
         0.00000E+00
         0.00000E+00
         0.00000E+00
         0.00000E+00
         0.00000E+00
         0.00000E+00
         0.00000E+00
         0.00000E+00
         0.00000E+00
         0.00000E+00
         0.00000E+00
         0.00000E+00
         0.00000E+00
         0.00000E+00
         0.00000E+00
         0.00000E+00
         0.00000E+00
         0.00000E+00
         0.00000E+00
         0.00000E+00
         0.00000E+00
         0.00000E+00
         0.00000E+00
         0.00000E+00
         0.00000E+00
         0.00000E+00
         0.00000E+00
         0.00000E+00
         0.00000E+00
         0.00000E+00
         0.00000E+00
         0.00000E+00
         0.00000E+00
         0.00000E+00
         0.00000E+00
         0.00000E+00
         0.00000E+00
         0.00000E+00
         0.00000E+00
         0.00000E+00
         0.00000E+00
         0.00000E+00
         0.00000E+00
         0.00000E+00
         0.00000E+00
         0.00000E+00
         0.00000E+00
         0.00000E+00
         0.00000E+00
         0.00000E+00
         0.00000E+00
         0.00000E+00
         0.00000E+00
         0.00000E+00
         0.00000E+00
         0.00000E+00
         0.00000E+00
         0.00000E+00
         0.00000E+00
         0.00000E+00
         0.00000E+00
         0.00000E+00
         0.00000E+00
  
SCALARS               pre_disp_force_y  double 1
LOOKUP_TABLE default
         0.00000E+00
         0.00000E+00
         0.00000E+00
         0.00000E+00
         0.00000E+00
         0.00000E+00
         0.00000E+00
         0.00000E+00
         0.00000E+00
         0.00000E+00
         0.00000E+00
         0.00000E+00
         0.00000E+00
         0.00000E+00
         0.00000E+00
         0.00000E+00
         0.00000E+00
         0.00000E+00
         0.00000E+00
         0.00000E+00
         0.00000E+00
         0.00000E+00
         0.00000E+00
         0.00000E+00
         0.00000E+00
         0.00000E+00
         0.00000E+00
         0.00000E+00
         0.00000E+00
         0.00000E+00
         0.00000E+00
         0.00000E+00
         0.00000E+00
         0.00000E+00
         0.00000E+00
         0.00000E+00
         0.00000E+00
         0.00000E+00
         0.00000E+00
         0.00000E+00
         0.00000E+00
         0.00000E+00
         0.00000E+00
         0.00000E+00
         0.00000E+00
         0.00000E+00
         0.00000E+00
         0.00000E+00
         0.00000E+00
         0.00000E+00
         0.00000E+00
         0.00000E+00
         0.00000E+00
         0.00000E+00
         0.00000E+00
         0.00000E+00
         0.00000E+00
         0.00000E+00
         0.00000E+00
         0.00000E+00
         0.00000E+00
         0.00000E+00
         0.00000E+00
         0.00000E+00
         0.00000E+00
         0.00000E+00
         0.00000E+00
         0.00000E+00
         0.00000E+00
         0.00000E+00
         0.00000E+00
         0.00000E+00
         0.00000E+00
         0.00000E+00
         0.00000E+00
         0.00000E+00
         0.00000E+00
         0.00000E+00
         0.00000E+00
         0.00000E+00
         0.00000E+00
         0.00000E+00
         0.00000E+00
         0.00000E+00
         0.00000E+00
         0.00000E+00
         0.00000E+00
         0.00000E+00
         0.00000E+00
         0.00000E+00
         0.00000E+00
         0.00000E+00
         0.00000E+00
         0.00000E+00
         0.00000E+00
         0.00000E+00
         0.00000E+00
         0.00000E+00
         0.00000E+00
         0.00000E+00
         0.00000E+00
         0.00000E+00
         0.00000E+00
         0.00000E+00
         0.00000E+00
         0.00000E+00
         0.00000E+00
         0.00000E+00
         0.00000E+00
         0.00000E+00
         0.00000E+00
         0.00000E+00
         0.00000E+00
         0.00000E+00
         0.00000E+00
         0.00000E+00
         0.00000E+00
         0.00000E+00
         0.00000E+00
         0.00000E+00
         0.00000E+00
         0.00000E+00
         0.00000E+00
         0.00000E+00
         0.00000E+00
         0.00000E+00
         0.00000E+00
         0.00000E+00
         0.00000E+00
         0.00000E+00
         0.00000E+00
         0.00000E+00
         0.00000E+00
         0.00000E+00
         0.00000E+00
         0.00000E+00
         0.00000E+00
         0.00000E+00
         0.00000E+00
         0.00000E+00
         0.00000E+00
         0.00000E+00
         0.00000E+00
         0.00000E+00
         0.00000E+00
         0.00000E+00
         0.00000E+00
         0.00000E+00
         0.00000E+00
         0.00000E+00
         0.00000E+00
         0.00000E+00
         0.00000E+00
         0.00000E+00
         0.00000E+00
         0.00000E+00
         0.00000E+00
         0.00000E+00
         0.00000E+00
         0.00000E+00
         0.00000E+00
         0.00000E+00
         0.00000E+00
         0.00000E+00
         0.00000E+00
         0.00000E+00
         0.00000E+00
         0.00000E+00
         0.00000E+00
         0.00000E+00
         0.00000E+00
         0.00000E+00
         0.00000E+00
         0.00000E+00
         0.00000E+00
         0.00000E+00
         0.00000E+00
         0.00000E+00
         0.00000E+00
         0.00000E+00
         0.00000E+00
         0.00000E+00
         0.00000E+00
         0.00000E+00
         0.00000E+00
         0.00000E+00
         0.00000E+00
         0.00000E+00
         0.00000E+00
         0.00000E+00
         0.00000E+00
         0.00000E+00
         0.00000E+00
         0.00000E+00
         0.00000E+00
         0.00000E+00
         0.00000E+00
         0.00000E+00
         0.00000E+00
         0.00000E+00
         0.00000E+00
         0.00000E+00
         0.00000E+00
         0.00000E+00
         0.00000E+00
         0.00000E+00
         0.00000E+00
         0.00000E+00
         0.00000E+00
         0.00000E+00
         0.00000E+00
         0.00000E+00
         0.00000E+00
         0.00000E+00
         0.00000E+00
         0.00000E+00
         0.00000E+00
         0.00000E+00
         0.00000E+00
         0.00000E+00
         0.00000E+00
         0.00000E+00
         0.00000E+00
         0.00000E+00
         0.00000E+00
         0.00000E+00
         0.00000E+00
         0.00000E+00
         0.00000E+00
         0.00000E+00
         0.00000E+00
         0.00000E+00
         0.00000E+00
         0.00000E+00
         0.00000E+00
         0.00000E+00
         0.00000E+00
         0.00000E+00
         0.00000E+00
         0.00000E+00
         0.00000E+00
         0.00000E+00
         0.00000E+00
         0.00000E+00
         0.00000E+00
         0.00000E+00
         0.00000E+00
         0.00000E+00
         0.00000E+00
         0.00000E+00
         0.00000E+00
         0.00000E+00
         0.00000E+00
         0.00000E+00
         0.00000E+00
         0.00000E+00
         0.00000E+00
         0.00000E+00
         0.00000E+00
         0.00000E+00
         0.00000E+00
         0.00000E+00
         0.00000E+00
         0.00000E+00
         0.00000E+00
         0.00000E+00
         0.00000E+00
         0.00000E+00
         0.00000E+00
         0.00000E+00
         0.00000E+00
         0.00000E+00
         0.00000E+00
         0.00000E+00
         0.00000E+00
         0.00000E+00
         0.00000E+00
         0.00000E+00
         0.00000E+00
         0.00000E+00
         0.00000E+00
         0.00000E+00
         0.00000E+00
         0.00000E+00
         0.00000E+00
         0.00000E+00
         0.00000E+00
         0.00000E+00
         0.00000E+00
         0.00000E+00
         0.00000E+00
         0.00000E+00
         0.00000E+00
         0.00000E+00
         0.00000E+00
         0.00000E+00
         0.00000E+00
         0.00000E+00
         0.00000E+00
         0.00000E+00
         0.00000E+00
         0.00000E+00
         0.00000E+00
         0.00000E+00
         0.00000E+00
         0.00000E+00
         0.00000E+00
         0.00000E+00
         0.00000E+00
         0.00000E+00
         0.00000E+00
         0.00000E+00
         0.00000E+00
         0.00000E+00
         0.00000E+00
         0.00000E+00
         0.00000E+00
         0.00000E+00
         0.00000E+00
         0.00000E+00
         0.00000E+00
         0.00000E+00
         0.00000E+00
         0.00000E+00
         0.00000E+00
         0.00000E+00
         0.00000E+00
         0.00000E+00
         0.00000E+00
         0.00000E+00
         0.00000E+00
         0.00000E+00
         0.00000E+00
         0.00000E+00
         0.00000E+00
         0.00000E+00
         0.00000E+00
         0.00000E+00
         0.00000E+00
         0.00000E+00
         0.00000E+00
         0.00000E+00
         0.00000E+00
         0.00000E+00
         0.00000E+00
         0.00000E+00
         0.00000E+00
         0.00000E+00
         0.00000E+00
         0.00000E+00
         0.00000E+00
         0.00000E+00
         0.00000E+00
         0.00000E+00
         0.00000E+00
         0.00000E+00
         0.00000E+00
         0.00000E+00
         0.00000E+00
         0.00000E+00
         0.00000E+00
         0.00000E+00
         0.00000E+00
         0.00000E+00
         0.00000E+00
         0.00000E+00
         0.00000E+00
         0.00000E+00
         0.00000E+00
         0.00000E+00
         0.00000E+00
         0.00000E+00
         0.00000E+00
         0.00000E+00
         0.00000E+00
         0.00000E+00
         0.00000E+00
         0.00000E+00
         0.00000E+00
         0.00000E+00
         0.00000E+00
         0.00000E+00
         0.00000E+00
         0.00000E+00
         0.00000E+00
         0.00000E+00
         0.00000E+00
         0.00000E+00
         0.00000E+00
         0.00000E+00
         0.00000E+00
         0.00000E+00
         0.00000E+00
         0.00000E+00
         0.00000E+00
         0.00000E+00
         0.00000E+00
         0.00000E+00
         0.00000E+00
         0.00000E+00
         0.00000E+00
         0.00000E+00
         0.00000E+00
         0.00000E+00
         0.00000E+00
         0.00000E+00
         0.00000E+00
         0.00000E+00
         0.00000E+00
         0.00000E+00
         0.00000E+00
         0.00000E+00
         0.00000E+00
         0.00000E+00
         0.00000E+00
         0.00000E+00
         0.00000E+00
         0.00000E+00
         0.00000E+00
         0.00000E+00
         0.00000E+00
         0.00000E+00
         0.00000E+00
         0.00000E+00
         0.00000E+00
         0.00000E+00
         0.00000E+00
         0.00000E+00
         0.00000E+00
         0.00000E+00
         0.00000E+00
         0.00000E+00
         0.00000E+00
         0.00000E+00
         0.00000E+00
         0.00000E+00
         0.00000E+00
         0.00000E+00
         0.00000E+00
         0.00000E+00
         0.00000E+00
         0.00000E+00
         0.00000E+00
         0.00000E+00
         0.00000E+00
         0.00000E+00
         0.00000E+00
         0.00000E+00
         0.00000E+00
         0.00000E+00
         0.00000E+00
         0.00000E+00
         0.00000E+00
         0.00000E+00
         0.00000E+00
         0.00000E+00
         0.00000E+00
         0.00000E+00
         0.00000E+00
         0.00000E+00
         0.00000E+00
         0.00000E+00
         0.00000E+00
         0.00000E+00
         0.00000E+00
         0.00000E+00
         0.00000E+00
         0.00000E+00
         0.00000E+00
         0.00000E+00
         0.00000E+00
         0.00000E+00
         0.00000E+00
         0.00000E+00
         0.00000E+00
         0.00000E+00
         0.00000E+00
         0.00000E+00
         0.00000E+00
         0.00000E+00
         0.00000E+00
         0.00000E+00
         0.00000E+00
         0.00000E+00
         0.00000E+00
         0.00000E+00
         0.00000E+00
         0.00000E+00
         0.00000E+00
         0.00000E+00
         0.00000E+00
         0.00000E+00
         0.00000E+00
         0.00000E+00
         0.00000E+00
         0.00000E+00
         0.00000E+00
         0.00000E+00
         0.00000E+00
         0.00000E+00
         0.00000E+00
         0.00000E+00
         0.00000E+00
         0.00000E+00
         0.00000E+00
         0.00000E+00
         0.00000E+00
         0.00000E+00
         0.00000E+00
         0.00000E+00
         0.00000E+00
         0.00000E+00
         0.00000E+00
         0.00000E+00
         0.00000E+00
         0.00000E+00
         0.00000E+00
         0.00000E+00
         0.00000E+00
         0.00000E+00
         0.00000E+00
         0.00000E+00
         0.00000E+00
         0.00000E+00
         0.00000E+00
         0.00000E+00
         0.00000E+00
         0.00000E+00
         0.00000E+00
         0.00000E+00
         0.00000E+00
         0.00000E+00
         0.00000E+00
         0.00000E+00
         0.00000E+00
         0.00000E+00
         0.00000E+00
         0.00000E+00
         0.00000E+00
         0.00000E+00
         0.00000E+00
         0.00000E+00
         0.00000E+00
         0.00000E+00
         0.00000E+00
         0.00000E+00
         0.00000E+00
         0.00000E+00
         0.00000E+00
         0.00000E+00
         0.00000E+00
         0.00000E+00
         0.00000E+00
         0.00000E+00
         0.00000E+00
         0.00000E+00
         0.00000E+00
         0.00000E+00
         0.00000E+00
         0.00000E+00
         0.00000E+00
         0.00000E+00
         0.00000E+00
         0.00000E+00
         0.00000E+00
         0.00000E+00
         0.00000E+00
         0.00000E+00
         0.00000E+00
         0.00000E+00
         0.00000E+00
         0.00000E+00
         0.00000E+00
         0.00000E+00
         0.00000E+00
         0.00000E+00
         0.00000E+00
         0.00000E+00
         0.00000E+00
         0.00000E+00
         0.00000E+00
         0.00000E+00
         0.00000E+00
         0.00000E+00
         0.00000E+00
         0.00000E+00
         0.00000E+00
         0.00000E+00
         0.00000E+00
         0.00000E+00
         0.00000E+00
         0.00000E+00
         0.00000E+00
         0.00000E+00
         0.00000E+00
         0.00000E+00
         0.00000E+00
         0.00000E+00
         0.00000E+00
         0.00000E+00
         0.00000E+00
         0.00000E+00
         0.00000E+00
         0.00000E+00
         0.00000E+00
         0.00000E+00
         0.00000E+00
         0.00000E+00
         0.00000E+00
         0.00000E+00
         0.00000E+00
         0.00000E+00
         0.00000E+00
         0.00000E+00
         0.00000E+00
         0.00000E+00
         0.00000E+00
         0.00000E+00
         0.00000E+00
         0.00000E+00
         0.00000E+00
         0.00000E+00
         0.00000E+00
         0.00000E+00
         0.00000E+00
         0.00000E+00
         0.00000E+00
         0.00000E+00
         0.00000E+00
         0.00000E+00
         0.00000E+00
         0.00000E+00
         0.00000E+00
         0.00000E+00
         0.00000E+00
         0.00000E+00
         0.00000E+00
         0.00000E+00
         0.00000E+00
         0.00000E+00
         0.00000E+00
         0.00000E+00
         0.00000E+00
         0.00000E+00
         0.00000E+00
         0.00000E+00
         0.00000E+00
         0.00000E+00
         0.00000E+00
         0.00000E+00
         0.00000E+00
         0.00000E+00
         0.00000E+00
         0.00000E+00
         0.00000E+00
         0.00000E+00
         0.00000E+00
         0.00000E+00
         0.00000E+00
         0.00000E+00
         0.00000E+00
         0.00000E+00
         0.00000E+00
         0.00000E+00
         0.00000E+00
         0.00000E+00
         0.00000E+00
         0.00000E+00
         0.00000E+00
         0.00000E+00
         0.00000E+00
         0.00000E+00
         0.00000E+00
         0.00000E+00
         0.00000E+00
         0.00000E+00
         0.00000E+00
         0.00000E+00
         0.00000E+00
         0.00000E+00
         0.00000E+00
         0.00000E+00
         0.00000E+00
         0.00000E+00
         0.00000E+00
         0.00000E+00
         0.00000E+00
         0.00000E+00
         0.00000E+00
         0.00000E+00
         0.00000E+00
         0.00000E+00
         0.00000E+00
         0.00000E+00
         0.00000E+00
         0.00000E+00
         0.00000E+00
         0.00000E+00
         0.00000E+00
         0.00000E+00
         0.00000E+00
         0.00000E+00
         0.00000E+00
         0.00000E+00
         0.00000E+00
         0.00000E+00
         0.00000E+00
         0.00000E+00
         0.00000E+00
         0.00000E+00
         0.00000E+00
         0.00000E+00
         0.00000E+00
         0.00000E+00
         0.00000E+00
         0.00000E+00
         0.00000E+00
         0.00000E+00
         0.00000E+00
         0.00000E+00
         0.00000E+00
         0.00000E+00
         0.00000E+00
         0.00000E+00
         0.00000E+00
         0.00000E+00
         0.00000E+00
         0.00000E+00
         0.00000E+00
         0.00000E+00
         0.00000E+00
         0.00000E+00
         0.00000E+00
         0.00000E+00
         0.00000E+00
         0.00000E+00
         0.00000E+00
         0.00000E+00
         0.00000E+00
         0.00000E+00
         0.00000E+00
         0.00000E+00
         0.00000E+00
         0.00000E+00
         0.00000E+00
         0.00000E+00
         0.00000E+00
         0.00000E+00
         0.00000E+00
         0.00000E+00
         0.00000E+00
         0.00000E+00
         0.00000E+00
         0.00000E+00
         0.00000E+00
         0.00000E+00
         0.00000E+00
         0.00000E+00
         0.00000E+00
         0.00000E+00
         0.00000E+00
         0.00000E+00
         0.00000E+00
         0.00000E+00
         0.00000E+00
         0.00000E+00
         0.00000E+00
         0.00000E+00
         0.00000E+00
         0.00000E+00
         0.00000E+00
         0.00000E+00
         0.00000E+00
         0.00000E+00
         0.00000E+00
         0.00000E+00
         0.00000E+00
         0.00000E+00
         0.00000E+00
         0.00000E+00
         0.00000E+00
         0.00000E+00
         0.00000E+00
         0.00000E+00
         0.00000E+00
         0.00000E+00
         0.00000E+00
         0.00000E+00
         0.00000E+00
         0.00000E+00
         0.00000E+00
         0.00000E+00
         0.00000E+00
         0.00000E+00
         0.00000E+00
         0.00000E+00
         0.00000E+00
         0.00000E+00
         0.00000E+00
         0.00000E+00
         0.00000E+00
         0.00000E+00
         0.00000E+00
         0.00000E+00
         0.00000E+00
         0.00000E+00
         0.00000E+00
         0.00000E+00
         0.00000E+00
         0.00000E+00
         0.00000E+00
         0.00000E+00
         0.00000E+00
         0.00000E+00
         0.00000E+00
         0.00000E+00
         0.00000E+00
         0.00000E+00
         0.00000E+00
         0.00000E+00
         0.00000E+00
         0.00000E+00
         0.00000E+00
         0.00000E+00
         0.00000E+00
         0.00000E+00
         0.00000E+00
         0.00000E+00
         0.00000E+00
         0.00000E+00
         0.00000E+00
         0.00000E+00
         0.00000E+00
         0.00000E+00
         0.00000E+00
         0.00000E+00
         0.00000E+00
         0.00000E+00
         0.00000E+00
         0.00000E+00
         0.00000E+00
         0.00000E+00
         0.00000E+00
         0.00000E+00
         0.00000E+00
         0.00000E+00
         0.00000E+00
         0.00000E+00
         0.00000E+00
         0.00000E+00
         0.00000E+00
         0.00000E+00
         0.00000E+00
         0.00000E+00
         0.00000E+00
         0.00000E+00
         0.00000E+00
         0.00000E+00
         0.00000E+00
         0.00000E+00
         0.00000E+00
         0.00000E+00
         0.00000E+00
         0.00000E+00
         0.00000E+00
         0.00000E+00
         0.00000E+00
         0.00000E+00
         0.00000E+00
         0.00000E+00
         0.00000E+00
         0.00000E+00
         0.00000E+00
         0.00000E+00
         0.00000E+00
         0.00000E+00
         0.00000E+00
         0.00000E+00
         0.00000E+00
         0.00000E+00
         0.00000E+00
         0.00000E+00
         0.00000E+00
         0.00000E+00
         0.00000E+00
         0.00000E+00
         0.00000E+00
         0.00000E+00
         0.00000E+00
         0.00000E+00
         0.00000E+00
         0.00000E+00
         0.00000E+00
         0.00000E+00
         0.00000E+00
         0.00000E+00
         0.00000E+00
         0.00000E+00
         0.00000E+00
         0.00000E+00
         0.00000E+00
         0.00000E+00
         0.00000E+00
         0.00000E+00
         0.00000E+00
         0.00000E+00
         0.00000E+00
         0.00000E+00
         0.00000E+00
         0.00000E+00
         0.00000E+00
         0.00000E+00
         0.00000E+00
         0.00000E+00
         0.00000E+00
         0.00000E+00
         0.00000E+00
         0.00000E+00
         0.00000E+00
         0.00000E+00
         0.00000E+00
         0.00000E+00
         0.00000E+00
         0.00000E+00
         0.00000E+00
         0.00000E+00
         0.00000E+00
         0.00000E+00
         0.00000E+00
         0.00000E+00
         0.00000E+00
         0.00000E+00
         0.00000E+00
         0.00000E+00
         0.00000E+00
         0.00000E+00
         0.00000E+00
         0.00000E+00
         0.00000E+00
         0.00000E+00
         0.00000E+00
         0.00000E+00
         0.00000E+00
         0.00000E+00
         0.00000E+00
         0.00000E+00
         0.00000E+00
         0.00000E+00
         0.00000E+00
         0.00000E+00
         0.00000E+00
         0.00000E+00
         0.00000E+00
         0.00000E+00
         0.00000E+00
         0.00000E+00
         0.00000E+00
         0.00000E+00
         0.00000E+00
         0.00000E+00
         0.00000E+00
         0.00000E+00
         0.00000E+00
         0.00000E+00
         0.00000E+00
         0.00000E+00
         0.00000E+00
         0.00000E+00
         0.00000E+00
         0.00000E+00
         0.00000E+00
         0.00000E+00
         0.00000E+00
         0.00000E+00
         0.00000E+00
         0.00000E+00
         0.00000E+00
         0.00000E+00
         0.00000E+00
         0.00000E+00
         0.00000E+00
         0.00000E+00
         0.00000E+00
         0.00000E+00
         0.00000E+00
         0.00000E+00
         0.00000E+00
         0.00000E+00
         0.00000E+00
         0.00000E+00
         0.00000E+00
         0.00000E+00
         0.00000E+00
         0.00000E+00
         0.00000E+00
         0.00000E+00
         0.00000E+00
         0.00000E+00
         0.00000E+00
         0.00000E+00
         0.00000E+00
         0.00000E+00
         0.00000E+00
         0.00000E+00
         0.00000E+00
         0.00000E+00
         0.00000E+00
         0.00000E+00
         0.00000E+00
         0.00000E+00
         0.00000E+00
         0.00000E+00
         0.00000E+00
         0.00000E+00
         0.00000E+00
         0.00000E+00
         0.00000E+00
         0.00000E+00
         0.00000E+00
         0.00000E+00
         0.00000E+00
         0.00000E+00
         0.00000E+00
         0.00000E+00
         0.00000E+00
         0.00000E+00
         0.00000E+00
         0.00000E+00
         0.00000E+00
         0.00000E+00
         0.00000E+00
         0.00000E+00
         0.00000E+00
         0.00000E+00
         0.00000E+00
         0.00000E+00
         0.00000E+00
         0.00000E+00
         0.00000E+00
         0.00000E+00
         0.00000E+00
         0.00000E+00
         0.00000E+00
         0.00000E+00
         0.00000E+00
         0.00000E+00
         0.00000E+00
         0.00000E+00
         0.00000E+00
         0.00000E+00
         0.00000E+00
         0.00000E+00
         0.00000E+00
         0.00000E+00
         0.00000E+00
         0.00000E+00
         0.00000E+00
         0.00000E+00
         0.00000E+00
         0.00000E+00
         0.00000E+00
         0.00000E+00
         0.00000E+00
         0.00000E+00
         0.00000E+00
         0.00000E+00
         0.00000E+00
         0.00000E+00
         0.00000E+00
         0.00000E+00
         0.00000E+00
         0.00000E+00
         0.00000E+00
         0.00000E+00
         0.00000E+00
         0.00000E+00
         0.00000E+00
         0.00000E+00
         0.00000E+00
         0.00000E+00
         0.00000E+00
         0.00000E+00
         0.00000E+00
         0.00000E+00
         0.00000E+00
         0.00000E+00
         0.00000E+00
         0.00000E+00
         0.00000E+00
         0.00000E+00
         0.00000E+00
         0.00000E+00
         0.00000E+00
         0.00000E+00
         0.00000E+00
         0.00000E+00
         0.00000E+00
         0.00000E+00
         0.00000E+00
         0.00000E+00
         0.00000E+00
         0.00000E+00
         0.00000E+00
         0.00000E+00
         0.00000E+00
         0.00000E+00
         0.00000E+00
         0.00000E+00
         0.00000E+00
         0.00000E+00
         0.00000E+00
         0.00000E+00
         0.00000E+00
         0.00000E+00
         0.00000E+00
         0.00000E+00
         0.00000E+00
         0.00000E+00
         0.00000E+00
         0.00000E+00
         0.00000E+00
         0.00000E+00
         0.00000E+00
         0.00000E+00
         0.00000E+00
         0.00000E+00
         0.00000E+00
         0.00000E+00
         0.00000E+00
         0.00000E+00
         0.00000E+00
         0.00000E+00
         0.00000E+00
         0.00000E+00
         0.00000E+00
         0.00000E+00
         0.00000E+00
         0.00000E+00
         0.00000E+00
         0.00000E+00
         0.00000E+00
         0.00000E+00
         0.00000E+00
         0.00000E+00
         0.00000E+00
         0.00000E+00
         0.00000E+00
         0.00000E+00
         0.00000E+00
         0.00000E+00
         0.00000E+00
         0.00000E+00
         0.00000E+00
         0.00000E+00
         0.00000E+00
         0.00000E+00
         0.00000E+00
         0.00000E+00
         0.00000E+00
         0.00000E+00
         0.00000E+00
         0.00000E+00
         0.00000E+00
         0.00000E+00
         0.00000E+00
         0.00000E+00
         0.00000E+00
         0.00000E+00
         0.00000E+00
         0.00000E+00
         0.00000E+00
         0.00000E+00
         0.00000E+00
         0.00000E+00
         0.00000E+00
         0.00000E+00
         0.00000E+00
         0.00000E+00
         0.00000E+00
         0.00000E+00
         0.00000E+00
         0.00000E+00
         0.00000E+00
         0.00000E+00
         0.00000E+00
         0.00000E+00
         0.00000E+00
         0.00000E+00
         0.00000E+00
         0.00000E+00
         0.00000E+00
         0.00000E+00
         0.00000E+00
         0.00000E+00
         0.00000E+00
         0.00000E+00
         0.00000E+00
         0.00000E+00
         0.00000E+00
         0.00000E+00
         0.00000E+00
         0.00000E+00
         0.00000E+00
         0.00000E+00
         0.00000E+00
         0.00000E+00
         0.00000E+00
         0.00000E+00
         0.00000E+00
         0.00000E+00
         0.00000E+00
         0.00000E+00
         0.00000E+00
         0.00000E+00
         0.00000E+00
         0.00000E+00
         0.00000E+00
         0.00000E+00
         0.00000E+00
         0.00000E+00
         0.00000E+00
         0.00000E+00
         0.00000E+00
         0.00000E+00
         0.00000E+00
         0.00000E+00
         0.00000E+00
         0.00000E+00
         0.00000E+00
         0.00000E+00
         0.00000E+00
         0.00000E+00
         0.00000E+00
         0.00000E+00
         0.00000E+00
         0.00000E+00
         0.00000E+00
         0.00000E+00
         0.00000E+00
         0.00000E+00
         0.00000E+00
         0.00000E+00
         0.00000E+00
         0.00000E+00
         0.00000E+00
         0.00000E+00
         0.00000E+00
         0.00000E+00
         0.00000E+00
         0.00000E+00
         0.00000E+00
         0.00000E+00
         0.00000E+00
         0.00000E+00
         0.00000E+00
         0.00000E+00
         0.00000E+00
         0.00000E+00
         0.00000E+00
         0.00000E+00
         0.00000E+00
         0.00000E+00
         0.00000E+00
         0.00000E+00
         0.00000E+00
         0.00000E+00
         0.00000E+00
         0.00000E+00
         0.00000E+00
         0.00000E+00
         0.00000E+00
         0.00000E+00
         0.00000E+00
         0.00000E+00
         0.00000E+00
         0.00000E+00
         0.00000E+00
         0.00000E+00
         0.00000E+00
         0.00000E+00
         0.00000E+00
         0.00000E+00
         0.00000E+00
         0.00000E+00
         0.00000E+00
         0.00000E+00
         0.00000E+00
         0.00000E+00
         0.00000E+00
         0.00000E+00
         0.00000E+00
         0.00000E+00
         0.00000E+00
         0.00000E+00
         0.00000E+00
         0.00000E+00
         0.00000E+00
         0.00000E+00
         0.00000E+00
         0.00000E+00
         0.00000E+00
         0.00000E+00
         0.00000E+00
         0.00000E+00
         0.00000E+00
         0.00000E+00
         0.00000E+00
         0.00000E+00
         0.00000E+00
         0.00000E+00
         0.00000E+00
         0.00000E+00
         0.00000E+00
         0.00000E+00
         0.00000E+00
         0.00000E+00
         0.00000E+00
         0.00000E+00
         0.00000E+00
         0.00000E+00
         0.00000E+00
         0.00000E+00
         0.00000E+00
         0.00000E+00
         0.00000E+00
         0.00000E+00
         0.00000E+00
         0.00000E+00
         0.00000E+00
         0.00000E+00
         0.00000E+00
         0.00000E+00
         0.00000E+00
         0.00000E+00
         0.00000E+00
         0.00000E+00
         0.00000E+00
         0.00000E+00
         0.00000E+00
         0.00000E+00
         0.00000E+00
         0.00000E+00
         0.00000E+00
         0.00000E+00
         0.00000E+00
         0.00000E+00
         0.00000E+00
         0.00000E+00
         0.00000E+00
         0.00000E+00
         0.00000E+00
         0.00000E+00
         0.00000E+00
         0.00000E+00
         0.00000E+00
         0.00000E+00
         0.00000E+00
         0.00000E+00
         0.00000E+00
         0.00000E+00
         0.00000E+00
         0.00000E+00
         0.00000E+00
         0.00000E+00
         0.00000E+00
         0.00000E+00
         0.00000E+00
         0.00000E+00
         0.00000E+00
         0.00000E+00
         0.00000E+00
         0.00000E+00
         0.00000E+00
         0.00000E+00
         0.00000E+00
         0.00000E+00
         0.00000E+00
         0.00000E+00
         0.00000E+00
         0.00000E+00
         0.00000E+00
         0.00000E+00
         0.00000E+00
         0.00000E+00
         0.00000E+00
         0.00000E+00
         0.00000E+00
         0.00000E+00
         0.00000E+00
         0.00000E+00
         0.00000E+00
         0.00000E+00
         0.00000E+00
         0.00000E+00
         0.00000E+00
         0.00000E+00
         0.00000E+00
         0.00000E+00
         0.00000E+00
         0.00000E+00
         0.00000E+00
         0.00000E+00
         0.00000E+00
         0.00000E+00
         0.00000E+00
         0.00000E+00
         0.00000E+00
         0.00000E+00
         0.00000E+00
         0.00000E+00
         0.00000E+00
         0.00000E+00
         0.00000E+00
         0.00000E+00
         0.00000E+00
         0.00000E+00
         0.00000E+00
         0.00000E+00
         0.00000E+00
         0.00000E+00
         0.00000E+00
         0.00000E+00
         0.00000E+00
         0.00000E+00
         0.00000E+00
         0.00000E+00
         0.00000E+00
         0.00000E+00
         0.00000E+00
         0.00000E+00
         0.00000E+00
         0.00000E+00
         0.00000E+00
         0.00000E+00
         0.00000E+00
         0.00000E+00
         0.00000E+00
         0.00000E+00
         0.00000E+00
         0.00000E+00
         0.00000E+00
         0.00000E+00
         0.00000E+00
         0.00000E+00
         0.00000E+00
         0.00000E+00
         0.00000E+00
         0.00000E+00
         0.00000E+00
         0.00000E+00
         0.00000E+00
         0.00000E+00
         0.00000E+00
         0.00000E+00
         0.00000E+00
         0.00000E+00
         0.00000E+00
         0.00000E+00
         0.00000E+00
         0.00000E+00
         0.00000E+00
         0.00000E+00
         0.00000E+00
         0.00000E+00
         0.00000E+00
         0.00000E+00
         0.00000E+00
         0.00000E+00
         0.00000E+00
         0.00000E+00
         0.00000E+00
         0.00000E+00
         0.00000E+00
         0.00000E+00
         0.00000E+00
         0.00000E+00
         0.00000E+00
         0.00000E+00
         0.00000E+00
         0.00000E+00
         0.00000E+00
         0.00000E+00
         0.00000E+00
         0.00000E+00
         0.00000E+00
         0.00000E+00
         0.00000E+00
         0.00000E+00
         0.00000E+00
         0.00000E+00
         0.00000E+00
         0.00000E+00
         0.00000E+00
         0.00000E+00
         0.00000E+00
         0.00000E+00
         0.00000E+00
         0.00000E+00
         0.00000E+00
         0.00000E+00
         0.00000E+00
         0.00000E+00
         0.00000E+00
         0.00000E+00
         0.00000E+00
         0.00000E+00
         0.00000E+00
         0.00000E+00
         0.00000E+00
         0.00000E+00
         0.00000E+00
         0.00000E+00
         0.00000E+00
         0.00000E+00
         0.00000E+00
         0.00000E+00
         0.00000E+00
         0.00000E+00
         0.00000E+00
         0.00000E+00
         0.00000E+00
         0.00000E+00
         0.00000E+00
         0.00000E+00
         0.00000E+00
         0.00000E+00
         0.00000E+00
         0.00000E+00
         0.00000E+00
         0.00000E+00
         0.00000E+00
         0.00000E+00
         0.00000E+00
         0.00000E+00
         0.00000E+00
         0.00000E+00
         0.00000E+00
         0.00000E+00
         0.00000E+00
         0.00000E+00
         0.00000E+00
         0.00000E+00
         0.00000E+00
         0.00000E+00
         0.00000E+00
         0.00000E+00
         0.00000E+00
         0.00000E+00
         0.00000E+00
         0.00000E+00
         0.00000E+00
         0.00000E+00
         0.00000E+00
         0.00000E+00
         0.00000E+00
         0.00000E+00
         0.00000E+00
         0.00000E+00
         0.00000E+00
         0.00000E+00
         0.00000E+00
         0.00000E+00
         0.00000E+00
         0.00000E+00
         0.00000E+00
         0.00000E+00
         0.00000E+00
         0.00000E+00
         0.00000E+00
         0.00000E+00
         0.00000E+00
         0.00000E+00
         0.00000E+00
         0.00000E+00
         0.00000E+00
         0.00000E+00
         0.00000E+00
         0.00000E+00
         0.00000E+00
         0.00000E+00
         0.00000E+00
         0.00000E+00
         0.00000E+00
         0.00000E+00
         0.00000E+00
         0.00000E+00
         0.00000E+00
         0.00000E+00
         0.00000E+00
         0.00000E+00
         0.00000E+00
         0.00000E+00
         0.00000E+00
         0.00000E+00
         0.00000E+00
         0.00000E+00
         0.00000E+00
         0.00000E+00
         0.00000E+00
         0.00000E+00
         0.00000E+00
         0.00000E+00
         0.00000E+00
         0.00000E+00
         0.00000E+00
         0.00000E+00
         0.00000E+00
         0.00000E+00
         0.00000E+00
         0.00000E+00
         0.00000E+00
         0.00000E+00
         0.00000E+00
         0.00000E+00
         0.00000E+00
         0.00000E+00
         0.00000E+00
         0.00000E+00
         0.00000E+00
         0.00000E+00
         0.00000E+00
         0.00000E+00
         0.00000E+00
         0.00000E+00
         0.00000E+00
         0.00000E+00
         0.00000E+00
         0.00000E+00
         0.00000E+00
         0.00000E+00
         0.00000E+00
         0.00000E+00
         0.00000E+00
         0.00000E+00
         0.00000E+00
         0.00000E+00
         0.00000E+00
         0.00000E+00
         0.00000E+00
         0.00000E+00
         0.00000E+00
         0.00000E+00
         0.00000E+00
         0.00000E+00
         0.00000E+00
         0.00000E+00
         0.00000E+00
         0.00000E+00
         0.00000E+00
         0.00000E+00
         0.00000E+00
         0.00000E+00
         0.00000E+00
         0.00000E+00
         0.00000E+00
         0.00000E+00
         0.00000E+00
         0.00000E+00
         0.00000E+00
         0.00000E+00
         0.00000E+00
         0.00000E+00
         0.00000E+00
         0.00000E+00
         0.00000E+00
         0.00000E+00
         0.00000E+00
         0.00000E+00
         0.00000E+00
         0.00000E+00
         0.00000E+00
         0.00000E+00
         0.00000E+00
         0.00000E+00
         0.00000E+00
         0.00000E+00
         0.00000E+00
         0.00000E+00
         0.00000E+00
         0.00000E+00
         0.00000E+00
         0.00000E+00
         0.00000E+00
         0.00000E+00
         0.00000E+00
         0.00000E+00
         0.00000E+00
         0.00000E+00
         0.00000E+00
         0.00000E+00
         0.00000E+00
         0.00000E+00
         0.00000E+00
         0.00000E+00
         0.00000E+00
         0.00000E+00
         0.00000E+00
         0.00000E+00
         0.00000E+00
         0.00000E+00
         0.00000E+00
         0.00000E+00
         0.00000E+00
         0.00000E+00
         0.00000E+00
         0.00000E+00
         0.00000E+00
         0.00000E+00
         0.00000E+00
         0.00000E+00
         0.00000E+00
         0.00000E+00
         0.00000E+00
         0.00000E+00
         0.00000E+00
         0.00000E+00
         0.00000E+00
         0.00000E+00
         0.00000E+00
         0.00000E+00
         0.00000E+00
         0.00000E+00
         0.00000E+00
         0.00000E+00
         0.00000E+00
         0.00000E+00
         0.00000E+00
         0.00000E+00
         0.00000E+00
         0.00000E+00
         0.00000E+00
         0.00000E+00
         0.00000E+00
         0.00000E+00
         0.00000E+00
         0.00000E+00
         0.00000E+00
         0.00000E+00
         0.00000E+00
         0.00000E+00
         0.00000E+00
         0.00000E+00
         0.00000E+00
         0.00000E+00
         0.00000E+00
         0.00000E+00
         0.00000E+00
         0.00000E+00
         0.00000E+00
         0.00000E+00
         0.00000E+00
         0.00000E+00
         0.00000E+00
         0.00000E+00
         0.00000E+00
         0.00000E+00
         0.00000E+00
         0.00000E+00
         0.00000E+00
         0.00000E+00
         0.00000E+00
         0.00000E+00
         0.00000E+00
         0.00000E+00
         0.00000E+00
         0.00000E+00
         0.00000E+00
         0.00000E+00
         0.00000E+00
         0.00000E+00
         0.00000E+00
         0.00000E+00
         0.00000E+00
         0.00000E+00
         0.00000E+00
         0.00000E+00
         0.00000E+00
         0.00000E+00
         0.00000E+00
         0.00000E+00
         0.00000E+00
         0.00000E+00
         0.00000E+00
         0.00000E+00
         0.00000E+00
         0.00000E+00
         0.00000E+00
         0.00000E+00
         0.00000E+00
         0.00000E+00
         0.00000E+00
         0.00000E+00
         0.00000E+00
         0.00000E+00
         0.00000E+00
         0.00000E+00
         0.00000E+00
         0.00000E+00
         0.00000E+00
         0.00000E+00
         0.00000E+00
         0.00000E+00
         0.00000E+00
         0.00000E+00
         0.00000E+00
         0.00000E+00
         0.00000E+00
         0.00000E+00
         0.00000E+00
         0.00000E+00
         0.00000E+00
         0.00000E+00
         0.00000E+00
         0.00000E+00
         0.00000E+00
         0.00000E+00
         0.00000E+00
         0.00000E+00
         0.00000E+00
         0.00000E+00
         0.00000E+00
         0.00000E+00
         0.00000E+00
         0.00000E+00
         0.00000E+00
         0.00000E+00
         0.00000E+00
         0.00000E+00
         0.00000E+00
         0.00000E+00
         0.00000E+00
         0.00000E+00
         0.00000E+00
         0.00000E+00
         0.00000E+00
         0.00000E+00
         0.00000E+00
         0.00000E+00
         0.00000E+00
         0.00000E+00
         0.00000E+00
         0.00000E+00
         0.00000E+00
         0.00000E+00
         0.00000E+00
         0.00000E+00
         0.00000E+00
         0.00000E+00
         0.00000E+00
         0.00000E+00
         0.00000E+00
         0.00000E+00
         0.00000E+00
         0.00000E+00
         0.00000E+00
         0.00000E+00
         0.00000E+00
         0.00000E+00
         0.00000E+00
         0.00000E+00
         0.00000E+00
         0.00000E+00
         0.00000E+00
         0.00000E+00
         0.00000E+00
         0.00000E+00
         0.00000E+00
         0.00000E+00
         0.00000E+00
         0.00000E+00
         0.00000E+00
         0.00000E+00
         0.00000E+00
         0.00000E+00
         0.00000E+00
         0.00000E+00
         0.00000E+00
         0.00000E+00
         0.00000E+00
         0.00000E+00
         0.00000E+00
         0.00000E+00
         0.00000E+00
         0.00000E+00
         0.00000E+00
         0.00000E+00
         0.00000E+00
         0.00000E+00
         0.00000E+00
         0.00000E+00
         0.00000E+00
         0.00000E+00
         0.00000E+00
         0.00000E+00
         0.00000E+00
         0.00000E+00
         0.00000E+00
         0.00000E+00
         0.00000E+00
         0.00000E+00
         0.00000E+00
         0.00000E+00
         0.00000E+00
         0.00000E+00
         0.00000E+00
         0.00000E+00
         0.00000E+00
         0.00000E+00
         0.00000E+00
         0.00000E+00
         0.00000E+00
         0.00000E+00
         0.00000E+00
         0.00000E+00
         0.00000E+00
         0.00000E+00
         0.00000E+00
         0.00000E+00
         0.00000E+00
         0.00000E+00
         0.00000E+00
         0.00000E+00
         0.00000E+00
         0.00000E+00
         0.00000E+00
         0.00000E+00
         0.00000E+00
         0.00000E+00
         0.00000E+00
         0.00000E+00
         0.00000E+00
         0.00000E+00
         0.00000E+00
         0.00000E+00
         0.00000E+00
         0.00000E+00
         0.00000E+00
         0.00000E+00
         0.00000E+00
         0.00000E+00
         0.00000E+00
         0.00000E+00
         0.00000E+00
         0.00000E+00
         0.00000E+00
         0.00000E+00
         0.00000E+00
         0.00000E+00
         0.00000E+00
         0.00000E+00
  
SCALARS               pre_disp_force_z  double 1
LOOKUP_TABLE default
         0.00000E+00
         0.00000E+00
         0.00000E+00
         0.00000E+00
        -0.00000E+00
        -0.00000E+00
        -0.00000E+00
        -0.00000E+00
         0.00000E+00
         0.00000E+00
        -0.00000E+00
        -0.00000E+00
         0.00000E+00
         0.00000E+00
        -0.00000E+00
        -0.00000E+00
         0.00000E+00
         0.00000E+00
        -0.00000E+00
        -0.00000E+00
         0.00000E+00
         0.00000E+00
         0.00000E+00
        -0.00000E+00
        -0.00000E+00
        -0.00000E+00
         0.00000E+00
         0.00000E+00
        -0.00000E+00
        -0.00000E+00
         0.00000E+00
         0.00000E+00
         0.00000E+00
        -0.00000E+00
        -0.00000E+00
        -0.00000E+00
         0.00000E+00
         0.00000E+00
        -0.00000E+00
        -0.00000E+00
         0.00000E+00
         0.00000E+00
        -0.00000E+00
        -0.00000E+00
         0.00000E+00
         0.00000E+00
        -0.00000E+00
        -0.00000E+00
         0.00000E+00
        -0.00000E+00
         0.00000E+00
        -0.00000E+00
         0.00000E+00
        -0.00000E+00
         0.00000E+00
        -0.00000E+00
         0.00000E+00
         0.00000E+00
        -0.00000E+00
        -0.00000E+00
         0.00000E+00
         0.00000E+00
        -0.00000E+00
        -0.00000E+00
         0.00000E+00
        -0.00000E+00
         0.00000E+00
        -0.00000E+00
         0.00000E+00
         0.00000E+00
        -0.00000E+00
        -0.00000E+00
         0.00000E+00
        -0.00000E+00
         0.00000E+00
        -0.00000E+00
         0.00000E+00
        -0.00000E+00
         0.00000E+00
        -0.00000E+00
         0.00000E+00
         0.00000E+00
        -0.00000E+00
        -0.00000E+00
         0.00000E+00
        -0.00000E+00
         0.00000E+00
        -0.00000E+00
         0.00000E+00
        -0.00000E+00
         0.00000E+00
         0.00000E+00
        -0.00000E+00
        -0.00000E+00
         0.00000E+00
        -0.00000E+00
         0.00000E+00
        -0.00000E+00
         0.00000E+00
        -0.00000E+00
         0.00000E+00
         0.00000E+00
        -0.00000E+00
        -0.00000E+00
         0.00000E+00
         0.00000E+00
        -0.00000E+00
        -0.00000E+00
         0.00000E+00
        -0.00000E+00
         0.00000E+00
        -0.00000E+00
         0.00000E+00
        -0.00000E+00
         0.00000E+00
        -0.00000E+00
         0.00000E+00
        -0.00000E+00
         0.00000E+00
        -0.00000E+00
         0.00000E+00
        -0.00000E+00
         0.00000E+00
        -0.00000E+00
         0.00000E+00
        -0.00000E+00
         0.00000E+00
        -0.00000E+00
         0.00000E+00
        -0.00000E+00
         0.00000E+00
        -0.00000E+00
         0.00000E+00
        -0.00000E+00
         0.00000E+00
        -0.00000E+00
         0.00000E+00
        -0.00000E+00
         0.00000E+00
        -0.00000E+00
         0.00000E+00
        -0.00000E+00
         0.00000E+00
        -0.00000E+00
         0.00000E+00
        -0.00000E+00
         0.00000E+00
        -0.00000E+00
         0.00000E+00
        -0.00000E+00
         0.00000E+00
        -0.00000E+00
         0.00000E+00
        -0.00000E+00
         0.00000E+00
        -0.00000E+00
         0.00000E+00
         0.00000E+00
         0.00000E+00
         0.00000E+00
         0.00000E+00
         0.00000E+00
         0.00000E+00
         0.00000E+00
         0.00000E+00
         0.00000E+00
         0.00000E+00
         0.00000E+00
         0.00000E+00
         0.00000E+00
         0.00000E+00
         0.00000E+00
         0.00000E+00
         0.00000E+00
         0.00000E+00
         0.00000E+00
         0.00000E+00
         0.00000E+00
         0.00000E+00
         0.00000E+00
         0.00000E+00
         0.00000E+00
         0.00000E+00
         0.00000E+00
         0.00000E+00
         0.00000E+00
         0.00000E+00
         0.00000E+00
         0.00000E+00
         0.00000E+00
         0.00000E+00
         0.00000E+00
         0.00000E+00
         0.00000E+00
         0.00000E+00
         0.00000E+00
         0.00000E+00
         0.00000E+00
         0.00000E+00
         0.00000E+00
         0.00000E+00
         0.00000E+00
         0.00000E+00
         0.00000E+00
         0.00000E+00
         0.00000E+00
         0.00000E+00
         0.00000E+00
         0.00000E+00
         0.00000E+00
         0.00000E+00
         0.00000E+00
         0.00000E+00
         0.00000E+00
         0.00000E+00
         0.00000E+00
         0.00000E+00
         0.00000E+00
         0.00000E+00
         0.00000E+00
         0.00000E+00
         0.00000E+00
         0.00000E+00
         0.00000E+00
         0.00000E+00
         0.00000E+00
         0.00000E+00
         0.00000E+00
         0.00000E+00
         0.00000E+00
         0.00000E+00
         0.00000E+00
         0.00000E+00
         0.00000E+00
         0.00000E+00
         0.00000E+00
         0.00000E+00
         0.00000E+00
         0.00000E+00
         0.00000E+00
         0.00000E+00
         0.00000E+00
         0.00000E+00
         0.00000E+00
         0.00000E+00
         0.00000E+00
         0.00000E+00
         0.00000E+00
         0.00000E+00
         0.00000E+00
         0.00000E+00
         0.00000E+00
         0.00000E+00
         0.00000E+00
         0.00000E+00
         0.00000E+00
         0.00000E+00
         0.00000E+00
         0.00000E+00
         0.00000E+00
         0.00000E+00
         0.00000E+00
         0.00000E+00
         0.00000E+00
         0.00000E+00
         0.00000E+00
         0.00000E+00
         0.00000E+00
         0.00000E+00
         0.00000E+00
         0.00000E+00
         0.00000E+00
         0.00000E+00
         0.00000E+00
         0.00000E+00
         0.00000E+00
         0.00000E+00
         0.00000E+00
         0.00000E+00
         0.00000E+00
         0.00000E+00
         0.00000E+00
         0.00000E+00
         0.00000E+00
         0.00000E+00
         0.00000E+00
         0.00000E+00
         0.00000E+00
         0.00000E+00
         0.00000E+00
         0.00000E+00
         0.00000E+00
         0.00000E+00
         0.00000E+00
         0.00000E+00
         0.00000E+00
         0.00000E+00
         0.00000E+00
         0.00000E+00
         0.00000E+00
         0.00000E+00
         0.00000E+00
         0.00000E+00
         0.00000E+00
         0.00000E+00
         0.00000E+00
         0.00000E+00
         0.00000E+00
         0.00000E+00
         0.00000E+00
         0.00000E+00
         0.00000E+00
         0.00000E+00
         0.00000E+00
         0.00000E+00
         0.00000E+00
         0.00000E+00
         0.00000E+00
         0.00000E+00
         0.00000E+00
         0.00000E+00
         0.00000E+00
         0.00000E+00
         0.00000E+00
         0.00000E+00
         0.00000E+00
         0.00000E+00
         0.00000E+00
         0.00000E+00
         0.00000E+00
         0.00000E+00
         0.00000E+00
         0.00000E+00
         0.00000E+00
         0.00000E+00
         0.00000E+00
         0.00000E+00
         0.00000E+00
         0.00000E+00
         0.00000E+00
         0.00000E+00
         0.00000E+00
         0.00000E+00
         0.00000E+00
         0.00000E+00
         0.00000E+00
         0.00000E+00
         0.00000E+00
         0.00000E+00
         0.00000E+00
         0.00000E+00
         0.00000E+00
         0.00000E+00
         0.00000E+00
         0.00000E+00
         0.00000E+00
         0.00000E+00
         0.00000E+00
         0.00000E+00
         0.00000E+00
         0.00000E+00
         0.00000E+00
         0.00000E+00
         0.00000E+00
         0.00000E+00
         0.00000E+00
         0.00000E+00
         0.00000E+00
         0.00000E+00
         0.00000E+00
         0.00000E+00
         0.00000E+00
         0.00000E+00
         0.00000E+00
         0.00000E+00
         0.00000E+00
         0.00000E+00
         0.00000E+00
         0.00000E+00
         0.00000E+00
         0.00000E+00
         0.00000E+00
         0.00000E+00
         0.00000E+00
         0.00000E+00
         0.00000E+00
         0.00000E+00
         0.00000E+00
         0.00000E+00
         0.00000E+00
         0.00000E+00
         0.00000E+00
         0.00000E+00
         0.00000E+00
         0.00000E+00
         0.00000E+00
         0.00000E+00
         0.00000E+00
         0.00000E+00
         0.00000E+00
         0.00000E+00
         0.00000E+00
         0.00000E+00
         0.00000E+00
         0.00000E+00
         0.00000E+00
         0.00000E+00
         0.00000E+00
         0.00000E+00
         0.00000E+00
         0.00000E+00
         0.00000E+00
         0.00000E+00
         0.00000E+00
         0.00000E+00
         0.00000E+00
         0.00000E+00
         0.00000E+00
         0.00000E+00
         0.00000E+00
         0.00000E+00
         0.00000E+00
         0.00000E+00
         0.00000E+00
         0.00000E+00
         0.00000E+00
         0.00000E+00
         0.00000E+00
         0.00000E+00
         0.00000E+00
         0.00000E+00
         0.00000E+00
         0.00000E+00
         0.00000E+00
         0.00000E+00
         0.00000E+00
         0.00000E+00
         0.00000E+00
         0.00000E+00
         0.00000E+00
         0.00000E+00
         0.00000E+00
         0.00000E+00
         0.00000E+00
         0.00000E+00
         0.00000E+00
         0.00000E+00
         0.00000E+00
         0.00000E+00
         0.00000E+00
         0.00000E+00
         0.00000E+00
         0.00000E+00
         0.00000E+00
         0.00000E+00
         0.00000E+00
         0.00000E+00
         0.00000E+00
         0.00000E+00
         0.00000E+00
         0.00000E+00
         0.00000E+00
         0.00000E+00
         0.00000E+00
         0.00000E+00
         0.00000E+00
         0.00000E+00
         0.00000E+00
         0.00000E+00
         0.00000E+00
         0.00000E+00
         0.00000E+00
         0.00000E+00
         0.00000E+00
         0.00000E+00
         0.00000E+00
         0.00000E+00
         0.00000E+00
         0.00000E+00
         0.00000E+00
         0.00000E+00
         0.00000E+00
         0.00000E+00
         0.00000E+00
         0.00000E+00
         0.00000E+00
         0.00000E+00
         0.00000E+00
         0.00000E+00
         0.00000E+00
         0.00000E+00
         0.00000E+00
         0.00000E+00
         0.00000E+00
         0.00000E+00
         0.00000E+00
         0.00000E+00
         0.00000E+00
         0.00000E+00
         0.00000E+00
         0.00000E+00
         0.00000E+00
         0.00000E+00
         0.00000E+00
         0.00000E+00
         0.00000E+00
         0.00000E+00
         0.00000E+00
         0.00000E+00
         0.00000E+00
         0.00000E+00
         0.00000E+00
         0.00000E+00
         0.00000E+00
         0.00000E+00
         0.00000E+00
         0.00000E+00
         0.00000E+00
         0.00000E+00
         0.00000E+00
         0.00000E+00
         0.00000E+00
         0.00000E+00
         0.00000E+00
         0.00000E+00
         0.00000E+00
         0.00000E+00
         0.00000E+00
         0.00000E+00
         0.00000E+00
         0.00000E+00
         0.00000E+00
         0.00000E+00
         0.00000E+00
         0.00000E+00
         0.00000E+00
         0.00000E+00
         0.00000E+00
         0.00000E+00
         0.00000E+00
         0.00000E+00
         0.00000E+00
         0.00000E+00
         0.00000E+00
         0.00000E+00
         0.00000E+00
         0.00000E+00
         0.00000E+00
         0.00000E+00
         0.00000E+00
         0.00000E+00
         0.00000E+00
         0.00000E+00
         0.00000E+00
         0.00000E+00
         0.00000E+00
         0.00000E+00
         0.00000E+00
         0.00000E+00
         0.00000E+00
         0.00000E+00
         0.00000E+00
         0.00000E+00
         0.00000E+00
         0.00000E+00
         0.00000E+00
         0.00000E+00
         0.00000E+00
         0.00000E+00
         0.00000E+00
         0.00000E+00
         0.00000E+00
         0.00000E+00
         0.00000E+00
         0.00000E+00
         0.00000E+00
         0.00000E+00
         0.00000E+00
         0.00000E+00
         0.00000E+00
         0.00000E+00
         0.00000E+00
         0.00000E+00
         0.00000E+00
         0.00000E+00
         0.00000E+00
         0.00000E+00
         0.00000E+00
         0.00000E+00
         0.00000E+00
         0.00000E+00
         0.00000E+00
         0.00000E+00
         0.00000E+00
         0.00000E+00
         0.00000E+00
         0.00000E+00
         0.00000E+00
         0.00000E+00
         0.00000E+00
         0.00000E+00
         0.00000E+00
         0.00000E+00
         0.00000E+00
         0.00000E+00
         0.00000E+00
         0.00000E+00
         0.00000E+00
         0.00000E+00
         0.00000E+00
         0.00000E+00
         0.00000E+00
         0.00000E+00
         0.00000E+00
         0.00000E+00
         0.00000E+00
         0.00000E+00
         0.00000E+00
         0.00000E+00
         0.00000E+00
         0.00000E+00
         0.00000E+00
         0.00000E+00
         0.00000E+00
         0.00000E+00
         0.00000E+00
         0.00000E+00
         0.00000E+00
         0.00000E+00
         0.00000E+00
         0.00000E+00
         0.00000E+00
         0.00000E+00
         0.00000E+00
         0.00000E+00
         0.00000E+00
         0.00000E+00
         0.00000E+00
         0.00000E+00
         0.00000E+00
         0.00000E+00
         0.00000E+00
         0.00000E+00
         0.00000E+00
         0.00000E+00
         0.00000E+00
         0.00000E+00
         0.00000E+00
         0.00000E+00
         0.00000E+00
         0.00000E+00
         0.00000E+00
         0.00000E+00
         0.00000E+00
         0.00000E+00
         0.00000E+00
         0.00000E+00
         0.00000E+00
         0.00000E+00
         0.00000E+00
         0.00000E+00
         0.00000E+00
         0.00000E+00
         0.00000E+00
         0.00000E+00
         0.00000E+00
         0.00000E+00
         0.00000E+00
         0.00000E+00
         0.00000E+00
         0.00000E+00
         0.00000E+00
         0.00000E+00
         0.00000E+00
         0.00000E+00
         0.00000E+00
         0.00000E+00
         0.00000E+00
         0.00000E+00
         0.00000E+00
         0.00000E+00
         0.00000E+00
         0.00000E+00
         0.00000E+00
         0.00000E+00
         0.00000E+00
         0.00000E+00
         0.00000E+00
         0.00000E+00
         0.00000E+00
         0.00000E+00
         0.00000E+00
         0.00000E+00
         0.00000E+00
         0.00000E+00
         0.00000E+00
         0.00000E+00
         0.00000E+00
         0.00000E+00
         0.00000E+00
         0.00000E+00
         0.00000E+00
         0.00000E+00
         0.00000E+00
         0.00000E+00
         0.00000E+00
         0.00000E+00
         0.00000E+00
         0.00000E+00
         0.00000E+00
         0.00000E+00
         0.00000E+00
         0.00000E+00
         0.00000E+00
         0.00000E+00
         0.00000E+00
         0.00000E+00
         0.00000E+00
         0.00000E+00
         0.00000E+00
         0.00000E+00
         0.00000E+00
         0.00000E+00
         0.00000E+00
         0.00000E+00
         0.00000E+00
         0.00000E+00
         0.00000E+00
         0.00000E+00
         0.00000E+00
         0.00000E+00
         0.00000E+00
         0.00000E+00
         0.00000E+00
         0.00000E+00
         0.00000E+00
         0.00000E+00
         0.00000E+00
         0.00000E+00
         0.00000E+00
         0.00000E+00
         0.00000E+00
         0.00000E+00
         0.00000E+00
         0.00000E+00
         0.00000E+00
         0.00000E+00
         0.00000E+00
         0.00000E+00
         0.00000E+00
         0.00000E+00
         0.00000E+00
         0.00000E+00
         0.00000E+00
         0.00000E+00
         0.00000E+00
         0.00000E+00
         0.00000E+00
         0.00000E+00
         0.00000E+00
         0.00000E+00
         0.00000E+00
         0.00000E+00
         0.00000E+00
         0.00000E+00
         0.00000E+00
         0.00000E+00
         0.00000E+00
         0.00000E+00
         0.00000E+00
         0.00000E+00
         0.00000E+00
         0.00000E+00
         0.00000E+00
         0.00000E+00
         0.00000E+00
         0.00000E+00
         0.00000E+00
         0.00000E+00
         0.00000E+00
         0.00000E+00
         0.00000E+00
         0.00000E+00
         0.00000E+00
         0.00000E+00
         0.00000E+00
         0.00000E+00
         0.00000E+00
         0.00000E+00
         0.00000E+00
         0.00000E+00
         0.00000E+00
         0.00000E+00
         0.00000E+00
         0.00000E+00
         0.00000E+00
         0.00000E+00
         0.00000E+00
         0.00000E+00
         0.00000E+00
         0.00000E+00
         0.00000E+00
         0.00000E+00
         0.00000E+00
         0.00000E+00
         0.00000E+00
         0.00000E+00
         0.00000E+00
         0.00000E+00
         0.00000E+00
         0.00000E+00
         0.00000E+00
         0.00000E+00
         0.00000E+00
         0.00000E+00
         0.00000E+00
         0.00000E+00
         0.00000E+00
         0.00000E+00
         0.00000E+00
         0.00000E+00
         0.00000E+00
         0.00000E+00
         0.00000E+00
         0.00000E+00
         0.00000E+00
         0.00000E+00
         0.00000E+00
         0.00000E+00
         0.00000E+00
         0.00000E+00
         0.00000E+00
         0.00000E+00
         0.00000E+00
         0.00000E+00
         0.00000E+00
         0.00000E+00
         0.00000E+00
         0.00000E+00
         0.00000E+00
         0.00000E+00
         0.00000E+00
         0.00000E+00
         0.00000E+00
         0.00000E+00
         0.00000E+00
         0.00000E+00
         0.00000E+00
         0.00000E+00
         0.00000E+00
         0.00000E+00
         0.00000E+00
         0.00000E+00
         0.00000E+00
         0.00000E+00
         0.00000E+00
         0.00000E+00
         0.00000E+00
         0.00000E+00
         0.00000E+00
         0.00000E+00
         0.00000E+00
         0.00000E+00
         0.00000E+00
         0.00000E+00
         0.00000E+00
         0.00000E+00
         0.00000E+00
         0.00000E+00
         0.00000E+00
         0.00000E+00
         0.00000E+00
         0.00000E+00
         0.00000E+00
         0.00000E+00
         0.00000E+00
         0.00000E+00
         0.00000E+00
         0.00000E+00
         0.00000E+00
         0.00000E+00
         0.00000E+00
         0.00000E+00
         0.00000E+00
         0.00000E+00
         0.00000E+00
         0.00000E+00
         0.00000E+00
         0.00000E+00
         0.00000E+00
         0.00000E+00
         0.00000E+00
         0.00000E+00
         0.00000E+00
         0.00000E+00
         0.00000E+00
         0.00000E+00
         0.00000E+00
         0.00000E+00
         0.00000E+00
         0.00000E+00
         0.00000E+00
         0.00000E+00
         0.00000E+00
         0.00000E+00
         0.00000E+00
         0.00000E+00
         0.00000E+00
         0.00000E+00
         0.00000E+00
         0.00000E+00
         0.00000E+00
         0.00000E+00
         0.00000E+00
         0.00000E+00
         0.00000E+00
         0.00000E+00
         0.00000E+00
         0.00000E+00
         0.00000E+00
         0.00000E+00
         0.00000E+00
         0.00000E+00
         0.00000E+00
         0.00000E+00
         0.00000E+00
         0.00000E+00
         0.00000E+00
         0.00000E+00
         0.00000E+00
         0.00000E+00
         0.00000E+00
         0.00000E+00
         0.00000E+00
         0.00000E+00
         0.00000E+00
         0.00000E+00
         0.00000E+00
         0.00000E+00
         0.00000E+00
         0.00000E+00
         0.00000E+00
         0.00000E+00
         0.00000E+00
         0.00000E+00
         0.00000E+00
         0.00000E+00
         0.00000E+00
         0.00000E+00
         0.00000E+00
         0.00000E+00
         0.00000E+00
         0.00000E+00
         0.00000E+00
         0.00000E+00
         0.00000E+00
         0.00000E+00
         0.00000E+00
         0.00000E+00
         0.00000E+00
         0.00000E+00
         0.00000E+00
         0.00000E+00
         0.00000E+00
         0.00000E+00
         0.00000E+00
         0.00000E+00
         0.00000E+00
         0.00000E+00
         0.00000E+00
         0.00000E+00
         0.00000E+00
         0.00000E+00
         0.00000E+00
         0.00000E+00
         0.00000E+00
         0.00000E+00
         0.00000E+00
         0.00000E+00
         0.00000E+00
         0.00000E+00
         0.00000E+00
         0.00000E+00
         0.00000E+00
         0.00000E+00
         0.00000E+00
         0.00000E+00
         0.00000E+00
         0.00000E+00
         0.00000E+00
         0.00000E+00
         0.00000E+00
         0.00000E+00
         0.00000E+00
         0.00000E+00
         0.00000E+00
         0.00000E+00
         0.00000E+00
         0.00000E+00
         0.00000E+00
         0.00000E+00
         0.00000E+00
         0.00000E+00
         0.00000E+00
         0.00000E+00
         0.00000E+00
         0.00000E+00
         0.00000E+00
         0.00000E+00
         0.00000E+00
         0.00000E+00
         0.00000E+00
         0.00000E+00
         0.00000E+00
         0.00000E+00
         0.00000E+00
         0.00000E+00
         0.00000E+00
         0.00000E+00
         0.00000E+00
         0.00000E+00
         0.00000E+00
         0.00000E+00
         0.00000E+00
         0.00000E+00
         0.00000E+00
         0.00000E+00
         0.00000E+00
         0.00000E+00
         0.00000E+00
         0.00000E+00
         0.00000E+00
         0.00000E+00
         0.00000E+00
         0.00000E+00
         0.00000E+00
         0.00000E+00
         0.00000E+00
         0.00000E+00
         0.00000E+00
         0.00000E+00
         0.00000E+00
         0.00000E+00
         0.00000E+00
         0.00000E+00
         0.00000E+00
         0.00000E+00
         0.00000E+00
         0.00000E+00
         0.00000E+00
         0.00000E+00
         0.00000E+00
         0.00000E+00
         0.00000E+00
         0.00000E+00
         0.00000E+00
         0.00000E+00
         0.00000E+00
         0.00000E+00
         0.00000E+00
         0.00000E+00
         0.00000E+00
         0.00000E+00
         0.00000E+00
         0.00000E+00
         0.00000E+00
         0.00000E+00
         0.00000E+00
         0.00000E+00
         0.00000E+00
         0.00000E+00
         0.00000E+00
         0.00000E+00
         0.00000E+00
         0.00000E+00
         0.00000E+00
         0.00000E+00
         0.00000E+00
         0.00000E+00
         0.00000E+00
         0.00000E+00
         0.00000E+00
         0.00000E+00
         0.00000E+00
         0.00000E+00
         0.00000E+00
         0.00000E+00
         0.00000E+00
         0.00000E+00
         0.00000E+00
         0.00000E+00
         0.00000E+00
         0.00000E+00
         0.00000E+00
         0.00000E+00
         0.00000E+00
         0.00000E+00
         0.00000E+00
         0.00000E+00
         0.00000E+00
         0.00000E+00
         0.00000E+00
         0.00000E+00
         0.00000E+00
         0.00000E+00
         0.00000E+00
         0.00000E+00
         0.00000E+00
         0.00000E+00
         0.00000E+00
         0.00000E+00
         0.00000E+00
         0.00000E+00
         0.00000E+00
         0.00000E+00
         0.00000E+00
         0.00000E+00
         0.00000E+00
         0.00000E+00
         0.00000E+00
         0.00000E+00
         0.00000E+00
         0.00000E+00
         0.00000E+00
         0.00000E+00
         0.00000E+00
         0.00000E+00
         0.00000E+00
         0.00000E+00
         0.00000E+00
         0.00000E+00
         0.00000E+00
         0.00000E+00
         0.00000E+00
         0.00000E+00
         0.00000E+00
         0.00000E+00
         0.00000E+00
         0.00000E+00
         0.00000E+00
         0.00000E+00
         0.00000E+00
         0.00000E+00
         0.00000E+00
         0.00000E+00
         0.00000E+00
         0.00000E+00
         0.00000E+00
         0.00000E+00
         0.00000E+00
         0.00000E+00
         0.00000E+00
         0.00000E+00
         0.00000E+00
         0.00000E+00
         0.00000E+00
         0.00000E+00
         0.00000E+00
         0.00000E+00
         0.00000E+00
         0.00000E+00
         0.00000E+00
         0.00000E+00
         0.00000E+00
         0.00000E+00
         0.00000E+00
         0.00000E+00
         0.00000E+00
         0.00000E+00
         0.00000E+00
         0.00000E+00
         0.00000E+00
         0.00000E+00
         0.00000E+00
         0.00000E+00
         0.00000E+00
         0.00000E+00
         0.00000E+00
         0.00000E+00
         0.00000E+00
         0.00000E+00
         0.00000E+00
         0.00000E+00
         0.00000E+00
         0.00000E+00
         0.00000E+00
         0.00000E+00
         0.00000E+00
         0.00000E+00
         0.00000E+00
         0.00000E+00
         0.00000E+00
         0.00000E+00
         0.00000E+00
         0.00000E+00
         0.00000E+00
         0.00000E+00
         0.00000E+00
         0.00000E+00
         0.00000E+00
         0.00000E+00
         0.00000E+00
         0.00000E+00
         0.00000E+00
         0.00000E+00
         0.00000E+00
         0.00000E+00
         0.00000E+00
         0.00000E+00
         0.00000E+00
         0.00000E+00
         0.00000E+00
         0.00000E+00
         0.00000E+00
         0.00000E+00
         0.00000E+00
         0.00000E+00
         0.00000E+00
         0.00000E+00
         0.00000E+00
         0.00000E+00
         0.00000E+00
         0.00000E+00
         0.00000E+00
         0.00000E+00
         0.00000E+00
         0.00000E+00
         0.00000E+00
         0.00000E+00
         0.00000E+00
         0.00000E+00
         0.00000E+00
         0.00000E+00
         0.00000E+00
         0.00000E+00
         0.00000E+00
         0.00000E+00
         0.00000E+00
         0.00000E+00
         0.00000E+00
         0.00000E+00
         0.00000E+00
         0.00000E+00
         0.00000E+00
         0.00000E+00
         0.00000E+00
         0.00000E+00
         0.00000E+00
         0.00000E+00
         0.00000E+00
         0.00000E+00
         0.00000E+00
         0.00000E+00
         0.00000E+00
         0.00000E+00
         0.00000E+00
         0.00000E+00
         0.00000E+00
         0.00000E+00
         0.00000E+00
         0.00000E+00
         0.00000E+00
         0.00000E+00
         0.00000E+00
         0.00000E+00
         0.00000E+00
         0.00000E+00
         0.00000E+00
         0.00000E+00
         0.00000E+00
         0.00000E+00
         0.00000E+00
         0.00000E+00
         0.00000E+00
         0.00000E+00
         0.00000E+00
         0.00000E+00
         0.00000E+00
         0.00000E+00
         0.00000E+00
         0.00000E+00
         0.00000E+00
         0.00000E+00
         0.00000E+00
         0.00000E+00
         0.00000E+00
         0.00000E+00
         0.00000E+00
         0.00000E+00
         0.00000E+00
         0.00000E+00
         0.00000E+00
         0.00000E+00
         0.00000E+00
         0.00000E+00
         0.00000E+00
         0.00000E+00
         0.00000E+00
         0.00000E+00
         0.00000E+00
         0.00000E+00
         0.00000E+00
         0.00000E+00
         0.00000E+00
         0.00000E+00
         0.00000E+00
         0.00000E+00
         0.00000E+00
         0.00000E+00
         0.00000E+00
         0.00000E+00
         0.00000E+00
         0.00000E+00
         0.00000E+00
         0.00000E+00
         0.00000E+00
         0.00000E+00
         0.00000E+00
         0.00000E+00
         0.00000E+00
         0.00000E+00
         0.00000E+00
         0.00000E+00
         0.00000E+00
         0.00000E+00
         0.00000E+00
         0.00000E+00
         0.00000E+00
         0.00000E+00
         0.00000E+00
         0.00000E+00
         0.00000E+00
         0.00000E+00
         0.00000E+00
         0.00000E+00
         0.00000E+00
         0.00000E+00
         0.00000E+00
         0.00000E+00
         0.00000E+00
         0.00000E+00
         0.00000E+00
         0.00000E+00
         0.00000E+00
         0.00000E+00
         0.00000E+00
         0.00000E+00
         0.00000E+00
         0.00000E+00
         0.00000E+00
         0.00000E+00
         0.00000E+00
         0.00000E+00
         0.00000E+00
         0.00000E+00
         0.00000E+00
         0.00000E+00
         0.00000E+00
         0.00000E+00
         0.00000E+00
         0.00000E+00
         0.00000E+00
         0.00000E+00
         0.00000E+00
         0.00000E+00
         0.00000E+00
         0.00000E+00
         0.00000E+00
         0.00000E+00
         0.00000E+00
         0.00000E+00
         0.00000E+00
         0.00000E+00
         0.00000E+00
         0.00000E+00
         0.00000E+00
         0.00000E+00
         0.00000E+00
         0.00000E+00
         0.00000E+00
         0.00000E+00
         0.00000E+00
         0.00000E+00
         0.00000E+00
         0.00000E+00
         0.00000E+00
         0.00000E+00
         0.00000E+00
         0.00000E+00
         0.00000E+00
         0.00000E+00
         0.00000E+00
         0.00000E+00
         0.00000E+00
         0.00000E+00
         0.00000E+00
         0.00000E+00
         0.00000E+00
         0.00000E+00
         0.00000E+00
         0.00000E+00
         0.00000E+00
         0.00000E+00
         0.00000E+00
         0.00000E+00
         0.00000E+00
         0.00000E+00
         0.00000E+00
         0.00000E+00
         0.00000E+00
         0.00000E+00
         0.00000E+00
         0.00000E+00
         0.00000E+00
         0.00000E+00
         0.00000E+00
         0.00000E+00
         0.00000E+00
         0.00000E+00
         0.00000E+00
         0.00000E+00
         0.00000E+00
         0.00000E+00
         0.00000E+00
         0.00000E+00
         0.00000E+00
         0.00000E+00
         0.00000E+00
         0.00000E+00
         0.00000E+00
         0.00000E+00
         0.00000E+00
         0.00000E+00
         0.00000E+00
         0.00000E+00
         0.00000E+00
         0.00000E+00
         0.00000E+00
         0.00000E+00
         0.00000E+00
         0.00000E+00
         0.00000E+00
         0.00000E+00
         0.00000E+00
         0.00000E+00
         0.00000E+00
         0.00000E+00
         0.00000E+00
         0.00000E+00
         0.00000E+00
         0.00000E+00
         0.00000E+00
         0.00000E+00
         0.00000E+00
         0.00000E+00
         0.00000E+00
         0.00000E+00
         0.00000E+00
         0.00000E+00
         0.00000E+00
         0.00000E+00
         0.00000E+00
         0.00000E+00
         0.00000E+00
         0.00000E+00
         0.00000E+00
         0.00000E+00
         0.00000E+00
         0.00000E+00
         0.00000E+00
         0.00000E+00
         0.00000E+00
         0.00000E+00
         0.00000E+00
         0.00000E+00
         0.00000E+00
         0.00000E+00
         0.00000E+00
         0.00000E+00
         0.00000E+00
         0.00000E+00
         0.00000E+00
         0.00000E+00
         0.00000E+00
         0.00000E+00
         0.00000E+00
         0.00000E+00
         0.00000E+00
         0.00000E+00
         0.00000E+00
         0.00000E+00
         0.00000E+00
         0.00000E+00
         0.00000E+00
         0.00000E+00
         0.00000E+00
         0.00000E+00
         0.00000E+00
         0.00000E+00
         0.00000E+00
         0.00000E+00
         0.00000E+00
         0.00000E+00
         0.00000E+00
         0.00000E+00
         0.00000E+00
         0.00000E+00
         0.00000E+00
         0.00000E+00
         0.00000E+00
         0.00000E+00
         0.00000E+00
         0.00000E+00
         0.00000E+00
         0.00000E+00
         0.00000E+00
         0.00000E+00
         0.00000E+00
         0.00000E+00
         0.00000E+00
         0.00000E+00
         0.00000E+00
         0.00000E+00
         0.00000E+00
         0.00000E+00
         0.00000E+00
         0.00000E+00
         0.00000E+00
         0.00000E+00
         0.00000E+00
         0.00000E+00
         0.00000E+00
         0.00000E+00
         0.00000E+00
         0.00000E+00
         0.00000E+00
         0.00000E+00
         0.00000E+00
         0.00000E+00
         0.00000E+00
         0.00000E+00
         0.00000E+00
         0.00000E+00
         0.00000E+00
         0.00000E+00
         0.00000E+00
         0.00000E+00
         0.00000E+00
         0.00000E+00
         0.00000E+00
         0.00000E+00
         0.00000E+00
         0.00000E+00
         0.00000E+00
         0.00000E+00
         0.00000E+00
         0.00000E+00
         0.00000E+00
         0.00000E+00
         0.00000E+00
         0.00000E+00
         0.00000E+00
         0.00000E+00
         0.00000E+00
         0.00000E+00
         0.00000E+00
         0.00000E+00
         0.00000E+00
         0.00000E+00
         0.00000E+00
         0.00000E+00
         0.00000E+00
         0.00000E+00
         0.00000E+00
         0.00000E+00
         0.00000E+00
         0.00000E+00
         0.00000E+00
         0.00000E+00
         0.00000E+00
         0.00000E+00
         0.00000E+00
         0.00000E+00
         0.00000E+00
         0.00000E+00
         0.00000E+00
         0.00000E+00
         0.00000E+00
         0.00000E+00
         0.00000E+00
         0.00000E+00
         0.00000E+00
         0.00000E+00
         0.00000E+00
         0.00000E+00
         0.00000E+00
         0.00000E+00
         0.00000E+00
         0.00000E+00
         0.00000E+00
         0.00000E+00
         0.00000E+00
         0.00000E+00
         0.00000E+00
         0.00000E+00
         0.00000E+00
         0.00000E+00
         0.00000E+00
         0.00000E+00
         0.00000E+00
         0.00000E+00
         0.00000E+00
         0.00000E+00
         0.00000E+00
         0.00000E+00
         0.00000E+00
         0.00000E+00
         0.00000E+00
         0.00000E+00
         0.00000E+00
         0.00000E+00
         0.00000E+00
         0.00000E+00
         0.00000E+00
         0.00000E+00
         0.00000E+00
         0.00000E+00
         0.00000E+00
         0.00000E+00
         0.00000E+00
         0.00000E+00
         0.00000E+00
         0.00000E+00
         0.00000E+00
         0.00000E+00
         0.00000E+00
         0.00000E+00
         0.00000E+00
         0.00000E+00
         0.00000E+00
         0.00000E+00
         0.00000E+00
         0.00000E+00
         0.00000E+00
         0.00000E+00
         0.00000E+00
         0.00000E+00
         0.00000E+00
         0.00000E+00
         0.00000E+00
         0.00000E+00
         0.00000E+00
         0.00000E+00
         0.00000E+00
         0.00000E+00
         0.00000E+00
         0.00000E+00
         0.00000E+00
         0.00000E+00
         0.00000E+00
         0.00000E+00
         0.00000E+00
         0.00000E+00
         0.00000E+00
         0.00000E+00
         0.00000E+00
         0.00000E+00
         0.00000E+00
         0.00000E+00
         0.00000E+00
         0.00000E+00
         0.00000E+00
         0.00000E+00
         0.00000E+00
         0.00000E+00
         0.00000E+00
         0.00000E+00
         0.00000E+00
         0.00000E+00
         0.00000E+00
         0.00000E+00
         0.00000E+00
         0.00000E+00
         0.00000E+00
         0.00000E+00
         0.00000E+00
         0.00000E+00
         0.00000E+00
         0.00000E+00
         0.00000E+00
         0.00000E+00
         0.00000E+00
         0.00000E+00
         0.00000E+00
         0.00000E+00
         0.00000E+00
         0.00000E+00
         0.00000E+00
         0.00000E+00
         0.00000E+00
         0.00000E+00
         0.00000E+00
         0.00000E+00
         0.00000E+00
         0.00000E+00
         0.00000E+00
         0.00000E+00
         0.00000E+00
         0.00000E+00
         0.00000E+00
         0.00000E+00
         0.00000E+00
         0.00000E+00
         0.00000E+00
         0.00000E+00
         0.00000E+00
         0.00000E+00
         0.00000E+00
         0.00000E+00
         0.00000E+00
         0.00000E+00
         0.00000E+00
         0.00000E+00
         0.00000E+00
         0.00000E+00
         0.00000E+00
         0.00000E+00
         0.00000E+00
         0.00000E+00
         0.00000E+00
         0.00000E+00
         0.00000E+00
         0.00000E+00
         0.00000E+00
         0.00000E+00
         0.00000E+00
         0.00000E+00
         0.00000E+00
         0.00000E+00
         0.00000E+00
         0.00000E+00
         0.00000E+00
         0.00000E+00
         0.00000E+00
         0.00000E+00
         0.00000E+00
         0.00000E+00
         0.00000E+00
         0.00000E+00
         0.00000E+00
         0.00000E+00
         0.00000E+00
         0.00000E+00
         0.00000E+00
         0.00000E+00
         0.00000E+00
         0.00000E+00
         0.00000E+00
         0.00000E+00
         0.00000E+00
         0.00000E+00
         0.00000E+00
         0.00000E+00
         0.00000E+00
         0.00000E+00
         0.00000E+00
         0.00000E+00
         0.00000E+00
         0.00000E+00
         0.00000E+00
         0.00000E+00
         0.00000E+00
         0.00000E+00
         0.00000E+00
         0.00000E+00
         0.00000E+00
         0.00000E+00
         0.00000E+00
         0.00000E+00
         0.00000E+00
         0.00000E+00
         0.00000E+00
         0.00000E+00
         0.00000E+00
         0.00000E+00
         0.00000E+00
         0.00000E+00
         0.00000E+00
         0.00000E+00
         0.00000E+00
         0.00000E+00
         0.00000E+00
         0.00000E+00
         0.00000E+00
         0.00000E+00
         0.00000E+00
         0.00000E+00
         0.00000E+00
         0.00000E+00
         0.00000E+00
         0.00000E+00
         0.00000E+00
         0.00000E+00
         0.00000E+00
         0.00000E+00
         0.00000E+00
         0.00000E+00
         0.00000E+00
         0.00000E+00
         0.00000E+00
         0.00000E+00
         0.00000E+00
         0.00000E+00
         0.00000E+00
         0.00000E+00
         0.00000E+00
         0.00000E+00
         0.00000E+00
         0.00000E+00
         0.00000E+00
         0.00000E+00
         0.00000E+00
         0.00000E+00
         0.00000E+00
         0.00000E+00
         0.00000E+00
         0.00000E+00
         0.00000E+00
         0.00000E+00
         0.00000E+00
         0.00000E+00
         0.00000E+00
         0.00000E+00
         0.00000E+00
         0.00000E+00
         0.00000E+00
         0.00000E+00
         0.00000E+00
         0.00000E+00
         0.00000E+00
         0.00000E+00
         0.00000E+00
         0.00000E+00
         0.00000E+00
         0.00000E+00
         0.00000E+00
         0.00000E+00
         0.00000E+00
         0.00000E+00
         0.00000E+00
         0.00000E+00
         0.00000E+00
         0.00000E+00
         0.00000E+00
         0.00000E+00
         0.00000E+00
         0.00000E+00
         0.00000E+00
         0.00000E+00
         0.00000E+00
         0.00000E+00
         0.00000E+00
         0.00000E+00
         0.00000E+00
         0.00000E+00
         0.00000E+00
         0.00000E+00
         0.00000E+00
         0.00000E+00
         0.00000E+00
         0.00000E+00
         0.00000E+00
         0.00000E+00
         0.00000E+00
         0.00000E+00
         0.00000E+00
         0.00000E+00
         0.00000E+00
         0.00000E+00
         0.00000E+00
         0.00000E+00
         0.00000E+00
         0.00000E+00
         0.00000E+00
         0.00000E+00
         0.00000E+00
         0.00000E+00
         0.00000E+00
         0.00000E+00
         0.00000E+00
         0.00000E+00
         0.00000E+00
         0.00000E+00
         0.00000E+00
         0.00000E+00
         0.00000E+00
         0.00000E+00
         0.00000E+00
         0.00000E+00
         0.00000E+00
         0.00000E+00
         0.00000E+00
         0.00000E+00
         0.00000E+00
         0.00000E+00
         0.00000E+00
         0.00000E+00
         0.00000E+00
         0.00000E+00
         0.00000E+00
         0.00000E+00
         0.00000E+00
         0.00000E+00
         0.00000E+00
         0.00000E+00
         0.00000E+00
         0.00000E+00
         0.00000E+00
         0.00000E+00
         0.00000E+00
         0.00000E+00
         0.00000E+00
         0.00000E+00
         0.00000E+00
         0.00000E+00
         0.00000E+00
         0.00000E+00
         0.00000E+00
         0.00000E+00
         0.00000E+00
         0.00000E+00
         0.00000E+00
         0.00000E+00
         0.00000E+00
         0.00000E+00
         0.00000E+00
         0.00000E+00
         0.00000E+00
         0.00000E+00
         0.00000E+00
         0.00000E+00
         0.00000E+00
         0.00000E+00
         0.00000E+00
         0.00000E+00
         0.00000E+00
         0.00000E+00
         0.00000E+00
         0.00000E+00
         0.00000E+00
  
SCALARS                      stress_xx  double 1
LOOKUP_TABLE default
        -0.13925E+11
        -0.13863E+11
        -0.13902E+11
        -0.13972E+11
        -0.64821E+01
        -0.72686E+01
        -0.69599E+01
        -0.63228E+01
        -0.13861E+11
        -0.13882E+11
        -0.65363E+01
        -0.63255E+01
        -0.13772E+11
        -0.13769E+11
        -0.77665E+01
        -0.73025E+01
        -0.13962E+11
        -0.13774E+11
        -0.57386E+01
        -0.63650E+01
        -0.13703E+11
        -0.13648E+11
        -0.13736E+11
        -0.76975E+01
        -0.67223E+01
        -0.69416E+01
        -0.13650E+11
        -0.13569E+11
        -0.73847E+01
        -0.62277E+01
        -0.13959E+11
        -0.13878E+11
        -0.14037E+11
        -0.63017E+01
        -0.58584E+01
        -0.56959E+01
        -0.13912E+11
        -0.13807E+11
        -0.66670E+01
        -0.60836E+01
        -0.13871E+11
        -0.13790E+11
        -0.57621E+01
        -0.51011E+01
        -0.13939E+11
        -0.13968E+11
        -0.63145E+01
        -0.70556E+01
        -0.13724E+11
        -0.61687E+01
        -0.13963E+11
        -0.72486E+01
        -0.13627E+11
        -0.65144E+01
        -0.13601E+11
        -0.62487E+01
        -0.13602E+11
        -0.13692E+11
        -0.63666E+01
        -0.62004E+01
        -0.13957E+11
        -0.13926E+11
        -0.63841E+01
        -0.72172E+01
        -0.13977E+11
        -0.61602E+01
        -0.13940E+11
        -0.67231E+01
        -0.13842E+11
        -0.13832E+11
        -0.64717E+01
        -0.67811E+01
        -0.13809E+11
        -0.68380E+01
        -0.13539E+11
        -0.54025E+01
        -0.13525E+11
        -0.52440E+01
        -0.13532E+11
        -0.55293E+01
        -0.13572E+11
        -0.13613E+11
        -0.52681E+01
        -0.54924E+01
        -0.13695E+11
        -0.51154E+01
        -0.13937E+11
        -0.67081E+01
        -0.13900E+11
        -0.68656E+01
        -0.13869E+11
        -0.13852E+11
        -0.65932E+01
        -0.66702E+01
        -0.13873E+11
        -0.60584E+01
        -0.13888E+11
        -0.59720E+01
        -0.13875E+11
        -0.63931E+01
        -0.13870E+11
        -0.13883E+11
        -0.62694E+01
        -0.64533E+01
        -0.13795E+11
        -0.13831E+11
        -0.48676E+01
        -0.45782E+01
        -0.13789E+11
        -0.46479E+01
        -0.13830E+11
        -0.44565E+01
        -0.13789E+11
        -0.43945E+01
        -0.13698E+11
        -0.41528E+01
        -0.13608E+11
        -0.36893E+01
        -0.13554E+11
        -0.33220E+01
        -0.13548E+11
        -0.32989E+01
        -0.13550E+11
        -0.35775E+01
        -0.13609E+11
        -0.37599E+01
        -0.13718E+11
        -0.34332E+01
        -0.13835E+11
        -0.30946E+01
        -0.13903E+11
        -0.30911E+01
        -0.13969E+11
        -0.34551E+01
        -0.14013E+11
        -0.39396E+01
        -0.14011E+11
        -0.42323E+01
        -0.13905E+11
        -0.45709E+01
        -0.13830E+11
        -0.48970E+01
        -0.13804E+11
        -0.44860E+01
        -0.13844E+11
        -0.39354E+01
        -0.13865E+11
        -0.39233E+01
        -0.13830E+11
        -0.42925E+01
        -0.13831E+11
        -0.45761E+01
        -0.13857E+11
        -0.43427E+01
        -0.13892E+11
        -0.41984E+01
        -0.28803E+10
        -0.29375E+10
        -0.29298E+10
        -0.28555E+10
        -0.29923E+10
        -0.29234E+10
        -0.30087E+10
        -0.29643E+10
        -0.28673E+10
        -0.29278E+10
        -0.30559E+10
        -0.30702E+10
        -0.30319E+10
        -0.30293E+10
        -0.30541E+10
        -0.28591E+10
        -0.28730E+10
        -0.28339E+10
        -0.29437E+10
        -0.29238E+10
        -0.29522E+10
        -0.29335E+10
        -0.29681E+10
        -0.29591E+10
        -0.29255E+10
        -0.29279E+10
        -0.29851E+10
        -0.29800E+10
        -0.30221E+10
        -0.29583E+10
        -0.28659E+10
        -0.29383E+10
        -0.28665E+10
        -0.29140E+10
        -0.30801E+10
        -0.30274E+10
        -0.30022E+10
        -0.30318E+10
        -0.30357E+10
        -0.30838E+10
        -0.31185E+10
        -0.30335E+10
        -0.29511E+10
        -0.29623E+10
        -0.30047E+10
        -0.30781E+10
        -0.30155E+10
        -0.29475E+10
        -0.29523E+10
        -0.30049E+10
        -0.30581E+10
        -0.29862E+10
        -0.32020E+10
        -0.31396E+10
        -0.31500E+10
        -0.31353E+10
        -0.31391E+10
        -0.31729E+10
        -0.32074E+10
        -0.32185E+10
        -0.32137E+10
        -0.32171E+10
        -0.32317E+10
        -0.31423E+10
        -0.31084E+10
        -0.30952E+10
        -0.30728E+10
        -0.30558E+10
        -0.30566E+10
        -0.30856E+10
        -0.31812E+10
        -0.31586E+10
        -0.31258E+10
        -0.31261E+10
        -0.31318E+10
        -0.31632E+10
        -0.31169E+10
        -0.30996E+10
         0.39678E+05
         0.18166E+05
         0.24025E+05
         0.43290E+05
         0.24772E+05
         0.45578E+05
        -0.11593E+05
        -0.25175E+05
         0.52506E+05
        -0.28196E+05
        -0.41120E+05
        -0.11830E+04
         0.48780E+04
        -0.91051E+05
        -0.32097E+05
         0.10748E+05
         0.27510E+05
         0.36860E+05
         0.12473E+04
         0.52785E+04
        -0.21794E+05
         0.30706E+01
        -0.34723E+05
        -0.90805E+04
        -0.36152E+05
        -0.39356E+04
        -0.12313E+06
        -0.96149E+05
        -0.49413E+05
        -0.31345E+05
         0.10452E+05
        -0.16258E+04
         0.36747E+05
         0.57294E+05
        -0.11389E+05
        -0.13863E+04
         0.56812E+04
        -0.38378E+05
        -0.27618E+05
        -0.15029E+05
        -0.13754E+05
        -0.25722E+05
        -0.20390E+05
        -0.26334E+05
        -0.19481E+05
        -0.12412E+05
         0.66374E+03
         0.67150E+04
         0.21462E+05
         0.34403E+05
         0.24987E+05
         0.42005E+05
        -0.28073E+06
        -0.21761E+06
        -0.21348E+06
        -0.99586E+05
         0.51468E+03
         0.87095E+05
         0.82561E+05
         0.82438E+05
         0.57710E+05
        -0.11619E+05
        -0.14719E+06
        -0.23021E+06
        -0.17460E+06
        -0.13044E+06
        -0.21155E+06
        -0.25653E+06
        -0.21597E+06
        -0.19596E+06
        -0.67329E+05
         0.15464E+05
         0.66137E+04
        -0.95321E+04
        -0.63263E+05
        -0.15085E+06
        -0.20617E+06
        -0.17809E+06
         0.37393E+05
         0.15798E+05
         0.21683E+05
         0.41184E+05
         0.22064E+05
         0.43047E+05
        -0.14184E+05
        -0.27797E+05
         0.50074E+05
        -0.31064E+05
        -0.44025E+05
        -0.45840E+04
         0.18909E+04
        -0.93915E+05
        -0.35467E+05
         0.82633E+04
         0.24786E+05
         0.34768E+05
        -0.15258E+04
         0.23766E+04
        -0.24745E+05
        -0.28791E+04
        -0.37770E+05
        -0.11908E+05
        -0.39302E+05
        -0.66313E+04
        -0.12592E+06
        -0.99064E+05
        -0.52536E+05
        -0.34593E+05
         0.80491E+04
        -0.41781E+04
         0.34585E+05
         0.55149E+05
        -0.14439E+05
        -0.40571E+04
         0.30068E+04
        -0.41823E+05
        -0.30851E+05
        -0.18227E+05
        -0.17152E+05
        -0.29055E+05
        -0.23542E+05
        -0.29288E+05
        -0.22288E+05
        -0.15461E+05
        -0.21742E+04
         0.40253E+04
         0.19000E+05
         0.31939E+05
         0.22189E+05
         0.39429E+05
        -0.28587E+06
        -0.22266E+06
        -0.21854E+06
        -0.10446E+06
        -0.45867E+04
         0.81381E+05
         0.76839E+05
         0.76629E+05
         0.51876E+05
        -0.17559E+05
        -0.15310E+06
        -0.23574E+06
        -0.17919E+06
        -0.13474E+06
        -0.21611E+06
        -0.26144E+06
        -0.22095E+06
        -0.20115E+06
        -0.72463E+05
         0.10013E+05
         0.14816E+04
        -0.14179E+05
        -0.67859E+05
        -0.15546E+06
        -0.21078E+06
        -0.18281E+06
         0.37926E+05
         0.16263E+05
         0.22181E+05
         0.41750E+05
         0.22787E+05
         0.43739E+05
        -0.13656E+05
        -0.27200E+05
         0.50477E+05
        -0.30951E+05
        -0.43433E+05
        -0.39371E+04
         0.24493E+04
        -0.93181E+05
        -0.34638E+05
         0.77566E+04
         0.24639E+05
         0.35334E+05
        -0.22090E+04
         0.18268E+04
        -0.25231E+05
        -0.30623E+04
        -0.39768E+05
        -0.13948E+05
        -0.40657E+05
        -0.85199E+04
        -0.12537E+06
        -0.99445E+05
        -0.53795E+05
        -0.36863E+05
         0.80456E+04
        -0.47569E+04
         0.35175E+05
         0.55856E+05
        -0.13663E+05
        -0.33779E+04
         0.36048E+04
        -0.41253E+05
        -0.30341E+05
        -0.18060E+05
        -0.17259E+05
        -0.30280E+05
        -0.25242E+05
        -0.31266E+05
        -0.22765E+05
        -0.15040E+05
        -0.16588E+04
         0.46306E+04
         0.19677E+05
         0.32703E+05
         0.22997E+05
         0.40185E+05
        -0.28413E+06
        -0.22112E+06
        -0.21693E+06
        -0.10325E+06
        -0.36478E+04
         0.82280E+05
         0.77973E+05
         0.77759E+05
         0.53061E+05
        -0.16315E+05
        -0.15233E+06
        -0.23577E+06
        -0.17908E+06
        -0.13392E+06
        -0.21564E+06
        -0.26251E+06
        -0.22207E+06
        -0.20094E+06
        -0.71024E+05
         0.11650E+05
         0.29688E+04
        -0.12684E+05
        -0.66131E+05
        -0.15390E+06
        -0.20943E+06
        -0.18152E+06
         0.37599E+05
         0.16063E+05
         0.21985E+05
         0.41418E+05
         0.22541E+05
         0.43530E+05
        -0.13881E+05
        -0.27539E+05
         0.49774E+05
        -0.32184E+05
        -0.43731E+05
        -0.42915E+04
         0.22020E+04
        -0.93498E+05
        -0.35056E+05
         0.57770E+04
         0.23032E+05
         0.34960E+05
        -0.46324E+04
        -0.61526E+03
        -0.27471E+05
        -0.50538E+04
        -0.44423E+05
        -0.18511E+05
        -0.44396E+05
        -0.12822E+05
        -0.12613E+06
        -0.10180E+06
        -0.57635E+05
        -0.42303E+05
         0.68743E+04
        -0.70567E+04
         0.34847E+05
         0.55508E+05
        -0.14069E+05
        -0.36423E+04
         0.33954E+04
        -0.41908E+05
        -0.31141E+05
        -0.19518E+05
        -0.19195E+05
        -0.34053E+05
        -0.29848E+05
        -0.35931E+05
        -0.25087E+05
        -0.16267E+05
        -0.25712E+04
         0.41300E+04
         0.19261E+05
         0.32240E+05
         0.22585E+05
         0.39921E+05
        -0.28471E+06
        -0.22150E+06
        -0.21771E+06
        -0.10396E+06
        -0.40759E+04
         0.81747E+05
         0.77059E+05
         0.76757E+05
         0.52133E+05
        -0.17427E+05
        -0.15411E+06
        -0.23875E+06
        -0.18185E+06
        -0.13524E+06
        -0.21719E+06
        -0.26672E+06
        -0.22648E+06
        -0.20303E+06
        -0.71967E+05
         0.10729E+05
         0.22870E+04
        -0.13503E+05
        -0.66932E+05
        -0.15432E+06
        -0.20966E+06
        -0.18177E+06
         0.37006E+05
         0.15656E+05
         0.21644E+05
         0.41076E+05
         0.22255E+05
         0.43237E+05
        -0.14231E+05
        -0.28104E+05
         0.48932E+05
        -0.33467E+05
        -0.44049E+05
        -0.45133E+04
         0.19272E+04
        -0.93851E+05
        -0.35254E+05
         0.44343E+04
         0.21758E+05
         0.34613E+05
        -0.62276E+04
        -0.23737E+04
        -0.28914E+05
        -0.64842E+04
        -0.47285E+05
        -0.21338E+05
        -0.47089E+05
        -0.15575E+05
        -0.12679E+06
        -0.10350E+06
        -0.60284E+05
        -0.45917E+05
         0.56513E+04
        -0.87266E+04
         0.34200E+05
         0.55023E+05
        -0.14488E+05
        -0.39820E+04
         0.30782E+04
        -0.42400E+05
        -0.31806E+05
        -0.20626E+05
        -0.20567E+05
        -0.36599E+05
        -0.32873E+05
        -0.38896E+05
        -0.26616E+05
        -0.17076E+05
        -0.33809E+04
         0.33277E+04
         0.18533E+05
         0.31554E+05
         0.21935E+05
         0.39481E+05
        -0.28521E+06
        -0.22182E+06
        -0.21836E+06
        -0.10450E+06
        -0.42517E+04
         0.81597E+05
         0.76668E+05
         0.76091E+05
         0.51349E+05
        -0.18098E+05
        -0.15517E+06
        -0.24083E+06
        -0.18375E+06
        -0.13625E+06
        -0.21830E+06
        -0.26950E+06
        -0.22960E+06
        -0.20454E+06
        -0.72383E+05
         0.98930E+04
         0.13771E+04
        -0.14444E+05
        -0.67982E+05
        -0.15511E+06
        -0.21003E+06
        -0.18202E+06
         0.35574E+05
         0.14875E+05
         0.21308E+05
         0.41369E+05
         0.22634E+05
         0.43722E+05
        -0.14475E+05
        -0.29094E+05
         0.47752E+05
        -0.35198E+05
        -0.43799E+05
        -0.37569E+04
         0.22157E+04
        -0.93708E+05
        -0.34304E+05
         0.46655E+04
         0.21457E+05
         0.35194E+05
        -0.59018E+04
        -0.21153E+04
        -0.28496E+05
        -0.59797E+04
        -0.47224E+05
        -0.21392E+05
        -0.48241E+05
        -0.15958E+05
        -0.12694E+06
        -0.10368E+06
        -0.60136E+05
        -0.46048E+05
         0.41915E+04
        -0.96055E+04
         0.33111E+05
         0.54905E+05
        -0.14156E+05
        -0.39412E+04
         0.30232E+04
        -0.41823E+05
        -0.31287E+05
        -0.20048E+05
        -0.19934E+05
        -0.36227E+05
        -0.32560E+05
        -0.39085E+05
        -0.26810E+05
        -0.17210E+05
        -0.40817E+04
         0.17125E+04
         0.16746E+05
         0.30619E+05
         0.21729E+05
         0.39719E+05
        -0.28375E+06
        -0.22036E+06
        -0.21723E+06
        -0.10377E+06
        -0.34401E+04
         0.82648E+05
         0.77846E+05
         0.77214E+05
         0.52681E+05
        -0.16330E+05
        -0.15361E+06
        -0.23994E+06
        -0.18272E+06
        -0.13519E+06
        -0.21735E+06
        -0.26882E+06
        -0.22910E+06
        -0.20402E+06
        -0.71661E+05
         0.10374E+05
         0.12905E+04
        -0.15095E+05
        -0.68355E+05
        -0.15473E+06
        -0.20917E+06
        -0.18089E+06
         0.33394E+05
         0.13493E+05
         0.20501E+05
         0.41162E+05
         0.22352E+05
         0.43703E+05
        -0.15524E+05
        -0.31029E+05
         0.45761E+05
        -0.37748E+05
        -0.44495E+05
        -0.40504E+04
         0.17247E+04
        -0.94608E+05
        -0.34508E+05
         0.42547E+04
         0.20410E+05
         0.35090E+05
        -0.61820E+04
        -0.25212E+04
        -0.28699E+05
        -0.61196E+04
        -0.47453E+05
        -0.21734E+05
        -0.49869E+05
        -0.16651E+05
        -0.12807E+06
        -0.10455E+06
        -0.60423E+05
        -0.46482E+05
         0.21534E+04
        -0.11048E+05
         0.31447E+05
         0.54255E+05
        -0.14645E+05
        -0.44965E+04
         0.23959E+04
        -0.42339E+05
        -0.31770E+05
        -0.20317E+05
        -0.20074E+05
        -0.36308E+05
        -0.32598E+05
        -0.39539E+05
        -0.27656E+05
        -0.18356E+05
        -0.56969E+04
        -0.71559E+03
         0.14195E+05
         0.28982E+05
         0.20856E+05
         0.39427E+05
        -0.28413E+06
        -0.22066E+06
        -0.21752E+06
        -0.10414E+06
        -0.39287E+04
         0.82020E+05
         0.77316E+05
         0.76749E+05
         0.52254E+05
        -0.16625E+05
        -0.15382E+06
        -0.24029E+06
        -0.18277E+06
        -0.13527E+06
        -0.21764E+06
        -0.26907E+06
        -0.22944E+06
        -0.20499E+06
        -0.73003E+05
         0.88685E+04
        -0.38364E+03
        -0.17179E+05
        -0.70131E+05
        -0.15555E+06
        -0.20948E+06
        -0.18111E+06
         0.32756E+05
         0.12980E+05
         0.20169E+05
         0.40882E+05
         0.22047E+05
         0.43419E+05
        -0.16060E+05
        -0.31694E+05
         0.45175E+05
        -0.38518E+05
        -0.44990E+05
        -0.44620E+04
         0.12410E+04
        -0.95091E+05
        -0.34855E+05
         0.38837E+04
         0.19983E+05
         0.34821E+05
        -0.64390E+04
        -0.28384E+04
        -0.29017E+05
        -0.64488E+04
        -0.47753E+05
        -0.21995E+05
        -0.50451E+05
        -0.17044E+05
        -0.12855E+06
        -0.10500E+06
        -0.60914E+05
        -0.46896E+05
         0.14830E+04
        -0.11617E+05
         0.30916E+05
         0.53891E+05
        -0.15061E+05
        -0.47958E+04
         0.20143E+04
        -0.42983E+05
        -0.32328E+05
        -0.20880E+05
        -0.20666E+05
        -0.36785E+05
        -0.32896E+05
        -0.39946E+05
        -0.28161E+05
        -0.18892E+05
        -0.62311E+04
        -0.13205E+04
         0.13564E+05
         0.28416E+05
         0.20319E+05
         0.39055E+05
        -0.28471E+06
        -0.22127E+06
        -0.21798E+06
        -0.10466E+06
        -0.45015E+04
         0.81489E+05
         0.76758E+05
         0.75966E+05
         0.51263E+05
        -0.17649E+05
        -0.15473E+06
        -0.24075E+06
        -0.18311E+06
        -0.13600E+06
        -0.21849E+06
        -0.26995E+06
        -0.23049E+06
        -0.20598E+06
        -0.73757E+05
         0.82381E+04
        -0.87968E+03
        -0.17868E+05
        -0.70993E+05
        -0.15625E+06
        -0.20999E+06
        -0.18164E+06
         0.33157E+05
         0.13327E+05
         0.20423E+05
         0.40975E+05
         0.22397E+05
         0.43517E+05
        -0.15706E+05
        -0.31197E+05
         0.45554E+05
        -0.38042E+05
        -0.44640E+05
        -0.40532E+04
         0.15366E+04
        -0.94541E+05
        -0.34205E+05
         0.43396E+04
         0.20376E+05
         0.35088E+05
        -0.59598E+04
        -0.24190E+04
        -0.28590E+05
        -0.60448E+04
        -0.47321E+05
        -0.21527E+05
        -0.50041E+05
        -0.16603E+05
        -0.12786E+06
        -0.10445E+06
        -0.60521E+05
        -0.46506E+05
         0.18623E+04
        -0.11285E+05
         0.31194E+05
         0.54020E+05
        -0.14625E+05
        -0.44441E+04
         0.23163E+04
        -0.42559E+05
        -0.31977E+05
        -0.20569E+05
        -0.20303E+05
        -0.36388E+05
        -0.32472E+05
        -0.39553E+05
        -0.27829E+05
        -0.18549E+05
        -0.58840E+04
        -0.90417E+03
         0.13983E+05
         0.28740E+05
         0.20561E+05
         0.39171E+05
        -0.28344E+06
        -0.22006E+06
        -0.21729E+06
        -0.10439E+06
        -0.39154E+04
         0.82343E+05
         0.77697E+05
         0.76627E+05
         0.51550E+05
        -0.17206E+05
        -0.15395E+06
        -0.23976E+06
        -0.18220E+06
        -0.13541E+06
        -0.21801E+06
        -0.26945E+06
        -0.22993E+06
        -0.20525E+06
        -0.72988E+05
         0.91123E+04
         0.45404E+02
        -0.17049E+05
        -0.70257E+05
        -0.15549E+06
        -0.20917E+06
        -0.18080E+06
         0.33051E+05
         0.13297E+05
         0.20356E+05
         0.40790E+05
         0.22342E+05
         0.43369E+05
        -0.15778E+05
        -0.31369E+05
         0.45263E+05
        -0.38344E+05
        -0.44851E+05
        -0.43037E+04
         0.14545E+04
        -0.94770E+05
        -0.34570E+05
         0.41060E+04
         0.20097E+05
         0.34800E+05
        -0.61722E+04
        -0.26653E+04
        -0.28756E+05
        -0.62544E+04
        -0.47477E+05
        -0.21698E+05
        -0.50216E+05
        -0.16763E+05
        -0.12801E+06
        -0.10449E+06
        -0.60654E+05
        -0.46700E+05
         0.16483E+04
        -0.11457E+05
         0.30909E+05
         0.53753E+05
        -0.14788E+05
        -0.45769E+04
         0.22299E+04
        -0.43119E+05
        -0.32294E+05
        -0.20858E+05
        -0.20604E+05
        -0.36588E+05
        -0.32728E+05
        -0.39670E+05
        -0.27946E+05
        -0.18719E+05
        -0.61329E+04
        -0.11821E+04
         0.13737E+05
         0.28521E+05
         0.20356E+05
         0.38965E+05
        -0.28360E+06
        -0.22019E+06
        -0.21778E+06
        -0.10483E+06
        -0.39317E+04
         0.82042E+05
         0.76972E+05
         0.75807E+05
         0.51105E+05
        -0.17872E+05
        -0.15467E+06
        -0.24017E+06
        -0.18265E+06
        -0.13566E+06
        -0.21831E+06
        -0.26981E+06
        -0.23005E+06
        -0.20546E+06
        -0.73187E+05
         0.85181E+04
        -0.66981E+03
        -0.17606E+05
        -0.70484E+05
        -0.15547E+06
        -0.20929E+06
        -0.18106E+06
         0.32757E+05
         0.13035E+05
         0.20165E+05
         0.40686E+05
         0.22131E+05
         0.43277E+05
        -0.16001E+05
        -0.31628E+05
         0.44999E+05
        -0.38645E+05
        -0.45088E+05
        -0.46355E+04
         0.12295E+04
        -0.94941E+05
        -0.34943E+05
         0.37851E+04
         0.19875E+05
         0.34635E+05
        -0.64329E+04
        -0.28506E+04
        -0.28968E+05
        -0.64675E+04
        -0.47714E+05
        -0.21965E+05
        -0.50387E+05
        -0.17069E+05
        -0.12812E+06
        -0.10460E+06
        -0.60806E+05
        -0.46844E+05
         0.13435E+04
        -0.11741E+05
         0.30752E+05
         0.53708E+05
        -0.15157E+05
        -0.48109E+04
         0.20262E+04
        -0.43662E+05
        -0.32647E+05
        -0.21113E+05
        -0.20786E+05
        -0.36762E+05
        -0.32961E+05
        -0.39889E+05
        -0.28154E+05
        -0.18949E+05
        -0.63652E+04
        -0.14228E+04
         0.13501E+05
         0.28330E+05
         0.20162E+05
         0.38885E+05
        -0.28408E+06
        -0.22060E+06
        -0.21814E+06
        -0.10496E+06
        -0.40610E+04
         0.81423E+05
         0.76063E+05
         0.75065E+05
         0.50643E+05
        -0.18337E+05
        -0.15493E+06
        -0.24057E+06
        -0.18318E+06
        -0.13602E+06
        -0.21877E+06
        -0.27039E+06
        -0.23044E+06
        -0.20587E+06
        -0.73603E+05
         0.80280E+04
        -0.12082E+04
        -0.18177E+05
        -0.70840E+05
        -0.15570E+06
        -0.20957E+06
        -0.18139E+06
         0.32945E+05
         0.13144E+05
         0.20258E+05
         0.40852E+05
         0.22371E+05
         0.43506E+05
        -0.15776E+05
        -0.31280E+05
         0.45174E+05
        -0.38448E+05
        -0.44757E+05
        -0.43567E+04
         0.13132E+04
        -0.94434E+05
        -0.34340E+05
         0.40356E+04
         0.20028E+05
         0.34901E+05
        -0.61448E+04
        -0.25145E+04
        -0.28627E+05
        -0.61060E+04
        -0.47422E+05
        -0.21677E+05
        -0.50197E+05
        -0.16788E+05
        -0.12768E+06
        -0.10424E+06
        -0.60364E+05
        -0.46417E+05
         0.16416E+04
        -0.11514E+05
         0.31085E+05
         0.54018E+05
        -0.14894E+05
        -0.45842E+04
         0.21545E+04
        -0.43326E+05
        -0.32298E+05
        -0.20652E+05
        -0.20379E+05
        -0.36466E+05
        -0.32622E+05
        -0.39649E+05
        -0.27953E+05
        -0.18758E+05
        -0.61542E+04
        -0.11715E+04
         0.13778E+05
         0.28606E+05
         0.20415E+05
         0.39170E+05
        -0.28310E+06
        -0.21960E+06
        -0.21727E+06
        -0.10456E+06
        -0.41486E+04
         0.81476E+05
         0.76713E+05
         0.75776E+05
         0.51159E+05
        -0.17552E+05
        -0.15416E+06
        -0.24026E+06
        -0.18257E+06
        -0.13541E+06
        -0.21828E+06
        -0.27010E+06
        -0.23023E+06
        -0.20557E+06
        -0.73241E+05
         0.85535E+04
        -0.56393E+03
        -0.17566E+05
        -0.70259E+05
        -0.15510E+06
        -0.20870E+06
        -0.18044E+06
         0.32808E+05
         0.12934E+05
         0.20074E+05
         0.40642E+05
         0.22156E+05
         0.43291E+05
        -0.16057E+05
        -0.31514E+05
         0.44961E+05
        -0.38815E+05
        -0.45098E+05
        -0.47686E+04
         0.86766E+03
        -0.94737E+05
        -0.34605E+05
         0.37742E+04
         0.19744E+05
         0.34594E+05
        -0.64641E+04
        -0.28052E+04
        -0.29011E+05
        -0.64917E+04
        -0.47825E+05
        -0.21986E+05
        -0.50543E+05
        -0.17055E+05
        -0.12809E+06
        -0.10467E+06
        -0.60734E+05
        -0.46670E+05
         0.13572E+04
        -0.11782E+05
         0.30739E+05
         0.53777E+05
        -0.15247E+05
        -0.48585E+04
         0.18167E+04
        -0.43916E+05
        -0.32859E+05
        -0.21139E+05
        -0.20933E+05
        -0.36985E+05
        -0.33015E+05
        -0.40095E+05
        -0.28337E+05
        -0.19093E+05
        -0.64854E+04
        -0.15481E+04
         0.13473E+05
         0.28390E+05
         0.20153E+05
         0.38933E+05
        -0.28358E+06
        -0.22003E+06
        -0.21786E+06
        -0.10528E+06
        -0.49450E+04
         0.80684E+05
         0.76219E+05
         0.75131E+05
         0.50357E+05
        -0.18328E+05
        -0.15511E+06
        -0.24127E+06
        -0.18322E+06
        -0.13608E+06
        -0.21894E+06
        -0.27090E+06
        -0.23136E+06
        -0.20655E+06
        -0.73684E+05
         0.79065E+04
        -0.12097E+04
        -0.17898E+05
        -0.70431E+05
        -0.15543E+06
        -0.20916E+06
        -0.18091E+06
         0.32782E+05
         0.12865E+05
         0.20018E+05
         0.40581E+05
         0.22139E+05
         0.43236E+05
        -0.16111E+05
        -0.31524E+05
         0.44975E+05
        -0.38833E+05
        -0.45151E+05
        -0.48271E+04
         0.78837E+03
        -0.94677E+05
        -0.34583E+05
         0.37154E+04
         0.19748E+05
         0.34531E+05
        -0.64954E+04
        -0.28269E+04
        -0.29093E+05
        -0.65501E+04
        -0.47916E+05
        -0.22043E+05
        -0.50581E+05
        -0.17130E+05
        -0.12800E+06
        -0.10472E+06
        -0.60836E+05
        -0.46727E+05
         0.12028E+04
        -0.11886E+05
         0.30605E+05
         0.53730E+05
        -0.15344E+05
        -0.49427E+04
         0.17178E+04
        -0.44211E+05
        -0.33183E+05
        -0.21341E+05
        -0.21017E+05
        -0.37054E+05
        -0.33076E+05
        -0.40171E+05
        -0.28406E+05
        -0.19173E+05
        -0.65927E+04
        -0.16968E+04
         0.13356E+05
         0.28349E+05
         0.20112E+05
         0.38891E+05
        -0.28343E+06
        -0.21990E+06
        -0.21800E+06
        -0.10556E+06
        -0.49176E+04
         0.80679E+05
         0.76018E+05
         0.74591E+05
         0.49786E+05
        -0.18612E+05
        -0.15508E+06
        -0.24139E+06
        -0.18337E+06
        -0.13634E+06
        -0.21931E+06
        -0.27125E+06
        -0.23158E+06
        -0.20673E+06
        -0.73792E+05
         0.76722E+04
        -0.14836E+04
        -0.18077E+05
        -0.70390E+05
        -0.15534E+06
        -0.20925E+06
        -0.18099E+06
         0.33380E+05
         0.13525E+05
         0.20570E+05
         0.41007E+05
         0.22823E+05
         0.43753E+05
        -0.15346E+05
        -0.30801E+05
         0.45428E+05
        -0.38284E+05
        -0.44360E+05
        -0.39397E+04
         0.15615E+04
        -0.93832E+05
        -0.33686E+05
         0.42696E+04
         0.20289E+05
         0.35026E+05
        -0.58635E+04
        -0.21372E+04
        -0.28337E+05
        -0.58358E+04
        -0.47198E+05
        -0.21420E+05
        -0.49903E+05
        -0.16510E+05
        -0.12713E+06
        -0.10379E+06
        -0.59963E+05
        -0.45937E+05
         0.18107E+04
        -0.11255E+05
         0.31115E+05
         0.54142E+05
        -0.14610E+05
        -0.42934E+04
         0.23779E+04
        -0.43667E+05
        -0.32484E+05
        -0.20584E+05
        -0.20319E+05
        -0.36351E+05
        -0.32437E+05
        -0.39426E+05
        -0.27655E+05
        -0.18418E+05
        -0.59162E+04
        -0.10558E+04
         0.13913E+05
         0.28843E+05
         0.20628E+05
         0.39372E+05
        -0.28179E+06
        -0.21831E+06
        -0.21673E+06
        -0.10467E+06
        -0.37828E+04
         0.82071E+05
         0.77174E+05
         0.75461E+05
         0.50805E+05
        -0.17483E+05
        -0.15404E+06
        -0.24027E+06
        -0.18244E+06
        -0.13531E+06
        -0.21822E+06
        -0.27019E+06
        -0.23031E+06
        -0.20533E+06
        -0.72521E+05
         0.89737E+04
        -0.35075E+03
        -0.17239E+05
        -0.69416E+05
        -0.15409E+06
        -0.20785E+06
        -0.17961E+06
         0.33128E+05
         0.13337E+05
         0.20399E+05
         0.40747E+05
         0.22550E+05
         0.43531E+05
        -0.15597E+05
        -0.31105E+05
         0.45124E+05
        -0.38741E+05
        -0.44695E+05
        -0.42567E+04
         0.13592E+04
        -0.94156E+05
        -0.34067E+05
         0.39365E+04
         0.19933E+05
         0.34776E+05
        -0.62848E+04
        -0.24950E+04
        -0.28594E+05
        -0.61875E+04
        -0.47448E+05
        -0.21794E+05
        -0.50310E+05
        -0.16890E+05
        -0.12750E+06
        -0.10408E+06
        -0.60043E+05
        -0.46116E+05
         0.16012E+04
        -0.11559E+05
         0.30880E+05
         0.53848E+05
        -0.15060E+05
        -0.45411E+04
         0.22155E+04
        -0.44331E+05
        -0.32943E+05
        -0.20804E+05
        -0.20677E+05
        -0.36759E+05
        -0.32888E+05
        -0.39758E+05
        -0.27990E+05
        -0.18733E+05
        -0.61916E+04
        -0.12676E+04
         0.13658E+05
         0.28517E+05
         0.20313E+05
         0.39128E+05
        -0.28257E+06
        -0.21898E+06
        -0.21741E+06
        -0.10505E+06
        -0.38679E+04
         0.81724E+05
         0.76384E+05
         0.74498E+05
         0.49912E+05
        -0.18257E+05
        -0.15495E+06
        -0.24140E+06
        -0.18322E+06
        -0.13569E+06
        -0.21847E+06
        -0.27043E+06
        -0.23077E+06
        -0.20605E+06
        -0.72985E+05
         0.83918E+04
        -0.86413E+03
        -0.17829E+05
        -0.69998E+05
        -0.15434E+06
        -0.20802E+06
        -0.18005E+06
         0.32706E+05
         0.12855E+05
         0.19929E+05
         0.40398E+05
         0.22107E+05
         0.43103E+05
        -0.16009E+05
        -0.31469E+05
         0.44689E+05
        -0.39546E+05
        -0.45103E+05
        -0.47686E+04
         0.92366E+03
        -0.94488E+05
        -0.34552E+05
         0.35302E+04
         0.19395E+05
         0.34486E+05
        -0.66304E+04
        -0.26647E+04
        -0.28911E+05
        -0.65988E+04
        -0.47748E+05
        -0.22115E+05
        -0.51031E+05
        -0.17263E+05
        -0.12835E+06
        -0.10456E+06
        -0.59017E+05
        -0.45555E+05
         0.12283E+04
        -0.11990E+05
         0.30646E+05
         0.53646E+05
        -0.15565E+05
        -0.49537E+04
         0.18188E+04
        -0.45302E+05
        -0.33395E+05
        -0.20105E+05
        -0.20730E+05
        -0.37199E+05
        -0.33487E+05
        -0.40118E+05
        -0.28416E+05
        -0.19238E+05
        -0.66715E+04
        -0.16447E+04
         0.13362E+05
         0.28255E+05
         0.20034E+05
         0.38823E+05
        -0.28303E+06
        -0.21944E+06
        -0.21787E+06
        -0.10548E+06
        -0.44217E+04
         0.80760E+05
         0.75271E+05
         0.73425E+05
         0.49013E+05
        -0.18425E+05
        -0.15658E+06
        -0.24408E+06
        -0.18431E+06
        -0.13630E+06
        -0.21908E+06
        -0.27105E+06
        -0.23146E+06
        -0.20679E+06
        -0.73764E+05
         0.74827E+04
        -0.14563E+04
        -0.18393E+05
        -0.70592E+05
        -0.15466E+06
        -0.20856E+06
        -0.18070E+06
         0.33276E+05
         0.13462E+05
         0.20529E+05
         0.40914E+05
         0.22834E+05
         0.43661E+05
        -0.15339E+05
        -0.30757E+05
         0.45001E+05
        -0.39684E+05
        -0.44392E+05
        -0.41062E+04
         0.14942E+04
        -0.93686E+05
        -0.33749E+05
         0.40905E+04
         0.19763E+05
         0.34950E+05
        -0.59005E+04
        -0.15339E+04
        -0.28282E+05
        -0.59744E+04
        -0.47171E+05
        -0.21444E+05
        -0.50867E+05
        -0.16588E+05
        -0.12849E+06
        -0.10397E+06
        -0.55819E+05
        -0.43114E+05
         0.17459E+04
        -0.11347E+05
         0.31145E+05
         0.54192E+05
        -0.14778E+05
        -0.42305E+04
         0.24424E+04
        -0.45274E+05
        -0.32592E+05
        -0.17448E+05
        -0.19365E+05
        -0.36483E+05
        -0.33117E+05
        -0.39479E+05
        -0.27682E+05
        -0.18400E+05
        -0.59661E+04
        -0.10581E+04
         0.13974E+05
         0.28927E+05
         0.20719E+05
         0.39390E+05
        -0.28135E+06
        -0.21783E+06
        -0.21631E+06
        -0.10441E+06
        -0.36967E+04
         0.81554E+05
         0.76354E+05
         0.74516E+05
         0.50252E+05
        -0.16019E+05
        -0.15706E+06
        -0.24625E+06
        -0.18422E+06
        -0.13545E+06
        -0.21844E+06
        -0.27060E+06
        -0.23081E+06
        -0.20563E+06
        -0.72250E+05
         0.88755E+04
        -0.22936E+03
        -0.17138E+05
        -0.69129E+05
        -0.15320E+06
        -0.20729E+06
        -0.17940E+06
         0.31143E+05
         0.11233E+05
         0.18366E+05
         0.38846E+05
         0.20294E+05
         0.41252E+05
        -0.17791E+05
        -0.33245E+05
         0.42654E+05
        -0.42788E+05
        -0.47137E+05
        -0.72679E+04
        -0.14878E+04
        -0.96512E+05
        -0.36957E+05
         0.19290E+04
         0.17247E+05
         0.32866E+05
        -0.83542E+04
        -0.38505E+04
        -0.31057E+05
        -0.87016E+04
        -0.49872E+05
        -0.23805E+05
        -0.53819E+05
        -0.18826E+05
        -0.13187E+06
        -0.10677E+06
        -0.57091E+05
        -0.44771E+05
        -0.40432E+03
        -0.13670E+05
         0.28968E+05
         0.51891E+05
        -0.17749E+05
        -0.68650E+04
        -0.29770E+03
        -0.49017E+05
        -0.35552E+05
        -0.19201E+05
        -0.22107E+05
        -0.39451E+05
        -0.36082E+05
        -0.42120E+05
        -0.30450E+05
        -0.21544E+05
        -0.87128E+04
        -0.35540E+04
         0.11524E+05
         0.26283E+05
         0.17707E+05
         0.36741E+05
        -0.28648E+06
        -0.22284E+06
        -0.22161E+06
        -0.10984E+06
        -0.90602E+04
         0.76361E+05
         0.71058E+05
         0.68811E+05
         0.44937E+05
        -0.20830E+05
        -0.16377E+06
        -0.25367E+06
        -0.18946E+06
        -0.13979E+06
        -0.22306E+06
        -0.27545E+06
        -0.23577E+06
        -0.21113E+06
        -0.77829E+05
         0.35057E+04
        -0.51975E+04
        -0.21909E+05
        -0.73957E+05
        -0.15807E+06
        -0.21191E+06
        -0.18400E+06
         0.32361E+05
         0.11388E+05
         0.18769E+05
         0.39637E+05
         0.21158E+05
         0.42049E+05
        -0.17447E+05
        -0.31717E+05
         0.44182E+05
        -0.40564E+05
        -0.46384E+05
        -0.72106E+04
        -0.22559E+04
        -0.94647E+05
        -0.35504E+05
         0.35924E+04
         0.18871E+05
         0.34000E+05
        -0.70311E+04
        -0.24705E+04
        -0.29801E+05
        -0.77629E+04
        -0.47937E+05
        -0.22033E+05
        -0.51247E+05
        -0.17174E+05
        -0.12898E+06
        -0.10353E+06
        -0.54422E+05
        -0.42305E+05
         0.90916E+03
        -0.12642E+05
         0.29594E+05
         0.51558E+05
        -0.17318E+05
        -0.70612E+04
        -0.10721E+04
        -0.47318E+05
        -0.33456E+05
        -0.17362E+05
        -0.20899E+05
        -0.37799E+05
        -0.34319E+05
        -0.40327E+05
        -0.29441E+05
        -0.21062E+05
        -0.83002E+04
        -0.24905E+04
         0.12348E+05
         0.26333E+05
         0.17910E+05
         0.36812E+05
        -0.28428E+06
        -0.22008E+06
        -0.22090E+06
        -0.11102E+06
        -0.11445E+05
         0.74892E+05
         0.73478E+05
         0.71295E+05
         0.46951E+05
        -0.19602E+05
        -0.16338E+06
        -0.25272E+06
        -0.18749E+06
        -0.13880E+06
        -0.22105E+06
        -0.27263E+06
        -0.23334E+06
        -0.20926E+06
        -0.76974E+05
         0.34073E+04
        -0.40695E+04
        -0.20312E+05
        -0.71380E+05
        -0.15486E+06
        -0.20929E+06
        -0.18132E+06
         0.83388E+07
         0.86756E+07
         0.86165E+07
         0.78861E+07
         0.99642E+07
         0.93236E+07
         0.93602E+07
         0.94638E+07
         0.82088E+07
         0.94827E+07
         0.10396E+08
         0.12052E+08
         0.10818E+08
         0.10687E+08
         0.12373E+08
         0.79854E+07
         0.86062E+07
         0.75385E+07
         0.89445E+07
         0.93610E+07
         0.99208E+07
         0.10022E+08
         0.95036E+07
         0.85437E+07
         0.95036E+07
         0.81889E+07
         0.10547E+08
         0.10248E+08
         0.10306E+08
         0.98408E+07
         0.80676E+07
         0.84746E+07
         0.79281E+07
         0.82964E+07
         0.11039E+08
         0.99068E+07
         0.99267E+07
         0.11734E+08
         0.11310E+08
         0.11150E+08
         0.11473E+08
         0.10827E+08
         0.10266E+08
         0.92335E+07
         0.96461E+07
         0.11103E+08
         0.10062E+08
         0.93767E+07
         0.91683E+07
         0.95401E+07
         0.10556E+08
         0.96301E+07
         0.19022E+08
         0.18621E+08
         0.18989E+08
         0.18446E+08
         0.19073E+08
         0.20046E+08
         0.20157E+08
         0.19963E+08
         0.20120E+08
         0.20612E+08
         0.19868E+08
         0.18653E+08
         0.16658E+08
         0.15753E+08
         0.15919E+08
         0.16255E+08
         0.16494E+08
         0.17974E+08
         0.19388E+08
         0.19505E+08
         0.17916E+08
         0.17296E+08
         0.17864E+08
         0.17600E+08
         0.17391E+08
         0.17432E+08
         0.88307E+08
         0.92472E+08
         0.91213E+08
         0.83654E+08
         0.10174E+09
         0.95945E+08
         0.99716E+08
         0.10027E+09
         0.86602E+08
         0.10023E+09
         0.10897E+09
         0.12099E+09
         0.11029E+09
         0.11192E+09
         0.12497E+09
         0.84896E+08
         0.91047E+08
         0.80043E+08
         0.93858E+08
         0.98546E+08
         0.10135E+09
         0.10351E+09
         0.97507E+08
         0.90472E+08
         0.10145E+09
         0.87488E+08
         0.11153E+09
         0.10983E+09
         0.11029E+09
         0.10486E+09
         0.85811E+08
         0.90106E+08
         0.84290E+08
         0.87959E+08
         0.11080E+09
         0.10226E+09
         0.10250E+09
         0.12130E+09
         0.11847E+09
         0.11715E+09
         0.11892E+09
         0.11323E+09
         0.10734E+09
         0.95384E+08
         0.99210E+08
         0.11075E+09
         0.10294E+09
         0.97121E+08
         0.95342E+08
         0.98646E+08
         0.10650E+09
         0.98884E+08
         0.18310E+09
         0.17879E+09
         0.18458E+09
         0.17830E+09
         0.18613E+09
         0.19876E+09
         0.20106E+09
         0.19701E+09
         0.19760E+09
         0.20448E+09
         0.19746E+09
         0.18431E+09
         0.15777E+09
         0.14655E+09
         0.14981E+09
         0.15400E+09
         0.15685E+09
         0.17405E+09
         0.18600E+09
         0.18780E+09
         0.16960E+09
         0.16231E+09
         0.17004E+09
         0.16775E+09
         0.16649E+09
         0.16558E+09
  
SCALARS                      stress_yy  double 1
LOOKUP_TABLE default
        -0.13925E+11
        -0.13863E+11
        -0.13902E+11
        -0.13972E+11
        -0.64821E+01
        -0.72686E+01
        -0.69599E+01
        -0.63228E+01
        -0.13861E+11
        -0.13882E+11
        -0.65363E+01
        -0.63255E+01
        -0.13772E+11
        -0.13769E+11
        -0.77665E+01
        -0.73025E+01
        -0.13962E+11
        -0.13774E+11
        -0.57386E+01
        -0.63650E+01
        -0.13703E+11
        -0.13648E+11
        -0.13736E+11
        -0.76975E+01
        -0.67223E+01
        -0.69416E+01
        -0.13650E+11
        -0.13569E+11
        -0.73847E+01
        -0.62277E+01
        -0.13959E+11
        -0.13878E+11
        -0.14037E+11
        -0.63017E+01
        -0.58584E+01
        -0.56959E+01
        -0.13912E+11
        -0.13807E+11
        -0.66670E+01
        -0.60836E+01
        -0.13871E+11
        -0.13790E+11
        -0.57621E+01
        -0.51011E+01
        -0.13939E+11
        -0.13968E+11
        -0.63145E+01
        -0.70556E+01
        -0.13724E+11
        -0.61687E+01
        -0.13963E+11
        -0.72486E+01
        -0.13627E+11
        -0.65144E+01
        -0.13601E+11
        -0.62487E+01
        -0.13602E+11
        -0.13692E+11
        -0.63666E+01
        -0.62004E+01
        -0.13957E+11
        -0.13926E+11
        -0.63841E+01
        -0.72172E+01
        -0.13977E+11
        -0.61602E+01
        -0.13940E+11
        -0.67231E+01
        -0.13842E+11
        -0.13832E+11
        -0.64717E+01
        -0.67811E+01
        -0.13809E+11
        -0.68380E+01
        -0.13539E+11
        -0.54025E+01
        -0.13525E+11
        -0.52440E+01
        -0.13532E+11
        -0.55293E+01
        -0.13572E+11
        -0.13613E+11
        -0.52681E+01
        -0.54924E+01
        -0.13695E+11
        -0.51154E+01
        -0.13937E+11
        -0.67081E+01
        -0.13900E+11
        -0.68656E+01
        -0.13869E+11
        -0.13852E+11
        -0.65932E+01
        -0.66702E+01
        -0.13873E+11
        -0.60584E+01
        -0.13888E+11
        -0.59720E+01
        -0.13875E+11
        -0.63931E+01
        -0.13870E+11
        -0.13883E+11
        -0.62694E+01
        -0.64533E+01
        -0.13795E+11
        -0.13831E+11
        -0.48676E+01
        -0.45782E+01
        -0.13789E+11
        -0.46479E+01
        -0.13830E+11
        -0.44565E+01
        -0.13789E+11
        -0.43945E+01
        -0.13698E+11
        -0.41528E+01
        -0.13608E+11
        -0.36893E+01
        -0.13554E+11
        -0.33220E+01
        -0.13548E+11
        -0.32989E+01
        -0.13550E+11
        -0.35775E+01
        -0.13609E+11
        -0.37599E+01
        -0.13718E+11
        -0.34332E+01
        -0.13835E+11
        -0.30946E+01
        -0.13903E+11
        -0.30911E+01
        -0.13969E+11
        -0.34551E+01
        -0.14013E+11
        -0.39396E+01
        -0.14011E+11
        -0.42323E+01
        -0.13905E+11
        -0.45709E+01
        -0.13830E+11
        -0.48970E+01
        -0.13804E+11
        -0.44860E+01
        -0.13844E+11
        -0.39354E+01
        -0.13865E+11
        -0.39233E+01
        -0.13830E+11
        -0.42925E+01
        -0.13831E+11
        -0.45761E+01
        -0.13857E+11
        -0.43427E+01
        -0.13892E+11
        -0.41984E+01
        -0.28803E+10
        -0.29375E+10
        -0.29298E+10
        -0.28555E+10
        -0.29923E+10
        -0.29234E+10
        -0.30087E+10
        -0.29643E+10
        -0.28673E+10
        -0.29278E+10
        -0.30559E+10
        -0.30702E+10
        -0.30319E+10
        -0.30293E+10
        -0.30541E+10
        -0.28591E+10
        -0.28730E+10
        -0.28339E+10
        -0.29437E+10
        -0.29238E+10
        -0.29522E+10
        -0.29335E+10
        -0.29681E+10
        -0.29591E+10
        -0.29255E+10
        -0.29279E+10
        -0.29851E+10
        -0.29800E+10
        -0.30221E+10
        -0.29583E+10
        -0.28659E+10
        -0.29383E+10
        -0.28665E+10
        -0.29140E+10
        -0.30801E+10
        -0.30274E+10
        -0.30022E+10
        -0.30318E+10
        -0.30357E+10
        -0.30838E+10
        -0.31185E+10
        -0.30335E+10
        -0.29511E+10
        -0.29623E+10
        -0.30047E+10
        -0.30781E+10
        -0.30155E+10
        -0.29475E+10
        -0.29523E+10
        -0.30049E+10
        -0.30581E+10
        -0.29862E+10
        -0.32020E+10
        -0.31396E+10
        -0.31500E+10
        -0.31353E+10
        -0.31391E+10
        -0.31729E+10
        -0.32074E+10
        -0.32185E+10
        -0.32137E+10
        -0.32171E+10
        -0.32317E+10
        -0.31423E+10
        -0.31084E+10
        -0.30952E+10
        -0.30728E+10
        -0.30558E+10
        -0.30566E+10
        -0.30856E+10
        -0.31812E+10
        -0.31586E+10
        -0.31258E+10
        -0.31261E+10
        -0.31318E+10
        -0.31632E+10
        -0.31168E+10
        -0.30996E+10
         0.33684E+05
         0.15504E+05
         0.21836E+05
         0.44171E+05
         0.25135E+05
         0.47898E+05
        -0.11824E+05
        -0.29971E+05
         0.50168E+05
        -0.32414E+05
        -0.42570E+05
        -0.28600E+05
         0.17210E+04
        -0.87325E+05
        -0.55094E+05
         0.12789E+05
         0.28355E+05
         0.37113E+05
        -0.25809E+03
         0.56848E+04
        -0.65377E+04
         0.14357E+05
        -0.20350E+05
        -0.83761E+04
        -0.38304E+05
        -0.39594E+04
        -0.11947E+06
        -0.96116E+05
        -0.49084E+05
        -0.32997E+05
         0.11100E+05
        -0.95904E+03
         0.37023E+05
         0.57495E+05
         0.20676E+04
         0.19843E+04
         0.83618E+04
        -0.48911E+05
        -0.39696E+05
        -0.23300E+05
        -0.23878E+04
        -0.85874E+04
        -0.50465E+04
        -0.19690E+05
        -0.17746E+05
        -0.24970E+05
        -0.21206E+04
         0.74740E+04
         0.18162E+05
         0.29806E+05
         0.27639E+05
         0.47926E+05
        -0.51763E+05
         0.68855E+04
        -0.10612E+06
        -0.11207E+06
        -0.16649E+06
        -0.24354E+06
        -0.24863E+06
        -0.16075E+06
        -0.15740E+06
        -0.18058E+06
        -0.51636E+05
         0.17973E+05
         0.51952E+04
         0.32558E+05
        -0.12556E+05
        -0.62752E+05
        -0.11035E+06
        -0.17487E+06
        -0.25755E+06
        -0.26596E+06
        -0.19898E+06
        -0.19150E+06
        -0.21410E+06
        -0.11593E+06
        -0.16883E+05
         0.12531E+05
         0.31393E+05
         0.13134E+05
         0.19492E+05
         0.42066E+05
         0.22418E+05
         0.45361E+05
        -0.14414E+05
        -0.32619E+05
         0.47728E+05
        -0.35323E+05
        -0.45479E+05
        -0.31993E+05
        -0.12630E+04
        -0.90208E+05
        -0.58538E+05
         0.10310E+05
         0.25634E+05
         0.35020E+05
        -0.30336E+04
         0.27820E+04
        -0.94981E+04
         0.11470E+05
        -0.23399E+05
        -0.11203E+05
        -0.41476E+05
        -0.66541E+04
        -0.12226E+06
        -0.99035E+05
        -0.52201E+05
        -0.36254E+05
         0.87020E+04
        -0.35112E+04
         0.34852E+05
         0.55350E+05
        -0.96695E+03
        -0.69116E+03
         0.56841E+04
        -0.52387E+05
        -0.42978E+05
        -0.26512E+05
        -0.57729E+04
        -0.11898E+05
        -0.82000E+04
        -0.22649E+05
        -0.20557E+05
        -0.28022E+05
        -0.49603E+04
         0.47888E+04
         0.15707E+05
         0.27354E+05
         0.24835E+05
         0.45333E+05
        -0.57051E+05
         0.17137E+04
        -0.11124E+06
        -0.11695E+06
        -0.17158E+06
        -0.24903E+06
        -0.25407E+06
        -0.16639E+06
        -0.16316E+06
        -0.18644E+06
        -0.57556E+05
         0.12453E+05
         0.57737E+03
         0.28235E+05
        -0.17067E+05
        -0.67587E+05
        -0.11533E+06
        -0.18007E+06
        -0.26270E+06
        -0.27137E+06
        -0.20411E+06
        -0.19614E+06
        -0.21866E+06
        -0.12056E+06
        -0.21646E+05
         0.76844E+04
         0.31920E+05
         0.13599E+05
         0.19988E+05
         0.42631E+05
         0.23131E+05
         0.46046E+05
        -0.13884E+05
        -0.32049E+05
         0.48122E+05
        -0.35253E+05
        -0.44891E+05
        -0.31338E+05
        -0.70146E+03
        -0.89493E+05
        -0.57783E+05
         0.98100E+04
         0.25489E+05
         0.35584E+05
        -0.37192E+04
         0.22313E+04
        -0.99930E+04
         0.11283E+05
        -0.25399E+05
        -0.13243E+05
        -0.42851E+05
        -0.85416E+04
        -0.12171E+06
        -0.99418E+05
        -0.53453E+05
        -0.38533E+05
         0.87035E+04
        -0.40897E+04
         0.35434E+05
         0.56055E+05
        -0.17562E+03
        -0.16522E+02
         0.62790E+04
        -0.51850E+05
        -0.42518E+05
        -0.26360E+05
        -0.58674E+04
        -0.13101E+05
        -0.98998E+04
        -0.24631E+05
        -0.21039E+05
        -0.27603E+05
        -0.44465E+04
         0.53987E+04
         0.16393E+05
         0.28130E+05
         0.25638E+05
         0.46072E+05
        -0.55457E+05
         0.31275E+04
        -0.10970E+06
        -0.11574E+06
        -0.17063E+06
        -0.24791E+06
        -0.25265E+06
        -0.16510E+06
        -0.16191E+06
        -0.18511E+06
        -0.56814E+05
         0.12416E+05
         0.65244E+03
         0.29025E+05
        -0.16537E+05
        -0.68582E+05
        -0.11646E+06
        -0.17986E+06
        -0.26128E+06
        -0.26970E+06
        -0.20261E+06
        -0.19464E+06
        -0.21690E+06
        -0.11902E+06
        -0.20449E+05
         0.88466E+04
         0.31588E+05
         0.13398E+05
         0.19791E+05
         0.42298E+05
         0.22876E+05
         0.45830E+05
        -0.14107E+05
        -0.32415E+05
         0.47410E+05
        -0.36527E+05
        -0.45192E+05
        -0.31685E+05
        -0.94585E+03
        -0.89830E+05
        -0.58275E+05
         0.78373E+04
         0.23884E+05
         0.35209E+05
        -0.61452E+04
        -0.21170E+03
        -0.12241E+05
         0.92879E+04
        -0.30054E+05
        -0.17806E+05
        -0.46610E+05
        -0.12842E+05
        -0.12246E+06
        -0.10178E+06
        -0.57285E+05
        -0.43981E+05
         0.75378E+04
        -0.63888E+04
         0.35098E+05
         0.55707E+05
        -0.56687E+03
        -0.28567E+03
         0.60664E+04
        -0.52537E+05
        -0.43370E+05
        -0.27834E+05
        -0.77908E+04
        -0.16849E+05
        -0.14503E+05
        -0.29302E+05
        -0.23367E+05
        -0.28833E+05
        -0.53612E+04
         0.49026E+04
         0.15984E+05
         0.27680E+05
         0.25221E+05
         0.45792E+05
        -0.56182E+05
         0.26158E+04
        -0.11054E+06
        -0.11645E+06
        -0.17104E+06
        -0.24822E+06
        -0.25329E+06
        -0.16594E+06
        -0.16277E+06
        -0.18615E+06
        -0.58616E+05
         0.94399E+04
        -0.21467E+04
         0.27690E+05
        -0.18024E+05
        -0.72698E+05
        -0.12087E+06
        -0.18196E+06
        -0.26223E+06
        -0.27058E+06
        -0.20328E+06
        -0.19545E+06
        -0.21766E+06
        -0.11947E+06
        -0.20837E+05
         0.84657E+04
         0.30989E+05
         0.12990E+05
         0.19448E+05
         0.41955E+05
         0.22582E+05
         0.45530E+05
        -0.14454E+05
        -0.33006E+05
         0.46559E+05
        -0.37852E+05
        -0.45514E+05
        -0.31899E+05
        -0.12174E+04
        -0.90202E+05
        -0.58548E+05
         0.65018E+04
         0.22614E+05
         0.34861E+05
        -0.77431E+04
        -0.19710E+04
        -0.13691E+05
         0.78549E+04
        -0.32915E+05
        -0.20632E+05
        -0.49322E+05
        -0.15594E+05
        -0.12313E+06
        -0.10348E+06
        -0.59926E+05
        -0.47602E+05
         0.63209E+04
        -0.80576E+04
         0.34442E+05
         0.55221E+05
        -0.97103E+03
        -0.63001E+03
         0.57461E+04
        -0.53062E+05
        -0.44087E+05
        -0.28959E+05
        -0.91518E+04
        -0.19369E+05
        -0.17524E+05
        -0.32273E+05
        -0.24904E+05
        -0.29648E+05
        -0.61735E+04
         0.41047E+04
         0.15265E+05
         0.27005E+05
         0.24566E+05
         0.45335E+05
        -0.56834E+05
         0.21688E+04
        -0.11126E+06
        -0.11699E+06
        -0.17120E+06
        -0.24814E+06
        -0.25339E+06
        -0.16644E+06
        -0.16349E+06
        -0.18674E+06
        -0.59704E+05
         0.73747E+04
        -0.40553E+04
         0.26658E+05
        -0.19073E+05
        -0.75375E+05
        -0.12400E+06
        -0.18349E+06
        -0.26267E+06
        -0.27138E+06
        -0.20418E+06
        -0.19639E+06
        -0.21868E+06
        -0.12029E+06
        -0.21369E+05
         0.80858E+04
         0.29552E+05
         0.12209E+05
         0.19109E+05
         0.42248E+05
         0.22951E+05
         0.46008E+05
        -0.14695E+05
        -0.34023E+05
         0.45370E+05
        -0.39624E+05
        -0.45268E+05
        -0.31135E+05
        -0.92612E+03
        -0.90078E+05
        -0.57671E+05
         0.67406E+04
         0.22315E+05
         0.35439E+05
        -0.74200E+04
        -0.17135E+04
        -0.13280E+05
         0.83575E+04
        -0.32853E+05
        -0.20686E+05
        -0.50492E+05
        -0.15975E+05
        -0.12328E+06
        -0.10367E+06
        -0.59771E+05
        -0.47740E+05
         0.48673E+04
        -0.89354E+04
         0.33345E+05
         0.55102E+05
        -0.62270E+03
        -0.59368E+03
         0.56879E+04
        -0.52518E+05
        -0.43621E+05
        -0.28399E+05
        -0.85072E+04
        -0.18970E+05
        -0.17204E+05
        -0.32469E+05
        -0.25105E+05
        -0.29788E+05
        -0.68774E+04
         0.24935E+04
         0.13485E+05
         0.26082E+05
         0.24354E+05
         0.45557E+05
        -0.55520E+05
         0.35077E+04
        -0.11020E+06
        -0.11627E+06
        -0.17038E+06
        -0.24686E+06
        -0.25193E+06
        -0.16515E+06
        -0.16209E+06
        -0.18489E+06
        -0.58171E+05
         0.82680E+04
        -0.30481E+04
         0.27704E+05
        -0.18056E+05
        -0.74591E+05
        -0.12351E+06
        -0.18300E+06
        -0.26196E+06
        -0.27086E+06
        -0.20426E+06
        -0.19704E+06
        -0.21902E+06
        -0.11993E+06
        -0.20660E+05
         0.90829E+04
         0.27367E+05
         0.10827E+05
         0.18301E+05
         0.42040E+05
         0.22660E+05
         0.45982E+05
        -0.15742E+05
        -0.35982E+05
         0.43370E+05
        -0.42213E+05
        -0.45967E+05
        -0.31423E+05
        -0.14153E+04
        -0.90997E+05
        -0.57951E+05
         0.63370E+04
         0.21271E+05
         0.35334E+05
        -0.77030E+04
        -0.21202E+04
        -0.13490E+05
         0.82159E+04
        -0.33079E+05
        -0.21027E+05
        -0.52138E+05
        -0.16667E+05
        -0.12440E+06
        -0.10453E+06
        -0.60050E+05
        -0.48180E+05
         0.28353E+04
        -0.10377E+05
         0.31672E+05
         0.54451E+05
        -0.10962E+04
        -0.11531E+04
         0.50576E+04
        -0.53068E+05
        -0.44159E+05
        -0.28687E+05
        -0.86365E+04
        -0.19024E+05
        -0.17236E+05
        -0.32930E+05
        -0.25959E+05
        -0.30941E+05
        -0.84975E+04
         0.68042E+02
         0.10940E+05
         0.24456E+05
         0.23477E+05
         0.45248E+05
        -0.56048E+05
         0.30834E+04
        -0.11055E+06
        -0.11664E+06
        -0.17085E+06
        -0.24727E+06
        -0.25218E+06
        -0.16545E+06
        -0.16245E+06
        -0.18510E+06
        -0.58415E+05
         0.79221E+04
        -0.31070E+04
         0.27616E+05
        -0.18275E+05
        -0.74741E+05
        -0.12386E+06
        -0.18400E+06
        -0.26332E+06
        -0.27232E+06
        -0.20593E+06
        -0.19912E+06
        -0.22075E+06
        -0.12077E+06
        -0.21125E+05
         0.87346E+04
         0.26725E+05
         0.10315E+05
         0.17967E+05
         0.41759E+05
         0.22346E+05
         0.45691E+05
        -0.16274E+05
        -0.36669E+05
         0.42774E+05
        -0.43022E+05
        -0.46467E+05
        -0.31828E+05
        -0.18971E+04
        -0.91500E+05
        -0.58374E+05
         0.59734E+04
         0.20846E+05
         0.35063E+05
        -0.79627E+04
        -0.24380E+04
        -0.13816E+05
         0.78847E+04
        -0.33378E+05
        -0.21287E+05
        -0.52738E+05
        -0.17057E+05
        -0.12488E+06
        -0.10499E+06
        -0.60533E+05
        -0.48600E+05
         0.21708E+04
        -0.10945E+05
         0.31133E+05
         0.54087E+05
        -0.14962E+04
        -0.14564E+04
         0.46730E+04
        -0.53747E+05
        -0.44770E+05
        -0.29268E+05
        -0.92166E+04
        -0.19472E+05
        -0.17527E+05
        -0.33342E+05
        -0.26471E+05
        -0.31485E+05
        -0.90374E+04
        -0.53473E+03
         0.10315E+05
         0.23902E+05
         0.22937E+05
         0.44861E+05
        -0.56779E+05
         0.23490E+04
        -0.11108E+06
        -0.11715E+06
        -0.17141E+06
        -0.24757E+06
        -0.25245E+06
        -0.16606E+06
        -0.16337E+06
        -0.18604E+06
        -0.59355E+05
         0.74682E+04
        -0.34571E+04
         0.26864E+05
        -0.19054E+05
        -0.75509E+05
        -0.12492E+06
        -0.18501E+06
        -0.26408E+06
        -0.27292E+06
        -0.20642E+06
        -0.19981E+06
        -0.22158E+06
        -0.12149E+06
        -0.21791E+05
         0.80804E+04
         0.27122E+05
         0.10663E+05
         0.18219E+05
         0.41851E+05
         0.22688E+05
         0.45782E+05
        -0.15918E+05
        -0.36196E+05
         0.43144E+05
        -0.42584E+05
        -0.46121E+05
        -0.31414E+05
        -0.15996E+04
        -0.90969E+05
        -0.57800E+05
         0.64365E+04
         0.21242E+05
         0.35329E+05
        -0.74862E+04
        -0.20193E+04
        -0.13396E+05
         0.82870E+04
        -0.32943E+05
        -0.20818E+05
        -0.52347E+05
        -0.16615E+05
        -0.12419E+06
        -0.10444E+06
        -0.60132E+05
        -0.48216E+05
         0.25560E+04
        -0.10613E+05
         0.31402E+05
         0.54214E+05
        -0.10435E+04
        -0.11087E+04
         0.49721E+04
        -0.53358E+05
        -0.44474E+05
        -0.28975E+05
        -0.88427E+04
        -0.19047E+05
        -0.17096E+05
        -0.32956E+05
        -0.26148E+05
        -0.31150E+05
        -0.86955E+04
        -0.11632E+03
         0.10740E+05
         0.24237E+05
         0.23174E+05
         0.44960E+05
        -0.55655E+05
         0.34371E+04
        -0.11046E+06
        -0.11688E+06
        -0.17081E+06
        -0.24649E+06
        -0.25123E+06
        -0.16524E+06
        -0.16302E+06
        -0.18552E+06
        -0.58611E+05
         0.84682E+04
        -0.25668E+04
         0.27437E+05
        -0.18507E+05
        -0.74905E+05
        -0.12438E+06
        -0.18431E+06
        -0.26332E+06
        -0.27200E+06
        -0.20550E+06
        -0.19900E+06
        -0.22080E+06
        -0.12075E+06
        -0.21133E+05
         0.87936E+04
         0.27011E+05
         0.10634E+05
         0.18150E+05
         0.41665E+05
         0.22623E+05
         0.45627E+05
        -0.15987E+05
        -0.36392E+05
         0.42843E+05
        -0.42925E+05
        -0.46336E+05
        -0.31658E+05
        -0.16801E+04
        -0.91217E+05
        -0.58241E+05
         0.62103E+04
         0.20966E+05
         0.35039E+05
        -0.77014E+04
        -0.22664E+04
        -0.13568E+05
         0.80755E+04
        -0.33098E+05
        -0.20989E+05
        -0.52539E+05
        -0.16773E+05
        -0.12434E+06
        -0.10448E+06
        -0.60257E+05
        -0.48417E+05
         0.23479E+04
        -0.10784E+05
         0.31109E+05
         0.53946E+05
        -0.11902E+04
        -0.12454E+04
         0.48827E+04
        -0.53953E+05
        -0.44845E+05
        -0.29283E+05
        -0.91317E+04
        -0.19220E+05
        -0.17345E+05
        -0.33079E+05
        -0.26272E+05
        -0.31328E+05
        -0.89500E+04
        -0.39221E+03
         0.10499E+05
         0.24029E+05
         0.22966E+05
         0.44738E+05
        -0.55961E+05
         0.31808E+04
        -0.11101E+06
        -0.11733E+06
        -0.17082E+06
        -0.24657E+06
        -0.25166E+06
        -0.16589E+06
        -0.16340E+06
        -0.18610E+06
        -0.59359E+05
         0.80659E+04
        -0.30269E+04
         0.27179E+05
        -0.18740E+05
        -0.75151E+05
        -0.12450E+06
        -0.18455E+06
        -0.26353E+06
        -0.27256E+06
        -0.20622E+06
        -0.19956E+06
        -0.22099E+06
        -0.12075E+06
        -0.21400E+05
         0.83979E+04
         0.26713E+05
         0.10373E+05
         0.17957E+05
         0.41560E+05
         0.22404E+05
         0.45528E+05
        -0.16207E+05
        -0.36674E+05
         0.42569E+05
        -0.43264E+05
        -0.46577E+05
        -0.31984E+05
        -0.19031E+04
        -0.91408E+05
        -0.58691E+05
         0.58965E+04
         0.20746E+05
         0.34873E+05
        -0.79647E+04
        -0.24524E+04
        -0.13787E+05
         0.78606E+04
        -0.33333E+05
        -0.21256E+05
        -0.52728E+05
        -0.17078E+05
        -0.12445E+06
        -0.10459E+06
        -0.60401E+05
        -0.48567E+05
         0.20491E+04
        -0.11067E+05
         0.30943E+05
         0.53901E+05
        -0.15431E+04
        -0.14834E+04
         0.46760E+04
        -0.54532E+05
        -0.45252E+05
        -0.29555E+05
        -0.93028E+04
        -0.19366E+05
        -0.17572E+05
        -0.33304E+05
        -0.26488E+05
        -0.31566E+05
        -0.91880E+04
        -0.63080E+03
         0.10268E+05
         0.23849E+05
         0.22768E+05
         0.44642E+05
        -0.56589E+05
         0.26432E+04
        -0.11144E+06
        -0.11746E+06
        -0.17094E+06
        -0.24696E+06
        -0.25229E+06
        -0.16647E+06
        -0.16379E+06
        -0.18648E+06
        -0.59648E+05
         0.76686E+04
        -0.35794E+04
         0.26798E+05
        -0.19130E+05
        -0.75632E+05
        -0.12490E+06
        -0.18499E+06
        -0.26396E+06
        -0.27301E+06
        -0.20675E+06
        -0.20013E+06
        -0.22130E+06
        -0.12100E+06
        -0.21838E+05
         0.79387E+04
         0.26897E+05
         0.10482E+05
         0.18048E+05
         0.41725E+05
         0.22635E+05
         0.45751E+05
        -0.15979E+05
        -0.36349E+05
         0.42734E+05
        -0.43106E+05
        -0.46251E+05
        -0.31699E+05
        -0.18175E+04
        -0.90920E+05
        -0.58164E+05
         0.61543E+04
         0.20901E+05
         0.35137E+05
        -0.76793E+04
        -0.21170E+04
        -0.13454E+05
         0.82202E+04
        -0.33039E+05
        -0.20967E+05
        -0.52557E+05
        -0.16795E+05
        -0.12401E+06
        -0.10424E+06
        -0.59951E+05
        -0.48146E+05
         0.23531E+04
        -0.10839E+05
         0.31268E+05
         0.54209E+05
        -0.12638E+04
        -0.12608E+04
         0.48014E+04
        -0.54231E+05
        -0.44958E+05
        -0.29112E+05
        -0.88843E+04
        -0.19042E+05
        -0.17226E+05
        -0.33071E+05
        -0.26294E+05
        -0.31383E+05
        -0.89823E+04
        -0.37756E+03
         0.10551E+05
         0.24136E+05
         0.23017E+05
         0.44911E+05
        -0.55763E+05
         0.35196E+04
        -0.11064E+06
        -0.11706E+06
        -0.17101E+06
        -0.24668E+06
        -0.25135E+06
        -0.16559E+06
        -0.16321E+06
        -0.18561E+06
        -0.58916E+05
         0.79869E+04
        -0.29843E+04
         0.27398E+05
        -0.18577E+05
        -0.75232E+05
        -0.12471E+06
        -0.18471E+06
        -0.26361E+06
        -0.27244E+06
        -0.20611E+06
        -0.19952E+06
        -0.22068E+06
        -0.12042E+06
        -0.21129E+05
         0.87643E+04
         0.26755E+05
         0.10274E+05
         0.17862E+05
         0.41514E+05
         0.22410E+05
         0.45529E+05
        -0.16257E+05
        -0.36606E+05
         0.42512E+05
        -0.43512E+05
        -0.46596E+05
        -0.32105E+05
        -0.22614E+04
        -0.91242E+05
        -0.58505E+05
         0.59002E+04
         0.20619E+05
         0.34828E+05
        -0.80013E+04
        -0.24084E+04
        -0.13844E+05
         0.78328E+04
        -0.33440E+05
        -0.21275E+05
        -0.52921E+05
        -0.17061E+05
        -0.12442E+06
        -0.10467E+06
        -0.60313E+05
        -0.48405E+05
         0.20746E+04
        -0.11107E+05
         0.30913E+05
         0.53967E+05
        -0.16008E+04
        -0.15389E+04
         0.44606E+04
        -0.54856E+05
        -0.45574E+05
        -0.29617E+05
        -0.94270E+04
        -0.19534E+05
        -0.17612E+05
        -0.33522E+05
        -0.26687E+05
        -0.31726E+05
        -0.93193E+04
        -0.75203E+03
         0.10251E+05
         0.23931E+05
         0.22751E+05
         0.44658E+05
        -0.56384E+05
         0.29689E+04
        -0.11130E+06
        -0.11779E+06
        -0.17179E+06
        -0.24724E+06
        -0.25156E+06
        -0.16607E+06
        -0.16395E+06
        -0.18630E+06
        -0.59889E+05
         0.69815E+04
        -0.36446E+04
         0.26708E+05
        -0.19162E+05
        -0.75929E+05
        -0.12584E+06
        -0.18572E+06
        -0.26406E+06
        -0.27305E+06
        -0.20676E+06
        -0.19986E+06
        -0.22081E+06
        -0.12077E+06
        -0.21740E+05
         0.81619E+04
         0.26724E+05
         0.10205E+05
         0.17804E+05
         0.41452E+05
         0.22385E+05
         0.45467E+05
        -0.16308E+05
        -0.36639E+05
         0.42516E+05
        -0.43569E+05
        -0.46653E+05
        -0.32158E+05
        -0.23387E+04
        -0.91201E+05
        -0.58560E+05
         0.58486E+04
         0.20626E+05
         0.34764E+05
        -0.80354E+04
        -0.24308E+04
        -0.13934E+05
         0.77724E+04
        -0.33530E+05
        -0.21331E+05
        -0.52978E+05
        -0.17134E+05
        -0.12432E+06
        -0.10472E+06
        -0.60406E+05
        -0.48468E+05
         0.19262E+04
        -0.11210E+05
         0.30770E+05
         0.53920E+05
        -0.16805E+04
        -0.16271E+04
         0.43589E+04
        -0.55187E+05
        -0.45953E+05
        -0.29837E+05
        -0.94992E+04
        -0.19576E+05
        -0.17667E+05
        -0.33605E+05
        -0.26764E+05
        -0.31813E+05
        -0.94322E+04
        -0.89866E+03
         0.10139E+05
         0.23901E+05
         0.22706E+05
         0.44600E+05
        -0.56385E+05
         0.29786E+04
        -0.11150E+06
        -0.11807E+06
        -0.17175E+06
        -0.24702E+06
        -0.25147E+06
        -0.16644E+06
        -0.16445E+06
        -0.18650E+06
        -0.59892E+05
         0.68689E+04
        -0.38108E+04
         0.26437E+05
        -0.19465E+05
        -0.76170E+05
        -0.12607E+06
        -0.18593E+06
        -0.26418E+06
        -0.27325E+06
        -0.20703E+06
        -0.20004E+06
        -0.22072E+06
        -0.12070E+06
        -0.21981E+05
         0.79544E+04
         0.27319E+05
         0.10866E+05
         0.18355E+05
         0.41877E+05
         0.23061E+05
         0.45977E+05
        -0.15540E+05
        -0.35939E+05
         0.42959E+05
        -0.43058E+05
        -0.45866E+05
        -0.31265E+05
        -0.15636E+04
        -0.90375E+05
        -0.57740E+05
         0.64101E+04
         0.21169E+05
         0.35258E+05
        -0.74061E+04
        -0.17419E+04
        -0.13185E+05
         0.84849E+04
        -0.32809E+05
        -0.20708E+05
        -0.52318E+05
        -0.16512E+05
        -0.12345E+06
        -0.10379E+06
        -0.59526E+05
        -0.47684E+05
         0.25400E+04
        -0.10577E+05
         0.31272E+05
         0.54330E+05
        -0.93090E+03
        -0.98156E+03
         0.50162E+04
        -0.54680E+05
        -0.45309E+05
        -0.29098E+05
        -0.87904E+04
        -0.18845E+05
        -0.17021E+05
        -0.32866E+05
        -0.26020E+05
        -0.31066E+05
        -0.87611E+04
        -0.25569E+03
         0.10702E+05
         0.24407E+05
         0.23219E+05
         0.45066E+05
        -0.54896E+05
         0.44448E+04
        -0.11029E+06
        -0.11717E+06
        -0.17061E+06
        -0.24540E+06
        -0.25002E+06
        -0.16540E+06
        -0.16337E+06
        -0.18528E+06
        -0.58887E+05
         0.79988E+04
        -0.29012E+04
         0.27445E+05
        -0.18309E+05
        -0.74995E+05
        -0.12482E+06
        -0.18456E+06
        -0.26292E+06
        -0.27191E+06
        -0.20590E+06
        -0.19920E+06
        -0.21971E+06
        -0.11947E+06
        -0.20746E+05
         0.92082E+04
         0.27062E+05
         0.10678E+05
         0.18181E+05
         0.41616E+05
         0.22779E+05
         0.45748E+05
        -0.15787E+05
        -0.36267E+05
         0.42646E+05
        -0.43554E+05
        -0.46205E+05
        -0.31576E+05
        -0.17644E+04
        -0.90717E+05
        -0.58198E+05
         0.60843E+04
         0.20815E+05
         0.35006E+05
        -0.78302E+04
        -0.21004E+04
        -0.13449E+05
         0.81315E+04
        -0.33057E+05
        -0.21081E+05
        -0.52744E+05
        -0.16891E+05
        -0.12382E+06
        -0.10409E+06
        -0.59597E+05
        -0.47870E+05
         0.23365E+04
        -0.10882E+05
         0.31028E+05
         0.54035E+05
        -0.13646E+04
        -0.12332E+04
         0.48508E+04
        -0.55381E+05
        -0.45823E+05
        -0.29335E+05
        -0.91372E+04
        -0.19225E+05
        -0.17465E+05
        -0.33204E+05
        -0.26363E+05
        -0.31389E+05
        -0.90422E+04
        -0.46544E+03
         0.10452E+05
         0.24091E+05
         0.22899E+05
         0.44806E+05
        -0.55820E+05
         0.36518E+04
        -0.11105E+06
        -0.11756E+06
        -0.17068E+06
        -0.24552E+06
        -0.25052E+06
        -0.16620E+06
        -0.16419E+06
        -0.18597E+06
        -0.59824E+05
         0.68772E+04
        -0.36872E+04
         0.27049E+05
        -0.18489E+05
        -0.75135E+05
        -0.12529E+06
        -0.18530E+06
        -0.26340E+06
        -0.27245E+06
        -0.20641E+06
        -0.19979E+06
        -0.22025E+06
        -0.11974E+06
        -0.21070E+05
         0.86416E+04
         0.26636E+05
         0.10197E+05
         0.17710E+05
         0.41266E+05
         0.22327E+05
         0.45313E+05
        -0.16197E+05
        -0.36654E+05
         0.42201E+05
        -0.44399E+05
        -0.46617E+05
        -0.32082E+05
        -0.21980E+04
        -0.91068E+05
        -0.58760E+05
         0.56853E+04
         0.20279E+05
         0.34714E+05
        -0.81784E+04
        -0.22709E+04
        -0.13773E+05
         0.77182E+04
        -0.33356E+05
        -0.21401E+05
        -0.53484E+05
        -0.17263E+05
        -0.12467E+06
        -0.10457E+06
        -0.58564E+05
        -0.47314E+05
         0.19697E+04
        -0.11311E+05
         0.30786E+05
         0.53833E+05
        -0.18526E+04
        -0.16498E+04
         0.44512E+04
        -0.56388E+05
        -0.46330E+05
        -0.28654E+05
        -0.91796E+04
        -0.19638E+05
        -0.18058E+05
        -0.33570E+05
        -0.26797E+05
        -0.31903E+05
        -0.95278E+04
        -0.84059E+03
         0.10162E+05
         0.23840E+05
         0.22617E+05
         0.44485E+05
        -0.56430E+05
         0.30743E+04
        -0.11157E+06
        -0.11799E+06
        -0.17122E+06
        -0.24626E+06
        -0.25134E+06
        -0.16710E+06
        -0.16503E+06
        -0.18604E+06
        -0.61483E+05
         0.42102E+04
        -0.47917E+04
         0.26430E+05
        -0.19033E+05
        -0.75649E+05
        -0.12598E+06
        -0.18607E+06
        -0.26419E+06
        -0.27332E+06
        -0.20701E+06
        -0.20036E+06
        -0.22080E+06
        -0.12009E+06
        -0.21761E+05
         0.78663E+04
         0.27202E+05
         0.10805E+05
         0.18308E+05
         0.41781E+05
         0.23045E+05
         0.45864E+05
        -0.15524E+05
        -0.35965E+05
         0.42503E+05
        -0.44576E+05
        -0.45910E+05
        -0.31414E+05
        -0.16254E+04
        -0.90286E+05
        -0.58034E+05
         0.62529E+04
         0.20649E+05
         0.35177E+05
        -0.74512E+04
        -0.11408E+04
        -0.13152E+05
         0.83407E+04
        -0.32777E+05
        -0.20729E+05
        -0.53338E+05
        -0.16586E+05
        -0.12480E+06
        -0.10399E+06
        -0.55358E+05
        -0.44879E+05
         0.24932E+04
        -0.10668E+05
         0.31277E+05
         0.54377E+05
        -0.10493E+04
        -0.93038E+03
         0.50720E+04
        -0.56399E+05
        -0.45582E+05
        -0.26013E+05
        -0.78045E+04
        -0.18898E+05
        -0.17682E+05
        -0.32937E+05
        -0.26071E+05
        -0.31072E+05
        -0.88277E+04
        -0.25187E+03
         0.10779E+05
         0.24523E+05
         0.23298E+05
         0.45036E+05
        -0.54898E+05
         0.45638E+04
        -0.11007E+06
        -0.11693E+06
        -0.17048E+06
        -0.24523E+06
        -0.24997E+06
        -0.16585E+06
        -0.16372E+06
        -0.18354E+06
        -0.62005E+05
         0.20610E+04
        -0.47117E+04
         0.27265E+05
        -0.18327E+05
        -0.75085E+05
        -0.12535E+06
        -0.18494E+06
        -0.26269E+06
        -0.27189E+06
        -0.20578E+06
        -0.19910E+06
        -0.21929E+06
        -0.11865E+06
        -0.20654E+05
         0.90320E+04
         0.25065E+05
         0.85774E+04
         0.16142E+05
         0.39712E+05
         0.20496E+05
         0.43449E+05
        -0.17973E+05
        -0.38475E+05
         0.40146E+05
        -0.47720E+05
        -0.48659E+05
        -0.34569E+05
        -0.46058E+04
        -0.93130E+05
        -0.61319E+05
         0.40987E+04
         0.18136E+05
         0.33091E+05
        -0.99076E+04
        -0.34582E+04
        -0.15934E+05
         0.56112E+04
        -0.35475E+05
        -0.23090E+05
        -0.56309E+05
        -0.18822E+05
        -0.12819E+06
        -0.10679E+06
        -0.56621E+05
        -0.46542E+05
         0.34908E+03
        -0.12990E+05
         0.29091E+05
         0.52075E+05
        -0.40037E+04
        -0.35687E+04
         0.23291E+04
        -0.60180E+05
        -0.48597E+05
        -0.27781E+05
        -0.10539E+05
        -0.21842E+05
        -0.20643E+05
        -0.35585E+05
        -0.28847E+05
        -0.34225E+05
        -0.11580E+05
        -0.27456E+04
         0.83349E+04
         0.21891E+05
         0.20281E+05
         0.42371E+05
        -0.60175E+05
        -0.56972E+03
        -0.11544E+06
        -0.12236E+06
        -0.17583E+06
        -0.25020E+06
        -0.25498E+06
        -0.17139E+06
        -0.16896E+06
        -0.18825E+06
        -0.68756E+05
        -0.53249E+04
        -0.99503E+04
         0.22908E+05
        -0.22876E+05
        -0.79833E+05
        -0.13032E+06
        -0.19047E+06
        -0.26828E+06
        -0.27722E+06
        -0.21075E+06
        -0.20387E+06
        -0.22407E+06
        -0.12354E+06
        -0.25424E+05
         0.43022E+04
         0.26279E+05
         0.87327E+04
         0.16543E+05
         0.40502E+05
         0.21352E+05
         0.44238E+05
        -0.17626E+05
        -0.36971E+05
         0.41664E+05
        -0.45535E+05
        -0.47910E+05
        -0.34506E+05
        -0.53722E+04
        -0.91284E+05
        -0.59944E+05
         0.57694E+04
         0.19762E+05
         0.34223E+05
        -0.85873E+04
        -0.20790E+04
        -0.14685E+05
         0.65476E+04
        -0.33539E+05
        -0.21317E+05
        -0.53757E+05
        -0.17168E+05
        -0.12530E+06
        -0.10355E+06
        -0.53944E+05
        -0.44081E+05
         0.16686E+04
        -0.11962E+05
         0.29708E+05
         0.51741E+05
        -0.35562E+04
        -0.37687E+04
         0.15520E+04
        -0.58521E+05
        -0.46556E+05
        -0.25957E+05
        -0.93238E+04
        -0.20168E+05
        -0.18876E+05
        -0.33797E+05
        -0.27845E+05
        -0.33750E+05
        -0.11173E+05
        -0.16800E+04
         0.91645E+04
         0.21952E+05
         0.20481E+05
         0.42426E+05
        -0.58125E+05
         0.20731E+04
        -0.11480E+06
        -0.12353E+06
        -0.17821E+06
        -0.25144E+06
        -0.25227E+06
        -0.16874E+06
        -0.16688E+06
        -0.18692E+06
        -0.68407E+05
        -0.43304E+04
        -0.79690E+04
         0.23884E+05
        -0.20806E+05
        -0.76907E+05
        -0.12790E+06
        -0.18863E+06
        -0.26744E+06
        -0.27728E+06
        -0.20962E+06
        -0.20228E+06
        -0.22145E+06
        -0.12034E+06
        -0.22962E+05
         0.68564E+04
         0.83327E+07
         0.86729E+07
         0.86142E+07
         0.78869E+07
         0.99644E+07
         0.93258E+07
         0.93600E+07
         0.94585E+07
         0.82062E+07
         0.94777E+07
         0.10394E+08
         0.12025E+08
         0.10814E+08
         0.10690E+08
         0.12348E+08
         0.79875E+07
         0.86071E+07
         0.75388E+07
         0.89429E+07
         0.93614E+07
         0.99360E+07
         0.10036E+08
         0.95181E+07
         0.85444E+07
         0.95010E+07
         0.81889E+07
         0.10551E+08
         0.10248E+08
         0.10306E+08
         0.98390E+07
         0.80684E+07
         0.84752E+07
         0.79282E+07
         0.82966E+07
         0.11053E+08
         0.99101E+07
         0.99293E+07
         0.11722E+08
         0.11297E+08
         0.11142E+08
         0.11484E+08
         0.10845E+08
         0.10281E+08
         0.92401E+07
         0.96477E+07
         0.11090E+08
         0.10059E+08
         0.93775E+07
         0.91651E+07
         0.95357E+07
         0.10559E+08
         0.96357E+07
         0.19249E+08
         0.18843E+08
         0.19095E+08
         0.18433E+08
         0.18906E+08
         0.19719E+08
         0.19830E+08
         0.19723E+08
         0.19906E+08
         0.20444E+08
         0.19963E+08
         0.18902E+08
         0.16838E+08
         0.15916E+08
         0.16119E+08
         0.16452E+08
         0.16600E+08
         0.17995E+08
         0.19197E+08
         0.19224E+08
         0.17710E+08
         0.17114E+08
         0.17713E+08
         0.17635E+08
         0.17578E+08
         0.17620E+08
         0.88293E+08
         0.92466E+08
         0.91208E+08
         0.83656E+08
         0.10174E+09
         0.95950E+08
         0.99716E+08
         0.10026E+09
         0.86596E+08
         0.10022E+09
         0.10897E+09
         0.12094E+09
         0.11028E+09
         0.11192E+09
         0.12493E+09
         0.84901E+08
         0.91049E+08
         0.80043E+08
         0.93854E+08
         0.98546E+08
         0.10138E+09
         0.10354E+09
         0.97536E+08
         0.90474E+08
         0.10145E+09
         0.87488E+08
         0.11154E+09
         0.10983E+09
         0.11029E+09
         0.10485E+09
         0.85813E+08
         0.90107E+08
         0.84290E+08
         0.87960E+08
         0.11083E+09
         0.10227E+09
         0.10251E+09
         0.12128E+09
         0.11844E+09
         0.11713E+09
         0.11894E+09
         0.11327E+09
         0.10737E+09
         0.95397E+08
         0.99213E+08
         0.11072E+09
         0.10294E+09
         0.97123E+08
         0.95336E+08
         0.98637E+08
         0.10650E+09
         0.98896E+08
         0.18338E+09
         0.17906E+09
         0.18470E+09
         0.17828E+09
         0.18593E+09
         0.19841E+09
         0.20070E+09
         0.19672E+09
         0.19734E+09
         0.20429E+09
         0.19757E+09
         0.18462E+09
         0.15803E+09
         0.14680E+09
         0.15010E+09
         0.15426E+09
         0.15699E+09
         0.17407E+09
         0.18577E+09
         0.18747E+09
         0.16933E+09
         0.16205E+09
         0.16985E+09
         0.16780E+09
         0.16673E+09
         0.16583E+09
  
SCALARS                      stress_zz  double 1
LOOKUP_TABLE default
        -0.14313E+11
        -0.14251E+11
        -0.14291E+11
        -0.14361E+11
        -0.15125E+02
        -0.16960E+02
        -0.16240E+02
        -0.14753E+02
        -0.14249E+11
        -0.14270E+11
        -0.15251E+02
        -0.14760E+02
        -0.14160E+11
        -0.14157E+11
        -0.18122E+02
        -0.17039E+02
        -0.14350E+11
        -0.14162E+11
        -0.13390E+02
        -0.14852E+02
        -0.14091E+11
        -0.14035E+11
        -0.14123E+11
        -0.17961E+02
        -0.15685E+02
        -0.16197E+02
        -0.14038E+11
        -0.13956E+11
        -0.17231E+02
        -0.14531E+02
        -0.14347E+11
        -0.14266E+11
        -0.14425E+11
        -0.14704E+02
        -0.13670E+02
        -0.13290E+02
        -0.14300E+11
        -0.14195E+11
        -0.15556E+02
        -0.14195E+02
        -0.14259E+11
        -0.14178E+11
        -0.13445E+02
        -0.11903E+02
        -0.14327E+11
        -0.14357E+11
        -0.14734E+02
        -0.16463E+02
        -0.14112E+11
        -0.14394E+02
        -0.14351E+11
        -0.16913E+02
        -0.14014E+11
        -0.15200E+02
        -0.13988E+11
        -0.14580E+02
        -0.13989E+11
        -0.14080E+11
        -0.14855E+02
        -0.14468E+02
        -0.14345E+11
        -0.14314E+11
        -0.14896E+02
        -0.16840E+02
        -0.14365E+11
        -0.14374E+02
        -0.14328E+11
        -0.15687E+02
        -0.14229E+11
        -0.14219E+11
        -0.15101E+02
        -0.15823E+02
        -0.14197E+11
        -0.15955E+02
        -0.13926E+11
        -0.12606E+02
        -0.13912E+11
        -0.12236E+02
        -0.13919E+11
        -0.12902E+02
        -0.13959E+11
        -0.14000E+11
        -0.12292E+02
        -0.12815E+02
        -0.14083E+11
        -0.11936E+02
        -0.14325E+11
        -0.15652E+02
        -0.14288E+11
        -0.16020E+02
        -0.14257E+11
        -0.14240E+11
        -0.15384E+02
        -0.15564E+02
        -0.14261E+11
        -0.14136E+02
        -0.14276E+11
        -0.13935E+02
        -0.14263E+11
        -0.14917E+02
        -0.14258E+11
        -0.14271E+11
        -0.14629E+02
        -0.15058E+02
        -0.14183E+11
        -0.14219E+11
        -0.11358E+02
        -0.10683E+02
        -0.14176E+11
        -0.10845E+02
        -0.14218E+11
        -0.10399E+02
        -0.14177E+11
        -0.10254E+02
        -0.14085E+11
        -0.96899E+01
        -0.13995E+11
        -0.86084E+01
        -0.13940E+11
        -0.77514E+01
        -0.13935E+11
        -0.76975E+01
        -0.13936E+11
        -0.83476E+01
        -0.13996E+11
        -0.87730E+01
        -0.14105E+11
        -0.80107E+01
        -0.14223E+11
        -0.72208E+01
        -0.14291E+11
        -0.72126E+01
        -0.14357E+11
        -0.80619E+01
        -0.14401E+11
        -0.91924E+01
        -0.14399E+11
        -0.98754E+01
        -0.14293E+11
        -0.10665E+02
        -0.14218E+11
        -0.11426E+02
        -0.14192E+11
        -0.10467E+02
        -0.14232E+11
        -0.91827E+01
        -0.14253E+11
        -0.91543E+01
        -0.14218E+11
        -0.10016E+02
        -0.14218E+11
        -0.10678E+02
        -0.14245E+11
        -0.10133E+02
        -0.14280E+11
        -0.97962E+01
        -0.32163E+10
        -0.32741E+10
        -0.32663E+10
        -0.31913E+10
        -0.33293E+10
        -0.32598E+10
        -0.33459E+10
        -0.33011E+10
        -0.32032E+10
        -0.32643E+10
        -0.33935E+10
        -0.34079E+10
        -0.33693E+10
        -0.33667E+10
        -0.33916E+10
        -0.31949E+10
        -0.32089E+10
        -0.31695E+10
        -0.32803E+10
        -0.32603E+10
        -0.32889E+10
        -0.32699E+10
        -0.33049E+10
        -0.32959E+10
        -0.32620E+10
        -0.32644E+10
        -0.33221E+10
        -0.33169E+10
        -0.33594E+10
        -0.32950E+10
        -0.32018E+10
        -0.32749E+10
        -0.32023E+10
        -0.32504E+10
        -0.34179E+10
        -0.33648E+10
        -0.33393E+10
        -0.33692E+10
        -0.33731E+10
        -0.34216E+10
        -0.34566E+10
        -0.33709E+10
        -0.32877E+10
        -0.32991E+10
        -0.33418E+10
        -0.34159E+10
        -0.33528E+10
        -0.32841E+10
        -0.32889E+10
        -0.33421E+10
        -0.33958E+10
        -0.33232E+10
        -0.35401E+10
        -0.34770E+10
        -0.34875E+10
        -0.34726E+10
        -0.34763E+10
        -0.35103E+10
        -0.35451E+10
        -0.35565E+10
        -0.35517E+10
        -0.35551E+10
        -0.35699E+10
        -0.34797E+10
        -0.34456E+10
        -0.34324E+10
        -0.34097E+10
        -0.33924E+10
        -0.33932E+10
        -0.34224E+10
        -0.35191E+10
        -0.34962E+10
        -0.34631E+10
        -0.34635E+10
        -0.34693E+10
        -0.35010E+10
        -0.34541E+10
        -0.34366E+10
         0.10196E+06
         0.45193E+05
         0.58764E+05
         0.10451E+06
         0.75884E+05
         0.11750E+06
        -0.25675E+05
        -0.48498E+05
         0.12600E+06
        -0.56648E+05
        -0.94295E+05
         0.27332E+05
         0.43494E+05
        -0.19915E+06
        -0.33627E+05
         0.36106E+05
         0.67395E+05
         0.87205E+05
         0.50736E+04
         0.13939E+05
         0.53366E+04
         0.50543E+05
        -0.32206E+05
        -0.18196E+05
        -0.81009E+05
        -0.86187E+04
        -0.27506E+06
        -0.22410E+06
        -0.11384E+06
        -0.68176E+05
         0.31453E+05
        -0.12307E+04
         0.88711E+05
         0.13590E+06
         0.18633E+05
         0.11264E+05
         0.34088E+05
        -0.56548E+05
        -0.51736E+05
        -0.21503E+05
         0.27995E+05
        -0.15468E+04
         0.93193E+04
        -0.30325E+05
        -0.24794E+05
        -0.87348E+04
         0.13289E+05
         0.27391E+05
         0.53597E+05
         0.85188E+05
         0.88871E+05
         0.11787E+06
         0.14198E+06
         0.30970E+06
         0.23419E+06
         0.35133E+06
         0.48625E+06
         0.60133E+06
         0.52799E+06
         0.47920E+06
         0.42552E+06
         0.39643E+06
         0.36417E+06
         0.33239E+06
         0.19863E+06
         0.24389E+06
         0.17075E+06
         0.12341E+06
         0.15338E+06
         0.20437E+06
         0.21034E+06
         0.32948E+06
         0.27959E+06
         0.21982E+06
         0.19321E+06
         0.18264E+06
         0.26276E+06
         0.32105E+06
         0.96649E+05
         0.39668E+05
         0.53303E+05
         0.99605E+05
         0.69538E+05
         0.11157E+06
        -0.31710E+05
        -0.54616E+05
         0.12034E+06
        -0.63305E+05
        -0.10108E+06
         0.19401E+05
         0.36556E+05
        -0.20590E+06
        -0.41434E+05
         0.30328E+05
         0.61054E+05
         0.82317E+05
        -0.13952E+04
         0.71620E+04
        -0.15538E+04
         0.43808E+05
        -0.39322E+05
        -0.24793E+05
        -0.88334E+05
        -0.14908E+05
        -0.28157E+06
        -0.23091E+06
        -0.12111E+06
        -0.75740E+05
         0.25864E+05
        -0.71871E+04
         0.83648E+05
         0.13090E+06
         0.11561E+05
         0.50210E+04
         0.27836E+05
        -0.64482E+05
        -0.59217E+05
        -0.28917E+05
         0.20144E+05
        -0.92568E+04
         0.19718E+04
        -0.37225E+05
        -0.31355E+05
        -0.15857E+05
         0.66653E+04
         0.21119E+05
         0.47840E+05
         0.79423E+05
         0.82304E+05
         0.11180E+06
         0.12943E+06
         0.29751E+06
         0.22232E+06
         0.33997E+06
         0.47414E+06
         0.58774E+06
         0.51437E+06
         0.46553E+06
         0.41171E+06
         0.38229E+06
         0.35017E+06
         0.31955E+06
         0.18782E+06
         0.23380E+06
         0.16026E+06
         0.11228E+06
         0.14203E+06
         0.19252E+06
         0.19828E+06
         0.31673E+06
         0.26751E+06
         0.20893E+06
         0.18217E+06
         0.17121E+06
         0.25124E+06
         0.30935E+06
         0.97911E+05
         0.40757E+05
         0.54469E+05
         0.10093E+06
         0.71197E+05
         0.11317E+06
        -0.30465E+05
        -0.53224E+05
         0.12129E+06
        -0.63009E+05
        -0.99702E+05
         0.20916E+05
         0.37891E+05
        -0.20425E+06
        -0.39446E+05
         0.29167E+05
         0.60725E+05
         0.83632E+05
        -0.29874E+04
         0.58733E+04
        -0.26909E+04
         0.43371E+05
        -0.43990E+05
        -0.29554E+05
        -0.91468E+05
        -0.19314E+05
        -0.28028E+06
        -0.23181E+06
        -0.12403E+06
        -0.81024E+05
         0.25874E+05
        -0.85385E+04
         0.85006E+05
         0.13255E+06
         0.13416E+05
         0.65951E+04
         0.29220E+05
        -0.63049E+05
        -0.57963E+05
        -0.28480E+05
         0.19972E+05
        -0.12049E+05
        -0.19833E+04
        -0.41843E+05
        -0.32480E+05
        -0.14878E+05
         0.78664E+04
         0.22535E+05
         0.49409E+05
         0.81192E+05
         0.84155E+05
         0.11350E+06
         0.13294E+06
         0.30069E+06
         0.22597E+06
         0.34279E+06
         0.47613E+06
         0.58957E+06
         0.51674E+06
         0.46806E+06
         0.41428E+06
         0.38491E+06
         0.35172E+06
         0.31951E+06
         0.18796E+06
         0.23564E+06
         0.16154E+06
         0.11012E+06
         0.13969E+06
         0.19329E+06
         0.20155E+06
         0.32052E+06
         0.27089E+06
         0.21236E+06
         0.18589E+06
         0.17418E+06
         0.25363E+06
         0.31166E+06
         0.97166E+05
         0.40291E+05
         0.54016E+05
         0.10016E+06
         0.70596E+05
         0.11267E+06
        -0.30978E+05
        -0.54017E+05
         0.11966E+06
        -0.65853E+05
        -0.10040E+06
         0.20095E+05
         0.37347E+05
        -0.20505E+06
        -0.40365E+05
         0.24572E+05
         0.56993E+05
         0.82753E+05
        -0.86400E+04
         0.16883E+03
        -0.79173E+04
         0.38718E+05
        -0.54851E+05
        -0.40200E+05
        -0.10017E+06
        -0.29350E+05
        -0.28204E+06
        -0.23732E+06
        -0.13297E+06
        -0.93705E+05
         0.23160E+05
        -0.13905E+05
         0.84223E+05
         0.13174E+06
         0.12511E+05
         0.59666E+04
         0.28719E+05
        -0.64471E+05
        -0.59768E+05
        -0.31832E+05
         0.15538E+05
        -0.20781E+05
        -0.12714E+05
        -0.52730E+05
        -0.37910E+05
        -0.17746E+05
         0.57371E+04
         0.21371E+05
         0.48426E+05
         0.80098E+05
         0.83156E+05
         0.11283E+06
         0.13103E+06
         0.29938E+06
         0.22409E+06
         0.34115E+06
         0.47492E+06
         0.58806E+06
         0.51434E+06
         0.46561E+06
         0.41192E+06
         0.38203E+06
         0.34735E+06
         0.31262E+06
         0.18141E+06
         0.23253E+06
         0.15811E+06
         0.10069E+06
         0.12971E+06
         0.18869E+06
         0.19927E+06
         0.31835E+06
         0.26920E+06
         0.21040E+06
         0.18371E+06
         0.17251E+06
         0.25232E+06
         0.31038E+06
         0.95801E+05
         0.39342E+05
         0.53225E+05
         0.99371E+05
         0.69904E+05
         0.11196E+06
        -0.31780E+05
        -0.55335E+05
         0.11771E+06
        -0.68816E+05
        -0.10115E+06
         0.19583E+05
         0.36738E+05
        -0.20594E+06
        -0.40774E+05
         0.21464E+05
         0.54038E+05
         0.81938E+05
        -0.12360E+05
        -0.39405E+04
        -0.11280E+05
         0.35375E+05
        -0.61523E+05
        -0.46795E+05
        -0.10642E+06
        -0.35774E+05
        -0.28358E+06
        -0.24128E+06
        -0.13914E+06
        -0.10213E+06
         0.20327E+05
        -0.17801E+05
         0.82694E+05
         0.13061E+06
         0.11577E+05
         0.51628E+04
         0.27967E+05
        -0.65516E+05
        -0.61254E+05
        -0.34366E+05
         0.12421E+05
        -0.26646E+05
        -0.19749E+05
        -0.59646E+05
        -0.41489E+05
        -0.19637E+05
         0.38484E+04
         0.19504E+05
         0.46718E+05
         0.78482E+05
         0.81603E+05
         0.11174E+06
         0.12930E+06
         0.29822E+06
         0.22249E+06
         0.33988E+06
         0.47430E+06
         0.58744E+06
         0.51315E+06
         0.46394E+06
         0.40990E+06
         0.38019E+06
         0.34465E+06
         0.30786E+06
         0.17694E+06
         0.23012E+06
         0.15571E+06
         0.94647E+05
         0.12277E+06
         0.18545E+06
         0.19822E+06
         0.31637E+06
         0.26698E+06
         0.20816E+06
         0.18094E+06
         0.16999E+06
         0.25068E+06
         0.30910E+06
         0.92476E+05
         0.37521E+05
         0.52443E+05
         0.10006E+06
         0.70761E+05
         0.11308E+06
        -0.32337E+05
        -0.57648E+05
         0.11497E+06
        -0.72825E+05
        -0.10057E+06
         0.21353E+05
         0.37443E+05
        -0.20567E+06
        -0.38502E+05
         0.22029E+05
         0.53351E+05
         0.83285E+05
        -0.11598E+05
        -0.33437E+04
        -0.10301E+05
         0.36550E+05
        -0.61373E+05
        -0.46923E+05
        -0.10909E+06
        -0.36667E+05
        -0.28393E+06
        -0.24172E+06
        -0.13877E+06
        -0.10242E+06
         0.16941E+05
        -0.19851E+05
         0.80134E+05
         0.13034E+06
         0.12399E+05
         0.52479E+04
         0.27828E+05
        -0.64063E+05
        -0.59977E+05
        -0.32964E+05
         0.13985E+05
        -0.25701E+05
        -0.18991E+05
        -0.60083E+05
        -0.41947E+05
        -0.19950E+05
         0.22138E+04
         0.15740E+05
         0.42537E+05
         0.76286E+05
         0.81087E+05
         0.11224E+06
         0.13216E+06
         0.30123E+06
         0.22503E+06
         0.34159E+06
         0.47598E+06
         0.58963E+06
         0.51563E+06
         0.46645E+06
         0.41281E+06
         0.38403E+06
         0.34808E+06
         0.31002E+06
         0.17928E+06
         0.23257E+06
         0.15814E+06
         0.96684E+05
         0.12430E+06
         0.18695E+06
         0.19982E+06
         0.31746E+06
         0.26668E+06
         0.20658E+06
         0.17976E+06
         0.17021E+06
         0.25193E+06
         0.31103E+06
         0.87406E+05
         0.34298E+05
         0.50563E+05
         0.99586E+05
         0.70077E+05
         0.11302E+06
        -0.34773E+05
        -0.62168E+05
         0.11033E+06
        -0.78747E+05
        -0.10219E+06
         0.20676E+05
         0.36331E+05
        -0.20783E+06
        -0.38922E+05
         0.21097E+05
         0.50926E+05
         0.83036E+05
        -0.12250E+05
        -0.42968E+04
        -0.10769E+05
         0.36222E+05
        -0.61897E+05
        -0.47720E+05
        -0.11286E+06
        -0.38283E+05
        -0.28656E+06
        -0.24374E+06
        -0.13943E+06
        -0.10342E+06
         0.12205E+05
        -0.23217E+05
         0.76231E+05
         0.12883E+06
         0.11303E+05
         0.39434E+04
         0.26355E+05
        -0.65161E+05
        -0.61039E+05
        -0.33539E+05
         0.13745E+05
        -0.25812E+05
        -0.19053E+05
        -0.61138E+05
        -0.43928E+05
        -0.22623E+05
        -0.15542E+04
         0.10080E+05
         0.36574E+05
         0.72454E+05
         0.79018E+05
         0.11150E+06
         0.13071E+06
         0.30012E+06
         0.22427E+06
         0.34073E+06
         0.47463E+06
         0.58790E+06
         0.51411E+06
         0.46526E+06
         0.41162E+06
         0.38306E+06
         0.34735E+06
         0.30928E+06
         0.17913E+06
         0.23237E+06
         0.15768E+06
         0.96542E+05
         0.12386E+06
         0.18495E+06
         0.19660E+06
         0.31392E+06
         0.26269E+06
         0.20168E+06
         0.17531E+06
         0.16765E+06
         0.25044E+06
         0.30983E+06
         0.85934E+05
         0.33102E+05
         0.49792E+05
         0.98937E+05
         0.69341E+05
         0.11234E+06
        -0.36009E+05
        -0.63723E+05
         0.10897E+06
        -0.80516E+05
        -0.10335E+06
         0.19723E+05
         0.35237E+05
        -0.20903E+06
        -0.39677E+05
         0.20257E+05
         0.49945E+05
         0.82402E+05
        -0.12847E+05
        -0.50425E+04
        -0.11507E+05
         0.35451E+05
        -0.62589E+05
        -0.48329E+05
        -0.11419E+06
        -0.39197E+05
        -0.28768E+06
        -0.24480E+06
        -0.14055E+06
        -0.10438E+06
         0.10659E+05
        -0.24546E+05
         0.74975E+05
         0.12798E+06
         0.10380E+05
         0.32373E+04
         0.25456E+05
        -0.66559E+05
        -0.62274E+05
        -0.34799E+05
         0.12454E+05
        -0.26844E+05
        -0.19719E+05
        -0.62081E+05
        -0.45112E+05
        -0.23872E+05
        -0.28000E+04
         0.86746E+04
         0.35094E+05
         0.71122E+05
         0.77735E+05
         0.11058E+06
         0.12880E+06
         0.29829E+06
         0.22310E+06
         0.33955E+06
         0.47309E+06
         0.58639E+06
         0.51254E+06
         0.46332E+06
         0.40912E+06
         0.38039E+06
         0.34500E+06
         0.30829E+06
         0.17830E+06
         0.23062E+06
         0.15591E+06
         0.94955E+05
         0.12177E+06
         0.18292E+06
         0.19474E+06
         0.31242E+06
         0.26144E+06
         0.20003E+06
         0.17299E+06
         0.16535E+06
         0.24849E+06
         0.30791E+06
         0.86884E+05
         0.33912E+05
         0.50387E+05
         0.99162E+05
         0.70133E+05
         0.11255E+06
        -0.35171E+05
        -0.62569E+05
         0.10987E+06
        -0.79377E+05
        -0.10254E+06
         0.20684E+05
         0.35962E+05
        -0.20780E+06
        -0.38103E+05
         0.21347E+05
         0.50880E+05
         0.83019E+05
        -0.11727E+05
        -0.40696E+04
        -0.10506E+05
         0.36392E+05
        -0.61570E+05
        -0.47236E+05
        -0.11321E+06
        -0.38168E+05
        -0.28606E+06
        -0.24352E+06
        -0.13962E+06
        -0.10346E+06
         0.11563E+05
        -0.23774E+05
         0.75603E+05
         0.12828E+06
         0.11447E+05
         0.40495E+04
         0.26153E+05
        -0.65463E+05
        -0.61388E+05
        -0.34020E+05
         0.13388E+05
        -0.25838E+05
        -0.18702E+05
        -0.61159E+05
        -0.44344E+05
        -0.23070E+05
        -0.19892E+04
         0.96519E+04
         0.36063E+05
         0.71864E+05
         0.78269E+05
         0.11079E+06
         0.13121E+06
         0.30071E+06
         0.22461E+06
         0.34017E+06
         0.47425E+06
         0.58812E+06
         0.51445E+06
         0.46475E+06
         0.40959E+06
         0.38113E+06
         0.34658E+06
         0.31069E+06
         0.18036E+06
         0.23196E+06
         0.15724E+06
         0.96571E+05
         0.12342E+06
         0.18489E+06
         0.19645E+06
         0.31443E+06
         0.26351E+06
         0.20189E+06
         0.17440E+06
         0.16646E+06
         0.24963E+06
         0.30918E+06
         0.86651E+05
         0.33844E+05
         0.50234E+05
         0.98736E+05
         0.69978E+05
         0.11218E+06
        -0.35326E+05
        -0.62976E+05
         0.10920E+06
        -0.80053E+05
        -0.10303E+06
         0.20107E+05
         0.35806E+05
        -0.20840E+06
        -0.38899E+05
         0.20827E+05
         0.50246E+05
         0.82340E+05
        -0.12221E+05
        -0.46501E+04
        -0.10886E+05
         0.35901E+05
        -0.61926E+05
        -0.47634E+05
        -0.11359E+06
        -0.38541E+05
        -0.28641E+06
        -0.24362E+06
        -0.13991E+06
        -0.10390E+06
         0.11082E+05
        -0.24176E+05
         0.74920E+05
         0.12766E+06
         0.11114E+05
         0.37322E+04
         0.25943E+05
        -0.66664E+05
        -0.62059E+05
        -0.34642E+05
         0.12776E+05
        -0.26225E+05
        -0.19270E+05
        -0.61425E+05
        -0.44621E+05
        -0.23466E+05
        -0.25690E+04
         0.90096E+04
         0.35478E+05
         0.71341E+05
         0.77760E+05
         0.11025E+06
         0.13028E+06
         0.30000E+06
         0.22338E+06
         0.33914E+06
         0.47400E+06
         0.58714E+06
         0.51248E+06
         0.46272E+06
         0.40836E+06
         0.37930E+06
         0.34467E+06
         0.30982E+06
         0.17928E+06
         0.23136E+06
         0.15675E+06
         0.96204E+05
         0.12351E+06
         0.18466E+06
         0.19589E+06
         0.31301E+06
         0.26175E+06
         0.20055E+06
         0.17356E+06
         0.16584E+06
         0.24861E+06
         0.30786E+06
         0.85981E+05
         0.33234E+05
         0.49793E+05
         0.98499E+05
         0.69461E+05
         0.11195E+06
        -0.35835E+05
        -0.63586E+05
         0.10860E+06
        -0.80727E+05
        -0.10359E+06
         0.19341E+05
         0.35315E+05
        -0.20886E+06
        -0.39715E+05
         0.20104E+05
         0.49744E+05
         0.81950E+05
        -0.12827E+05
        -0.50884E+04
        -0.11377E+05
         0.35402E+05
        -0.62470E+05
        -0.48259E+05
        -0.11397E+06
        -0.39254E+05
        -0.28666E+06
        -0.24388E+06
        -0.14024E+06
        -0.10422E+06
         0.10390E+05
        -0.24840E+05
         0.74534E+05
         0.12756E+06
         0.10301E+05
         0.31779E+04
         0.25459E+05
        -0.67824E+05
        -0.62814E+05
        -0.35182E+05
         0.12438E+05
        -0.26552E+05
        -0.19787E+05
        -0.61931E+05
        -0.45113E+05
        -0.24001E+05
        -0.31101E+04
         0.84537E+04
         0.34919E+05
         0.70882E+05
         0.77278E+05
         0.11001E+06
         0.12860E+06
         0.29862E+06
         0.22245E+06
         0.33883E+06
         0.47349E+06
         0.58543E+06
         0.51008E+06
         0.46088E+06
         0.40709E+06
         0.37792E+06
         0.34384E+06
         0.30896E+06
         0.17797E+06
         0.23048E+06
         0.15589E+06
         0.95290E+05
         0.12297E+06
         0.18396E+06
         0.19483E+06
         0.31183E+06
         0.26040E+06
         0.19917E+06
         0.17242E+06
         0.16463E+06
         0.24719E+06
         0.30640E+06
         0.86436E+05
         0.33488E+05
         0.50013E+05
         0.98892E+05
         0.69996E+05
         0.11247E+06
        -0.35296E+05
        -0.62779E+05
         0.10902E+06
        -0.80239E+05
        -0.10282E+06
         0.19999E+05
         0.35545E+05
        -0.20774E+06
        -0.38252E+05
         0.20715E+05
         0.50117E+05
         0.82565E+05
        -0.12153E+05
        -0.43095E+04
        -0.10577E+05
         0.36242E+05
        -0.61780E+05
        -0.47585E+05
        -0.11350E+06
        -0.38597E+05
        -0.28561E+06
        -0.24304E+06
        -0.13919E+06
        -0.10321E+06
         0.11104E+05
        -0.24312E+05
         0.75294E+05
         0.12828E+06
         0.10963E+05
         0.36988E+04
         0.25750E+05
        -0.66932E+05
        -0.61932E+05
        -0.34052E+05
         0.13477E+05
        -0.25783E+05
        -0.18968E+05
        -0.61366E+05
        -0.44648E+05
        -0.23553E+05
        -0.26171E+04
         0.90462E+04
         0.35558E+05
         0.71514E+05
         0.77837E+05
         0.11062E+06
         0.13032E+06
         0.30055E+06
         0.22437E+06
         0.33978E+06
         0.47308E+06
         0.58529E+06
         0.51132E+06
         0.46242E+06
         0.40810E+06
         0.37947E+06
         0.34539E+06
         0.30977E+06
         0.17935E+06
         0.23188E+06
         0.15723E+06
         0.96428E+05
         0.12380E+06
         0.18493E+06
         0.19558E+06
         0.31303E+06
         0.26181E+06
         0.20055E+06
         0.17347E+06
         0.16537E+06
         0.24845E+06
         0.30793E+06
         0.86130E+05
         0.33000E+05
         0.49586E+05
         0.98409E+05
         0.69468E+05
         0.11195E+06
        -0.35937E+05
        -0.63329E+05
         0.10853E+06
        -0.81068E+05
        -0.10362E+06
         0.19045E+05
         0.34541E+05
        -0.20851E+06
        -0.38814E+05
         0.20131E+05
         0.49471E+05
         0.81841E+05
        -0.12895E+05
        -0.49936E+04
        -0.11467E+05
         0.35341E+05
        -0.62711E+05
        -0.48307E+05
        -0.11428E+06
        -0.39221E+05
        -0.28657E+06
        -0.24406E+06
        -0.14004E+06
        -0.10379E+06
         0.10459E+05
        -0.24939E+05
         0.74467E+05
         0.12772E+06
         0.10186E+05
         0.30515E+04
         0.24954E+05
        -0.68201E+05
        -0.63173E+05
        -0.35135E+05
         0.12273E+05
        -0.26914E+05
        -0.19855E+05
        -0.62398E+05
        -0.45550E+05
        -0.24333E+05
        -0.33889E+04
         0.81735E+04
         0.34837E+05
         0.70998E+05
         0.77195E+05
         0.11001E+06
         0.12866E+06
         0.29915E+06
         0.22289E+06
         0.33810E+06
         0.47101E+06
         0.58317E+06
         0.50989E+06
         0.46080E+06
         0.40604E+06
         0.37737E+06
         0.34296E+06
         0.30750E+06
         0.17779E+06
         0.23028E+06
         0.15592E+06
         0.95010E+05
         0.12154E+06
         0.18290E+06
         0.19446E+06
         0.31149E+06
         0.26021E+06
         0.19973E+06
         0.17275E+06
         0.16394E+06
         0.24663E+06
         0.30614E+06
         0.86085E+05
         0.32839E+05
         0.49458E+05
         0.98272E+05
         0.69404E+05
         0.11180E+06
        -0.36051E+05
        -0.63358E+05
         0.10858E+06
        -0.81081E+05
        -0.10374E+06
         0.18916E+05
         0.34391E+05
        -0.20843E+06
        -0.38708E+05
         0.20019E+05
         0.49498E+05
         0.81689E+05
        -0.12967E+05
        -0.50498E+04
        -0.11654E+05
         0.35202E+05
        -0.62915E+05
        -0.48439E+05
        -0.11435E+06
        -0.39393E+05
        -0.28635E+06
        -0.24418E+06
        -0.14025E+06
        -0.10391E+06
         0.10117E+05
        -0.25182E+05
         0.74135E+05
         0.12762E+06
         0.10011E+05
         0.28470E+04
         0.24715E+05
        -0.68782E+05
        -0.63861E+05
        -0.35554E+05
         0.12167E+05
        -0.26997E+05
        -0.19971E+05
        -0.62570E+05
        -0.45716E+05
        -0.24516E+05
        -0.36382E+04
         0.78323E+04
         0.34554E+05
         0.70889E+05
         0.77069E+05
         0.10986E+06
         0.12845E+06
         0.29906E+06
         0.22249E+06
         0.33745E+06
         0.47087E+06
         0.58289E+06
         0.50914E+06
         0.45943E+06
         0.40451E+06
         0.37642E+06
         0.34279E+06
         0.30730E+06
         0.17739E+06
         0.22965E+06
         0.15527E+06
         0.94655E+05
         0.12138E+06
         0.18274E+06
         0.19411E+06
         0.31091E+06
         0.25949E+06
         0.19927E+06
         0.17254E+06
         0.16350E+06
         0.24567E+06
         0.30526E+06
         0.87497E+05
         0.34381E+05
         0.50750E+05
         0.99272E+05
         0.70977E+05
         0.11299E+06
        -0.34252E+05
        -0.61676E+05
         0.10964E+06
        -0.79772E+05
        -0.10190E+06
         0.20995E+05
         0.36229E+05
        -0.20652E+06
        -0.36557E+05
         0.21338E+05
         0.50776E+05
         0.82837E+05
        -0.11490E+05
        -0.34464E+04
        -0.98859E+04
         0.36866E+05
        -0.61231E+05
        -0.46986E+05
        -0.11274E+06
        -0.37946E+05
        -0.28431E+06
        -0.24200E+06
        -0.13820E+06
        -0.10206E+06
         0.11554E+05
        -0.23709E+05
         0.75307E+05
         0.12858E+06
         0.11770E+05
         0.43549E+04
         0.26248E+05
        -0.67407E+05
        -0.62160E+05
        -0.33732E+05
         0.13883E+05
        -0.25277E+05
        -0.18452E+05
        -0.60827E+05
        -0.43969E+05
        -0.22753E+05
        -0.20591E+04
         0.93341E+04
         0.35846E+05
         0.72031E+05
         0.78244E+05
         0.11092E+06
         0.13171E+06
         0.30236E+06
         0.22536E+06
         0.33954E+06
         0.47331E+06
         0.58587E+06
         0.51156E+06
         0.46134E+06
         0.40670E+06
         0.37876E+06
         0.34498E+06
         0.31001E+06
         0.17950E+06
         0.23200E+06
         0.15802E+06
         0.97605E+05
         0.12469E+06
         0.18627E+06
         0.19699E+06
         0.31391E+06
         0.26204E+06
         0.20119E+06
         0.17451E+06
         0.16575E+06
         0.24816E+06
         0.30780E+06
         0.86922E+05
         0.33941E+05
         0.50353E+05
         0.98673E+05
         0.70315E+05
         0.11246E+06
        -0.34825E+05
        -0.62392E+05
         0.10895E+06
        -0.80808E+05
        -0.10268E+06
         0.20263E+05
         0.35793E+05
        -0.20734E+06
        -0.37392E+05
         0.20587E+05
         0.49962E+05
         0.82246E+05
        -0.12471E+05
        -0.42868E+04
        -0.10480E+05
         0.36043E+05
        -0.61803E+05
        -0.47858E+05
        -0.11366E+06
        -0.38833E+05
        -0.28516E+06
        -0.24269E+06
        -0.13836E+06
        -0.10247E+06
         0.11084E+05
        -0.24422E+05
         0.74740E+05
         0.12790E+06
         0.10769E+05
         0.37689E+04
         0.25860E+05
        -0.68849E+05
        -0.63162E+05
        -0.34192E+05
         0.13136E+05
        -0.26150E+05
        -0.19476E+05
        -0.61596E+05
        -0.44755E+05
        -0.23486E+05
        -0.27007E+04
         0.88457E+04
         0.35241E+05
         0.71256E+05
         0.77478E+05
         0.11030E+06
         0.12934E+06
         0.30040E+06
         0.22366E+06
         0.33865E+06
         0.47290E+06
         0.58479E+06
         0.50943E+06
         0.45898E+06
         0.40443E+06
         0.37667E+06
         0.34264E+06
         0.30746E+06
         0.17766E+06
         0.23108E+06
         0.15765E+06
         0.97482E+05
         0.12398E+06
         0.18487E+06
         0.19581E+06
         0.31252E+06
         0.26075E+06
         0.19976E+06
         0.17284E+06
         0.16451E+06
         0.24701E+06
         0.30609E+06
         0.85954E+05
         0.32818E+05
         0.49260E+05
         0.97864E+05
         0.69257E+05
         0.11144E+06
        -0.35774E+05
        -0.63246E+05
         0.10794E+06
        -0.82660E+05
        -0.10363E+06
         0.19076E+05
         0.34811E+05
        -0.20817E+06
        -0.38467E+05
         0.19665E+05
         0.48723E+05
         0.81563E+05
        -0.13275E+05
        -0.46884E+04
        -0.11215E+05
         0.35081E+05
        -0.62495E+05
        -0.48605E+05
        -0.11532E+06
        -0.39703E+05
        -0.28714E+06
        -0.24382E+06
        -0.13595E+06
        -0.10114E+06
         0.10233E+05
        -0.25427E+05
         0.74176E+05
         0.12743E+06
         0.96408E+04
         0.27983E+04
         0.24926E+05
        -0.71008E+05
        -0.64147E+05
        -0.32508E+05
         0.13098E+05
        -0.27098E+05
        -0.20847E+05
        -0.62428E+05
        -0.45756E+05
        -0.24663E+05
        -0.38194E+04
         0.79719E+04
         0.34542E+05
         0.70633E+05
         0.76797E+05
         0.10953E+06
         0.12771E+06
         0.29893E+06
         0.22250E+06
         0.33765E+06
         0.47140E+06
         0.58227E+06
         0.50655E+06
         0.45636E+06
         0.40214E+06
         0.37598E+06
         0.33862E+06
         0.30131E+06
         0.17507E+06
         0.22965E+06
         0.15643E+06
         0.96488E+05
         0.12273E+06
         0.18340E+06
         0.19390E+06
         0.31037E+06
         0.25928E+06
         0.19840E+06
         0.17114E+06
         0.16309E+06
         0.24501E+06
         0.30389E+06
         0.87299E+05
         0.34235E+05
         0.50664E+05
         0.99076E+05
         0.70927E+05
         0.11273E+06
        -0.34197E+05
        -0.61590E+05
         0.10868E+06
        -0.82955E+05
        -0.10198E+06
         0.20630E+05
         0.36177E+05
        -0.20637E+06
        -0.36538E+05
         0.20998E+05
         0.49598E+05
         0.82640E+05
        -0.11570E+05
        -0.20554E+04
        -0.97431E+04
         0.36535E+05
        -0.61140E+05
        -0.47038E+05
        -0.11491E+06
        -0.38127E+05
        -0.28746E+06
        -0.24245E+06
        -0.12847E+06
        -0.95438E+05
         0.11459E+05
        -0.23930E+05
         0.75322E+05
         0.12870E+06
         0.11525E+05
         0.44787E+04
         0.26374E+05
        -0.70835E+05
        -0.62203E+05
        -0.26257E+05
         0.16366E+05
        -0.25358E+05
        -0.19959E+05
        -0.60932E+05
        -0.44047E+05
        -0.22704E+05
        -0.21726E+04
         0.93468E+04
         0.35961E+05
         0.72189E+05
         0.78366E+05
         0.11080E+06
         0.13107E+06
         0.30229E+06
         0.22605E+06
         0.34014E+06
         0.47288E+06
         0.58386E+06
         0.50880E+06
         0.45879E+06
         0.40484E+06
         0.38129E+06
         0.33725E+06
         0.29639E+06
         0.17525E+06
         0.23160E+06
         0.15813E+06
         0.98011E+05
         0.12460E+06
         0.18637E+06
         0.19735E+06
         0.31359E+06
         0.26205E+06
         0.20129E+06
         0.17425E+06
         0.16584E+06
         0.24720E+06
         0.30622E+06
         0.82338E+05
         0.29036E+05
         0.45618E+05
         0.94256E+05
         0.64975E+05
         0.10709E+06
        -0.39906E+05
        -0.67399E+05
         0.10322E+06
        -0.90171E+05
        -0.10838E+06
         0.13260E+05
         0.29255E+05
        -0.21302E+06
        -0.43967E+05
         0.15981E+05
         0.43745E+05
         0.77770E+05
        -0.17293E+05
        -0.74662E+04
        -0.16213E+05
         0.30167E+05
        -0.67432E+05
        -0.52548E+05
        -0.12178E+06
        -0.43348E+05
        -0.29535E+06
        -0.24899E+06
        -0.13142E+06
        -0.99295E+05
         0.64611E+04
        -0.29351E+05
         0.70225E+05
         0.12334E+06
         0.46428E+04
        -0.16762E+04
         0.19972E+05
        -0.79462E+05
        -0.69042E+05
        -0.30294E+05
         0.10043E+05
        -0.32217E+05
        -0.26856E+05
        -0.67089E+05
        -0.50511E+05
        -0.30039E+05
        -0.85806E+04
         0.35291E+04
         0.30237E+05
         0.66008E+05
         0.71305E+05
         0.10456E+06
         0.11855E+06
         0.29020E+06
         0.21359E+06
         0.32747E+06
         0.46016E+06
         0.57147E+06
         0.49616E+06
         0.44536E+06
         0.39224E+06
         0.36975E+06
         0.32136E+06
         0.27926E+06
         0.16303E+06
         0.22144E+06
         0.14757E+06
         0.87136E+05
         0.11339E+06
         0.17379E+06
         0.18424E+06
         0.30103E+06
         0.25037E+06
         0.19011E+06
         0.16267E+06
         0.15382E+06
         0.23569E+06
         0.29480E+06
         0.85195E+05
         0.29397E+05
         0.46563E+05
         0.96108E+05
         0.66967E+05
         0.10893E+06
        -0.39089E+05
        -0.63840E+05
         0.10680E+06
        -0.84955E+05
        -0.10663E+06
         0.13402E+05
         0.27497E+05
        -0.20873E+06
        -0.40523E+05
         0.19888E+05
         0.47552E+05
         0.80410E+05
        -0.14204E+05
        -0.42517E+04
        -0.13277E+05
         0.32353E+05
        -0.62909E+05
        -0.48412E+05
        -0.11575E+06
        -0.39491E+05
        -0.28860E+06
        -0.24144E+06
        -0.12517E+06
        -0.93532E+05
         0.95448E+04
        -0.26953E+05
         0.71666E+05
         0.12256E+06
         0.56979E+04
        -0.21412E+04
         0.18157E+05
        -0.75392E+05
        -0.64080E+05
        -0.25954E+05
         0.12933E+05
        -0.28300E+05
        -0.22723E+05
        -0.62898E+05
        -0.48161E+05
        -0.28911E+05
        -0.76167E+04
         0.60172E+04
         0.32151E+05
         0.66112E+05
         0.71751E+05
         0.10467E+06
         0.12312E+06
         0.29625E+06
         0.21514E+06
         0.32474E+06
         0.45439E+06
         0.56777E+06
         0.50153E+06
         0.45105E+06
         0.39675E+06
         0.37229E+06
         0.32204E+06
         0.28168E+06
         0.16765E+06
         0.22372E+06
         0.15245E+06
         0.94170E+05
         0.11942E+06
         0.17840E+06
         0.18614E+06
         0.30077E+06
         0.25291E+06
         0.19379E+06
         0.16838E+06
         0.16067E+06
         0.24105E+06
         0.30037E+06
         0.19467E+08
         0.20246E+08
         0.20108E+08
         0.18405E+08
         0.23268E+08
         0.21766E+08
         0.21842E+08
         0.22092E+08
         0.19158E+08
         0.22136E+08
         0.24258E+08
         0.28152E+08
         0.25274E+08
         0.24948E+08
         0.28913E+08
         0.18644E+08
         0.20085E+08
         0.17591E+08
         0.20873E+08
         0.21844E+08
         0.23205E+08
         0.23435E+08
         0.22224E+08
         0.19938E+08
         0.22179E+08
         0.19108E+08
         0.24623E+08
         0.23912E+08
         0.24048E+08
         0.22967E+08
         0.18832E+08
         0.19777E+08
         0.18502E+08
         0.19361E+08
         0.25805E+08
         0.23130E+08
         0.23183E+08
         0.27414E+08
         0.26405E+08
         0.26032E+08
         0.26832E+08
         0.25324E+08
         0.24011E+08
         0.21576E+08
         0.22528E+08
         0.25927E+08
         0.23490E+08
         0.21891E+08
         0.21396E+08
         0.22265E+08
         0.24661E+08
         0.22489E+08
         0.45173E+08
         0.44260E+08
         0.45041E+08
         0.43626E+08
         0.44987E+08
         0.47169E+08
         0.47363E+08
         0.46866E+08
         0.47235E+08
         0.48513E+08
         0.47063E+08
         0.44397E+08
         0.39476E+08
         0.37306E+08
         0.37814E+08
         0.38662E+08
         0.39152E+08
         0.42608E+08
         0.45605E+08
         0.45806E+08
         0.42068E+08
         0.40600E+08
         0.42018E+08
         0.41591E+08
         0.41311E+08
         0.41399E+08
         0.20607E+09
         0.21577E+09
         0.21284E+09
         0.19520E+09
         0.23743E+09
         0.22389E+09
         0.23268E+09
         0.23398E+09
         0.20208E+09
         0.23388E+09
         0.25427E+09
         0.28237E+09
         0.25741E+09
         0.26116E+09
         0.29169E+09
         0.19812E+09
         0.21245E+09
         0.18677E+09
         0.21901E+09
         0.22994E+09
         0.23659E+09
         0.24162E+09
         0.22762E+09
         0.21111E+09
         0.23673E+09
         0.20414E+09
         0.26026E+09
         0.25628E+09
         0.25735E+09
         0.24467E+09
         0.20024E+09
         0.21025E+09
         0.19668E+09
         0.20524E+09
         0.25863E+09
         0.23864E+09
         0.23921E+09
         0.28310E+09
         0.27645E+09
         0.27338E+09
         0.27760E+09
         0.26433E+09
         0.25057E+09
         0.22263E+09
         0.23153E+09
         0.25845E+09
         0.24023E+09
         0.22664E+09
         0.22247E+09
         0.23018E+09
         0.24856E+09
         0.23077E+09
         0.37422E+09
         0.36444E+09
         0.36718E+09
         0.35772E+09
         0.36229E+09
         0.37290E+09
         0.38042E+09
         0.38748E+09
         0.39172E+09
         0.39475E+09
         0.38631E+09
         0.36756E+09
         0.34822E+09
         0.33581E+09
         0.33041E+09
         0.32948E+09
         0.32965E+09
         0.34715E+09
         0.37156E+09
         0.37078E+09
         0.35419E+09
         0.34839E+09
         0.35392E+09
         0.35366E+09
         0.34831E+09
         0.34833E+09
  
SCALARS                      stress_yz  double 1
LOOKUP_TABLE default
        -0.24777E+06
         0.82483E+05
         0.21420E+06
         0.11006E+06
        -0.33429E+00
        -0.92136E-01
        -0.41428E+00
        -0.31599E+00
         0.80328E+06
        -0.52819E+06
        -0.61653E+00
        -0.54278E+00
         0.70548E+06
         0.35875E+05
         0.44123E+00
        -0.28289E-01
        -0.24195E+06
        -0.90401E+06
         0.64915E-02
         0.66421E-01
         0.46954E+06
         0.17687E+07
         0.18365E+07
         0.10114E+01
         0.17467E+01
         0.14600E+01
         0.17433E+06
         0.17950E+07
         0.72755E+00
         0.14114E+01
        -0.27652E+06
        -0.24129E+06
         0.20452E+06
         0.37717E+00
         0.38503E+00
        -0.79937E-02
        -0.82229E+06
        -0.79349E+06
         0.69407E+00
         0.54001E+00
        -0.80877E+06
        -0.51536E+06
         0.52454E+00
         0.47936E+00
        -0.73283E+06
        -0.25256E+06
        -0.17400E-01
         0.26914E+00
        -0.68237E+06
         0.12672E+00
        -0.67040E+05
        -0.10263E-01
        -0.40253E+05
         0.49017E+00
         0.26686E+06
         0.28514E+00
         0.87034E+06
        -0.15436E+06
         0.77355E-02
        -0.15700E-01
        -0.33534E+06
        -0.12241E+07
        -0.10540E+00
        -0.39423E+00
        -0.20244E+06
        -0.21274E+00
        -0.86955E+06
        -0.25917E+00
         0.70713E+06
         0.37460E+06
        -0.32029E-01
         0.42289E+00
         0.13102E+07
         0.92862E+00
         0.22794E+07
         0.89913E+00
         0.23008E+07
         0.68254E+00
         0.18951E+07
         0.57208E+00
         0.27780E+07
         0.21310E+07
         0.36699E+00
        -0.81368E-01
         0.29771E+06
        -0.91046E-02
        -0.11453E+07
        -0.57035E+00
        -0.27081E+07
        -0.99846E+00
        -0.37858E+07
        -0.23472E+07
        -0.14809E+01
        -0.11987E+01
        -0.16504E+07
        -0.93047E+00
        -0.14805E+07
        -0.95193E+00
        -0.14410E+07
        -0.10235E+01
        -0.23980E+07
        -0.19925E+07
        -0.95183E+00
        -0.45607E+00
         0.16103E+07
        -0.60923E+06
         0.33468E+00
        -0.41590E+00
         0.39590E+07
         0.11134E+01
         0.56644E+07
         0.16286E+01
         0.69389E+07
         0.20114E+01
         0.81477E+07
         0.19951E+01
         0.96032E+07
         0.15789E+01
         0.98233E+07
         0.12219E+01
         0.92504E+07
         0.11364E+01
         0.82312E+07
         0.10812E+01
         0.59983E+07
         0.69099E+00
         0.40451E+07
         0.22814E+00
         0.20262E+07
         0.14741E+00
        -0.14562E+06
         0.22157E+00
        -0.19299E+07
         0.11444E+00
        -0.34603E+07
        -0.34609E+00
        -0.53552E+07
        -0.97687E+00
        -0.60340E+07
        -0.15254E+01
        -0.66067E+07
        -0.19998E+01
        -0.84432E+07
        -0.19981E+01
        -0.87407E+07
        -0.17442E+01
        -0.80751E+07
        -0.16999E+01
        -0.65706E+07
        -0.17105E+01
        -0.44672E+07
        -0.13526E+01
        -0.31629E+07
        -0.79985E+00
        -0.22735E+07
        -0.61845E+00
        -0.22947E+07
        -0.11876E+07
        -0.10366E+07
        -0.32172E+06
        -0.10623E+07
        -0.11293E+07
        -0.11910E+06
        -0.18303E+07
        -0.15698E+07
        -0.23037E+07
         0.12034E+07
         0.51338E+07
         0.35076E+07
         0.40684E+06
         0.51863E+07
         0.60776E+06
        -0.53850E+06
         0.34664E+06
         0.45269E+06
        -0.34217E+06
         0.31420E+06
         0.25907E+06
        -0.87052E+06
         0.73373E+05
        -0.15728E+07
         0.23253E+06
         0.12041E+05
         0.21052E+06
         0.25546E+06
        -0.12330E+07
         0.59326E+06
        -0.64369E+06
         0.43144E+06
        -0.10510E+06
         0.17344E+06
         0.94031E+06
         0.21088E+07
         0.45580E+07
         0.41647E+07
         0.35185E+07
         0.33124E+07
         0.82311E+06
        -0.67362E+06
        -0.18476E+07
        -0.30522E+07
        -0.49832E+07
        -0.32712E+07
        -0.23467E+07
        -0.25038E+07
        -0.26592E+07
        -0.31181E+07
        -0.14256E+07
         0.26813E+07
        -0.32240E+07
         0.87309E+07
         0.12063E+08
         0.15376E+08
         0.18255E+08
         0.18352E+08
         0.16615E+08
         0.15811E+08
         0.14942E+08
         0.96531E+07
         0.42396E+07
         0.18660E+07
         0.82270E+06
        -0.12600E+07
        -0.49812E+07
        -0.91544E+07
        -0.11945E+08
        -0.14452E+08
        -0.16572E+08
        -0.15613E+08
        -0.14760E+08
        -0.13731E+08
        -0.95491E+07
        -0.55785E+07
        -0.48982E+07
        -0.20810E+08
        -0.13125E+08
        -0.12146E+08
        -0.28809E+07
        -0.15775E+08
        -0.70949E+07
        -0.56261E+07
        -0.19669E+08
        -0.12898E+08
        -0.18499E+08
         0.97803E+07
         0.42329E+08
         0.25077E+08
         0.36036E+07
         0.41705E+08
         0.78920E+07
        -0.23916E+07
         0.22833E+07
         0.10292E+08
         0.19897E+07
         0.88708E+07
         0.62981E+07
        -0.36513E+07
         0.30818E+07
        -0.12457E+08
         0.30812E+07
         0.77319E+06
         0.14373E+07
        -0.22959E+07
        -0.12426E+08
         0.85053E+07
         0.22404E+07
         0.54974E+07
         0.47733E+07
        -0.22760E+07
         0.69379E+07
         0.13247E+08
         0.31695E+08
         0.27950E+08
         0.24631E+08
         0.18095E+08
        -0.44714E+07
        -0.92100E+07
        -0.11504E+08
        -0.14814E+08
        -0.30261E+08
        -0.17608E+08
        -0.11644E+08
        -0.14634E+08
        -0.17276E+08
        -0.17901E+08
        -0.13431E+07
         0.22324E+08
        -0.31933E+08
         0.74314E+08
         0.96036E+08
         0.12395E+09
         0.14875E+09
         0.14570E+09
         0.12723E+09
         0.12192E+09
         0.12064E+09
         0.75755E+08
         0.24968E+08
         0.99477E+07
         0.85236E+07
        -0.39479E+07
        -0.33492E+08
        -0.67097E+08
        -0.93389E+08
        -0.12154E+09
        -0.13477E+09
        -0.11834E+09
        -0.11188E+09
        -0.11155E+09
        -0.78539E+08
        -0.40800E+08
        -0.38632E+08
        -0.20823E+08
        -0.13128E+08
        -0.12152E+08
        -0.29020E+07
        -0.15777E+08
        -0.71005E+07
        -0.56331E+07
        -0.19702E+08
        -0.12921E+08
        -0.18568E+08
         0.97861E+07
         0.42326E+08
         0.25083E+08
         0.36037E+07
         0.41758E+08
         0.78924E+07
        -0.24134E+07
         0.22799E+07
         0.10299E+08
         0.19786E+07
         0.88927E+07
         0.63042E+07
        -0.36522E+07
         0.30803E+07
        -0.12514E+08
         0.30756E+07
         0.78230E+06
         0.14454E+07
        -0.22807E+07
        -0.12453E+08
         0.85068E+07
         0.22355E+07
         0.55096E+07
         0.47811E+07
        -0.22547E+07
         0.69425E+07
         0.13246E+08
         0.31744E+08
         0.28010E+08
         0.24660E+08
         0.18109E+08
        -0.44593E+07
        -0.92195E+07
        -0.11510E+08
        -0.14814E+08
        -0.30261E+08
        -0.17610E+08
        -0.11637E+08
        -0.14615E+08
        -0.17253E+08
        -0.17894E+08
        -0.13228E+07
         0.22303E+08
        -0.31935E+08
         0.74328E+08
         0.96037E+08
         0.12394E+09
         0.14870E+09
         0.14564E+09
         0.12719E+09
         0.12190E+09
         0.12060E+09
         0.75739E+08
         0.24979E+08
         0.99469E+07
         0.85412E+07
        -0.39158E+07
        -0.33510E+08
        -0.67128E+08
        -0.93410E+08
        -0.12154E+09
        -0.13476E+09
        -0.11833E+09
        -0.11187E+09
        -0.11152E+09
        -0.78483E+08
        -0.40755E+08
        -0.38581E+08
        -0.20836E+08
        -0.13130E+08
        -0.12158E+08
        -0.29234E+07
        -0.15779E+08
        -0.71063E+07
        -0.56402E+07
        -0.19735E+08
        -0.12944E+08
        -0.18637E+08
         0.97919E+07
         0.42322E+08
         0.25089E+08
         0.36034E+07
         0.41811E+08
         0.78930E+07
        -0.24354E+07
         0.22764E+07
         0.10306E+08
         0.19673E+07
         0.89149E+07
         0.63101E+07
        -0.36536E+07
         0.30785E+07
        -0.12569E+08
         0.30692E+07
         0.79204E+06
         0.14539E+07
        -0.22642E+07
        -0.12478E+08
         0.85081E+07
         0.22296E+07
         0.55218E+07
         0.47888E+07
        -0.22332E+07
         0.69472E+07
         0.13245E+08
         0.31793E+08
         0.28070E+08
         0.24689E+08
         0.18124E+08
        -0.44461E+07
        -0.92283E+07
        -0.11518E+08
        -0.14816E+08
        -0.30262E+08
        -0.17612E+08
        -0.11630E+08
        -0.14595E+08
        -0.17230E+08
        -0.17886E+08
        -0.13025E+07
         0.22282E+08
        -0.31936E+08
         0.74342E+08
         0.96038E+08
         0.12392E+09
         0.14865E+09
         0.14558E+09
         0.12715E+09
         0.12187E+09
         0.12057E+09
         0.75723E+08
         0.24992E+08
         0.99464E+07
         0.85587E+07
        -0.38834E+07
        -0.33528E+08
        -0.67160E+08
        -0.93433E+08
        -0.12153E+09
        -0.13475E+09
        -0.11832E+09
        -0.11187E+09
        -0.11149E+09
        -0.78427E+08
        -0.40710E+08
        -0.38530E+08
        -0.20849E+08
        -0.13133E+08
        -0.12164E+08
        -0.29448E+07
        -0.15781E+08
        -0.71120E+07
        -0.56476E+07
        -0.19768E+08
        -0.12968E+08
        -0.18705E+08
         0.97978E+07
         0.42318E+08
         0.25096E+08
         0.36034E+07
         0.41864E+08
         0.78936E+07
        -0.24577E+07
         0.22729E+07
         0.10313E+08
         0.19554E+07
         0.89375E+07
         0.63154E+07
        -0.36567E+07
         0.30754E+07
        -0.12623E+08
         0.30608E+07
         0.80209E+06
         0.14652E+07
        -0.22437E+07
        -0.12501E+08
         0.85087E+07
         0.22216E+07
         0.55339E+07
         0.47965E+07
        -0.22118E+07
         0.69517E+07
         0.13244E+08
         0.31842E+08
         0.28132E+08
         0.24719E+08
         0.18141E+08
        -0.44291E+07
        -0.92356E+07
        -0.11529E+08
        -0.14820E+08
        -0.30264E+08
        -0.17615E+08
        -0.11623E+08
        -0.14576E+08
        -0.17207E+08
        -0.17878E+08
        -0.12823E+07
         0.22261E+08
        -0.31938E+08
         0.74355E+08
         0.96039E+08
         0.12391E+09
         0.14860E+09
         0.14552E+09
         0.12711E+09
         0.12185E+09
         0.12054E+09
         0.75709E+08
         0.25007E+08
         0.99465E+07
         0.85760E+07
        -0.38508E+07
        -0.33548E+08
        -0.67196E+08
        -0.93458E+08
        -0.12153E+09
        -0.13475E+09
        -0.11831E+09
        -0.11186E+09
        -0.11146E+09
        -0.78371E+08
        -0.40666E+08
        -0.38479E+08
        -0.20862E+08
        -0.13135E+08
        -0.12170E+08
        -0.29661E+07
        -0.15782E+08
        -0.71177E+07
        -0.56546E+07
        -0.19801E+08
        -0.12991E+08
        -0.18771E+08
         0.98037E+07
         0.42315E+08
         0.25102E+08
         0.36036E+07
         0.41918E+08
         0.78943E+07
        -0.24805E+07
         0.22693E+07
         0.10321E+08
         0.19428E+07
         0.89605E+07
         0.63201E+07
        -0.36616E+07
         0.30711E+07
        -0.12675E+08
         0.30502E+07
         0.81329E+06
         0.14791E+07
        -0.22191E+07
        -0.12522E+08
         0.85088E+07
         0.22111E+07
         0.55460E+07
         0.48043E+07
        -0.21902E+07
         0.69563E+07
         0.13244E+08
         0.31891E+08
         0.28195E+08
         0.24752E+08
         0.18160E+08
        -0.44084E+07
        -0.92412E+07
        -0.11544E+08
        -0.14828E+08
        -0.30267E+08
        -0.17618E+08
        -0.11616E+08
        -0.14557E+08
        -0.17183E+08
        -0.17871E+08
        -0.12620E+07
         0.22240E+08
        -0.31940E+08
         0.74369E+08
         0.96039E+08
         0.12389E+09
         0.14855E+09
         0.14546E+09
         0.12707E+09
         0.12182E+09
         0.12050E+09
         0.75697E+08
         0.25024E+08
         0.99475E+07
         0.85929E+07
        -0.38182E+07
        -0.33569E+08
        -0.67237E+08
        -0.93487E+08
        -0.12153E+09
        -0.13474E+09
        -0.11831E+09
        -0.11186E+09
        -0.11143E+09
        -0.78316E+08
        -0.40621E+08
        -0.38429E+08
        -0.20874E+08
        -0.13137E+08
        -0.12176E+08
        -0.29877E+07
        -0.15784E+08
        -0.71233E+07
        -0.56608E+07
        -0.19832E+08
        -0.13015E+08
        -0.18837E+08
         0.98103E+07
         0.42311E+08
         0.25109E+08
         0.36043E+07
         0.41971E+08
         0.78953E+07
        -0.25036E+07
         0.22658E+07
         0.10329E+08
         0.19299E+07
         0.89834E+07
         0.63246E+07
        -0.36671E+07
         0.30664E+07
        -0.12726E+08
         0.30390E+07
         0.82533E+06
         0.14944E+07
        -0.21927E+07
        -0.12541E+08
         0.85083E+07
         0.21994E+07
         0.55584E+07
         0.48125E+07
        -0.21685E+07
         0.69613E+07
         0.13244E+08
         0.31941E+08
         0.28258E+08
         0.24786E+08
         0.18180E+08
        -0.43865E+07
        -0.92460E+07
        -0.11561E+08
        -0.14837E+08
        -0.30272E+08
        -0.17623E+08
        -0.11611E+08
        -0.14539E+08
        -0.17161E+08
        -0.17863E+08
        -0.12417E+07
         0.22219E+08
        -0.31942E+08
         0.74383E+08
         0.96040E+08
         0.12388E+09
         0.14850E+09
         0.14539E+09
         0.12704E+09
         0.12180E+09
         0.12047E+09
         0.75685E+08
         0.25043E+08
         0.99489E+07
         0.86098E+07
        -0.37856E+07
        -0.33591E+08
        -0.67280E+08
        -0.93516E+08
        -0.12153E+09
        -0.13473E+09
        -0.11830E+09
        -0.11186E+09
        -0.11140E+09
        -0.78260E+08
        -0.40577E+08
        -0.38378E+08
        -0.20886E+08
        -0.13136E+08
        -0.12182E+08
        -0.30099E+07
        -0.15786E+08
        -0.71292E+07
        -0.56657E+07
        -0.19860E+08
        -0.13039E+08
        -0.18899E+08
         0.98184E+07
         0.42309E+08
         0.25117E+08
         0.36070E+07
         0.42025E+08
         0.78966E+07
        -0.25274E+07
         0.22623E+07
         0.10337E+08
         0.19170E+07
         0.90066E+07
         0.63293E+07
        -0.36727E+07
         0.30618E+07
        -0.12775E+08
         0.30276E+07
         0.83953E+06
         0.15107E+07
        -0.21659E+07
        -0.12560E+08
         0.85076E+07
         0.21870E+07
         0.55712E+07
         0.48210E+07
        -0.21468E+07
         0.69666E+07
         0.13244E+08
         0.31992E+08
         0.28322E+08
         0.24820E+08
         0.18200E+08
        -0.43640E+07
        -0.92506E+07
        -0.11578E+08
        -0.14847E+08
        -0.30278E+08
        -0.17630E+08
        -0.11609E+08
        -0.14524E+08
        -0.17139E+08
        -0.17856E+08
        -0.12211E+07
         0.22198E+08
        -0.31943E+08
         0.74396E+08
         0.96041E+08
         0.12386E+09
         0.14845E+09
         0.14533E+09
         0.12700E+09
         0.12177E+09
         0.12044E+09
         0.75673E+08
         0.25061E+08
         0.99503E+07
         0.86268E+07
        -0.37529E+07
        -0.33613E+08
        -0.67323E+08
        -0.93544E+08
        -0.12153E+09
        -0.13472E+09
        -0.11829E+09
        -0.11185E+09
        -0.11138E+09
        -0.78204E+08
        -0.40532E+08
        -0.38327E+08
        -0.20897E+08
        -0.13135E+08
        -0.12188E+08
        -0.30324E+07
        -0.15788E+08
        -0.71349E+07
        -0.56695E+07
        -0.19887E+08
        -0.13063E+08
        -0.18960E+08
         0.98272E+07
         0.42307E+08
         0.25126E+08
         0.36103E+07
         0.42079E+08
         0.78981E+07
        -0.25515E+07
         0.22587E+07
         0.10345E+08
         0.19041E+07
         0.90297E+07
         0.63340E+07
        -0.36781E+07
         0.30573E+07
        -0.12824E+08
         0.30163E+07
         0.85427E+06
         0.15273E+07
        -0.21390E+07
        -0.12579E+08
         0.85067E+07
         0.21739E+07
         0.55841E+07
         0.48298E+07
        -0.21248E+07
         0.69724E+07
         0.13245E+08
         0.32043E+08
         0.28386E+08
         0.24854E+08
         0.18221E+08
        -0.43416E+07
        -0.92551E+07
        -0.11595E+08
        -0.14857E+08
        -0.30285E+08
        -0.17638E+08
        -0.11609E+08
        -0.14510E+08
        -0.17117E+08
        -0.17848E+08
        -0.12005E+07
         0.22177E+08
        -0.31945E+08
         0.74409E+08
         0.96042E+08
         0.12385E+09
         0.14840E+09
         0.14527E+09
         0.12696E+09
         0.12175E+09
         0.12040E+09
         0.75660E+08
         0.25079E+08
         0.99517E+07
         0.86441E+07
        -0.37202E+07
        -0.33635E+08
        -0.67366E+08
        -0.93572E+08
        -0.12152E+09
        -0.13471E+09
        -0.11829E+09
        -0.11185E+09
        -0.11135E+09
        -0.78147E+08
        -0.40487E+08
        -0.38276E+08
        -0.20907E+08
        -0.13134E+08
        -0.12194E+08
        -0.30548E+07
        -0.15790E+08
        -0.71406E+07
        -0.56733E+07
        -0.19914E+08
        -0.13087E+08
        -0.19021E+08
         0.98355E+07
         0.42305E+08
         0.25134E+08
         0.36140E+07
         0.42133E+08
         0.78997E+07
        -0.25757E+07
         0.22551E+07
         0.10353E+08
         0.18911E+07
         0.90528E+07
         0.63388E+07
        -0.36836E+07
         0.30528E+07
        -0.12873E+08
         0.30051E+07
         0.86939E+06
         0.15439E+07
        -0.21121E+07
        -0.12597E+08
         0.85057E+07
         0.21610E+07
         0.55971E+07
         0.48386E+07
        -0.21028E+07
         0.69777E+07
         0.13246E+08
         0.32095E+08
         0.28451E+08
         0.24887E+08
         0.18241E+08
        -0.43193E+07
        -0.92596E+07
        -0.11612E+08
        -0.14867E+08
        -0.30292E+08
        -0.17646E+08
        -0.11608E+08
        -0.14496E+08
        -0.17096E+08
        -0.17841E+08
        -0.11799E+07
         0.22157E+08
        -0.31947E+08
         0.74422E+08
         0.96042E+08
         0.12383E+09
         0.14835E+09
         0.14521E+09
         0.12692E+09
         0.12172E+09
         0.12037E+09
         0.75648E+08
         0.25098E+08
         0.99534E+07
         0.86616E+07
        -0.36875E+07
        -0.33657E+08
        -0.67408E+08
        -0.93600E+08
        -0.12152E+09
        -0.13470E+09
        -0.11828E+09
        -0.11185E+09
        -0.11132E+09
        -0.78091E+08
        -0.40443E+08
        -0.38225E+08
        -0.20918E+08
        -0.13133E+08
        -0.12200E+08
        -0.30771E+07
        -0.15792E+08
        -0.71461E+07
        -0.56772E+07
        -0.19941E+08
        -0.13111E+08
        -0.19081E+08
         0.98444E+07
         0.42303E+08
         0.25143E+08
         0.36171E+07
         0.42187E+08
         0.79012E+07
        -0.25999E+07
         0.22515E+07
         0.10361E+08
         0.18781E+07
         0.90758E+07
         0.63434E+07
        -0.36889E+07
         0.30484E+07
        -0.12922E+08
         0.29939E+07
         0.88410E+06
         0.15602E+07
        -0.20853E+07
        -0.12616E+08
         0.85047E+07
         0.21481E+07
         0.56099E+07
         0.48474E+07
        -0.20807E+07
         0.69835E+07
         0.13247E+08
         0.32146E+08
         0.28515E+08
         0.24921E+08
         0.18262E+08
        -0.42970E+07
        -0.92642E+07
        -0.11629E+08
        -0.14877E+08
        -0.30299E+08
        -0.17654E+08
        -0.11607E+08
        -0.14482E+08
        -0.17074E+08
        -0.17834E+08
        -0.11593E+07
         0.22135E+08
        -0.31948E+08
         0.74434E+08
         0.96043E+08
         0.12382E+09
         0.14830E+09
         0.14514E+09
         0.12688E+09
         0.12170E+09
         0.12033E+09
         0.75636E+08
         0.25116E+08
         0.99550E+07
         0.86790E+07
        -0.36550E+07
        -0.33679E+08
        -0.67451E+08
        -0.93628E+08
        -0.12152E+09
        -0.13469E+09
        -0.11828E+09
        -0.11185E+09
        -0.11129E+09
        -0.78035E+08
        -0.40399E+08
        -0.38175E+08
        -0.20928E+08
        -0.13132E+08
        -0.12205E+08
        -0.30995E+07
        -0.15794E+08
        -0.71518E+07
        -0.56814E+07
        -0.19968E+08
        -0.13136E+08
        -0.19142E+08
         0.98532E+07
         0.42301E+08
         0.25151E+08
         0.36207E+07
         0.42241E+08
         0.79027E+07
        -0.26243E+07
         0.22479E+07
         0.10369E+08
         0.18649E+07
         0.90988E+07
         0.63479E+07
        -0.36944E+07
         0.30440E+07
        -0.12971E+08
         0.29827E+07
         0.89907E+06
         0.15763E+07
        -0.20586E+07
        -0.12635E+08
         0.85038E+07
         0.21352E+07
         0.56228E+07
         0.48562E+07
        -0.20586E+07
         0.69890E+07
         0.13248E+08
         0.32197E+08
         0.28580E+08
         0.24955E+08
         0.18282E+08
        -0.42747E+07
        -0.92687E+07
        -0.11645E+08
        -0.14887E+08
        -0.30306E+08
        -0.17663E+08
        -0.11607E+08
        -0.14468E+08
        -0.17053E+08
        -0.17827E+08
        -0.11387E+07
         0.22114E+08
        -0.31950E+08
         0.74447E+08
         0.96044E+08
         0.12380E+09
         0.14825E+09
         0.14508E+09
         0.12684E+09
         0.12167E+09
         0.12030E+09
         0.75623E+08
         0.25134E+08
         0.99565E+07
         0.86962E+07
        -0.36223E+07
        -0.33701E+08
        -0.67494E+08
        -0.93656E+08
        -0.12151E+09
        -0.13468E+09
        -0.11827E+09
        -0.11184E+09
        -0.11126E+09
        -0.77979E+08
        -0.40355E+08
        -0.38124E+08
        -0.20939E+08
        -0.13131E+08
        -0.12211E+08
        -0.31220E+07
        -0.15796E+08
        -0.71575E+07
        -0.56852E+07
        -0.19994E+08
        -0.13160E+08
        -0.19202E+08
         0.98620E+07
         0.42299E+08
         0.25159E+08
         0.36242E+07
         0.42295E+08
         0.79043E+07
        -0.26486E+07
         0.22443E+07
         0.10377E+08
         0.18519E+07
         0.91219E+07
         0.63523E+07
        -0.36999E+07
         0.30396E+07
        -0.13019E+08
         0.29716E+07
         0.91370E+06
         0.15923E+07
        -0.20318E+07
        -0.12654E+08
         0.85028E+07
         0.21223E+07
         0.56356E+07
         0.48651E+07
        -0.20364E+07
         0.69946E+07
         0.13248E+08
         0.32249E+08
         0.28644E+08
         0.24988E+08
         0.18303E+08
        -0.42527E+07
        -0.92731E+07
        -0.11662E+08
        -0.14898E+08
        -0.30313E+08
        -0.17670E+08
        -0.11606E+08
        -0.14455E+08
        -0.17031E+08
        -0.17820E+08
        -0.11181E+07
         0.22093E+08
        -0.31951E+08
         0.74460E+08
         0.96044E+08
         0.12379E+09
         0.14820E+09
         0.14502E+09
         0.12680E+09
         0.12165E+09
         0.12026E+09
         0.75611E+08
         0.25152E+08
         0.99580E+07
         0.87134E+07
        -0.35895E+07
        -0.33722E+08
        -0.67537E+08
        -0.93684E+08
        -0.12151E+09
        -0.13468E+09
        -0.11826E+09
        -0.11184E+09
        -0.11123E+09
        -0.77923E+08
        -0.40311E+08
        -0.38073E+08
        -0.20949E+08
        -0.13130E+08
        -0.12217E+08
        -0.31446E+07
        -0.15798E+08
        -0.71632E+07
        -0.56890E+07
        -0.20021E+08
        -0.13184E+08
        -0.19263E+08
         0.98708E+07
         0.42297E+08
         0.25168E+08
         0.36272E+07
         0.42350E+08
         0.79058E+07
        -0.26730E+07
         0.22405E+07
         0.10385E+08
         0.18389E+07
         0.91450E+07
         0.63569E+07
        -0.37052E+07
         0.30353E+07
        -0.13068E+08
         0.29604E+07
         0.92876E+06
         0.16082E+07
        -0.20051E+07
        -0.12672E+08
         0.85018E+07
         0.21092E+07
         0.56483E+07
         0.48738E+07
        -0.20141E+07
         0.70004E+07
         0.13249E+08
         0.32300E+08
         0.28709E+08
         0.25022E+08
         0.18323E+08
        -0.42304E+07
        -0.92775E+07
        -0.11679E+08
        -0.14908E+08
        -0.30319E+08
        -0.17679E+08
        -0.11606E+08
        -0.14441E+08
        -0.17010E+08
        -0.17812E+08
        -0.10975E+07
         0.22072E+08
        -0.31953E+08
         0.74472E+08
         0.96045E+08
         0.12377E+09
         0.14814E+09
         0.14496E+09
         0.12676E+09
         0.12162E+09
         0.12023E+09
         0.75598E+08
         0.25170E+08
         0.99595E+07
         0.87307E+07
        -0.35568E+07
        -0.33744E+08
        -0.67580E+08
        -0.93712E+08
        -0.12151E+09
        -0.13467E+09
        -0.11826E+09
        -0.11184E+09
        -0.11120E+09
        -0.77867E+08
        -0.40267E+08
        -0.38022E+08
        -0.20960E+08
        -0.13129E+08
        -0.12223E+08
        -0.31671E+07
        -0.15800E+08
        -0.71688E+07
        -0.56933E+07
        -0.20048E+08
        -0.13209E+08
        -0.19323E+08
         0.98796E+07
         0.42294E+08
         0.25176E+08
         0.36307E+07
         0.42404E+08
         0.79072E+07
        -0.26975E+07
         0.22369E+07
         0.10392E+08
         0.18259E+07
         0.91681E+07
         0.63614E+07
        -0.37107E+07
         0.30310E+07
        -0.13116E+08
         0.29492E+07
         0.94342E+06
         0.16238E+07
        -0.19786E+07
        -0.12691E+08
         0.85007E+07
         0.20963E+07
         0.56612E+07
         0.48827E+07
        -0.19918E+07
         0.70059E+07
         0.13250E+08
         0.32352E+08
         0.28774E+08
         0.25055E+08
         0.18344E+08
        -0.42081E+07
        -0.92820E+07
        -0.11696E+08
        -0.14918E+08
        -0.30326E+08
        -0.17687E+08
        -0.11605E+08
        -0.14427E+08
        -0.16989E+08
        -0.17805E+08
        -0.10771E+07
         0.22051E+08
        -0.31954E+08
         0.74485E+08
         0.96046E+08
         0.12376E+09
         0.14809E+09
         0.14489E+09
         0.12672E+09
         0.12160E+09
         0.12019E+09
         0.75586E+08
         0.25189E+08
         0.99610E+07
         0.87481E+07
        -0.35242E+07
        -0.33766E+08
        -0.67623E+08
        -0.93741E+08
        -0.12150E+09
        -0.13466E+09
        -0.11825E+09
        -0.11183E+09
        -0.11117E+09
        -0.77811E+08
        -0.40224E+08
        -0.37971E+08
        -0.20970E+08
        -0.13128E+08
        -0.12229E+08
        -0.31896E+07
        -0.15802E+08
        -0.71744E+07
        -0.56972E+07
        -0.20074E+08
        -0.13233E+08
        -0.19383E+08
         0.98884E+07
         0.42292E+08
         0.25185E+08
         0.36336E+07
         0.42458E+08
         0.79088E+07
        -0.27221E+07
         0.22333E+07
         0.10400E+08
         0.18129E+07
         0.91912E+07
         0.63658E+07
        -0.37160E+07
         0.30268E+07
        -0.13165E+08
         0.29380E+07
         0.95834E+06
         0.16392E+07
        -0.19521E+07
        -0.12710E+08
         0.84997E+07
         0.20833E+07
         0.56740E+07
         0.48916E+07
        -0.19695E+07
         0.70117E+07
         0.13251E+08
         0.32404E+08
         0.28839E+08
         0.25089E+08
         0.18364E+08
        -0.41859E+07
        -0.92866E+07
        -0.11712E+08
        -0.14928E+08
        -0.30333E+08
        -0.17695E+08
        -0.11605E+08
        -0.14413E+08
        -0.16967E+08
        -0.17798E+08
        -0.10565E+07
         0.22030E+08
        -0.31956E+08
         0.74497E+08
         0.96047E+08
         0.12374E+09
         0.14804E+09
         0.14483E+09
         0.12669E+09
         0.12157E+09
         0.12016E+09
         0.75573E+08
         0.25207E+08
         0.99625E+07
         0.87654E+07
        -0.34916E+07
        -0.33788E+08
        -0.67666E+08
        -0.93769E+08
        -0.12150E+09
        -0.13465E+09
        -0.11825E+09
        -0.11183E+09
        -0.11114E+09
        -0.77755E+08
        -0.40180E+08
        -0.37920E+08
        -0.20980E+08
        -0.13127E+08
        -0.12234E+08
        -0.32121E+07
        -0.15804E+08
        -0.71801E+07
        -0.57012E+07
        -0.20100E+08
        -0.13258E+08
        -0.19443E+08
         0.98972E+07
         0.42290E+08
         0.25193E+08
         0.36370E+07
         0.42512E+08
         0.79103E+07
        -0.27468E+07
         0.22296E+07
         0.10408E+08
         0.17998E+07
         0.92143E+07
         0.63700E+07
        -0.37214E+07
         0.30226E+07
        -0.13214E+08
         0.29268E+07
         0.97286E+06
         0.16544E+07
        -0.19257E+07
        -0.12728E+08
         0.84987E+07
         0.20704E+07
         0.56867E+07
         0.49006E+07
        -0.19470E+07
         0.70172E+07
         0.13252E+08
         0.32456E+08
         0.28903E+08
         0.25122E+08
         0.18384E+08
        -0.41638E+07
        -0.92912E+07
        -0.11729E+08
        -0.14939E+08
        -0.30340E+08
        -0.17703E+08
        -0.11604E+08
        -0.14399E+08
        -0.16946E+08
        -0.17791E+08
        -0.10360E+07
         0.22009E+08
        -0.31957E+08
         0.74509E+08
         0.96047E+08
         0.12373E+09
         0.14799E+09
         0.14477E+09
         0.12665E+09
         0.12155E+09
         0.12012E+09
         0.75561E+08
         0.25225E+08
         0.99639E+07
         0.87825E+07
        -0.34589E+07
        -0.33809E+08
        -0.67709E+08
        -0.93797E+08
        -0.12150E+09
        -0.13464E+09
        -0.11824E+09
        -0.11183E+09
        -0.11111E+09
        -0.77699E+08
        -0.40137E+08
        -0.37870E+08
        -0.20991E+08
        -0.13126E+08
        -0.12240E+08
        -0.32346E+07
        -0.15806E+08
        -0.71857E+07
        -0.57054E+07
        -0.20127E+08
        -0.13283E+08
        -0.19503E+08
         0.99061E+07
         0.42288E+08
         0.25202E+08
         0.36399E+07
         0.42567E+08
         0.79118E+07
        -0.27717E+07
         0.22259E+07
         0.10416E+08
         0.17870E+07
         0.92373E+07
         0.63741E+07
        -0.37267E+07
         0.30184E+07
        -0.13262E+08
         0.29155E+07
         0.98778E+06
         0.16694E+07
        -0.18993E+07
        -0.12746E+08
         0.84976E+07
         0.20574E+07
         0.56994E+07
         0.49095E+07
        -0.19244E+07
         0.70228E+07
         0.13253E+08
         0.32509E+08
         0.28968E+08
         0.25154E+08
         0.18405E+08
        -0.41418E+07
        -0.92958E+07
        -0.11746E+08
        -0.14949E+08
        -0.30347E+08
        -0.17711E+08
        -0.11604E+08
        -0.14386E+08
        -0.16924E+08
        -0.17783E+08
        -0.10156E+07
         0.21987E+08
        -0.31958E+08
         0.74521E+08
         0.96048E+08
         0.12371E+09
         0.14794E+09
         0.14470E+09
         0.12661E+09
         0.12152E+09
         0.12008E+09
         0.75549E+08
         0.25243E+08
         0.99650E+07
         0.87994E+07
        -0.34263E+07
        -0.33831E+08
        -0.67751E+08
        -0.93825E+08
        -0.12149E+09
        -0.13463E+09
        -0.11824E+09
        -0.11183E+09
        -0.11108E+09
        -0.77642E+08
        -0.40094E+08
        -0.37819E+08
        -0.21001E+08
        -0.13125E+08
        -0.12246E+08
        -0.32572E+07
        -0.15808E+08
        -0.71913E+07
        -0.57094E+07
        -0.20153E+08
        -0.13307E+08
        -0.19563E+08
         0.99149E+07
         0.42286E+08
         0.25210E+08
         0.36431E+07
         0.42620E+08
         0.79133E+07
        -0.27968E+07
         0.22221E+07
         0.10424E+08
         0.17747E+07
         0.92603E+07
         0.63781E+07
        -0.37322E+07
         0.30141E+07
        -0.13311E+08
         0.29043E+07
         0.10025E+07
         0.16843E+07
        -0.18729E+07
        -0.12763E+08
         0.84965E+07
         0.20442E+07
         0.57121E+07
         0.49184E+07
        -0.19019E+07
         0.70286E+07
         0.13253E+08
         0.32562E+08
         0.29032E+08
         0.25185E+08
         0.18425E+08
        -0.41195E+07
        -0.93006E+07
        -0.11762E+08
        -0.14960E+08
        -0.30354E+08
        -0.17719E+08
        -0.11603E+08
        -0.14372E+08
        -0.16903E+08
        -0.17777E+08
        -0.99514E+06
         0.21966E+08
        -0.31959E+08
         0.74533E+08
         0.96049E+08
         0.12370E+09
         0.14789E+09
         0.14464E+09
         0.12657E+09
         0.12150E+09
         0.12005E+09
         0.75538E+08
         0.25262E+08
         0.99654E+07
         0.88164E+07
        -0.33939E+07
        -0.33852E+08
        -0.67794E+08
        -0.93853E+08
        -0.12149E+09
        -0.13462E+09
        -0.11823E+09
        -0.11182E+09
        -0.11105E+09
        -0.77586E+08
        -0.40051E+08
        -0.37768E+08
        -0.21011E+08
        -0.13124E+08
        -0.12252E+08
        -0.32798E+07
        -0.15810E+08
        -0.71967E+07
        -0.57133E+07
        -0.20179E+08
        -0.13332E+08
        -0.19623E+08
         0.99237E+07
         0.42284E+08
         0.25219E+08
         0.36463E+07
         0.42675E+08
         0.79148E+07
        -0.28224E+07
         0.22183E+07
         0.10432E+08
         0.17629E+07
         0.92833E+07
         0.63820E+07
        -0.37375E+07
         0.30100E+07
        -0.13359E+08
         0.28930E+07
         0.10180E+07
         0.16990E+07
        -0.18467E+07
        -0.12779E+08
         0.84954E+07
         0.20312E+07
         0.57247E+07
         0.49273E+07
        -0.18791E+07
         0.70341E+07
         0.13254E+08
         0.32615E+08
         0.29096E+08
         0.25216E+08
         0.18444E+08
        -0.40973E+07
        -0.93057E+07
        -0.11779E+08
        -0.14970E+08
        -0.30361E+08
        -0.17728E+08
        -0.11603E+08
        -0.14358E+08
        -0.16881E+08
        -0.17769E+08
        -0.97456E+06
         0.21945E+08
        -0.31961E+08
         0.74545E+08
         0.96049E+08
         0.12368E+09
         0.14784E+09
         0.14457E+09
         0.12653E+09
         0.12147E+09
         0.12001E+09
         0.75529E+08
         0.25281E+08
         0.99651E+07
         0.88334E+07
        -0.33612E+07
        -0.33874E+08
        -0.67837E+08
        -0.93881E+08
        -0.12149E+09
        -0.13461E+09
        -0.11823E+09
        -0.11182E+09
        -0.11102E+09
        -0.77531E+08
        -0.40008E+08
        -0.37717E+08
        -0.21022E+08
        -0.13123E+08
        -0.12258E+08
        -0.33024E+07
        -0.15813E+08
        -0.72024E+07
        -0.57177E+07
        -0.20205E+08
        -0.13358E+08
        -0.19682E+08
         0.99325E+07
         0.42282E+08
         0.25227E+08
         0.36491E+07
         0.42729E+08
         0.79164E+07
        -0.28480E+07
         0.22146E+07
         0.10440E+08
         0.17514E+07
         0.93065E+07
         0.63859E+07
        -0.37426E+07
         0.30061E+07
        -0.13408E+08
         0.28822E+07
         0.10330E+07
         0.17132E+07
        -0.18208E+07
        -0.12795E+08
         0.84944E+07
         0.20185E+07
         0.57374E+07
         0.49364E+07
        -0.18566E+07
         0.70396E+07
         0.13255E+08
         0.32669E+08
         0.29160E+08
         0.25245E+08
         0.18464E+08
        -0.40756E+07
        -0.93111E+07
        -0.11795E+08
        -0.14980E+08
        -0.30368E+08
        -0.17736E+08
        -0.11602E+08
        -0.14345E+08
        -0.16860E+08
        -0.17762E+08
        -0.95413E+06
         0.21923E+08
        -0.31962E+08
         0.74557E+08
         0.96050E+08
         0.12367E+09
         0.14779E+09
         0.14451E+09
         0.12649E+09
         0.12144E+09
         0.11997E+09
         0.75520E+08
         0.25299E+08
         0.99640E+07
         0.88503E+07
        -0.33285E+07
        -0.33895E+08
        -0.67880E+08
        -0.93909E+08
        -0.12148E+09
        -0.13460E+09
        -0.11822E+09
        -0.11182E+09
        -0.11099E+09
        -0.77475E+08
        -0.39966E+08
        -0.37666E+08
        -0.21093E+08
        -0.13162E+08
        -0.12302E+08
        -0.33339E+07
        -0.15858E+08
        -0.72275E+07
        -0.57389E+07
        -0.20284E+08
        -0.13420E+08
        -0.19792E+08
         0.99670E+07
         0.42377E+08
         0.25296E+08
         0.36613E+07
         0.42881E+08
         0.79421E+07
        -0.28804E+07
         0.22176E+07
         0.10477E+08
         0.17461E+07
         0.93515E+07
         0.64060E+07
        -0.37542E+07
         0.30129E+07
        -0.13491E+08
         0.28833E+07
         0.10494E+07
         0.17285E+07
        -0.18046E+07
        -0.12847E+08
         0.85201E+07
         0.20154E+07
         0.57666E+07
         0.49598E+07
        -0.18409E+07
         0.70606E+07
         0.13287E+08
         0.32798E+08
         0.29293E+08
         0.25337E+08
         0.18526E+08
        -0.40694E+07
        -0.93427E+07
        -0.11836E+08
        -0.15024E+08
        -0.30441E+08
        -0.17784E+08
        -0.11629E+08
        -0.14369E+08
        -0.16884E+08
        -0.17800E+08
        -0.93647E+06
         0.21929E+08
        -0.32012E+08
         0.74669E+08
         0.96187E+08
         0.12383E+09
         0.14795E+09
         0.14466E+09
         0.12665E+09
         0.12160E+09
         0.12011E+09
         0.75624E+08
         0.25349E+08
         0.99761E+07
         0.88799E+07
        -0.33025E+07
        -0.33959E+08
        -0.68009E+08
        -0.94059E+08
        -0.12165E+09
        -0.13478E+09
        -0.11838E+09
        -0.11198E+09
        -0.11111E+09
        -0.77535E+08
        -0.39983E+08
        -0.37672E+08
        -0.31140E+08
        -0.19502E+08
        -0.18127E+08
        -0.49591E+07
        -0.22533E+08
        -0.10378E+08
        -0.84806E+07
        -0.29780E+08
        -0.19785E+08
        -0.29002E+08
         0.14463E+08
         0.59004E+08
         0.35790E+08
         0.52900E+07
         0.60032E+08
         0.11741E+08
        -0.42692E+07
         0.32773E+07
         0.15270E+08
         0.25430E+07
         0.13256E+08
         0.91832E+07
        -0.53263E+07
         0.44251E+07
        -0.19964E+08
         0.42701E+07
         0.15415E+07
         0.25566E+07
        -0.26560E+07
        -0.18968E+08
         0.12595E+08
         0.29677E+07
         0.85549E+07
         0.73448E+07
        -0.25300E+07
         0.10115E+08
         0.19036E+08
         0.46947E+08
         0.42546E+08
         0.36929E+08
         0.26629E+08
        -0.58836E+07
        -0.13542E+08
        -0.16929E+08
        -0.21406E+08
        -0.42088E+08
        -0.25244E+08
        -0.16713E+08
        -0.20758E+08
        -0.24276E+08
        -0.24969E+08
        -0.13187E+07
         0.22514E+08
        -0.32732E+08
         0.73656E+08
         0.96460E+08
         0.11851E+09
         0.13374E+09
         0.13408E+09
         0.12588E+09
         0.12210E+09
         0.11497E+09
         0.73949E+08
         0.25480E+08
         0.11703E+08
         0.10985E+08
        -0.38110E+07
        -0.37438E+08
        -0.72959E+08
        -0.92960E+08
        -0.12048E+09
        -0.13132E+09
        -0.12667E+09
        -0.12505E+09
        -0.11838E+09
        -0.84308E+08
        -0.42834E+08
        -0.40520E+08
  
SCALARS                      stress_xz  double 1
LOOKUP_TABLE default
        -0.40887E+05
         0.28858E+06
         0.95220E+06
        -0.65354E+05
        -0.34600E+00
         0.12268E+00
         0.41023E+00
         0.81929E-01
         0.26807E+07
         0.17905E+07
         0.12270E+01
         0.11052E+01
        -0.11443E+06
         0.46695E+06
        -0.15133E+00
        -0.70892E+00
         0.95565E+05
         0.44809E+06
        -0.51208E+00
        -0.76266E+00
         0.65729E+06
         0.11083E+07
         0.10484E+07
        -0.50926E+00
        -0.23483E+00
         0.41027E+00
         0.11707E+07
         0.95159E+06
        -0.95328E+00
        -0.75619E+00
        -0.22362E+06
         0.49726E+06
        -0.47490E+05
         0.97056E-01
        -0.37506E+00
        -0.23107E+00
        -0.66385E+06
        -0.32041E+06
        -0.55685E+00
        -0.59290E+00
        -0.13239E+07
        -0.18778E+07
        -0.12561E+01
        -0.92630E+00
        -0.14152E+07
        -0.75339E+06
        -0.13794E+01
        -0.66394E+00
         0.40737E+06
        -0.41676E+00
        -0.96715E+06
        -0.11601E+00
         0.42548E+06
        -0.81434E+00
        -0.31795E+06
        -0.21541E+00
        -0.13911E+07
        -0.38117E+06
        -0.18453E+00
        -0.44604E+00
         0.23878E+05
        -0.65899E+06
         0.36908E+00
         0.25310E+00
         0.17104E+06
        -0.37125E-01
         0.57281E+06
         0.24419E+00
         0.37734E+07
         0.25861E+07
         0.15263E+01
         0.11070E+01
         0.16638E+07
         0.80601E+00
        -0.39351E+06
        -0.55756E+00
        -0.12316E+07
        -0.10943E+00
        -0.26108E+07
        -0.16977E+00
        -0.34526E+07
        -0.24504E+07
        -0.62218E+00
        -0.71157E+00
        -0.21621E+07
        -0.76526E+00
        -0.17162E+07
        -0.11018E+01
        -0.10693E+07
        -0.70274E+00
        -0.16840E+07
        -0.12388E+07
        -0.29992E+00
         0.41130E+00
         0.28310E+06
         0.48245E+00
         0.77695E+06
         0.20257E+00
         0.18658E+07
         0.50024E+00
         0.27583E+07
         0.18927E+07
         0.11534E+01
         0.12036E+01
         0.67621E+07
         0.74840E+07
         0.21313E+01
         0.21003E+01
         0.66979E+07
         0.18207E+01
         0.61011E+07
         0.13607E+01
         0.43795E+07
         0.74774E+00
         0.31858E+07
         0.79959E-01
         0.11835E+07
        -0.28479E+00
        -0.15258E+07
        -0.22785E+00
        -0.36415E+07
        -0.22395E+00
        -0.54106E+07
        -0.50502E+00
        -0.72724E+07
        -0.96080E+00
        -0.88246E+07
        -0.11465E+01
        -0.93665E+07
        -0.10818E+01
        -0.89135E+07
        -0.11764E+01
        -0.81619E+07
        -0.15267E+01
        -0.73364E+07
        -0.18003E+01
        -0.64707E+07
        -0.16736E+01
        -0.51528E+07
        -0.13601E+01
        -0.30263E+07
        -0.64210E+00
        -0.25952E+06
         0.12261E+00
         0.16921E+07
         0.29768E+00
         0.26476E+07
         0.48677E+00
         0.39838E+07
         0.95264E+00
         0.52525E+07
         0.15632E+01
         0.69013E+07
         0.18781E+01
         0.79252E+07
         0.19210E+01
        -0.71063E+06
         0.37020E+06
         0.43427E+06
        -0.87379E+06
         0.33870E+07
         0.26183E+07
         0.39563E+06
        -0.58092E+06
        -0.29941E+06
        -0.53308E+06
         0.29294E+06
         0.12685E+07
         0.26488E+07
        -0.84731E+06
        -0.10195E+07
         0.11629E+07
         0.97598E+06
        -0.45238E+06
        -0.70453E+06
        -0.75773E+06
        -0.41432E+07
        -0.44105E+07
        -0.39848E+07
        -0.12383E+07
         0.49635E+06
        -0.36989E+06
        -0.11889E+07
        -0.13331E+06
        -0.13645E+07
        -0.93771E+06
         0.10383E+07
         0.20391E+06
        -0.48927E+06
        -0.15828E+06
         0.50131E+07
         0.31927E+07
         0.28887E+07
        -0.20226E+07
        -0.11522E+07
        -0.24656E+07
        -0.50748E+07
        -0.47269E+07
        -0.46638E+07
        -0.34287E+07
        -0.24604E+07
        -0.19259E+07
         0.36154E+06
         0.15092E+07
         0.43646E+06
         0.13842E+07
         0.36991E+07
         0.31140E+07
         0.14649E+08
         0.15372E+08
         0.13740E+08
         0.11688E+08
         0.87030E+07
         0.44336E+07
        -0.26311E+06
        -0.31593E+07
        -0.48136E+07
        -0.82641E+07
        -0.13472E+08
        -0.16386E+08
        -0.15009E+08
        -0.14393E+08
        -0.15202E+08
        -0.15196E+08
        -0.13804E+08
        -0.12089E+08
        -0.61279E+07
         0.96851E+06
         0.37218E+07
         0.41490E+07
         0.70260E+07
         0.11222E+08
         0.14554E+08
         0.15295E+08
        -0.70663E+07
         0.14505E+07
        -0.27615E+07
        -0.80407E+07
         0.16494E+08
         0.14095E+08
         0.41066E+07
        -0.89647E+07
        -0.41191E+07
        -0.85227E+07
        -0.17217E+07
         0.62819E+07
         0.20666E+08
        -0.15848E+08
        -0.16416E+08
         0.13883E+08
         0.77284E+07
        -0.46289E+07
        -0.31152E+07
        -0.54707E+07
        -0.32462E+08
        -0.30937E+08
        -0.30528E+08
        -0.73837E+07
         0.41938E+07
         0.28238E+07
        -0.15314E+08
         0.20333E+07
        -0.51250E+07
        -0.69890E+07
         0.10666E+08
         0.69017E+07
        -0.69176E+07
        -0.59703E+07
         0.29415E+08
         0.16235E+08
         0.18622E+08
        -0.18204E+08
        -0.30478E+07
        -0.88363E+07
        -0.32464E+08
        -0.33394E+08
        -0.32642E+08
        -0.23601E+08
        -0.18175E+08
        -0.10634E+08
         0.11493E+08
         0.13568E+08
        -0.17935E+07
         0.21595E+07
         0.22135E+08
         0.19499E+08
         0.12301E+09
         0.12397E+09
         0.11129E+09
         0.91787E+08
         0.68491E+08
         0.31547E+08
        -0.78322E+07
        -0.25375E+08
        -0.33427E+08
        -0.61277E+08
        -0.10884E+09
        -0.12840E+09
        -0.10766E+09
        -0.10242E+09
        -0.11284E+09
        -0.11622E+09
        -0.10608E+09
        -0.10035E+09
        -0.51126E+08
         0.13288E+08
         0.29388E+08
         0.29773E+08
         0.52935E+08
         0.91653E+08
         0.11731E+09
         0.11694E+09
        -0.70797E+07
         0.14559E+07
        -0.27667E+07
        -0.80461E+07
         0.16478E+08
         0.14082E+08
         0.41327E+07
        -0.89421E+07
        -0.41236E+07
        -0.85160E+07
        -0.16869E+07
         0.62972E+07
         0.20678E+08
        -0.15809E+08
        -0.16407E+08
         0.13897E+08
         0.77454E+07
        -0.46161E+07
        -0.31136E+07
        -0.54611E+07
        -0.32458E+08
        -0.30933E+08
        -0.30526E+08
        -0.73841E+07
         0.42033E+07
         0.28285E+07
        -0.15319E+08
         0.19951E+07
        -0.51611E+07
        -0.69934E+07
         0.10681E+08
         0.69008E+07
        -0.68888E+07
        -0.59730E+07
         0.29430E+08
         0.16227E+08
         0.18617E+08
        -0.18233E+08
        -0.30770E+07
        -0.88642E+07
        -0.32484E+08
        -0.33413E+08
        -0.32643E+08
        -0.23598E+08
        -0.18168E+08
        -0.10629E+08
         0.11491E+08
         0.13573E+08
        -0.17804E+07
         0.21521E+07
         0.22121E+08
         0.19470E+08
         0.12297E+09
         0.12394E+09
         0.11128E+09
         0.91788E+08
         0.68470E+08
         0.31537E+08
        -0.78411E+07
        -0.25391E+08
        -0.33399E+08
        -0.61253E+08
        -0.10882E+09
        -0.12840E+09
        -0.10765E+09
        -0.10242E+09
        -0.11286E+09
        -0.11624E+09
        -0.10610E+09
        -0.10037E+09
        -0.51111E+08
         0.13294E+08
         0.29366E+08
         0.29761E+08
         0.52896E+08
         0.91596E+08
         0.11726E+09
         0.11689E+09
        -0.70931E+07
         0.14612E+07
        -0.27719E+07
        -0.80515E+07
         0.16461E+08
         0.14069E+08
         0.41589E+07
        -0.89194E+07
        -0.41278E+07
        -0.85088E+07
        -0.16521E+07
         0.63125E+07
         0.20691E+08
        -0.15770E+08
        -0.16398E+08
         0.13912E+08
         0.77627E+07
        -0.46032E+07
        -0.31121E+07
        -0.54518E+07
        -0.32456E+08
        -0.30930E+08
        -0.30524E+08
        -0.73845E+07
         0.42134E+07
         0.28336E+07
        -0.15323E+08
         0.19574E+07
        -0.51973E+07
        -0.69978E+07
         0.10697E+08
         0.69002E+07
        -0.68598E+07
        -0.59756E+07
         0.29445E+08
         0.16220E+08
         0.18610E+08
        -0.18262E+08
        -0.31061E+07
        -0.88923E+07
        -0.32505E+08
        -0.33433E+08
        -0.32646E+08
        -0.23595E+08
        -0.18162E+08
        -0.10624E+08
         0.11489E+08
         0.13577E+08
        -0.17670E+07
         0.21445E+07
         0.22107E+08
         0.19441E+08
         0.12293E+09
         0.12390E+09
         0.11127E+09
         0.91788E+08
         0.68449E+08
         0.31528E+08
        -0.78500E+07
        -0.25406E+08
        -0.33371E+08
        -0.61229E+08
        -0.10881E+09
        -0.12840E+09
        -0.10764E+09
        -0.10241E+09
        -0.11287E+09
        -0.11627E+09
        -0.10612E+09
        -0.10039E+09
        -0.51097E+08
         0.13301E+08
         0.29345E+08
         0.29749E+08
         0.52857E+08
         0.91540E+08
         0.11720E+09
         0.11684E+09
        -0.71065E+07
         0.14667E+07
        -0.27770E+07
        -0.80567E+07
         0.16445E+08
         0.14056E+08
         0.41848E+07
        -0.88966E+07
        -0.41316E+07
        -0.85004E+07
        -0.16174E+07
         0.63280E+07
         0.20703E+08
        -0.15731E+08
        -0.16389E+08
         0.13928E+08
         0.77808E+07
        -0.45902E+07
        -0.31108E+07
        -0.54421E+07
        -0.32454E+08
        -0.30928E+08
        -0.30524E+08
        -0.73849E+07
         0.42254E+07
         0.28399E+07
        -0.15327E+08
         0.19208E+07
        -0.52335E+07
        -0.70019E+07
         0.10715E+08
         0.69009E+07
        -0.68307E+07
        -0.59783E+07
         0.29459E+08
         0.16213E+08
         0.18604E+08
        -0.18291E+08
        -0.31353E+07
        -0.89201E+07
        -0.32526E+08
        -0.33454E+08
        -0.32650E+08
        -0.23593E+08
        -0.18155E+08
        -0.10618E+08
         0.11487E+08
         0.13582E+08
        -0.17536E+07
         0.21369E+07
         0.22093E+08
         0.19412E+08
         0.12289E+09
         0.12387E+09
         0.11126E+09
         0.91789E+08
         0.68428E+08
         0.31518E+08
        -0.78591E+07
        -0.25422E+08
        -0.33342E+08
        -0.61204E+08
        -0.10879E+09
        -0.12841E+09
        -0.10763E+09
        -0.10241E+09
        -0.11289E+09
        -0.11630E+09
        -0.10614E+09
        -0.10040E+09
        -0.51083E+08
         0.13307E+08
         0.29323E+08
         0.29738E+08
         0.52819E+08
         0.91484E+08
         0.11714E+09
         0.11679E+09
        -0.71197E+07
         0.14722E+07
        -0.27822E+07
        -0.80620E+07
         0.16429E+08
         0.14043E+08
         0.42111E+07
        -0.88735E+07
        -0.41347E+07
        -0.84907E+07
        -0.15826E+07
         0.63434E+07
         0.20716E+08
        -0.15692E+08
        -0.16381E+08
         0.13945E+08
         0.77996E+07
        -0.45772E+07
        -0.31091E+07
        -0.54323E+07
        -0.32453E+08
        -0.30926E+08
        -0.30526E+08
        -0.73854E+07
         0.42393E+07
         0.28471E+07
        -0.15330E+08
         0.18854E+07
        -0.52694E+07
        -0.70058E+07
         0.10733E+08
         0.69026E+07
        -0.68015E+07
        -0.59810E+07
         0.29474E+08
         0.16206E+08
         0.18599E+08
        -0.18320E+08
        -0.31642E+07
        -0.89483E+07
        -0.32548E+08
        -0.33476E+08
        -0.32656E+08
        -0.23591E+08
        -0.18148E+08
        -0.10612E+08
         0.11486E+08
         0.13587E+08
        -0.17402E+07
         0.21294E+07
         0.22079E+08
         0.19384E+08
         0.12285E+09
         0.12384E+09
         0.11125E+09
         0.91789E+08
         0.68407E+08
         0.31509E+08
        -0.78679E+07
        -0.25438E+08
        -0.33314E+08
        -0.61180E+08
        -0.10877E+09
        -0.12841E+09
        -0.10763E+09
        -0.10240E+09
        -0.11291E+09
        -0.11633E+09
        -0.10616E+09
        -0.10042E+09
        -0.51069E+08
         0.13313E+08
         0.29302E+08
         0.29726E+08
         0.52780E+08
         0.91428E+08
         0.11708E+09
         0.11674E+09
        -0.71325E+07
         0.14781E+07
        -0.27867E+07
        -0.80671E+07
         0.16413E+08
         0.14030E+08
         0.42373E+07
        -0.88502E+07
        -0.41378E+07
        -0.84807E+07
        -0.15479E+07
         0.63587E+07
         0.20728E+08
        -0.15652E+08
        -0.16372E+08
         0.13963E+08
         0.78184E+07
        -0.45641E+07
        -0.31073E+07
        -0.54229E+07
        -0.32453E+08
        -0.30925E+08
        -0.30528E+08
        -0.73860E+07
         0.42531E+07
         0.28545E+07
        -0.15333E+08
         0.18502E+07
        -0.53057E+07
        -0.70103E+07
         0.10751E+08
         0.69041E+07
        -0.67720E+07
        -0.59834E+07
         0.29490E+08
         0.16199E+08
         0.18593E+08
        -0.18349E+08
        -0.31933E+07
        -0.89765E+07
        -0.32570E+08
        -0.33499E+08
        -0.32664E+08
        -0.23590E+08
        -0.18141E+08
        -0.10607E+08
         0.11484E+08
         0.13592E+08
        -0.17265E+07
         0.21225E+07
         0.22066E+08
         0.19356E+08
         0.12280E+09
         0.12381E+09
         0.11124E+09
         0.91790E+08
         0.68385E+08
         0.31499E+08
        -0.78766E+07
        -0.25453E+08
        -0.33286E+08
        -0.61155E+08
        -0.10876E+09
        -0.12842E+09
        -0.10762E+09
        -0.10240E+09
        -0.11293E+09
        -0.11637E+09
        -0.10618E+09
        -0.10044E+09
        -0.51054E+08
         0.13318E+08
         0.29280E+08
         0.29714E+08
         0.52741E+08
         0.91372E+08
         0.11702E+09
         0.11668E+09
        -0.71442E+07
         0.14853E+07
        -0.27903E+07
        -0.80722E+07
         0.16398E+08
         0.14018E+08
         0.42640E+07
        -0.88263E+07
        -0.41411E+07
        -0.84713E+07
        -0.15129E+07
         0.63741E+07
         0.20741E+08
        -0.15613E+08
        -0.16363E+08
         0.13980E+08
         0.78365E+07
        -0.45510E+07
        -0.31059E+07
        -0.54138E+07
        -0.32452E+08
        -0.30924E+08
        -0.30531E+08
        -0.73868E+07
         0.42654E+07
         0.28610E+07
        -0.15336E+08
         0.18142E+07
        -0.53423E+07
        -0.70155E+07
         0.10768E+08
         0.69044E+07
        -0.67418E+07
        -0.59851E+07
         0.29505E+08
         0.16193E+08
         0.18588E+08
        -0.18378E+08
        -0.32225E+07
        -0.90053E+07
        -0.32593E+08
        -0.33523E+08
        -0.32672E+08
        -0.23590E+08
        -0.18135E+08
        -0.10602E+08
         0.11482E+08
         0.13596E+08
        -0.17116E+07
         0.21171E+07
         0.22054E+08
         0.19327E+08
         0.12276E+09
         0.12378E+09
         0.11123E+09
         0.91790E+08
         0.68364E+08
         0.31489E+08
        -0.78853E+07
        -0.25469E+08
        -0.33258E+08
        -0.61131E+08
        -0.10874E+09
        -0.12842E+09
        -0.10762E+09
        -0.10240E+09
        -0.11294E+09
        -0.11641E+09
        -0.10621E+09
        -0.10046E+09
        -0.51040E+08
         0.13323E+08
         0.29257E+08
         0.29703E+08
         0.52703E+08
         0.91317E+08
         0.11697E+09
         0.11663E+09
        -0.71554E+07
         0.14928E+07
        -0.27933E+07
        -0.80770E+07
         0.16383E+08
         0.14005E+08
         0.42911E+07
        -0.88021E+07
        -0.41444E+07
        -0.84622E+07
        -0.14779E+07
         0.63895E+07
         0.20754E+08
        -0.15574E+08
        -0.16353E+08
         0.13998E+08
         0.78543E+07
        -0.45377E+07
        -0.31042E+07
        -0.54052E+07
        -0.32452E+08
        -0.30923E+08
        -0.30534E+08
        -0.73876E+07
         0.42768E+07
         0.28671E+07
        -0.15339E+08
         0.17779E+07
        -0.53794E+07
        -0.70211E+07
         0.10785E+08
         0.69039E+07
        -0.67113E+07
        -0.59865E+07
         0.29521E+08
         0.16188E+08
         0.18584E+08
        -0.18407E+08
        -0.32517E+07
        -0.90339E+07
        -0.32615E+08
        -0.33547E+08
        -0.32680E+08
        -0.23590E+08
        -0.18130E+08
        -0.10598E+08
         0.11479E+08
         0.13601E+08
        -0.16962E+07
         0.21125E+07
         0.22042E+08
         0.19300E+08
         0.12272E+09
         0.12374E+09
         0.11122E+09
         0.91790E+08
         0.68343E+08
         0.31480E+08
        -0.78940E+07
        -0.25485E+08
        -0.33230E+08
        -0.61107E+08
        -0.10872E+09
        -0.12843E+09
        -0.10762E+09
        -0.10239E+09
        -0.11296E+09
        -0.11644E+09
        -0.10623E+09
        -0.10048E+09
        -0.51025E+08
         0.13327E+08
         0.29235E+08
         0.29691E+08
         0.52666E+08
         0.91261E+08
         0.11691E+09
         0.11658E+09
        -0.71666E+07
         0.15004E+07
        -0.27963E+07
        -0.80819E+07
         0.16367E+08
         0.13991E+08
         0.43179E+07
        -0.87781E+07
        -0.41479E+07
        -0.84533E+07
        -0.14430E+07
         0.64048E+07
         0.20767E+08
        -0.15535E+08
        -0.16344E+08
         0.14015E+08
         0.78720E+07
        -0.45246E+07
        -0.31026E+07
        -0.53962E+07
        -0.32451E+08
        -0.30922E+08
        -0.30537E+08
        -0.73886E+07
         0.42882E+07
         0.28732E+07
        -0.15343E+08
         0.17417E+07
        -0.54164E+07
        -0.70267E+07
         0.10802E+08
         0.69035E+07
        -0.66808E+07
        -0.59879E+07
         0.29537E+08
         0.16182E+08
         0.18579E+08
        -0.18435E+08
        -0.32811E+07
        -0.90624E+07
        -0.32638E+08
        -0.33570E+08
        -0.32688E+08
        -0.23590E+08
        -0.18125E+08
        -0.10594E+08
         0.11476E+08
         0.13605E+08
        -0.16807E+07
         0.21081E+07
         0.22031E+08
         0.19272E+08
         0.12268E+09
         0.12371E+09
         0.11121E+09
         0.91791E+08
         0.68322E+08
         0.31470E+08
        -0.79027E+07
        -0.25500E+08
        -0.33202E+08
        -0.61083E+08
        -0.10870E+09
        -0.12843E+09
        -0.10761E+09
        -0.10239E+09
        -0.11298E+09
        -0.11648E+09
        -0.10626E+09
        -0.10050E+09
        -0.51010E+08
         0.13331E+08
         0.29212E+08
         0.29680E+08
         0.52628E+08
         0.91206E+08
         0.11685E+09
         0.11653E+09
        -0.71779E+07
         0.15080E+07
        -0.27992E+07
        -0.80868E+07
         0.16352E+08
         0.13979E+08
         0.43450E+07
        -0.87540E+07
        -0.41513E+07
        -0.84443E+07
        -0.14080E+07
         0.64202E+07
         0.20780E+08
        -0.15496E+08
        -0.16335E+08
         0.14033E+08
         0.78897E+07
        -0.45115E+07
        -0.31009E+07
        -0.53875E+07
        -0.32451E+08
        -0.30921E+08
        -0.30539E+08
        -0.73896E+07
         0.42996E+07
         0.28792E+07
        -0.15346E+08
         0.17058E+07
        -0.54533E+07
        -0.70322E+07
         0.10819E+08
         0.69030E+07
        -0.66504E+07
        -0.59894E+07
         0.29553E+08
         0.16177E+08
         0.18575E+08
        -0.18464E+08
        -0.33104E+07
        -0.90914E+07
        -0.32660E+08
        -0.33594E+08
        -0.32695E+08
        -0.23590E+08
        -0.18119E+08
        -0.10590E+08
         0.11473E+08
         0.13609E+08
        -0.16655E+07
         0.21033E+07
         0.22019E+08
         0.19244E+08
         0.12263E+09
         0.12368E+09
         0.11119E+09
         0.91791E+08
         0.68301E+08
         0.31460E+08
        -0.79113E+07
        -0.25515E+08
        -0.33174E+08
        -0.61059E+08
        -0.10868E+09
        -0.12844E+09
        -0.10761E+09
        -0.10238E+09
        -0.11300E+09
        -0.11651E+09
        -0.10628E+09
        -0.10051E+09
        -0.50995E+08
         0.13335E+08
         0.29189E+08
         0.29668E+08
         0.52591E+08
         0.91151E+08
         0.11679E+09
         0.11648E+09
        -0.71890E+07
         0.15156E+07
        -0.28023E+07
        -0.80916E+07
         0.16337E+08
         0.13966E+08
         0.43718E+07
        -0.87298E+07
        -0.41547E+07
        -0.84354E+07
        -0.13730E+07
         0.64357E+07
         0.20793E+08
        -0.15457E+08
        -0.16326E+08
         0.14050E+08
         0.79074E+07
        -0.44985E+07
        -0.30995E+07
        -0.53785E+07
        -0.32450E+08
        -0.30920E+08
        -0.30542E+08
        -0.73906E+07
         0.43109E+07
         0.28852E+07
        -0.15350E+08
         0.16698E+07
        -0.54901E+07
        -0.70376E+07
         0.10835E+08
         0.69025E+07
        -0.66200E+07
        -0.59909E+07
         0.29569E+08
         0.16171E+08
         0.18570E+08
        -0.18493E+08
        -0.33399E+07
        -0.91198E+07
        -0.32683E+08
        -0.33617E+08
        -0.32703E+08
        -0.23589E+08
        -0.18114E+08
        -0.10586E+08
         0.11470E+08
         0.13614E+08
        -0.16500E+07
         0.20986E+07
         0.22008E+08
         0.19217E+08
         0.12259E+09
         0.12365E+09
         0.11118E+09
         0.91790E+08
         0.68279E+08
         0.31451E+08
        -0.79197E+07
        -0.25531E+08
        -0.33146E+08
        -0.61034E+08
        -0.10867E+09
        -0.12844E+09
        -0.10760E+09
        -0.10238E+09
        -0.11302E+09
        -0.11655E+09
        -0.10630E+09
        -0.10053E+09
        -0.50980E+08
         0.13339E+08
         0.29165E+08
         0.29657E+08
         0.52553E+08
         0.91095E+08
         0.11673E+09
         0.11642E+09
        -0.72002E+07
         0.15232E+07
        -0.28052E+07
        -0.80964E+07
         0.16321E+08
         0.13953E+08
         0.43987E+07
        -0.87057E+07
        -0.41581E+07
        -0.84265E+07
        -0.13382E+07
         0.64512E+07
         0.20806E+08
        -0.15419E+08
        -0.16317E+08
         0.14067E+08
         0.79251E+07
        -0.44854E+07
        -0.30980E+07
        -0.53698E+07
        -0.32450E+08
        -0.30919E+08
        -0.30544E+08
        -0.73917E+07
         0.43221E+07
         0.28914E+07
        -0.15354E+08
         0.16340E+07
        -0.55266E+07
        -0.70433E+07
         0.10852E+08
         0.69020E+07
        -0.65894E+07
        -0.59923E+07
         0.29586E+08
         0.16166E+08
         0.18566E+08
        -0.18521E+08
        -0.33694E+07
        -0.91489E+07
        -0.32705E+08
        -0.33641E+08
        -0.32711E+08
        -0.23589E+08
        -0.18109E+08
        -0.10582E+08
         0.11467E+08
         0.13618E+08
        -0.16346E+07
         0.20942E+07
         0.21997E+08
         0.19189E+08
         0.12255E+09
         0.12362E+09
         0.11117E+09
         0.91790E+08
         0.68258E+08
         0.31441E+08
        -0.79282E+07
        -0.25546E+08
        -0.33118E+08
        -0.61010E+08
        -0.10865E+09
        -0.12845E+09
        -0.10760E+09
        -0.10238E+09
        -0.11303E+09
        -0.11658E+09
        -0.10633E+09
        -0.10055E+09
        -0.50965E+08
         0.13343E+08
         0.29142E+08
         0.29645E+08
         0.52516E+08
         0.91040E+08
         0.11668E+09
         0.11637E+09
        -0.72114E+07
         0.15309E+07
        -0.28081E+07
        -0.81012E+07
         0.16306E+08
         0.13940E+08
         0.44256E+07
        -0.86816E+07
        -0.41613E+07
        -0.84174E+07
        -0.13034E+07
         0.64666E+07
         0.20819E+08
        -0.15380E+08
        -0.16307E+08
         0.14085E+08
         0.79427E+07
        -0.44722E+07
        -0.30964E+07
        -0.53609E+07
        -0.32449E+08
        -0.30918E+08
        -0.30547E+08
        -0.73928E+07
         0.43332E+07
         0.28974E+07
        -0.15357E+08
         0.15981E+07
        -0.55634E+07
        -0.70487E+07
         0.10869E+08
         0.69015E+07
        -0.65588E+07
        -0.59938E+07
         0.29602E+08
         0.16161E+08
         0.18562E+08
        -0.18549E+08
        -0.33989E+07
        -0.91775E+07
        -0.32728E+08
        -0.33664E+08
        -0.32719E+08
        -0.23590E+08
        -0.18104E+08
        -0.10577E+08
         0.11464E+08
         0.13622E+08
        -0.16190E+07
         0.20895E+07
         0.21985E+08
         0.19161E+08
         0.12251E+09
         0.12359E+09
         0.11116E+09
         0.91791E+08
         0.68237E+08
         0.31432E+08
        -0.79368E+07
        -0.25561E+08
        -0.33090E+08
        -0.60985E+08
        -0.10863E+09
        -0.12845E+09
        -0.10759E+09
        -0.10237E+09
        -0.11305E+09
        -0.11662E+09
        -0.10635E+09
        -0.10056E+09
        -0.50950E+08
         0.13347E+08
         0.29119E+08
         0.29634E+08
         0.52478E+08
         0.90985E+08
         0.11662E+09
         0.11632E+09
        -0.72227E+07
         0.15384E+07
        -0.28110E+07
        -0.81059E+07
         0.16291E+08
         0.13927E+08
         0.44522E+07
        -0.86574E+07
        -0.41646E+07
        -0.84083E+07
        -0.12686E+07
         0.64819E+07
         0.20832E+08
        -0.15341E+08
        -0.16298E+08
         0.14102E+08
         0.79604E+07
        -0.44591E+07
        -0.30952E+07
        -0.53523E+07
        -0.32449E+08
        -0.30917E+08
        -0.30550E+08
        -0.73939E+07
         0.43442E+07
         0.29035E+07
        -0.15361E+08
         0.15624E+07
        -0.56002E+07
        -0.70541E+07
         0.10886E+08
         0.69010E+07
        -0.65282E+07
        -0.59952E+07
         0.29618E+08
         0.16155E+08
         0.18557E+08
        -0.18578E+08
        -0.34285E+07
        -0.92066E+07
        -0.32751E+08
        -0.33687E+08
        -0.32727E+08
        -0.23589E+08
        -0.18098E+08
        -0.10574E+08
         0.11461E+08
         0.13627E+08
        -0.16036E+07
         0.20849E+07
         0.21974E+08
         0.19133E+08
         0.12246E+09
         0.12356E+09
         0.11115E+09
         0.91791E+08
         0.68216E+08
         0.31422E+08
        -0.79453E+07
        -0.25576E+08
        -0.33061E+08
        -0.60961E+08
        -0.10861E+09
        -0.12846E+09
        -0.10759E+09
        -0.10237E+09
        -0.11307E+09
        -0.11666E+09
        -0.10638E+09
        -0.10058E+09
        -0.50935E+08
         0.13351E+08
         0.29097E+08
         0.29623E+08
         0.52440E+08
         0.90930E+08
         0.11656E+09
         0.11627E+09
        -0.72339E+07
         0.15459E+07
        -0.28139E+07
        -0.81107E+07
         0.16276E+08
         0.13914E+08
         0.44790E+07
        -0.86333E+07
        -0.41680E+07
        -0.83994E+07
        -0.12339E+07
         0.64976E+07
         0.20845E+08
        -0.15302E+08
        -0.16289E+08
         0.14119E+08
         0.79780E+07
        -0.44461E+07
        -0.30936E+07
        -0.53433E+07
        -0.32448E+08
        -0.30916E+08
        -0.30552E+08
        -0.73950E+07
         0.43552E+07
         0.29095E+07
        -0.15364E+08
         0.15267E+07
        -0.56369E+07
        -0.70595E+07
         0.10902E+08
         0.69004E+07
        -0.64976E+07
        -0.59966E+07
         0.29634E+08
         0.16150E+08
         0.18553E+08
        -0.18606E+08
        -0.34581E+07
        -0.92354E+07
        -0.32773E+08
        -0.33711E+08
        -0.32735E+08
        -0.23589E+08
        -0.18093E+08
        -0.10570E+08
         0.11458E+08
         0.13631E+08
        -0.15878E+07
         0.20803E+07
         0.21962E+08
         0.19106E+08
         0.12242E+09
         0.12352E+09
         0.11114E+09
         0.91791E+08
         0.68195E+08
         0.31412E+08
        -0.79537E+07
        -0.25591E+08
        -0.33033E+08
        -0.60937E+08
        -0.10860E+09
        -0.12846E+09
        -0.10758E+09
        -0.10237E+09
        -0.11309E+09
        -0.11669E+09
        -0.10640E+09
        -0.10060E+09
        -0.50920E+08
         0.13355E+08
         0.29074E+08
         0.29611E+08
         0.52403E+08
         0.90874E+08
         0.11650E+09
         0.11622E+09
        -0.72452E+07
         0.15536E+07
        -0.28168E+07
        -0.81154E+07
         0.16260E+08
         0.13901E+08
         0.45056E+07
        -0.86091E+07
        -0.41713E+07
        -0.83903E+07
        -0.11992E+07
         0.65130E+07
         0.20858E+08
        -0.15264E+08
        -0.16279E+08
         0.14137E+08
         0.79956E+07
        -0.44331E+07
        -0.30921E+07
        -0.53346E+07
        -0.32448E+08
        -0.30915E+08
        -0.30555E+08
        -0.73961E+07
         0.43661E+07
         0.29155E+07
        -0.15367E+08
         0.14911E+07
        -0.56736E+07
        -0.70648E+07
         0.10919E+08
         0.68999E+07
        -0.64670E+07
        -0.59981E+07
         0.29650E+08
         0.16145E+08
         0.18549E+08
        -0.18634E+08
        -0.34879E+07
        -0.92641E+07
        -0.32796E+08
        -0.33734E+08
        -0.32742E+08
        -0.23589E+08
        -0.18088E+08
        -0.10565E+08
         0.11455E+08
         0.13635E+08
        -0.15723E+07
         0.20757E+07
         0.21951E+08
         0.19078E+08
         0.12238E+09
         0.12349E+09
         0.11113E+09
         0.91791E+08
         0.68174E+08
         0.31402E+08
        -0.79618E+07
        -0.25605E+08
        -0.33005E+08
        -0.60912E+08
        -0.10858E+09
        -0.12847E+09
        -0.10758E+09
        -0.10236E+09
        -0.11311E+09
        -0.11673E+09
        -0.10643E+09
        -0.10062E+09
        -0.50905E+08
         0.13359E+08
         0.29050E+08
         0.29600E+08
         0.52365E+08
         0.90819E+08
         0.11645E+09
         0.11616E+09
        -0.72564E+07
         0.15612E+07
        -0.28198E+07
        -0.81202E+07
         0.16245E+08
         0.13888E+08
         0.45324E+07
        -0.85850E+07
        -0.41745E+07
        -0.83809E+07
        -0.11645E+07
         0.65286E+07
         0.20871E+08
        -0.15225E+08
        -0.16270E+08
         0.14154E+08
         0.80132E+07
        -0.44202E+07
        -0.30906E+07
        -0.53256E+07
        -0.32447E+08
        -0.30914E+08
        -0.30558E+08
        -0.73973E+07
         0.43766E+07
         0.29215E+07
        -0.15370E+08
         0.14551E+07
        -0.57099E+07
        -0.70701E+07
         0.10936E+08
         0.68995E+07
        -0.64365E+07
        -0.59996E+07
         0.29667E+08
         0.16140E+08
         0.18544E+08
        -0.18661E+08
        -0.35179E+07
        -0.92932E+07
        -0.32817E+08
        -0.33757E+08
        -0.32750E+08
        -0.23589E+08
        -0.18082E+08
        -0.10562E+08
         0.11452E+08
         0.13640E+08
        -0.15568E+07
         0.20710E+07
         0.21939E+08
         0.19050E+08
         0.12234E+09
         0.12346E+09
         0.11112E+09
         0.91791E+08
         0.68153E+08
         0.31393E+08
        -0.79699E+07
        -0.25620E+08
        -0.32978E+08
        -0.60888E+08
        -0.10856E+09
        -0.12848E+09
        -0.10758E+09
        -0.10236E+09
        -0.11313E+09
        -0.11676E+09
        -0.10645E+09
        -0.10063E+09
        -0.50891E+08
         0.13363E+08
         0.29027E+08
         0.29589E+08
         0.52328E+08
         0.90764E+08
         0.11639E+09
         0.11611E+09
        -0.72676E+07
         0.15687E+07
        -0.28226E+07
        -0.81248E+07
         0.16230E+08
         0.13875E+08
         0.45589E+07
        -0.85608E+07
        -0.41773E+07
        -0.83705E+07
        -0.11298E+07
         0.65441E+07
         0.20884E+08
        -0.15186E+08
        -0.16260E+08
         0.14171E+08
         0.80307E+07
        -0.44072E+07
        -0.30896E+07
        -0.53171E+07
        -0.32447E+08
        -0.30913E+08
        -0.30560E+08
        -0.73983E+07
         0.43866E+07
         0.29277E+07
        -0.15372E+08
         0.14182E+07
        -0.57465E+07
        -0.70758E+07
         0.10952E+08
         0.68988E+07
        -0.64058E+07
        -0.60011E+07
         0.29683E+08
         0.16135E+08
         0.18540E+08
        -0.18689E+08
        -0.35488E+07
        -0.93217E+07
        -0.32838E+08
        -0.33778E+08
        -0.32756E+08
        -0.23589E+08
        -0.18077E+08
        -0.10557E+08
         0.11449E+08
         0.13644E+08
        -0.15413E+07
         0.20663E+07
         0.21928E+08
         0.19022E+08
         0.12229E+09
         0.12343E+09
         0.11111E+09
         0.91791E+08
         0.68132E+08
         0.31383E+08
        -0.79781E+07
        -0.25635E+08
        -0.32950E+08
        -0.60863E+08
        -0.10854E+09
        -0.12849E+09
        -0.10758E+09
        -0.10236E+09
        -0.11314E+09
        -0.11680E+09
        -0.10647E+09
        -0.10065E+09
        -0.50876E+08
         0.13367E+08
         0.29005E+08
         0.29577E+08
         0.52290E+08
         0.90709E+08
         0.11633E+09
         0.11606E+09
        -0.72789E+07
         0.15762E+07
        -0.28254E+07
        -0.81295E+07
         0.16215E+08
         0.13862E+08
         0.45856E+07
        -0.85366E+07
        -0.41799E+07
        -0.83590E+07
        -0.10953E+07
         0.65596E+07
         0.20897E+08
        -0.15147E+08
        -0.16250E+08
         0.14189E+08
         0.80480E+07
        -0.43941E+07
        -0.30882E+07
        -0.53083E+07
        -0.32446E+08
        -0.30911E+08
        -0.30563E+08
        -0.73995E+07
         0.43957E+07
         0.29337E+07
        -0.15373E+08
         0.13802E+07
        -0.57830E+07
        -0.70812E+07
         0.10969E+08
         0.68983E+07
        -0.63751E+07
        -0.60026E+07
         0.29699E+08
         0.16129E+08
         0.18536E+08
        -0.18715E+08
        -0.35805E+07
        -0.93504E+07
        -0.32856E+08
        -0.33797E+08
        -0.32762E+08
        -0.23589E+08
        -0.18072E+08
        -0.10553E+08
         0.11446E+08
         0.13649E+08
        -0.15257E+07
         0.20617E+07
         0.21916E+08
         0.18994E+08
         0.12225E+09
         0.12340E+09
         0.11110E+09
         0.91791E+08
         0.68110E+08
         0.31374E+08
        -0.79861E+07
        -0.25650E+08
        -0.32923E+08
        -0.60837E+08
        -0.10852E+09
        -0.12850E+09
        -0.10758E+09
        -0.10236E+09
        -0.11316E+09
        -0.11683E+09
        -0.10650E+09
        -0.10067E+09
        -0.50861E+08
         0.13371E+08
         0.28982E+08
         0.29566E+08
         0.52253E+08
         0.90653E+08
         0.11627E+09
         0.11601E+09
        -0.72901E+07
         0.15838E+07
        -0.28283E+07
        -0.81342E+07
         0.16200E+08
         0.13850E+08
         0.46120E+07
        -0.85126E+07
        -0.41823E+07
        -0.83474E+07
        -0.10609E+07
         0.65748E+07
         0.20910E+08
        -0.15108E+08
        -0.16240E+08
         0.14206E+08
         0.80654E+07
        -0.43813E+07
        -0.30867E+07
        -0.52997E+07
        -0.32446E+08
        -0.30910E+08
        -0.30566E+08
        -0.74006E+07
         0.44046E+07
         0.29396E+07
        -0.15373E+08
         0.13421E+07
        -0.58192E+07
        -0.70866E+07
         0.10986E+08
         0.68977E+07
        -0.63447E+07
        -0.60042E+07
         0.29716E+08
         0.16124E+08
         0.18531E+08
        -0.18741E+08
        -0.36126E+07
        -0.93783E+07
        -0.32874E+08
        -0.33815E+08
        -0.32768E+08
        -0.23589E+08
        -0.18067E+08
        -0.10550E+08
         0.11443E+08
         0.13653E+08
        -0.15102E+07
         0.20569E+07
         0.21905E+08
         0.18967E+08
         0.12221E+09
         0.12337E+09
         0.11109E+09
         0.91791E+08
         0.68090E+08
         0.31363E+08
        -0.79940E+07
        -0.25664E+08
        -0.32896E+08
        -0.60810E+08
        -0.10850E+09
        -0.12851E+09
        -0.10758E+09
        -0.10235E+09
        -0.11318E+09
        -0.11687E+09
        -0.10652E+09
        -0.10068E+09
        -0.50846E+08
         0.13375E+08
         0.28959E+08
         0.29554E+08
         0.52216E+08
         0.90599E+08
         0.11622E+09
         0.11596E+09
        -0.73222E+07
         0.15943E+07
        -0.28396E+07
        -0.81622E+07
         0.16226E+08
         0.13874E+08
         0.46481E+07
        -0.85148E+07
        -0.41964E+07
        -0.83609E+07
        -0.10338E+07
         0.66015E+07
         0.20972E+08
        -0.15112E+08
        -0.16270E+08
         0.14263E+08
         0.81047E+07
        -0.43822E+07
        -0.30930E+07
        -0.53044E+07
        -0.32523E+08
        -0.30985E+08
        -0.30642E+08
        -0.74220E+07
         0.44246E+07
         0.29533E+07
        -0.15416E+08
         0.13100E+07
        -0.58680E+07
        -0.71104E+07
         0.11033E+08
         0.69161E+07
        -0.63353E+07
        -0.60233E+07
         0.29802E+08
         0.16161E+08
         0.18574E+08
        -0.18813E+08
        -0.36510E+07
        -0.94275E+07
        -0.32972E+08
        -0.33919E+08
        -0.32856E+08
        -0.23647E+08
        -0.18106E+08
        -0.10569E+08
         0.11469E+08
         0.13695E+08
        -0.15006E+07
         0.20575E+07
         0.21948E+08
         0.18990E+08
         0.12234E+09
         0.12351E+09
         0.11123E+09
         0.91922E+08
         0.68166E+08
         0.31394E+08
        -0.80159E+07
        -0.25712E+08
        -0.32918E+08
        -0.60872E+08
        -0.10865E+09
        -0.12872E+09
        -0.10774E+09
        -0.10251E+09
        -0.11336E+09
        -0.11706E+09
        -0.10669E+09
        -0.10084E+09
        -0.50900E+08
         0.13400E+08
         0.28983E+08
         0.29586E+08
         0.52257E+08
         0.90681E+08
         0.11633E+09
         0.11607E+09
        -0.10815E+08
         0.23696E+07
        -0.41846E+07
        -0.12080E+08
         0.23029E+08
         0.19891E+08
         0.68845E+07
        -0.12478E+08
        -0.61795E+07
        -0.12232E+08
        -0.14783E+07
         0.91945E+07
         0.29671E+08
        -0.21794E+08
        -0.22757E+08
         0.21090E+08
         0.11946E+08
        -0.64751E+07
        -0.45057E+07
        -0.77407E+07
        -0.46017E+08
        -0.44395E+08
        -0.43492E+08
        -0.10901E+08
         0.65376E+07
         0.43778E+07
        -0.22431E+08
         0.18995E+07
        -0.87140E+07
        -0.10489E+08
         0.16321E+08
         0.10194E+08
        -0.93533E+07
        -0.89114E+07
         0.41499E+08
         0.23143E+08
         0.26610E+08
        -0.26942E+08
        -0.53212E+07
        -0.13753E+08
        -0.47386E+08
        -0.49130E+08
        -0.47580E+08
        -0.33811E+08
        -0.25792E+08
        -0.14610E+08
         0.16277E+08
         0.19707E+08
        -0.21556E+07
         0.29569E+07
         0.30780E+08
         0.27134E+08
         0.12570E+09
         0.12622E+09
         0.10971E+09
         0.92186E+08
         0.65229E+08
         0.28370E+08
        -0.74409E+07
        -0.25564E+08
        -0.33037E+08
        -0.58258E+08
        -0.10624E+09
        -0.12937E+09
        -0.12646E+09
        -0.12667E+09
        -0.13167E+09
        -0.12905E+09
        -0.11444E+09
        -0.99652E+08
        -0.50403E+08
         0.13065E+08
         0.31008E+08
         0.33035E+08
         0.55665E+08
         0.98614E+08
         0.12467E+09
         0.12491E+09
  
SCALARS                      stress_xy  double 1
LOOKUP_TABLE default
        -0.33371E+00
        -0.78407E+00
        -0.67184E+01
         0.23695E+00
        -0.18097E-11
         0.17686E-12
         0.26591E-11
         0.40506E-12
        -0.70931E+02
         0.31152E+02
         0.11836E-10
         0.93860E-11
         0.26591E+01
        -0.55177E+00
         0.10447E-11
        -0.31378E-12
         0.76166E+00
         0.13342E+02
         0.52011E-13
         0.79258E-12
        -0.10165E+02
        -0.64563E+02
        -0.63416E+02
         0.80591E-11
         0.64180E-11
        -0.93722E-11
        -0.67216E+01
        -0.56256E+02
         0.10851E-10
         0.16699E-10
        -0.20369E+01
         0.39522E+01
         0.31995E+00
        -0.57276E-12
         0.22595E-11
        -0.28900E-13
        -0.17981E+02
        -0.83744E+01
         0.60471E-11
         0.50095E-11
        -0.35269E+02
        -0.31876E+02
         0.10309E-10
         0.69474E-11
        -0.34163E+02
        -0.62679E+01
        -0.37553E-12
         0.27959E-11
         0.91557E+01
         0.82629E-12
        -0.21358E+01
        -0.18629E-13
         0.56408E+00
         0.62454E-11
         0.27945E+01
         0.96103E-12
         0.39875E+02
        -0.19379E+01
         0.22334E-13
        -0.10957E-12
         0.26377E+00
        -0.26572E+02
         0.60864E-12
         0.15612E-11
         0.11406E+01
        -0.12358E-12
         0.16408E+02
         0.99021E-12
        -0.87891E+02
        -0.31910E+02
         0.76486E-12
        -0.73243E-11
        -0.71800E+02
        -0.11711E-10
         0.29541E+02
         0.78438E-11
         0.93327E+02
         0.11686E-11
         0.16295E+03
         0.15196E-11
         0.31589E+03
         0.17198E+03
         0.35726E-11
        -0.90589E-12
         0.21201E+02
        -0.10901E-12
        -0.64746E+02
        -0.98320E-11
        -0.95389E+02
        -0.10978E-10
        -0.20999E+03
        -0.95775E+02
        -0.69494E-11
         0.77137E-11
         0.15390E+02
         0.70236E-11
         0.37891E+02
         0.30171E-11
         0.88565E+02
         0.80109E-11
         0.21788E+03
         0.12423E+03
         0.17177E-10
         0.85886E-11
        -0.35866E+03
         0.15018E+03
        -0.11160E-10
         0.13667E-10
        -0.87343E+03
        -0.31718E-10
        -0.11383E+04
        -0.34672E-10
        -0.10009E+04
        -0.23531E-10
        -0.85494E+03
        -0.24960E-11
        -0.37431E+03
         0.70351E-11
         0.49364E+03
         0.43558E-11
         0.11094E+04
         0.39820E-11
         0.14667E+04
         0.85434E-11
         0.14367E+04
         0.10387E-10
         0.11758E+04
         0.40925E-11
         0.62514E+03
         0.24951E-11
        -0.42757E+02
         0.40782E-11
        -0.51890E+03
         0.27337E-11
        -0.83628E+03
        -0.97487E-11
        -0.11415E+04
        -0.25580E-10
        -0.10242E+04
        -0.32462E-10
        -0.65858E+03
        -0.20091E-10
        -0.72175E+02
         0.38331E-11
         0.48718E+03
         0.81239E-11
         0.70424E+03
         0.12947E-10
         0.86222E+03
         0.25495E-10
         0.77289E+03
         0.33083E-10
         0.71902E+03
         0.23504E-10
         0.59352E+03
         0.18588E-10
        -0.52961E+02
         0.14283E+02
         0.14625E+02
        -0.91284E+01
         0.11693E+03
         0.96057E+02
         0.15314E+01
        -0.34548E+02
        -0.15264E+02
        -0.39895E+02
        -0.11460E+02
        -0.21172E+03
        -0.30199E+03
         0.11205E+02
         0.17189E+03
        -0.22951E+02
         0.17068E+02
         0.50914E+01
         0.10362E+02
        -0.84226E+01
         0.42296E+02
         0.37121E+02
        -0.11272E+03
         0.29522E+01
         0.25361E+02
         0.27941E+01
         0.46521E+00
         0.91199E+00
         0.11330E+02
        -0.37567E+02
        -0.20004E+02
         0.42642E+01
         0.68551E+01
        -0.54035E+00
        -0.28269E+02
        -0.97580E+02
        -0.19798E+03
         0.29966E+03
         0.15598E+03
         0.28206E+03
         0.54662E+03
         0.12647E+03
        -0.10207E+03
        -0.20584E+03
        -0.24406E+03
        -0.31203E+03
         0.38438E+02
         0.11507E+03
         0.35505E+02
         0.11963E+03
         0.37496E+03
         0.14427E+03
        -0.12778E+04
         0.16119E+04
        -0.39019E+04
        -0.45857E+04
        -0.43524E+04
        -0.26327E+04
         0.15709E+03
         0.17078E+04
         0.24761E+04
         0.40175E+04
         0.42313E+04
         0.22594E+04
         0.91069E+03
         0.38504E+03
        -0.62277E+03
        -0.24608E+04
        -0.41084E+04
        -0.46953E+04
        -0.28809E+04
         0.52205E+03
         0.18897E+04
         0.19916E+04
         0.31376E+04
         0.34857E+04
         0.26402E+04
         0.24361E+04
        -0.23008E+04
         0.29788E+03
        -0.52478E+03
        -0.36243E+03
         0.40710E+04
         0.15646E+04
         0.36148E+03
        -0.27588E+04
        -0.83124E+03
        -0.24668E+04
         0.26346E+03
        -0.41605E+04
        -0.81083E+04
         0.89353E+03
         0.10711E+05
        -0.17142E+04
         0.28920E+03
         0.16537E+03
         0.50162E+03
         0.17031E+03
         0.45055E+04
         0.30486E+04
        -0.17441E+04
         0.35603E+03
         0.81740E+03
        -0.13613E+03
         0.18526E+03
        -0.45727E+02
        -0.18410E+03
        -0.13588E+04
        -0.14194E+04
        -0.24193E+03
         0.59501E+03
         0.44588E+03
         0.10475E+04
        -0.17623E+04
        -0.38597E+04
         0.90274E+04
         0.13328E+04
         0.34054E+04
         0.91913E+04
        -0.23362E+04
        -0.47037E+04
        -0.42482E+04
        -0.42125E+04
        -0.50351E+04
         0.31663E+04
         0.24719E+04
        -0.41067E+03
         0.58373E+03
         0.61998E+04
         0.40977E+03
        -0.42967E+05
         0.61937E+05
        -0.12940E+06
        -0.13792E+06
        -0.13283E+06
        -0.73422E+05
         0.17855E+05
         0.50512E+05
         0.63767E+05
         0.11566E+06
         0.12901E+06
         0.50159E+05
         0.16757E+05
         0.13659E+05
        -0.69704E+04
        -0.60901E+05
        -0.11136E+06
        -0.14662E+06
        -0.97221E+05
         0.28021E+05
         0.54413E+05
         0.52116E+05
         0.92387E+05
         0.11263E+06
         0.74890E+05
         0.70686E+05
        -0.23066E+04
         0.29904E+03
        -0.52603E+03
        -0.36533E+03
         0.40675E+04
         0.15644E+04
         0.36424E+03
        -0.27565E+04
        -0.83365E+03
        -0.24740E+04
         0.25828E+03
        -0.41702E+04
        -0.81152E+04
         0.89135E+03
         0.10719E+05
        -0.17161E+04
         0.29247E+03
         0.16466E+03
         0.50171E+03
         0.16906E+03
         0.45162E+04
         0.30511E+04
        -0.17444E+04
         0.35588E+03
         0.82296E+03
        -0.13611E+03
         0.18750E+03
        -0.45119E+02
        -0.18417E+03
        -0.13626E+04
        -0.14217E+04
        -0.24137E+03
         0.59384E+03
         0.44681E+03
         0.10382E+04
        -0.17627E+04
        -0.38583E+04
         0.90558E+04
         0.13485E+04
         0.34201E+04
         0.92042E+04
        -0.23313E+04
        -0.47088E+04
        -0.42497E+04
        -0.42111E+04
        -0.50325E+04
         0.31660E+04
         0.24713E+04
        -0.40713E+03
         0.58096E+03
         0.61932E+04
         0.40296E+03
        -0.42912E+05
         0.61925E+05
        -0.12941E+06
        -0.13792E+06
        -0.13278E+06
        -0.73375E+05
         0.17868E+05
         0.50528E+05
         0.63700E+05
         0.11558E+06
         0.12896E+06
         0.50183E+05
         0.16754E+05
         0.13687E+05
        -0.69144E+04
        -0.60947E+05
        -0.11143E+06
        -0.14669E+06
        -0.97192E+05
         0.28032E+05
         0.54369E+05
         0.52093E+05
         0.92295E+05
         0.11248E+06
         0.74770E+05
         0.70562E+05
        -0.23124E+04
         0.30019E+03
        -0.52729E+03
        -0.36827E+03
         0.40640E+04
         0.15643E+04
         0.36701E+03
        -0.27541E+04
        -0.83601E+03
        -0.24811E+04
         0.25311E+03
        -0.41800E+04
        -0.81221E+04
         0.88906E+03
         0.10727E+05
        -0.17180E+04
         0.29579E+03
         0.16395E+03
         0.50181E+03
         0.16781E+03
         0.45270E+04
         0.30536E+04
        -0.17449E+04
         0.35568E+03
         0.82861E+03
        -0.13607E+03
         0.18989E+03
        -0.44526E+02
        -0.18412E+03
        -0.13662E+04
        -0.14240E+04
        -0.24071E+03
         0.59266E+03
         0.44773E+03
         0.10288E+04
        -0.17631E+04
        -0.38567E+04
         0.90843E+04
         0.13642E+04
         0.34349E+04
         0.92175E+04
        -0.23257E+04
        -0.47136E+04
        -0.42520E+04
        -0.42102E+04
        -0.50302E+04
         0.31658E+04
         0.24705E+04
        -0.40352E+03
         0.57812E+03
         0.61868E+04
         0.39621E+03
        -0.42857E+05
         0.61913E+05
        -0.12942E+06
        -0.13792E+06
        -0.13272E+06
        -0.73329E+05
         0.17880E+05
         0.50544E+05
         0.63633E+05
         0.11551E+06
         0.12891E+06
         0.50209E+05
         0.16751E+05
         0.13714E+05
        -0.68582E+04
        -0.60994E+05
        -0.11151E+06
        -0.14675E+06
        -0.97164E+05
         0.28043E+05
         0.54326E+05
         0.52070E+05
         0.92204E+05
         0.11233E+06
         0.74651E+05
         0.70437E+05
        -0.23182E+04
         0.30137E+03
        -0.52852E+03
        -0.37121E+03
         0.40604E+04
         0.15641E+04
         0.36979E+03
        -0.27516E+04
        -0.83828E+03
        -0.24877E+04
         0.24794E+03
        -0.41899E+04
        -0.81293E+04
         0.88689E+03
         0.10735E+05
        -0.17202E+04
         0.29920E+03
         0.16324E+03
         0.50196E+03
         0.16650E+03
         0.45383E+04
         0.30560E+04
        -0.17464E+04
         0.35535E+03
         0.83454E+03
        -0.13600E+03
         0.19235E+03
        -0.44034E+02
        -0.18372E+03
        -0.13695E+04
        -0.14264E+04
        -0.23987E+03
         0.59144E+03
         0.44866E+03
         0.10195E+04
        -0.17635E+04
        -0.38552E+04
         0.91128E+04
         0.13800E+04
         0.34500E+04
         0.92321E+04
        -0.23183E+04
        -0.47180E+04
        -0.42557E+04
        -0.42098E+04
        -0.50278E+04
         0.31658E+04
         0.24699E+04
        -0.39992E+03
         0.57529E+03
         0.61799E+04
         0.38948E+03
        -0.42802E+05
         0.61900E+05
        -0.12943E+06
        -0.13793E+06
        -0.13266E+06
        -0.73281E+05
         0.17893E+05
         0.50560E+05
         0.63566E+05
         0.11543E+06
         0.12887E+06
         0.50240E+05
         0.16750E+05
         0.13741E+05
        -0.68017E+04
        -0.61045E+05
        -0.11159E+06
        -0.14682E+06
        -0.97135E+05
         0.28054E+05
         0.54282E+05
         0.52048E+05
         0.92113E+05
         0.11218E+06
         0.74532E+05
         0.70313E+05
        -0.23240E+04
         0.30255E+03
        -0.52977E+03
        -0.37415E+03
         0.40570E+04
         0.15639E+04
         0.37256E+03
        -0.27491E+04
        -0.84043E+03
        -0.24937E+04
         0.24276E+03
        -0.41997E+04
        -0.81363E+04
         0.88474E+03
         0.10743E+05
        -0.17224E+04
         0.30270E+03
         0.16252E+03
         0.50207E+03
         0.16512E+03
         0.45498E+04
         0.30581E+04
        -0.17488E+04
         0.35488E+03
         0.84073E+03
        -0.13587E+03
         0.19507E+03
        -0.43630E+02
        -0.18296E+03
        -0.13725E+04
        -0.14289E+04
        -0.23880E+03
         0.59019E+03
         0.44959E+03
         0.10100E+04
        -0.17638E+04
        -0.38539E+04
         0.91415E+04
         0.13959E+04
         0.34655E+04
         0.92481E+04
        -0.23090E+04
        -0.47218E+04
        -0.42612E+04
        -0.42102E+04
        -0.50255E+04
         0.31662E+04
         0.24695E+04
        -0.39635E+03
         0.57249E+03
         0.61735E+04
         0.38274E+03
        -0.42747E+05
         0.61888E+05
        -0.12945E+06
        -0.13793E+06
        -0.13260E+06
        -0.73234E+05
         0.17906E+05
         0.50576E+05
         0.63499E+05
         0.11535E+06
         0.12883E+06
         0.50277E+05
         0.16751E+05
         0.13768E+05
        -0.67451E+04
        -0.61102E+05
        -0.11168E+06
        -0.14689E+06
        -0.97107E+05
         0.28065E+05
         0.54239E+05
         0.52025E+05
         0.92021E+05
         0.11203E+06
         0.74413E+05
         0.70189E+05
        -0.23295E+04
         0.30381E+03
        -0.53090E+03
        -0.37711E+03
         0.40535E+04
         0.15637E+04
         0.37530E+03
        -0.27461E+04
        -0.84258E+03
        -0.24994E+04
         0.23759E+03
        -0.42095E+04
        -0.81433E+04
         0.88268E+03
         0.10751E+05
        -0.17248E+04
         0.30627E+03
         0.16181E+03
         0.50217E+03
         0.16375E+03
         0.45614E+04
         0.30602E+04
        -0.17516E+04
         0.35436E+03
         0.84684E+03
        -0.13572E+03
         0.19800E+03
        -0.43259E+02
        -0.18203E+03
        -0.13755E+04
        -0.14312E+04
        -0.23759E+03
         0.58894E+03
         0.45053E+03
         0.10006E+04
        -0.17644E+04
        -0.38527E+04
         0.91702E+04
         0.14118E+04
         0.34811E+04
         0.92645E+04
        -0.22991E+04
        -0.47253E+04
        -0.42671E+04
        -0.42113E+04
        -0.50238E+04
         0.31666E+04
         0.24693E+04
        -0.39273E+03
         0.56987E+03
         0.61671E+04
         0.37603E+03
        -0.42692E+05
         0.61875E+05
        -0.12946E+06
        -0.13793E+06
        -0.13255E+06
        -0.73187E+05
         0.17918E+05
         0.50592E+05
         0.63432E+05
         0.11527E+06
         0.12879E+06
         0.50316E+05
         0.16753E+05
         0.13794E+05
        -0.66885E+04
        -0.61161E+05
        -0.11178E+06
        -0.14696E+06
        -0.97078E+05
         0.28074E+05
         0.54195E+05
         0.52003E+05
         0.91931E+05
         0.11188E+06
         0.74295E+05
         0.70065E+05
        -0.23346E+04
         0.30527E+03
        -0.53183E+03
        -0.38015E+03
         0.40502E+04
         0.15636E+04
         0.37799E+03
        -0.27427E+04
        -0.84480E+03
        -0.25049E+04
         0.23241E+03
        -0.42195E+04
        -0.81511E+04
         0.88116E+03
         0.10759E+05
        -0.17273E+04
         0.30989E+03
         0.16109E+03
         0.50233E+03
         0.16238E+03
         0.45731E+04
         0.30624E+04
        -0.17544E+04
         0.35386E+03
         0.85258E+03
        -0.13553E+03
         0.20144E+03
        -0.42879E+02
        -0.18104E+03
        -0.13786E+04
        -0.14334E+04
        -0.23625E+03
         0.58767E+03
         0.45145E+03
         0.99104E+03
        -0.17651E+04
        -0.38517E+04
         0.91991E+04
         0.14280E+04
         0.34970E+04
         0.92813E+04
        -0.22889E+04
        -0.47288E+04
        -0.42732E+04
        -0.42127E+04
        -0.50225E+04
         0.31671E+04
         0.24697E+04
        -0.38893E+03
         0.56772E+03
         0.61612E+04
         0.36926E+03
        -0.42638E+05
         0.61863E+05
        -0.12947E+06
        -0.13793E+06
        -0.13249E+06
        -0.73140E+05
         0.17930E+05
         0.50607E+05
         0.63365E+05
         0.11519E+06
         0.12874E+06
         0.50356E+05
         0.16755E+05
         0.13821E+05
        -0.66319E+04
        -0.61220E+05
        -0.11187E+06
        -0.14703E+06
        -0.97048E+05
         0.28082E+05
         0.54150E+05
         0.51982E+05
         0.91841E+05
         0.11173E+06
         0.74176E+05
         0.69940E+05
        -0.23395E+04
         0.30679E+03
        -0.53267E+03
        -0.38321E+03
         0.40470E+04
         0.15634E+04
         0.38064E+03
        -0.27389E+04
        -0.84705E+03
        -0.25103E+04
         0.22723E+03
        -0.42295E+04
        -0.81588E+04
         0.87973E+03
         0.10767E+05
        -0.17298E+04
         0.31355E+03
         0.16037E+03
         0.50246E+03
         0.16103E+03
         0.45848E+04
         0.30645E+04
        -0.17572E+04
         0.35338E+03
         0.85814E+03
        -0.13531E+03
         0.20503E+03
        -0.42487E+02
        -0.18003E+03
        -0.13818E+04
        -0.14355E+04
        -0.23483E+03
         0.58637E+03
         0.45239E+03
         0.98144E+03
        -0.17660E+04
        -0.38511E+04
         0.92282E+04
         0.14442E+04
         0.35130E+04
         0.92982E+04
        -0.22788E+04
        -0.47322E+04
        -0.42794E+04
        -0.42142E+04
        -0.50218E+04
         0.31678E+04
         0.24703E+04
        -0.38507E+03
         0.56576E+03
         0.61554E+04
         0.36253E+03
        -0.42583E+05
         0.61850E+05
        -0.12948E+06
        -0.13793E+06
        -0.13243E+06
        -0.73093E+05
         0.17942E+05
         0.50623E+05
         0.63299E+05
         0.11512E+06
         0.12870E+06
         0.50395E+05
         0.16756E+05
         0.13848E+05
        -0.65751E+04
        -0.61278E+05
        -0.11197E+06
        -0.14710E+06
        -0.97017E+05
         0.28089E+05
         0.54105E+05
         0.51961E+05
         0.91751E+05
         0.11159E+06
         0.74058E+05
         0.69816E+05
        -0.23443E+04
         0.30833E+03
        -0.53349E+03
        -0.38628E+03
         0.40437E+04
         0.15632E+04
         0.38329E+03
        -0.27351E+04
        -0.84933E+03
        -0.25157E+04
         0.22205E+03
        -0.42394E+04
        -0.81667E+04
         0.87843E+03
         0.10774E+05
        -0.17323E+04
         0.31723E+03
         0.15965E+03
         0.50257E+03
         0.15967E+03
         0.45964E+04
         0.30668E+04
        -0.17600E+04
         0.35291E+03
         0.86371E+03
        -0.13509E+03
         0.20870E+03
        -0.42073E+02
        -0.17899E+03
        -0.13850E+04
        -0.14376E+04
        -0.23342E+03
         0.58506E+03
         0.45332E+03
         0.97179E+03
        -0.17667E+04
        -0.38504E+04
         0.92574E+04
         0.14606E+04
         0.35288E+04
         0.93151E+04
        -0.22687E+04
        -0.47357E+04
        -0.42858E+04
        -0.42160E+04
        -0.50211E+04
         0.31683E+04
         0.24709E+04
        -0.38121E+03
         0.56388E+03
         0.61499E+04
         0.35578E+03
        -0.42528E+05
         0.61838E+05
        -0.12949E+06
        -0.13793E+06
        -0.13238E+06
        -0.73045E+05
         0.17954E+05
         0.50638E+05
         0.63232E+05
         0.11504E+06
         0.12866E+06
         0.50433E+05
         0.16758E+05
         0.13876E+05
        -0.65185E+04
        -0.61337E+05
        -0.11207E+06
        -0.14717E+06
        -0.96985E+05
         0.28096E+05
         0.54060E+05
         0.51939E+05
         0.91662E+05
         0.11144E+06
         0.73940E+05
         0.69693E+05
        -0.23492E+04
         0.30988E+03
        -0.53431E+03
        -0.38934E+03
         0.40403E+04
         0.15629E+04
         0.38595E+03
        -0.27312E+04
        -0.85161E+03
        -0.25211E+04
         0.21687E+03
        -0.42494E+04
        -0.81747E+04
         0.87700E+03
         0.10782E+05
        -0.17348E+04
         0.32095E+03
         0.15893E+03
         0.50268E+03
         0.15831E+03
         0.46081E+04
         0.30689E+04
        -0.17626E+04
         0.35245E+03
         0.86929E+03
        -0.13487E+03
         0.21228E+03
        -0.41640E+02
        -0.17793E+03
        -0.13881E+04
        -0.14396E+04
        -0.23201E+03
         0.58373E+03
         0.45426E+03
         0.96212E+03
        -0.17676E+04
        -0.38498E+04
         0.92866E+04
         0.14770E+04
         0.35449E+04
         0.93320E+04
        -0.22586E+04
        -0.47391E+04
        -0.42919E+04
        -0.42176E+04
        -0.50201E+04
         0.31690E+04
         0.24716E+04
        -0.37738E+03
         0.56188E+03
         0.61440E+04
         0.34907E+03
        -0.42473E+05
         0.61825E+05
        -0.12950E+06
        -0.13793E+06
        -0.13232E+06
        -0.72997E+05
         0.17966E+05
         0.50653E+05
         0.63166E+05
         0.11496E+06
         0.12862E+06
         0.50472E+05
         0.16760E+05
         0.13903E+05
        -0.64620E+04
        -0.61396E+05
        -0.11216E+06
        -0.14724E+06
        -0.96955E+05
         0.28103E+05
         0.54015E+05
         0.51918E+05
         0.91572E+05
         0.11129E+06
         0.73823E+05
         0.69569E+05
        -0.23540E+04
         0.31142E+03
        -0.53515E+03
        -0.39240E+03
         0.40371E+04
         0.15628E+04
         0.38861E+03
        -0.27274E+04
        -0.85389E+03
        -0.25264E+04
         0.21167E+03
        -0.42595E+04
        -0.81825E+04
         0.87565E+03
         0.10790E+05
        -0.17372E+04
         0.32468E+03
         0.15822E+03
         0.50284E+03
         0.15694E+03
         0.46197E+04
         0.30710E+04
        -0.17654E+04
         0.35199E+03
         0.87485E+03
        -0.13465E+03
         0.21593E+03
        -0.41182E+02
        -0.17683E+03
        -0.13913E+04
        -0.14417E+04
        -0.23060E+03
         0.58239E+03
         0.45519E+03
         0.95242E+03
        -0.17684E+04
        -0.38492E+04
         0.93159E+04
         0.14935E+04
         0.35608E+04
         0.93488E+04
        -0.22484E+04
        -0.47426E+04
        -0.42980E+04
        -0.42193E+04
        -0.50195E+04
         0.31696E+04
         0.24722E+04
        -0.37352E+03
         0.55994E+03
         0.61385E+04
         0.34237E+03
        -0.42417E+05
         0.61812E+05
        -0.12951E+06
        -0.13794E+06
        -0.13226E+06
        -0.72950E+05
         0.17977E+05
         0.50668E+05
         0.63100E+05
         0.11488E+06
         0.12858E+06
         0.50510E+05
         0.16762E+05
         0.13930E+05
        -0.64052E+04
        -0.61454E+05
        -0.11226E+06
        -0.14731E+06
        -0.96924E+05
         0.28110E+05
         0.53970E+05
         0.51897E+05
         0.91482E+05
         0.11114E+06
         0.73706E+05
         0.69445E+05
        -0.23589E+04
         0.31295E+03
        -0.53596E+03
        -0.39549E+03
         0.40338E+04
         0.15625E+04
         0.39127E+03
        -0.27235E+04
        -0.85616E+03
        -0.25317E+04
         0.20648E+03
        -0.42695E+04
        -0.81902E+04
         0.87430E+03
         0.10798E+05
        -0.17397E+04
         0.32842E+03
         0.15750E+03
         0.50297E+03
         0.15559E+03
         0.46313E+04
         0.30730E+04
        -0.17682E+04
         0.35154E+03
         0.88042E+03
        -0.13444E+03
         0.21950E+03
        -0.40708E+02
        -0.17569E+03
        -0.13944E+04
        -0.14437E+04
        -0.22919E+03
         0.58103E+03
         0.45613E+03
         0.94265E+03
        -0.17692E+04
        -0.38485E+04
         0.93452E+04
         0.15101E+04
         0.35770E+04
         0.93657E+04
        -0.22384E+04
        -0.47460E+04
        -0.43042E+04
        -0.42209E+04
        -0.50188E+04
         0.31702E+04
         0.24730E+04
        -0.36967E+03
         0.55806E+03
         0.61328E+04
         0.33568E+03
        -0.42362E+05
         0.61799E+05
        -0.12952E+06
        -0.13794E+06
        -0.13221E+06
        -0.72903E+05
         0.17989E+05
         0.50683E+05
         0.63033E+05
         0.11480E+06
         0.12853E+06
         0.50549E+05
         0.16764E+05
         0.13957E+05
        -0.63482E+04
        -0.61513E+05
        -0.11236E+06
        -0.14738E+06
        -0.96893E+05
         0.28117E+05
         0.53925E+05
         0.51875E+05
         0.91392E+05
         0.11100E+06
         0.73590E+05
         0.69322E+05
        -0.23637E+04
         0.31451E+03
        -0.53677E+03
        -0.39858E+03
         0.40306E+04
         0.15623E+04
         0.39393E+03
        -0.27195E+04
        -0.85842E+03
        -0.25369E+04
         0.20129E+03
        -0.42794E+04
        -0.81983E+04
         0.87283E+03
         0.10805E+05
        -0.17422E+04
         0.33218E+03
         0.15678E+03
         0.50310E+03
         0.15424E+03
         0.46430E+04
         0.30751E+04
        -0.17709E+04
         0.35109E+03
         0.88596E+03
        -0.13421E+03
         0.22316E+03
        -0.40210E+02
        -0.17454E+03
        -0.13976E+04
        -0.14458E+04
        -0.22776E+03
         0.57964E+03
         0.45707E+03
         0.93285E+03
        -0.17701E+04
        -0.38479E+04
         0.93744E+04
         0.15268E+04
         0.35930E+04
         0.93828E+04
        -0.22282E+04
        -0.47494E+04
        -0.43105E+04
        -0.42227E+04
        -0.50177E+04
         0.31709E+04
         0.24736E+04
        -0.36581E+03
         0.55611E+03
         0.61269E+04
         0.32903E+03
        -0.42307E+05
         0.61786E+05
        -0.12953E+06
        -0.13794E+06
        -0.13215E+06
        -0.72855E+05
         0.18001E+05
         0.50697E+05
         0.62967E+05
         0.11472E+06
         0.12849E+06
         0.50588E+05
         0.16766E+05
         0.13985E+05
        -0.62914E+04
        -0.61571E+05
        -0.11245E+06
        -0.14745E+06
        -0.96862E+05
         0.28123E+05
         0.53880E+05
         0.51854E+05
         0.91303E+05
         0.11085E+06
         0.73474E+05
         0.69199E+05
        -0.23686E+04
         0.31603E+03
        -0.53757E+03
        -0.40167E+03
         0.40274E+04
         0.15621E+04
         0.39659E+03
        -0.27156E+04
        -0.86070E+03
        -0.25421E+04
         0.19610E+03
        -0.42894E+04
        -0.82061E+04
         0.87147E+03
         0.10813E+05
        -0.17447E+04
         0.33597E+03
         0.15606E+03
         0.50328E+03
         0.15291E+03
         0.46546E+04
         0.30772E+04
        -0.17737E+04
         0.35064E+03
         0.89153E+03
        -0.13397E+03
         0.22674E+03
        -0.39695E+02
        -0.17336E+03
        -0.14007E+04
        -0.14478E+04
        -0.22635E+03
         0.57824E+03
         0.45801E+03
         0.92301E+03
        -0.17709E+04
        -0.38471E+04
         0.94038E+04
         0.15435E+04
         0.36092E+04
         0.93997E+04
        -0.22180E+04
        -0.47528E+04
        -0.43167E+04
        -0.42244E+04
        -0.50170E+04
         0.31715E+04
         0.24743E+04
        -0.36197E+03
         0.55418E+03
         0.61214E+04
         0.32244E+03
        -0.42252E+05
         0.61773E+05
        -0.12954E+06
        -0.13794E+06
        -0.13209E+06
        -0.72808E+05
         0.18012E+05
         0.50711E+05
         0.62900E+05
         0.11464E+06
         0.12845E+06
         0.50626E+05
         0.16768E+05
         0.14012E+05
        -0.62348E+04
        -0.61630E+05
        -0.11255E+06
        -0.14752E+06
        -0.96831E+05
         0.28130E+05
         0.53835E+05
         0.51834E+05
         0.91213E+05
         0.11070E+06
         0.73358E+05
         0.69075E+05
        -0.23735E+04
         0.31755E+03
        -0.53838E+03
        -0.40477E+03
         0.40241E+04
         0.15619E+04
         0.39926E+03
        -0.27116E+04
        -0.86298E+03
        -0.25473E+04
         0.19091E+03
        -0.42996E+04
        -0.82139E+04
         0.86998E+03
         0.10821E+05
        -0.17472E+04
         0.33979E+03
         0.15536E+03
         0.50340E+03
         0.15156E+03
         0.46663E+04
         0.30792E+04
        -0.17763E+04
         0.35020E+03
         0.89710E+03
        -0.13374E+03
         0.23037E+03
        -0.39155E+02
        -0.17217E+03
        -0.14038E+04
        -0.14499E+04
        -0.22492E+03
         0.57683E+03
         0.45895E+03
         0.91316E+03
        -0.17718E+04
        -0.38465E+04
         0.94331E+04
         0.15603E+04
         0.36253E+04
         0.94167E+04
        -0.22078E+04
        -0.47563E+04
        -0.43228E+04
        -0.42260E+04
        -0.50164E+04
         0.31721E+04
         0.24750E+04
        -0.35807E+03
         0.55227E+03
         0.61157E+04
         0.31583E+03
        -0.42197E+05
         0.61760E+05
        -0.12955E+06
        -0.13794E+06
        -0.13204E+06
        -0.72760E+05
         0.18023E+05
         0.50724E+05
         0.62834E+05
         0.11456E+06
         0.12841E+06
         0.50665E+05
         0.16770E+05
         0.14039E+05
        -0.61781E+04
        -0.61689E+05
        -0.11265E+06
        -0.14759E+06
        -0.96800E+05
         0.28136E+05
         0.53790E+05
         0.51813E+05
         0.91123E+05
         0.11055E+06
         0.73242E+05
         0.68952E+05
        -0.23783E+04
         0.31910E+03
        -0.53919E+03
        -0.40785E+03
         0.40208E+04
         0.15617E+04
         0.40191E+03
        -0.27075E+04
        -0.86527E+03
        -0.25524E+04
         0.18570E+03
        -0.43096E+04
        -0.82219E+04
         0.86858E+03
         0.10828E+05
        -0.17496E+04
         0.34363E+03
         0.15465E+03
         0.50354E+03
         0.15022E+03
         0.46779E+04
         0.30812E+04
        -0.17791E+04
         0.34977E+03
         0.90265E+03
        -0.13351E+03
         0.23392E+03
        -0.38595E+02
        -0.17094E+03
        -0.14069E+04
        -0.14519E+04
        -0.22351E+03
         0.57541E+03
         0.45990E+03
         0.90322E+03
        -0.17726E+04
        -0.38459E+04
         0.94625E+04
         0.15773E+04
         0.36413E+04
         0.94335E+04
        -0.21976E+04
        -0.47598E+04
        -0.43288E+04
        -0.42278E+04
        -0.50155E+04
         0.31727E+04
         0.24756E+04
        -0.35423E+03
         0.55033E+03
         0.61101E+04
         0.30922E+03
        -0.42141E+05
         0.61747E+05
        -0.12955E+06
        -0.13794E+06
        -0.13198E+06
        -0.72712E+05
         0.18034E+05
         0.50738E+05
         0.62768E+05
         0.11448E+06
         0.12837E+06
         0.50704E+05
         0.16771E+05
         0.14066E+05
        -0.61212E+04
        -0.61747E+05
        -0.11275E+06
        -0.14766E+06
        -0.96769E+05
         0.28142E+05
         0.53745E+05
         0.51792E+05
         0.91033E+05
         0.11041E+06
         0.73127E+05
         0.68829E+05
        -0.23832E+04
         0.32062E+03
        -0.54002E+03
        -0.41095E+03
         0.40176E+04
         0.15615E+04
         0.40459E+03
        -0.27035E+04
        -0.86754E+03
        -0.25574E+04
         0.18049E+03
        -0.43196E+04
        -0.82298E+04
         0.86706E+03
         0.10836E+05
        -0.17521E+04
         0.34751E+03
         0.15394E+03
         0.50368E+03
         0.14890E+03
         0.46895E+04
         0.30831E+04
        -0.17818E+04
         0.34935E+03
         0.90816E+03
        -0.13327E+03
         0.23755E+03
        -0.38006E+02
        -0.16968E+03
        -0.14100E+04
        -0.14540E+04
        -0.22209E+03
         0.57397E+03
         0.46086E+03
         0.89326E+03
        -0.17734E+04
        -0.38451E+04
         0.94919E+04
         0.15944E+04
         0.36575E+04
         0.94502E+04
        -0.21875E+04
        -0.47632E+04
        -0.43351E+04
        -0.42294E+04
        -0.50148E+04
         0.31734E+04
         0.24764E+04
        -0.35041E+03
         0.54839E+03
         0.61044E+04
         0.30270E+03
        -0.42086E+05
         0.61734E+05
        -0.12956E+06
        -0.13794E+06
        -0.13192E+06
        -0.72664E+05
         0.18044E+05
         0.50752E+05
         0.62702E+05
         0.11440E+06
         0.12833E+06
         0.50743E+05
         0.16773E+05
         0.14093E+05
        -0.60646E+04
        -0.61805E+05
        -0.11284E+06
        -0.14773E+06
        -0.96738E+05
         0.28149E+05
         0.53700E+05
         0.51770E+05
         0.90943E+05
         0.11026E+06
         0.73012E+05
         0.68706E+05
        -0.23880E+04
         0.32215E+03
        -0.54081E+03
        -0.41407E+03
         0.40144E+04
         0.15612E+04
         0.40725E+03
        -0.26994E+04
        -0.86976E+03
        -0.25621E+04
         0.17527E+03
        -0.43297E+04
        -0.82375E+04
         0.86561E+03
         0.10843E+05
        -0.17546E+04
         0.35142E+03
         0.15322E+03
         0.50389E+03
         0.14764E+03
         0.47011E+04
         0.30849E+04
        -0.17846E+04
         0.34890E+03
         0.91355E+03
        -0.13304E+03
         0.24113E+03
        -0.37373E+02
        -0.16840E+03
        -0.14130E+04
        -0.14560E+04
        -0.22065E+03
         0.57250E+03
         0.46181E+03
         0.88326E+03
        -0.17743E+04
        -0.38445E+04
         0.95212E+04
         0.16120E+04
         0.36733E+04
         0.94664E+04
        -0.21771E+04
        -0.47667E+04
        -0.43412E+04
        -0.42311E+04
        -0.50139E+04
         0.31740E+04
         0.24771E+04
        -0.34659E+03
         0.54647E+03
         0.60989E+04
         0.29618E+03
        -0.42030E+05
         0.61721E+05
        -0.12957E+06
        -0.13794E+06
        -0.13186E+06
        -0.72617E+05
         0.18055E+05
         0.50765E+05
         0.62637E+05
         0.11432E+06
         0.12829E+06
         0.50785E+05
         0.16773E+05
         0.14120E+05
        -0.60080E+04
        -0.61863E+05
        -0.11294E+06
        -0.14780E+06
        -0.96708E+05
         0.28155E+05
         0.53655E+05
         0.51749E+05
         0.90853E+05
         0.11011E+06
         0.72898E+05
         0.68583E+05
        -0.23929E+04
         0.32367E+03
        -0.54160E+03
        -0.41718E+03
         0.40110E+04
         0.15609E+04
         0.40992E+03
        -0.26952E+04
        -0.87193E+03
        -0.25664E+04
         0.17006E+03
        -0.43397E+04
        -0.82456E+04
         0.86414E+03
         0.10850E+05
        -0.17571E+04
         0.35539E+03
         0.15251E+03
         0.50404E+03
         0.14641E+03
         0.47128E+04
         0.30866E+04
        -0.17873E+04
         0.34848E+03
         0.91880E+03
        -0.13279E+03
         0.24484E+03
        -0.36690E+02
        -0.16709E+03
        -0.14159E+04
        -0.14580E+04
        -0.21923E+03
         0.57102E+03
         0.46276E+03
         0.87319E+03
        -0.17751E+04
        -0.38439E+04
         0.95504E+04
         0.16300E+04
         0.36890E+04
         0.94819E+04
        -0.21666E+04
        -0.47701E+04
        -0.43474E+04
        -0.42330E+04
        -0.50133E+04
         0.31746E+04
         0.24777E+04
        -0.34275E+03
         0.54455E+03
         0.60931E+04
         0.28962E+03
        -0.41975E+05
         0.61708E+05
        -0.12958E+06
        -0.13794E+06
        -0.13181E+06
        -0.72570E+05
         0.18065E+05
         0.50779E+05
         0.62572E+05
         0.11423E+06
         0.12825E+06
         0.50827E+05
         0.16773E+05
         0.14147E+05
        -0.59511E+04
        -0.61921E+05
        -0.11304E+06
        -0.14787E+06
        -0.96677E+05
         0.28161E+05
         0.53610E+05
         0.51728E+05
         0.90764E+05
         0.10997E+06
         0.72784E+05
         0.68460E+05
        -0.23978E+04
         0.32519E+03
        -0.54244E+03
        -0.42029E+03
         0.40080E+04
         0.15607E+04
         0.41259E+03
        -0.26911E+04
        -0.87409E+03
        -0.25706E+04
         0.16488E+03
        -0.43496E+04
        -0.82533E+04
         0.86257E+03
         0.10857E+05
        -0.17596E+04
         0.35940E+03
         0.15181E+03
         0.50419E+03
         0.14523E+03
         0.47244E+04
         0.30883E+04
        -0.17898E+04
         0.34808E+03
         0.92399E+03
        -0.13256E+03
         0.24846E+03
        -0.35974E+02
        -0.16578E+03
        -0.14187E+04
        -0.14601E+04
        -0.21784E+03
         0.56955E+03
         0.46374E+03
         0.86322E+03
        -0.17760E+04
        -0.38431E+04
         0.95795E+04
         0.16482E+04
         0.37043E+04
         0.94969E+04
        -0.21563E+04
        -0.47737E+04
        -0.43534E+04
        -0.42345E+04
        -0.50126E+04
         0.31753E+04
         0.24785E+04
        -0.33896E+03
         0.54260E+03
         0.60877E+04
         0.28314E+03
        -0.41919E+05
         0.61695E+05
        -0.12959E+06
        -0.13795E+06
        -0.13175E+06
        -0.72522E+05
         0.18075E+05
         0.50791E+05
         0.62506E+05
         0.11414E+06
         0.12821E+06
         0.50870E+05
         0.16771E+05
         0.14173E+05
        -0.58943E+04
        -0.61979E+05
        -0.11313E+06
        -0.14794E+06
        -0.96646E+05
         0.28168E+05
         0.53566E+05
         0.51706E+05
         0.90674E+05
         0.10982E+06
         0.72671E+05
         0.68337E+05
        -0.24168E+04
         0.32837E+03
        -0.54660E+03
        -0.42582E+03
         0.40264E+04
         0.15692E+04
         0.41741E+03
        -0.27027E+04
        -0.88126E+03
        -0.25894E+04
         0.16124E+03
        -0.43778E+04
        -0.83017E+04
         0.86581E+03
         0.10918E+05
        -0.17725E+04
         0.36530E+03
         0.15207E+03
         0.50708E+03
         0.14493E+03
         0.47593E+04
         0.31061E+04
        -0.18001E+04
         0.34992E+03
         0.93410E+03
        -0.13325E+03
         0.25315E+03
        -0.35433E+02
        -0.16570E+03
        -0.14294E+04
        -0.14710E+04
        -0.21811E+03
         0.57167E+03
         0.46747E+03
         0.85853E+03
        -0.17856E+04
        -0.38619E+04
         0.96558E+04
         0.16736E+04
         0.37379E+04
         0.95591E+04
        -0.21600E+04
        -0.48035E+04
        -0.43799E+04
        -0.42567E+04
        -0.50346E+04
         0.31918E+04
         0.24921E+04
        -0.33739E+03
         0.54361E+03
         0.61135E+04
         0.27828E+03
        -0.41986E+05
         0.61878E+05
        -0.12999E+06
        -0.13837E+06
        -0.13211E+06
        -0.72691E+05
         0.18149E+05
         0.50964E+05
         0.62648E+05
         0.11442E+06
         0.12859E+06
         0.51064E+05
         0.16822E+05
         0.14246E+05
        -0.58591E+04
        -0.62214E+05
        -0.11355E+06
        -0.14843E+06
        -0.96905E+05
         0.28266E+05
         0.53697E+05
         0.51847E+05
         0.90872E+05
         0.11003E+06
         0.72792E+05
         0.68432E+05
        -0.52756E+04
         0.72395E+03
        -0.11883E+04
        -0.93837E+03
         0.81304E+04
         0.32341E+04
         0.91475E+03
        -0.58221E+04
        -0.19152E+04
        -0.55580E+04
         0.33503E+03
        -0.85023E+04
        -0.16641E+05
         0.18066E+04
         0.21412E+05
        -0.38787E+04
         0.79892E+03
         0.33240E+03
         0.10778E+04
         0.30840E+03
         0.95573E+04
         0.63878E+04
        -0.36293E+04
         0.75570E+03
         0.20449E+04
        -0.29283E+03
         0.54184E+03
        -0.76095E+02
        -0.36267E+03
        -0.31173E+04
        -0.32200E+04
        -0.47393E+03
         0.12534E+04
         0.10253E+04
         0.16452E+04
        -0.36679E+04
        -0.79366E+04
         0.19823E+05
         0.35480E+04
         0.79593E+04
         0.19775E+05
        -0.45297E+04
        -0.10096E+05
        -0.89677E+04
        -0.86498E+04
        -0.96357E+04
         0.64379E+04
         0.51603E+04
        -0.70103E+03
         0.11246E+04
         0.12042E+05
         0.56058E+03
        -0.52515E+05
         0.76933E+05
        -0.15499E+06
        -0.16869E+06
        -0.15223E+06
        -0.78153E+05
         0.20332E+05
         0.62513E+05
         0.77594E+05
         0.13323E+06
         0.15385E+06
         0.63064E+05
         0.24940E+05
         0.22376E+05
        -0.84670E+04
        -0.84702E+05
        -0.14958E+06
        -0.17706E+06
        -0.11572E+06
         0.33166E+05
         0.70797E+05
         0.71958E+05
         0.11931E+06
         0.14828E+06
         0.96223E+05
         0.90583E+05
  
SCALARS                      strain_xx  double 1
LOOKUP_TABLE default
        -0.99223E-09
        -0.49031E-07
        -0.53657E-06
        -0.25508E-08
        -0.62277E-22
        -0.78296E-23
        -0.87543E-22
        -0.34918E-23
        -0.42302E-05
        -0.18923E-05
        -0.78320E-21
        -0.63543E-21
        -0.76177E-08
        -0.12679E-06
        -0.11914E-22
        -0.26144E-21
        -0.54470E-08
        -0.11683E-06
        -0.13641E-21
        -0.30257E-21
        -0.24904E-06
        -0.70294E-06
        -0.63634E-06
        -0.13491E-21
        -0.28688E-22
        -0.87562E-22
        -0.78446E-06
        -0.51272E-06
        -0.47273E-21
        -0.29747E-21
        -0.29811E-07
        -0.14585E-06
        -0.13582E-08
        -0.49002E-23
        -0.73178E-22
        -0.27775E-22
        -0.26113E-06
        -0.60001E-07
        -0.16131E-21
        -0.18287E-21
        -0.10329E-05
        -0.20562E-05
        -0.82075E-21
        -0.44636E-21
        -0.11909E-05
        -0.33881E-06
        -0.98982E-21
        -0.22931E-21
        -0.95925E-07
        -0.90352E-22
        -0.55792E-06
        -0.70010E-23
        -0.10330E-06
        -0.34498E-21
        -0.57486E-07
        -0.24139E-22
        -0.11005E-05
        -0.83629E-07
        -0.17714E-22
        -0.10350E-21
        -0.33983E-09
        -0.25780E-06
        -0.70864E-22
        -0.33323E-22
        -0.17481E-07
        -0.71698E-24
        -0.19513E-06
        -0.31020E-22
        -0.83613E-05
        -0.39217E-05
        -0.12118E-20
        -0.63743E-21
        -0.16183E-05
        -0.33795E-21
        -0.87337E-07
        -0.16172E-21
        -0.85392E-06
        -0.62293E-23
        -0.38411E-05
        -0.14994E-22
        -0.67545E-05
        -0.34206E-05
        -0.20138E-21
        -0.26339E-21
        -0.26921E-05
        -0.30464E-21
        -0.17511E-05
        -0.63149E-21
        -0.67653E-06
        -0.25690E-21
        -0.16713E-05
        -0.90226E-06
        -0.46794E-22
        -0.88003E-22
        -0.47249E-07
        -0.12108E-21
        -0.35657E-06
        -0.21347E-22
        -0.20529E-05
        -0.13018E-21
        -0.44844E-05
        -0.21150E-05
        -0.69207E-21
        -0.75359E-21
        -0.26704E-04
        -0.32870E-04
        -0.23629E-20
        -0.22948E-20
        -0.26182E-04
        -0.17245E-20
        -0.21846E-04
        -0.96309E-21
        -0.11196E-04
        -0.29085E-21
        -0.58542E-05
        -0.33259E-23
        -0.79847E-06
        -0.42190E-22
        -0.13178E-05
        -0.27006E-22
        -0.75003E-05
        -0.26089E-22
        -0.16561E-04
        -0.13267E-21
        -0.30153E-04
        -0.48022E-21
        -0.45050E-04
        -0.68383E-21
        -0.51545E-04
        -0.60877E-21
        -0.47086E-04
        -0.71987E-21
        -0.39818E-04
        -0.12126E-20
        -0.32350E-04
        -0.16861E-20
        -0.25163E-04
        -0.14571E-20
        -0.15735E-04
        -0.96237E-21
        -0.53735E-05
        -0.21448E-21
        -0.39395E-07
        -0.78204E-23
        -0.16839E-05
        -0.46097E-22
        -0.41336E-05
        -0.12326E-21
        -0.93132E-05
        -0.47210E-21
        -0.16188E-04
        -0.12712E-20
        -0.28048E-04
        -0.18349E-20
        -0.37163E-04
        -0.19196E-20
        -0.17691E-07
        -0.49707E-08
        -0.68084E-08
        -0.26338E-07
        -0.43004E-06
        -0.24657E-06
        -0.59227E-08
        -0.12439E-07
        -0.31153E-08
        -0.10248E-07
        -0.33379E-08
        -0.63148E-07
        -0.26924E-06
        -0.27497E-07
        -0.40414E-07
        -0.46755E-07
        -0.33216E-07
        -0.69652E-08
        -0.18070E-07
        -0.20652E-07
        -0.62836E-06
        -0.70413E-06
        -0.58678E-06
        -0.56345E-07
        -0.88713E-08
        -0.49334E-08
        -0.52749E-07
        -0.66113E-09
        -0.71015E-07
        -0.32293E-07
        -0.37430E-07
        -0.15088E-08
        -0.83139E-08
        -0.89579E-09
        -0.99185E-06
        -0.39006E-06
        -0.31464E-06
        -0.15700E-06
        -0.51054E-07
        -0.24041E-06
        -0.10393E-05
        -0.85829E-06
        -0.79575E-06
        -0.43292E-06
        -0.22860E-06
        -0.14624E-06
        -0.49670E-08
        -0.83122E-07
        -0.69715E-08
        -0.72354E-07
        -0.53323E-06
        -0.36219E-06
        -0.91138E-05
        -0.96975E-05
        -0.77968E-05
        -0.55977E-05
        -0.31122E-05
        -0.82396E-06
        -0.29568E-08
        -0.42842E-06
        -0.99164E-06
        -0.29296E-05
        -0.78449E-05
        -0.11046E-04
        -0.90783E-05
        -0.82827E-05
        -0.91265E-05
        -0.90347E-05
        -0.74624E-05
        -0.58220E-05
        -0.15774E-05
        -0.38936E-07
        -0.56418E-06
        -0.70089E-06
        -0.20166E-05
        -0.52341E-05
        -0.85804E-05
        -0.93867E-05
        -0.25975E-07
        -0.10946E-08
        -0.39671E-08
        -0.33633E-07
        -0.14152E-06
        -0.10335E-06
        -0.87727E-08
        -0.41807E-07
        -0.88262E-08
        -0.37786E-07
        -0.15421E-08
        -0.20529E-07
        -0.22216E-06
        -0.13065E-06
        -0.14018E-06
        -0.10026E-06
        -0.31071E-07
        -0.11146E-07
        -0.50482E-08
        -0.15569E-07
        -0.54817E-06
        -0.49788E-06
        -0.48482E-06
        -0.28361E-07
        -0.91495E-08
        -0.41480E-08
        -0.12200E-06
        -0.21508E-08
        -0.13664E-07
        -0.25410E-07
        -0.59178E-07
        -0.24779E-07
        -0.24894E-07
        -0.18542E-07
        -0.45011E-06
        -0.13711E-06
        -0.18041E-06
        -0.17239E-06
        -0.48321E-08
        -0.40618E-07
        -0.54824E-06
        -0.58011E-06
        -0.55427E-06
        -0.28977E-06
        -0.17184E-06
        -0.58830E-07
        -0.68714E-07
        -0.95768E-07
        -0.16734E-08
        -0.24259E-08
        -0.25489E-06
        -0.19778E-06
        -0.78721E-05
        -0.79946E-05
        -0.64426E-05
        -0.43827E-05
        -0.24403E-05
        -0.51771E-06
        -0.31911E-07
        -0.33495E-06
        -0.58126E-06
        -0.19533E-05
        -0.61625E-05
        -0.85761E-05
        -0.60295E-05
        -0.54571E-05
        -0.66242E-05
        -0.70264E-05
        -0.58536E-05
        -0.52381E-05
        -0.13597E-05
        -0.91859E-07
        -0.44927E-06
        -0.46112E-06
        -0.14577E-05
        -0.43698E-05
        -0.71595E-05
        -0.71143E-05
        -0.26074E-07
        -0.11027E-08
        -0.39821E-08
        -0.33678E-07
        -0.14125E-06
        -0.10316E-06
        -0.88845E-08
        -0.41596E-07
        -0.88455E-08
        -0.37726E-07
        -0.14803E-08
        -0.20629E-07
        -0.22243E-06
        -0.13000E-06
        -0.14003E-06
        -0.10047E-06
        -0.31208E-07
        -0.11085E-07
        -0.50433E-08
        -0.15514E-07
        -0.54806E-06
        -0.49776E-06
        -0.48475E-06
        -0.28364E-07
        -0.91909E-08
        -0.41619E-08
        -0.12207E-06
        -0.20707E-08
        -0.13857E-07
        -0.25442E-07
        -0.59351E-07
        -0.24772E-07
        -0.24687E-07
        -0.18559E-07
        -0.45057E-06
        -0.13698E-06
        -0.18029E-06
        -0.17294E-06
        -0.49251E-08
        -0.40874E-07
        -0.54893E-06
        -0.58078E-06
        -0.55432E-06
        -0.28968E-06
        -0.17171E-06
        -0.58770E-07
        -0.68687E-07
        -0.95831E-07
        -0.16490E-08
        -0.24094E-08
        -0.25456E-06
        -0.19720E-06
        -0.78667E-05
        -0.79904E-05
        -0.64415E-05
        -0.43827E-05
        -0.24388E-05
        -0.51740E-06
        -0.31984E-07
        -0.33537E-06
        -0.58028E-06
        -0.19518E-05
        -0.61606E-05
        -0.85764E-05
        -0.60283E-05
        -0.54564E-05
        -0.66258E-05
        -0.70294E-05
        -0.58556E-05
        -0.52402E-05
        -0.13590E-05
        -0.91943E-07
        -0.44861E-06
        -0.46075E-06
        -0.14556E-05
        -0.43645E-05
        -0.71524E-05
        -0.71079E-05
        -0.26172E-07
        -0.11107E-08
        -0.39970E-08
        -0.33723E-07
        -0.14097E-06
        -0.10297E-06
        -0.89977E-08
        -0.41385E-07
        -0.88637E-08
        -0.37662E-07
        -0.14199E-08
        -0.20729E-07
        -0.22270E-06
        -0.12936E-06
        -0.13988E-06
        -0.10068E-06
        -0.31347E-07
        -0.11023E-07
        -0.50382E-08
        -0.15462E-07
        -0.54797E-06
        -0.49765E-06
        -0.48469E-06
        -0.28367E-07
        -0.92350E-08
        -0.41769E-08
        -0.12214E-06
        -0.19930E-08
        -0.14052E-07
        -0.25474E-07
        -0.59529E-07
        -0.24769E-07
        -0.24479E-07
        -0.18576E-07
        -0.45103E-06
        -0.13686E-06
        -0.18017E-06
        -0.17349E-06
        -0.50190E-08
        -0.41134E-07
        -0.54963E-06
        -0.58147E-06
        -0.55440E-06
        -0.28961E-06
        -0.17159E-06
        -0.58713E-07
        -0.68663E-07
        -0.95895E-07
        -0.16243E-08
        -0.23923E-08
        -0.25424E-06
        -0.19662E-06
        -0.78613E-05
        -0.79863E-05
        -0.64403E-05
        -0.43828E-05
        -0.24373E-05
        -0.51708E-06
        -0.32057E-07
        -0.33578E-06
        -0.57930E-06
        -0.19502E-05
        -0.61587E-05
        -0.85767E-05
        -0.60272E-05
        -0.54559E-05
        -0.66276E-05
        -0.70325E-05
        -0.58578E-05
        -0.52422E-05
        -0.13582E-05
        -0.92027E-07
        -0.44796E-06
        -0.46039E-06
        -0.14534E-05
        -0.43591E-05
        -0.71453E-05
        -0.71016E-05
        -0.26271E-07
        -0.11191E-08
        -0.40117E-08
        -0.33767E-07
        -0.14069E-06
        -0.10278E-06
        -0.91102E-08
        -0.41174E-07
        -0.88798E-08
        -0.37588E-07
        -0.13609E-08
        -0.20831E-07
        -0.22297E-06
        -0.12872E-06
        -0.13973E-06
        -0.10091E-06
        -0.31493E-07
        -0.10961E-07
        -0.50339E-08
        -0.15407E-07
        -0.54791E-06
        -0.49758E-06
        -0.48470E-06
        -0.28370E-07
        -0.92877E-08
        -0.41954E-08
        -0.12220E-06
        -0.19193E-08
        -0.14248E-07
        -0.25504E-07
        -0.59721E-07
        -0.24773E-07
        -0.24272E-07
        -0.18592E-07
        -0.45146E-06
        -0.13674E-06
        -0.18006E-06
        -0.17405E-06
        -0.51135E-08
        -0.41392E-07
        -0.55035E-06
        -0.58220E-06
        -0.55455E-06
        -0.28956E-06
        -0.17146E-06
        -0.58650E-07
        -0.68643E-07
        -0.95961E-07
        -0.15997E-08
        -0.23754E-08
        -0.25391E-06
        -0.19604E-06
        -0.78559E-05
        -0.79822E-05
        -0.64392E-05
        -0.43829E-05
        -0.24358E-05
        -0.51677E-06
        -0.32131E-07
        -0.33620E-06
        -0.57832E-06
        -0.19487E-05
        -0.61568E-05
        -0.85773E-05
        -0.60264E-05
        -0.54554E-05
        -0.66295E-05
        -0.70362E-05
        -0.58601E-05
        -0.52443E-05
        -0.13575E-05
        -0.92111E-07
        -0.44730E-06
        -0.46003E-06
        -0.14513E-05
        -0.43538E-05
        -0.71382E-05
        -0.70953E-05
        -0.26370E-07
        -0.11275E-08
        -0.40267E-08
        -0.33811E-07
        -0.14042E-06
        -0.10259E-06
        -0.92249E-08
        -0.40961E-07
        -0.88935E-08
        -0.37502E-07
        -0.13030E-08
        -0.20932E-07
        -0.22324E-06
        -0.12809E-06
        -0.13958E-06
        -0.10116E-06
        -0.31646E-07
        -0.10899E-07
        -0.50284E-08
        -0.15351E-07
        -0.54788E-06
        -0.49753E-06
        -0.48474E-06
        -0.28374E-07
        -0.93490E-08
        -0.42167E-08
        -0.12225E-06
        -0.18491E-08
        -0.14445E-07
        -0.25532E-07
        -0.59925E-07
        -0.24786E-07
        -0.24065E-07
        -0.18609E-07
        -0.45192E-06
        -0.13662E-06
        -0.17994E-06
        -0.17460E-06
        -0.52085E-08
        -0.41654E-07
        -0.55109E-06
        -0.58298E-06
        -0.55477E-06
        -0.28952E-06
        -0.17132E-06
        -0.58582E-07
        -0.68627E-07
        -0.96033E-07
        -0.15754E-08
        -0.23587E-08
        -0.25360E-06
        -0.19545E-06
        -0.78505E-05
        -0.79780E-05
        -0.64380E-05
        -0.43829E-05
        -0.24343E-05
        -0.51646E-06
        -0.32203E-07
        -0.33662E-06
        -0.57734E-06
        -0.19471E-05
        -0.61549E-05
        -0.85779E-05
        -0.60258E-05
        -0.54550E-05
        -0.66316E-05
        -0.70403E-05
        -0.58627E-05
        -0.52463E-05
        -0.13567E-05
        -0.92195E-07
        -0.44665E-06
        -0.45967E-06
        -0.14491E-05
        -0.43484E-05
        -0.71310E-05
        -0.70889E-05
        -0.26464E-07
        -0.11366E-08
        -0.40398E-08
        -0.33854E-07
        -0.14014E-06
        -0.10240E-06
        -0.93402E-08
        -0.40745E-07
        -0.89067E-08
        -0.37414E-07
        -0.12463E-08
        -0.21034E-07
        -0.22351E-06
        -0.12745E-06
        -0.13943E-06
        -0.10142E-06
        -0.31799E-07
        -0.10836E-07
        -0.50227E-08
        -0.15298E-07
        -0.54787E-06
        -0.49749E-06
        -0.48482E-06
        -0.28378E-07
        -0.94101E-08
        -0.42386E-08
        -0.12230E-06
        -0.17807E-08
        -0.14644E-07
        -0.25565E-07
        -0.60130E-07
        -0.24797E-07
        -0.23856E-07
        -0.18624E-07
        -0.45239E-06
        -0.13651E-06
        -0.17984E-06
        -0.17515E-06
        -0.53045E-08
        -0.41917E-07
        -0.55184E-06
        -0.58378E-06
        -0.55502E-06
        -0.28950E-06
        -0.17120E-06
        -0.58523E-07
        -0.68607E-07
        -0.96102E-07
        -0.15506E-08
        -0.23434E-08
        -0.25328E-06
        -0.19489E-06
        -0.78451E-05
        -0.79739E-05
        -0.64368E-05
        -0.43829E-05
        -0.24328E-05
        -0.51615E-06
        -0.32274E-07
        -0.33703E-06
        -0.57637E-06
        -0.19456E-05
        -0.61529E-05
        -0.85786E-05
        -0.60254E-05
        -0.54546E-05
        -0.66337E-05
        -0.70446E-05
        -0.58653E-05
        -0.52482E-05
        -0.13559E-05
        -0.92270E-07
        -0.44598E-06
        -0.45931E-06
        -0.14470E-05
        -0.43431E-05
        -0.71240E-05
        -0.70826E-05
        -0.26551E-07
        -0.11476E-08
        -0.40501E-08
        -0.33897E-07
        -0.13987E-06
        -0.10222E-06
        -0.94584E-08
        -0.40525E-07
        -0.89207E-08
        -0.37331E-07
        -0.11907E-08
        -0.21135E-07
        -0.22379E-06
        -0.12681E-06
        -0.13928E-06
        -0.10167E-06
        -0.31946E-07
        -0.10774E-07
        -0.50182E-08
        -0.15247E-07
        -0.54785E-06
        -0.49747E-06
        -0.48491E-06
        -0.28385E-07
        -0.94643E-08
        -0.42580E-08
        -0.12235E-06
        -0.17121E-08
        -0.14846E-07
        -0.25603E-07
        -0.60323E-07
        -0.24798E-07
        -0.23644E-07
        -0.18634E-07
        -0.45286E-06
        -0.13641E-06
        -0.17974E-06
        -0.17570E-06
        -0.54020E-08
        -0.42186E-07
        -0.55261E-06
        -0.58459E-06
        -0.55528E-06
        -0.28948E-06
        -0.17109E-06
        -0.58470E-07
        -0.68576E-07
        -0.96166E-07
        -0.15239E-08
        -0.23317E-08
        -0.25301E-06
        -0.19432E-06
        -0.78397E-05
        -0.79698E-05
        -0.64356E-05
        -0.43830E-05
        -0.24313E-05
        -0.51583E-06
        -0.32346E-07
        -0.33744E-06
        -0.57540E-06
        -0.19440E-05
        -0.61509E-05
        -0.85793E-05
        -0.60250E-05
        -0.54542E-05
        -0.66358E-05
        -0.70490E-05
        -0.58680E-05
        -0.52501E-05
        -0.13552E-05
        -0.92332E-07
        -0.44529E-06
        -0.45895E-06
        -0.14449E-05
        -0.43378E-05
        -0.71169E-05
        -0.70763E-05
        -0.26635E-07
        -0.11592E-08
        -0.40589E-08
        -0.33937E-07
        -0.13962E-06
        -0.10203E-06
        -0.95787E-08
        -0.40304E-07
        -0.89352E-08
        -0.37251E-07
        -0.11362E-08
        -0.21238E-07
        -0.22407E-06
        -0.12618E-06
        -0.13912E-06
        -0.10193E-06
        -0.32091E-07
        -0.10711E-07
        -0.50129E-08
        -0.15198E-07
        -0.54784E-06
        -0.49743E-06
        -0.48499E-06
        -0.28391E-07
        -0.95151E-08
        -0.42763E-08
        -0.12240E-06
        -0.16444E-08
        -0.15053E-07
        -0.25644E-07
        -0.60511E-07
        -0.24795E-07
        -0.23431E-07
        -0.18643E-07
        -0.45336E-06
        -0.13632E-06
        -0.17965E-06
        -0.17625E-06
        -0.55005E-08
        -0.42455E-07
        -0.55337E-06
        -0.58543E-06
        -0.55555E-06
        -0.28948E-06
        -0.17098E-06
        -0.58427E-07
        -0.68541E-07
        -0.96227E-07
        -0.14966E-08
        -0.23215E-08
        -0.25274E-06
        -0.19377E-06
        -0.78343E-05
        -0.79658E-05
        -0.64344E-05
        -0.43830E-05
        -0.24298E-05
        -0.51551E-06
        -0.32417E-07
        -0.33785E-06
        -0.57443E-06
        -0.19425E-05
        -0.61488E-05
        -0.85800E-05
        -0.60245E-05
        -0.54539E-05
        -0.66380E-05
        -0.70533E-05
        -0.58707E-05
        -0.52519E-05
        -0.13544E-05
        -0.92391E-07
        -0.44460E-06
        -0.45860E-06
        -0.14429E-05
        -0.43326E-05
        -0.71098E-05
        -0.70699E-05
        -0.26718E-07
        -0.11710E-08
        -0.40675E-08
        -0.33978E-07
        -0.13935E-06
        -0.10184E-06
        -0.96990E-08
        -0.40084E-07
        -0.89500E-08
        -0.37173E-07
        -0.10831E-08
        -0.21340E-07
        -0.22435E-06
        -0.12555E-06
        -0.13897E-06
        -0.10218E-06
        -0.32236E-07
        -0.10649E-07
        -0.50075E-08
        -0.15148E-07
        -0.54782E-06
        -0.49741E-06
        -0.48508E-06
        -0.28399E-07
        -0.95658E-08
        -0.42944E-08
        -0.12246E-06
        -0.15781E-08
        -0.15261E-07
        -0.25685E-07
        -0.60700E-07
        -0.24792E-07
        -0.23219E-07
        -0.18652E-07
        -0.45386E-06
        -0.13622E-06
        -0.17957E-06
        -0.17680E-06
        -0.56002E-08
        -0.42723E-07
        -0.55414E-06
        -0.58625E-06
        -0.55583E-06
        -0.28948E-06
        -0.17089E-06
        -0.58383E-07
        -0.68506E-07
        -0.96287E-07
        -0.14695E-08
        -0.23118E-08
        -0.25249E-06
        -0.19321E-06
        -0.78288E-05
        -0.79617E-05
        -0.64332E-05
        -0.43830E-05
        -0.24283E-05
        -0.51520E-06
        -0.32488E-07
        -0.33826E-06
        -0.57346E-06
        -0.19410E-05
        -0.61468E-05
        -0.85807E-05
        -0.60240E-05
        -0.54535E-05
        -0.66401E-05
        -0.70576E-05
        -0.58734E-05
        -0.52537E-05
        -0.13536E-05
        -0.92450E-07
        -0.44390E-06
        -0.45824E-06
        -0.14408E-05
        -0.43273E-05
        -0.71028E-05
        -0.70636E-05
        -0.26802E-07
        -0.11830E-08
        -0.40762E-08
        -0.34020E-07
        -0.13909E-06
        -0.10165E-06
        -0.98209E-08
        -0.39864E-07
        -0.89648E-08
        -0.37094E-07
        -0.10313E-08
        -0.21442E-07
        -0.22463E-06
        -0.12492E-06
        -0.13881E-06
        -0.10244E-06
        -0.32381E-07
        -0.10588E-07
        -0.50020E-08
        -0.15099E-07
        -0.54781E-06
        -0.49737E-06
        -0.48515E-06
        -0.28406E-07
        -0.96168E-08
        -0.43125E-08
        -0.12252E-06
        -0.15136E-08
        -0.15470E-07
        -0.25725E-07
        -0.60888E-07
        -0.24789E-07
        -0.23008E-07
        -0.18662E-07
        -0.45434E-06
        -0.13614E-06
        -0.17948E-06
        -0.17735E-06
        -0.57009E-08
        -0.42996E-07
        -0.55490E-06
        -0.58707E-06
        -0.55609E-06
        -0.28948E-06
        -0.17079E-06
        -0.58336E-07
        -0.68470E-07
        -0.96349E-07
        -0.14429E-08
        -0.23013E-08
        -0.25222E-06
        -0.19265E-06
        -0.78234E-05
        -0.79576E-05
        -0.64319E-05
        -0.43830E-05
        -0.24268E-05
        -0.51487E-06
        -0.32559E-07
        -0.33867E-06
        -0.57249E-06
        -0.19394E-05
        -0.61448E-05
        -0.85814E-05
        -0.60235E-05
        -0.54532E-05
        -0.66423E-05
        -0.70619E-05
        -0.58761E-05
        -0.52555E-05
        -0.13528E-05
        -0.92507E-07
        -0.44320E-06
        -0.45789E-06
        -0.14388E-05
        -0.43221E-05
        -0.70958E-05
        -0.70574E-05
        -0.26885E-07
        -0.11950E-08
        -0.40852E-08
        -0.34060E-07
        -0.13884E-06
        -0.10146E-06
        -0.99423E-08
        -0.39645E-07
        -0.89795E-08
        -0.37016E-07
        -0.98071E-09
        -0.21546E-07
        -0.22492E-06
        -0.12429E-06
        -0.13865E-06
        -0.10269E-06
        -0.32527E-07
        -0.10527E-07
        -0.49977E-08
        -0.15049E-07
        -0.54779E-06
        -0.49734E-06
        -0.48524E-06
        -0.28414E-07
        -0.96672E-08
        -0.43305E-08
        -0.12258E-06
        -0.14504E-08
        -0.15680E-07
        -0.25764E-07
        -0.61076E-07
        -0.24785E-07
        -0.22798E-07
        -0.18670E-07
        -0.45484E-06
        -0.13604E-06
        -0.17940E-06
        -0.17790E-06
        -0.58027E-08
        -0.43266E-07
        -0.55567E-06
        -0.58789E-06
        -0.55636E-06
        -0.28947E-06
        -0.17069E-06
        -0.58294E-07
        -0.68434E-07
        -0.96410E-07
        -0.14163E-08
        -0.22911E-08
        -0.25197E-06
        -0.19210E-06
        -0.78180E-05
        -0.79536E-05
        -0.64307E-05
        -0.43830E-05
        -0.24252E-05
        -0.51457E-06
        -0.32628E-07
        -0.33908E-06
        -0.57152E-06
        -0.19379E-05
        -0.61428E-05
        -0.85821E-05
        -0.60230E-05
        -0.54528E-05
        -0.66444E-05
        -0.70663E-05
        -0.58787E-05
        -0.52574E-05
        -0.13520E-05
        -0.92563E-07
        -0.44250E-06
        -0.45753E-06
        -0.14367E-05
        -0.43169E-05
        -0.70888E-05
        -0.70510E-05
        -0.26969E-07
        -0.12070E-08
        -0.40936E-08
        -0.34101E-07
        -0.13857E-06
        -0.10128E-06
        -0.10065E-07
        -0.39426E-07
        -0.89940E-08
        -0.36938E-07
        -0.93151E-09
        -0.21650E-07
        -0.22519E-06
        -0.12367E-06
        -0.13850E-06
        -0.10294E-06
        -0.32672E-07
        -0.10466E-07
        -0.49926E-08
        -0.15000E-07
        -0.54777E-06
        -0.49731E-06
        -0.48533E-06
        -0.28423E-07
        -0.97176E-08
        -0.43491E-08
        -0.12263E-06
        -0.13888E-08
        -0.15889E-07
        -0.25806E-07
        -0.61266E-07
        -0.24782E-07
        -0.22588E-07
        -0.18680E-07
        -0.45534E-06
        -0.13595E-06
        -0.17931E-06
        -0.17845E-06
        -0.59057E-08
        -0.43542E-07
        -0.55643E-06
        -0.58871E-06
        -0.55662E-06
        -0.28947E-06
        -0.17059E-06
        -0.58251E-07
        -0.68398E-07
        -0.96473E-07
        -0.13899E-08
        -0.22815E-08
        -0.25170E-06
        -0.19155E-06
        -0.78126E-05
        -0.79495E-05
        -0.64295E-05
        -0.43830E-05
        -0.24237E-05
        -0.51426E-06
        -0.32698E-07
        -0.33949E-06
        -0.57056E-06
        -0.19363E-05
        -0.61408E-05
        -0.85828E-05
        -0.60225E-05
        -0.54524E-05
        -0.66465E-05
        -0.70706E-05
        -0.58814E-05
        -0.52592E-05
        -0.13512E-05
        -0.92620E-07
        -0.44180E-06
        -0.45718E-06
        -0.14347E-05
        -0.43116E-05
        -0.70818E-05
        -0.70448E-05
        -0.27053E-07
        -0.12192E-08
        -0.41020E-08
        -0.34141E-07
        -0.13831E-06
        -0.10109E-06
        -0.10189E-07
        -0.39208E-07
        -0.90082E-08
        -0.36858E-07
        -0.88370E-09
        -0.21753E-07
        -0.22548E-06
        -0.12305E-06
        -0.13834E-06
        -0.10320E-06
        -0.32818E-07
        -0.10404E-07
        -0.49876E-08
        -0.14950E-07
        -0.54775E-06
        -0.49728E-06
        -0.48541E-06
        -0.28431E-07
        -0.97675E-08
        -0.43672E-08
        -0.12269E-06
        -0.13285E-08
        -0.16101E-07
        -0.25846E-07
        -0.61454E-07
        -0.24778E-07
        -0.22378E-07
        -0.18689E-07
        -0.45583E-06
        -0.13586E-06
        -0.17923E-06
        -0.17899E-06
        -0.60098E-08
        -0.43815E-07
        -0.55722E-06
        -0.58953E-06
        -0.55689E-06
        -0.28948E-06
        -0.17049E-06
        -0.58201E-07
        -0.68363E-07
        -0.96534E-07
        -0.13636E-08
        -0.22713E-08
        -0.25143E-06
        -0.19099E-06
        -0.78072E-05
        -0.79455E-05
        -0.64282E-05
        -0.43830E-05
        -0.24223E-05
        -0.51394E-06
        -0.32770E-07
        -0.33989E-06
        -0.56959E-06
        -0.19348E-05
        -0.61388E-05
        -0.85835E-05
        -0.60221E-05
        -0.54521E-05
        -0.66487E-05
        -0.70749E-05
        -0.58840E-05
        -0.52610E-05
        -0.13504E-05
        -0.92676E-07
        -0.44111E-06
        -0.45683E-06
        -0.14326E-05
        -0.43064E-05
        -0.70748E-05
        -0.70385E-05
        -0.27138E-07
        -0.12312E-08
        -0.41105E-08
        -0.34181E-07
        -0.13806E-06
        -0.10090E-06
        -0.10311E-07
        -0.38990E-07
        -0.90226E-08
        -0.36778E-07
        -0.83724E-09
        -0.21857E-07
        -0.22576E-06
        -0.12243E-06
        -0.13818E-06
        -0.10345E-06
        -0.32964E-07
        -0.10344E-07
        -0.49836E-08
        -0.14902E-07
        -0.54773E-06
        -0.49725E-06
        -0.48550E-06
        -0.28440E-07
        -0.98175E-08
        -0.43853E-08
        -0.12274E-06
        -0.12698E-08
        -0.16315E-07
        -0.25886E-07
        -0.61643E-07
        -0.24774E-07
        -0.22170E-07
        -0.18697E-07
        -0.45634E-06
        -0.13577E-06
        -0.17914E-06
        -0.17954E-06
        -0.61148E-08
        -0.44093E-07
        -0.55798E-06
        -0.59034E-06
        -0.55716E-06
        -0.28947E-06
        -0.17039E-06
        -0.58159E-07
        -0.68326E-07
        -0.96595E-07
        -0.13377E-08
        -0.22612E-08
        -0.25118E-06
        -0.19044E-06
        -0.78017E-05
        -0.79415E-05
        -0.64270E-05
        -0.43830E-05
        -0.24208E-05
        -0.51362E-06
        -0.32840E-07
        -0.34028E-06
        -0.56862E-06
        -0.19332E-05
        -0.61368E-05
        -0.85842E-05
        -0.60216E-05
        -0.54517E-05
        -0.66508E-05
        -0.70793E-05
        -0.58867E-05
        -0.52628E-05
        -0.13496E-05
        -0.92730E-07
        -0.44041E-06
        -0.45648E-06
        -0.14306E-05
        -0.43012E-05
        -0.70678E-05
        -0.70322E-05
        -0.27222E-07
        -0.12432E-08
        -0.41190E-08
        -0.34221E-07
        -0.13780E-06
        -0.10071E-06
        -0.10436E-07
        -0.38773E-07
        -0.90370E-08
        -0.36700E-07
        -0.79204E-09
        -0.21963E-07
        -0.22604E-06
        -0.12181E-06
        -0.13802E-06
        -0.10371E-06
        -0.33110E-07
        -0.10283E-07
        -0.49785E-08
        -0.14852E-07
        -0.54772E-06
        -0.49722E-06
        -0.48558E-06
        -0.28448E-07
        -0.98673E-08
        -0.44035E-08
        -0.12280E-06
        -0.12125E-08
        -0.16529E-07
        -0.25925E-07
        -0.61832E-07
        -0.24770E-07
        -0.21962E-07
        -0.18706E-07
        -0.45682E-06
        -0.13569E-06
        -0.17906E-06
        -0.18008E-06
        -0.62208E-08
        -0.44369E-07
        -0.55875E-06
        -0.59116E-06
        -0.55743E-06
        -0.28947E-06
        -0.17029E-06
        -0.58117E-07
        -0.68290E-07
        -0.96657E-07
        -0.13116E-08
        -0.22514E-08
        -0.25091E-06
        -0.18989E-06
        -0.77963E-05
        -0.79374E-05
        -0.64258E-05
        -0.43830E-05
        -0.24193E-05
        -0.51330E-06
        -0.32909E-07
        -0.34067E-06
        -0.56765E-06
        -0.19317E-05
        -0.61348E-05
        -0.85849E-05
        -0.60211E-05
        -0.54513E-05
        -0.66530E-05
        -0.70836E-05
        -0.58894E-05
        -0.52646E-05
        -0.13488E-05
        -0.92783E-07
        -0.43972E-06
        -0.45614E-06
        -0.14285E-05
        -0.42959E-05
        -0.70609E-05
        -0.70259E-05
        -0.27307E-07
        -0.12556E-08
        -0.41275E-08
        -0.34261E-07
        -0.13754E-06
        -0.10053E-06
        -0.10560E-07
        -0.38556E-07
        -0.90514E-08
        -0.36621E-07
        -0.74809E-09
        -0.22067E-07
        -0.22632E-06
        -0.12120E-06
        -0.13786E-06
        -0.10396E-06
        -0.33257E-07
        -0.10223E-07
        -0.49736E-08
        -0.14804E-07
        -0.54770E-06
        -0.49719E-06
        -0.48567E-06
        -0.28456E-07
        -0.99164E-08
        -0.44218E-08
        -0.12285E-06
        -0.11565E-08
        -0.16745E-07
        -0.25964E-07
        -0.62021E-07
        -0.24766E-07
        -0.21756E-07
        -0.18715E-07
        -0.45733E-06
        -0.13560E-06
        -0.17897E-06
        -0.18062E-06
        -0.63284E-08
        -0.44645E-07
        -0.55951E-06
        -0.59197E-06
        -0.55769E-06
        -0.28946E-06
        -0.17019E-06
        -0.58069E-07
        -0.68254E-07
        -0.96718E-07
        -0.12860E-08
        -0.22412E-08
        -0.25065E-06
        -0.18933E-06
        -0.77909E-05
        -0.79334E-05
        -0.64245E-05
        -0.43830E-05
        -0.24178E-05
        -0.51298E-06
        -0.32976E-07
        -0.34107E-06
        -0.56669E-06
        -0.19301E-05
        -0.61329E-05
        -0.85856E-05
        -0.60206E-05
        -0.54510E-05
        -0.66551E-05
        -0.70879E-05
        -0.58921E-05
        -0.52664E-05
        -0.13480E-05
        -0.92837E-07
        -0.43902E-06
        -0.45579E-06
        -0.14265E-05
        -0.42907E-05
        -0.70539E-05
        -0.70196E-05
        -0.27391E-07
        -0.12679E-08
        -0.41362E-08
        -0.34301E-07
        -0.13729E-06
        -0.10034E-06
        -0.10686E-07
        -0.38340E-07
        -0.90652E-08
        -0.36539E-07
        -0.70541E-09
        -0.22172E-07
        -0.22661E-06
        -0.12058E-06
        -0.13770E-06
        -0.10422E-06
        -0.33403E-07
        -0.10164E-07
        -0.49690E-08
        -0.14754E-07
        -0.54768E-06
        -0.49715E-06
        -0.48575E-06
        -0.28466E-07
        -0.99645E-08
        -0.44400E-08
        -0.12290E-06
        -0.11014E-08
        -0.16960E-07
        -0.26003E-07
        -0.62212E-07
        -0.24763E-07
        -0.21551E-07
        -0.18725E-07
        -0.45784E-06
        -0.13551E-06
        -0.17889E-06
        -0.18116E-06
        -0.64379E-08
        -0.44927E-07
        -0.56025E-06
        -0.59278E-06
        -0.55794E-06
        -0.28947E-06
        -0.17009E-06
        -0.58027E-07
        -0.68219E-07
        -0.96781E-07
        -0.12608E-08
        -0.22311E-08
        -0.25038E-06
        -0.18879E-06
        -0.77855E-05
        -0.79294E-05
        -0.64233E-05
        -0.43830E-05
        -0.24162E-05
        -0.51266E-06
        -0.33043E-07
        -0.34146E-06
        -0.56574E-06
        -0.19286E-05
        -0.61309E-05
        -0.85865E-05
        -0.60202E-05
        -0.54506E-05
        -0.66572E-05
        -0.70922E-05
        -0.58948E-05
        -0.52682E-05
        -0.13473E-05
        -0.92892E-07
        -0.43832E-06
        -0.45543E-06
        -0.14244E-05
        -0.42855E-05
        -0.70469E-05
        -0.70133E-05
        -0.27476E-07
        -0.12801E-08
        -0.41444E-08
        -0.34340E-07
        -0.13703E-06
        -0.10015E-06
        -0.10812E-07
        -0.38125E-07
        -0.90776E-08
        -0.36448E-07
        -0.66404E-09
        -0.22278E-07
        -0.22689E-06
        -0.11997E-06
        -0.13753E-06
        -0.10447E-06
        -0.33549E-07
        -0.10104E-07
        -0.49656E-08
        -0.14707E-07
        -0.54767E-06
        -0.49711E-06
        -0.48584E-06
        -0.28473E-07
        -0.10010E-07
        -0.44589E-08
        -0.12293E-06
        -0.10463E-08
        -0.17178E-07
        -0.26045E-07
        -0.62402E-07
        -0.24759E-07
        -0.21346E-07
        -0.18734E-07
        -0.45833E-06
        -0.13542E-06
        -0.17881E-06
        -0.18169E-06
        -0.65515E-08
        -0.45203E-07
        -0.56095E-06
        -0.59352E-06
        -0.55817E-06
        -0.28947E-06
        -0.16999E-06
        -0.57980E-07
        -0.68184E-07
        -0.96844E-07
        -0.12359E-08
        -0.22211E-08
        -0.25013E-06
        -0.18823E-06
        -0.77801E-05
        -0.79254E-05
        -0.64220E-05
        -0.43830E-05
        -0.24148E-05
        -0.51236E-06
        -0.33111E-07
        -0.34185E-06
        -0.56479E-06
        -0.19270E-05
        -0.61288E-05
        -0.85878E-05
        -0.60200E-05
        -0.54503E-05
        -0.66593E-05
        -0.70965E-05
        -0.58975E-05
        -0.52700E-05
        -0.13465E-05
        -0.92946E-07
        -0.43763E-06
        -0.45508E-06
        -0.14224E-05
        -0.42803E-05
        -0.70399E-05
        -0.70071E-05
        -0.27561E-07
        -0.12924E-08
        -0.41527E-08
        -0.34380E-07
        -0.13677E-06
        -0.99967E-07
        -0.10939E-07
        -0.37910E-07
        -0.90888E-08
        -0.36348E-07
        -0.62404E-09
        -0.22384E-07
        -0.22717E-06
        -0.11935E-06
        -0.13736E-06
        -0.10473E-06
        -0.33694E-07
        -0.10044E-07
        -0.49611E-08
        -0.14658E-07
        -0.54766E-06
        -0.49706E-06
        -0.48593E-06
        -0.28482E-07
        -0.10052E-07
        -0.44771E-08
        -0.12294E-06
        -0.99098E-09
        -0.17397E-07
        -0.26085E-07
        -0.62593E-07
        -0.24755E-07
        -0.21142E-07
        -0.18744E-07
        -0.45884E-06
        -0.13533E-06
        -0.17872E-06
        -0.18221E-06
        -0.66691E-08
        -0.45481E-07
        -0.56158E-06
        -0.59419E-06
        -0.55837E-06
        -0.28947E-06
        -0.16990E-06
        -0.57938E-07
        -0.68148E-07
        -0.96906E-07
        -0.12109E-08
        -0.22112E-08
        -0.24986E-06
        -0.18768E-06
        -0.77747E-05
        -0.79214E-05
        -0.64208E-05
        -0.43830E-05
        -0.24133E-05
        -0.51204E-06
        -0.33178E-07
        -0.34224E-06
        -0.56386E-06
        -0.19253E-05
        -0.61267E-05
        -0.85895E-05
        -0.60201E-05
        -0.54500E-05
        -0.66615E-05
        -0.71008E-05
        -0.59001E-05
        -0.52717E-05
        -0.13457E-05
        -0.92999E-07
        -0.43695E-06
        -0.45473E-06
        -0.14204E-05
        -0.42751E-05
        -0.70329E-05
        -0.70009E-05
        -0.27647E-07
        -0.13049E-08
        -0.41613E-08
        -0.34420E-07
        -0.13652E-06
        -0.99786E-07
        -0.11065E-07
        -0.37696E-07
        -0.90994E-08
        -0.36247E-07
        -0.58555E-09
        -0.22488E-07
        -0.22745E-06
        -0.11873E-06
        -0.13719E-06
        -0.10498E-06
        -0.33840E-07
        -0.99856E-08
        -0.49563E-08
        -0.14611E-07
        -0.54763E-06
        -0.49701E-06
        -0.48600E-06
        -0.28491E-07
        -0.10092E-07
        -0.44953E-08
        -0.12294E-06
        -0.93699E-09
        -0.17616E-07
        -0.26125E-07
        -0.62784E-07
        -0.24751E-07
        -0.20941E-07
        -0.18753E-07
        -0.45935E-06
        -0.13525E-06
        -0.17864E-06
        -0.18272E-06
        -0.67891E-08
        -0.45753E-07
        -0.56219E-06
        -0.59484E-06
        -0.55855E-06
        -0.28947E-06
        -0.16979E-06
        -0.57895E-07
        -0.68115E-07
        -0.96973E-07
        -0.11865E-08
        -0.22009E-08
        -0.24961E-06
        -0.18714E-06
        -0.77693E-05
        -0.79174E-05
        -0.64196E-05
        -0.43831E-05
        -0.24118E-05
        -0.51171E-06
        -0.33244E-07
        -0.34262E-06
        -0.56293E-06
        -0.19236E-05
        -0.61246E-05
        -0.85915E-05
        -0.60202E-05
        -0.54497E-05
        -0.66636E-05
        -0.71051E-05
        -0.59028E-05
        -0.52735E-05
        -0.13449E-05
        -0.93057E-07
        -0.43626E-06
        -0.45438E-06
        -0.14183E-05
        -0.42699E-05
        -0.70260E-05
        -0.69946E-05
        -0.27894E-07
        -0.13225E-08
        -0.41952E-08
        -0.34662E-07
        -0.13698E-06
        -0.10016E-06
        -0.11241E-07
        -0.37722E-07
        -0.91621E-08
        -0.36371E-07
        -0.55610E-09
        -0.22675E-07
        -0.22884E-06
        -0.11882E-06
        -0.13773E-06
        -0.10584E-06
        -0.34176E-07
        -0.99913E-08
        -0.49775E-08
        -0.14639E-07
        -0.55035E-06
        -0.49953E-06
        -0.48852E-06
        -0.28661E-07
        -0.10186E-07
        -0.45378E-08
        -0.12365E-06
        -0.89283E-09
        -0.17916E-07
        -0.26305E-07
        -0.63336E-07
        -0.24886E-07
        -0.20882E-07
        -0.18876E-07
        -0.46211E-06
        -0.13589E-06
        -0.17949E-06
        -0.18416E-06
        -0.69354E-08
        -0.46244E-07
        -0.56567E-06
        -0.59861E-06
        -0.56168E-06
        -0.29094E-06
        -0.17057E-06
        -0.58119E-07
        -0.68444E-07
        -0.97584E-07
        -0.11715E-08
        -0.22026E-08
        -0.25065E-06
        -0.18763E-06
        -0.77884E-05
        -0.79380E-05
        -0.64385E-05
        -0.43970E-05
        -0.24180E-05
        -0.51287E-06
        -0.33437E-07
        -0.34404E-06
        -0.56389E-06
        -0.19283E-05
        -0.61430E-05
        -0.86214E-05
        -0.60408E-05
        -0.54682E-05
        -0.66873E-05
        -0.71310E-05
        -0.59232E-05
        -0.52910E-05
        -0.13482E-05
        -0.93442E-07
        -0.43713E-06
        -0.45550E-06
        -0.14210E-05
        -0.42790E-05
        -0.70418E-05
        -0.70106E-05
        -0.60938E-07
        -0.29257E-08
        -0.91234E-08
        -0.76021E-07
        -0.27638E-06
        -0.20615E-06
        -0.24698E-07
        -0.81139E-07
        -0.19894E-07
        -0.77968E-07
        -0.11390E-08
        -0.44069E-07
        -0.45886E-06
        -0.24757E-06
        -0.27000E-06
        -0.23172E-06
        -0.74349E-07
        -0.21841E-07
        -0.10578E-07
        -0.31223E-07
        -0.11035E-05
        -0.10271E-05
        -0.98566E-06
        -0.61917E-07
        -0.22272E-07
        -0.99850E-08
        -0.26225E-06
        -0.18805E-08
        -0.39577E-07
        -0.57332E-07
        -0.13877E-06
        -0.54143E-07
        -0.45576E-07
        -0.41374E-07
        -0.89758E-06
        -0.27911E-06
        -0.36901E-06
        -0.37840E-06
        -0.14760E-07
        -0.98594E-07
        -0.11705E-05
        -0.12581E-05
        -0.11799E-05
        -0.59568E-06
        -0.34664E-06
        -0.11125E-06
        -0.13807E-06
        -0.20237E-06
        -0.24212E-08
        -0.45559E-08
        -0.49376E-06
        -0.38365E-06
        -0.11796E-04
        -0.11990E-04
        -0.97311E-05
        -0.66895E-05
        -0.36702E-05
        -0.78113E-06
        -0.52228E-07
        -0.54503E-06
        -0.88853E-06
        -0.30031E-05
        -0.96008E-05
        -0.13448E-04
        -0.96530E-05
        -0.88032E-05
        -0.10494E-04
        -0.10936E-04
        -0.90272E-05
        -0.79620E-05
        -0.20217E-05
        -0.14069E-06
        -0.67188E-06
        -0.70677E-06
        -0.21874E-05
        -0.66338E-05
        -0.10854E-04
        -0.10729E-04
  
SCALARS                      strain_yy  double 1
LOOKUP_TABLE default
        -0.36438E-07
        -0.40055E-08
        -0.27152E-07
        -0.72348E-08
        -0.58132E-22
        -0.44161E-23
        -0.89283E-22
        -0.51942E-22
        -0.37984E-06
        -0.16467E-06
        -0.19774E-21
        -0.15326E-21
        -0.28954E-06
        -0.74837E-09
        -0.10127E-21
        -0.41629E-24
        -0.34914E-07
        -0.47553E-06
        -0.21921E-25
        -0.22950E-23
        -0.12709E-06
        -0.17902E-05
        -0.19528E-05
        -0.53217E-21
        -0.15872E-20
        -0.11089E-20
        -0.17396E-07
        -0.18244E-05
        -0.27536E-21
        -0.10363E-20
        -0.45585E-07
        -0.34343E-07
        -0.25190E-07
        -0.74005E-22
        -0.77120E-22
        -0.33240E-25
        -0.40065E-06
        -0.36799E-06
        -0.25060E-21
        -0.15170E-21
        -0.38550E-06
        -0.15487E-06
        -0.14313E-21
        -0.11954E-21
        -0.31933E-06
        -0.38074E-07
        -0.15750E-24
        -0.37682E-22
        -0.26915E-06
        -0.83532E-23
        -0.26807E-08
        -0.54796E-25
        -0.92456E-09
        -0.12499E-21
        -0.40497E-07
        -0.42295E-22
        -0.43079E-06
        -0.13715E-07
        -0.31128E-25
        -0.12823E-24
        -0.67027E-07
        -0.88949E-06
        -0.57786E-23
        -0.80850E-22
        -0.24490E-07
        -0.23545E-22
        -0.44965E-06
        -0.34942E-22
        -0.29363E-06
        -0.82285E-07
        -0.53365E-24
        -0.93033E-22
        -0.10035E-05
        -0.44859E-21
        -0.29304E-05
        -0.42055E-21
        -0.29800E-05
        -0.24234E-21
        -0.20238E-05
        -0.17025E-21
        -0.43727E-05
        -0.25868E-05
        -0.70063E-22
        -0.34441E-23
        -0.51038E-07
        -0.43122E-25
        -0.77978E-06
        -0.16922E-21
        -0.43392E-05
        -0.51861E-21
        -0.84473E-05
        -0.32394E-05
        -0.11408E-20
        -0.74742E-21
        -0.16058E-05
        -0.45038E-21
        -0.12948E-05
        -0.47139E-21
        -0.12245E-05
        -0.54497E-21
        -0.33894E-05
        -0.23439E-05
        -0.47129E-21
        -0.10820E-21
        -0.15143E-05
        -0.21782E-06
        -0.58269E-22
        -0.89982E-22
        -0.91474E-05
        -0.64488E-21
        -0.18831E-04
        -0.13798E-20
        -0.28105E-04
        -0.21045E-20
        -0.38290E-04
        -0.20707E-20
        -0.52576E-04
        -0.12968E-20
        -0.54620E-04
        -0.77663E-21
        -0.48398E-04
        -0.67184E-21
        -0.38328E-04
        -0.60816E-21
        -0.20513E-04
        -0.24838E-21
        -0.94660E-05
        -0.27074E-22
        -0.24121E-05
        -0.11304E-22
        -0.12568E-07
        -0.25539E-22
        -0.22263E-05
        -0.68128E-23
        -0.71967E-05
        -0.62308E-22
        -0.17235E-04
        -0.49642E-21
        -0.21578E-04
        -0.12105E-20
        -0.25610E-04
        -0.20804E-20
        -0.41697E-04
        -0.20768E-20
        -0.44933E-04
        -0.15826E-20
        -0.38451E-04
        -0.15032E-20
        -0.25334E-04
        -0.15220E-20
        -0.11709E-04
        -0.95175E-21
        -0.58915E-05
        -0.33281E-21
        -0.30583E-05
        -0.19897E-21
        -0.18447E-06
        -0.51154E-07
        -0.38796E-07
        -0.35704E-08
        -0.42305E-07
        -0.45870E-07
        -0.53674E-09
        -0.12348E-06
        -0.85634E-07
        -0.19138E-06
        -0.56334E-07
        -0.10344E-05
        -0.47215E-06
        -0.63392E-08
        -0.10458E-05
        -0.12770E-07
        -0.10112E-07
        -0.40896E-08
        -0.74605E-08
        -0.42115E-08
        -0.36138E-08
        -0.24294E-08
        -0.28003E-07
        -0.19781E-09
        -0.89077E-07
        -0.19497E-08
        -0.54103E-11
        -0.16488E-08
        -0.24889E-08
        -0.55835E-07
        -0.12220E-07
        -0.15035E-07
        -0.64647E-08
        -0.39494E-09
        -0.11873E-08
        -0.33835E-07
        -0.16768E-06
        -0.79731E-06
        -0.66707E-06
        -0.48955E-06
        -0.44277E-06
        -0.26026E-07
        -0.16601E-07
        -0.12571E-06
        -0.35180E-06
        -0.97906E-06
        -0.40663E-06
        -0.20098E-06
        -0.22942E-06
        -0.26703E-06
        -0.37887E-06
        -0.75910E-07
        -0.30534E-06
        -0.42655E-06
        -0.31480E-05
        -0.59625E-05
        -0.97151E-05
        -0.13968E-04
        -0.14385E-04
        -0.11850E-04
        -0.10698E-04
        -0.95776E-05
        -0.40278E-05
        -0.73946E-06
        -0.14032E-06
        -0.27061E-07
        -0.62699E-07
        -0.97078E-06
        -0.32818E-05
        -0.56837E-05
        -0.87742E-05
        -0.11399E-04
        -0.99280E-05
        -0.88700E-05
        -0.77023E-05
        -0.37896E-05
        -0.12606E-05
        -0.96273E-06
        -0.22528E-06
        -0.89617E-07
        -0.76740E-07
        -0.43174E-08
        -0.12946E-06
        -0.26186E-07
        -0.16466E-07
        -0.20124E-06
        -0.86540E-07
        -0.17802E-06
        -0.49759E-07
        -0.93208E-06
        -0.32713E-06
        -0.67554E-08
        -0.90478E-06
        -0.32400E-07
        -0.29755E-08
        -0.27121E-08
        -0.55098E-07
        -0.20595E-08
        -0.40935E-07
        -0.20635E-07
        -0.69355E-08
        -0.49407E-08
        -0.80724E-07
        -0.49386E-08
        -0.31099E-09
        -0.10747E-08
        -0.27421E-08
        -0.80327E-07
        -0.37632E-07
        -0.26112E-08
        -0.15721E-07
        -0.11852E-07
        -0.26948E-08
        -0.25040E-07
        -0.91281E-07
        -0.52258E-06
        -0.40638E-06
        -0.31561E-06
        -0.17034E-06
        -0.10400E-07
        -0.44126E-07
        -0.68848E-07
        -0.11416E-06
        -0.47637E-06
        -0.16129E-06
        -0.70531E-07
        -0.11141E-06
        -0.15527E-06
        -0.16670E-06
        -0.93846E-09
        -0.25924E-06
        -0.53045E-06
        -0.28729E-05
        -0.47978E-05
        -0.79928E-05
        -0.11511E-04
        -0.11043E-04
        -0.84205E-05
        -0.77332E-05
        -0.75708E-05
        -0.29854E-05
        -0.32429E-06
        -0.51478E-07
        -0.37794E-07
        -0.81080E-08
        -0.58352E-06
        -0.23420E-05
        -0.45370E-05
        -0.76842E-05
        -0.94486E-05
        -0.72850E-05
        -0.65112E-05
        -0.64727E-05
        -0.32088E-05
        -0.86596E-06
        -0.77637E-06
        -0.22557E-06
        -0.89649E-07
        -0.76816E-07
        -0.43809E-08
        -0.12949E-06
        -0.26227E-07
        -0.16507E-07
        -0.20192E-06
        -0.86851E-07
        -0.17935E-06
        -0.49819E-07
        -0.93192E-06
        -0.32729E-06
        -0.67558E-08
        -0.90710E-06
        -0.32404E-07
        -0.30299E-08
        -0.27040E-08
        -0.55173E-07
        -0.20366E-08
        -0.41138E-07
        -0.20674E-07
        -0.69388E-08
        -0.49360E-08
        -0.81458E-07
        -0.49207E-08
        -0.31836E-09
        -0.10867E-08
        -0.27060E-08
        -0.80667E-07
        -0.37645E-07
        -0.25998E-08
        -0.15791E-07
        -0.11891E-07
        -0.26445E-08
        -0.25073E-07
        -0.91274E-07
        -0.52419E-06
        -0.40813E-06
        -0.31634E-06
        -0.17060E-06
        -0.10345E-07
        -0.44217E-07
        -0.68918E-07
        -0.11416E-06
        -0.47637E-06
        -0.16132E-06
        -0.70447E-07
        -0.11111E-06
        -0.15485E-06
        -0.16656E-06
        -0.91025E-09
        -0.25876E-06
        -0.53051E-06
        -0.28739E-05
        -0.47979E-05
        -0.79909E-05
        -0.11503E-04
        -0.11034E-04
        -0.84154E-05
        -0.77299E-05
        -0.75667E-05
        -0.29841E-05
        -0.32460E-06
        -0.51470E-07
        -0.37950E-07
        -0.79764E-08
        -0.58414E-06
        -0.23441E-05
        -0.45391E-05
        -0.76839E-05
        -0.94474E-05
        -0.72840E-05
        -0.65106E-05
        -0.64694E-05
        -0.32043E-05
        -0.86405E-06
        -0.77433E-06
        -0.22585E-06
        -0.89684E-07
        -0.76894E-07
        -0.44457E-08
        -0.12951E-06
        -0.26270E-07
        -0.16548E-07
        -0.20260E-06
        -0.87165E-07
        -0.18068E-06
        -0.49878E-07
        -0.93176E-06
        -0.32746E-06
        -0.67544E-08
        -0.90939E-06
        -0.32408E-07
        -0.30853E-08
        -0.26958E-08
        -0.55250E-07
        -0.20134E-08
        -0.41343E-07
        -0.20713E-07
        -0.69441E-08
        -0.49300E-08
        -0.82185E-07
        -0.49002E-08
        -0.32633E-09
        -0.10996E-08
        -0.26669E-08
        -0.80996E-07
        -0.37657E-07
        -0.25860E-08
        -0.15861E-07
        -0.11930E-07
        -0.25943E-08
        -0.25107E-07
        -0.91261E-07
        -0.52581E-06
        -0.40989E-06
        -0.31708E-06
        -0.17088E-06
        -0.10283E-07
        -0.44302E-07
        -0.69007E-07
        -0.11419E-06
        -0.47640E-06
        -0.16135E-06
        -0.70359E-07
        -0.11082E-06
        -0.15443E-06
        -0.16642E-06
        -0.88259E-09
        -0.25828E-06
        -0.53057E-06
        -0.28750E-05
        -0.47980E-05
        -0.79890E-05
        -0.11495E-04
        -0.11025E-04
        -0.84103E-05
        -0.77267E-05
        -0.75625E-05
        -0.29829E-05
        -0.32492E-06
        -0.51464E-07
        -0.38106E-07
        -0.78452E-08
        -0.58477E-06
        -0.23463E-05
        -0.45412E-05
        -0.76837E-05
        -0.94462E-05
        -0.72830E-05
        -0.65101E-05
        -0.64661E-05
        -0.31997E-05
        -0.86216E-06
        -0.77229E-06
        -0.22613E-06
        -0.89717E-07
        -0.76972E-07
        -0.45112E-08
        -0.12955E-06
        -0.26312E-07
        -0.16592E-07
        -0.20328E-06
        -0.87480E-07
        -0.18200E-06
        -0.49937E-07
        -0.93161E-06
        -0.32763E-06
        -0.67547E-08
        -0.91172E-06
        -0.32413E-07
        -0.31423E-08
        -0.26874E-08
        -0.55331E-07
        -0.19890E-08
        -0.41553E-07
        -0.20748E-07
        -0.69560E-08
        -0.49202E-08
        -0.82892E-07
        -0.48735E-08
        -0.33468E-09
        -0.11168E-08
        -0.26188E-08
        -0.81295E-07
        -0.37662E-07
        -0.25675E-08
        -0.15931E-07
        -0.11968E-07
        -0.25448E-08
        -0.25140E-07
        -0.91249E-07
        -0.52744E-06
        -0.41170E-06
        -0.31787E-06
        -0.17120E-06
        -0.10205E-07
        -0.44372E-07
        -0.69143E-07
        -0.11426E-06
        -0.47645E-06
        -0.16141E-06
        -0.70274E-07
        -0.11052E-06
        -0.15402E-06
        -0.16627E-06
        -0.85542E-09
        -0.25780E-06
        -0.53063E-06
        -0.28761E-05
        -0.47981E-05
        -0.79870E-05
        -0.11487E-04
        -0.11015E-04
        -0.84053E-05
        -0.77235E-05
        -0.75583E-05
        -0.29818E-05
        -0.32530E-06
        -0.51466E-07
        -0.38260E-07
        -0.77141E-08
        -0.58547E-06
        -0.23489E-05
        -0.45437E-05
        -0.76835E-05
        -0.94451E-05
        -0.72820E-05
        -0.65096E-05
        -0.64628E-05
        -0.31952E-05
        -0.86027E-06
        -0.77026E-06
        -0.22641E-06
        -0.89749E-07
        -0.77049E-07
        -0.45768E-08
        -0.12958E-06
        -0.26354E-07
        -0.16633E-07
        -0.20395E-06
        -0.87795E-07
        -0.18330E-06
        -0.49998E-07
        -0.93145E-06
        -0.32780E-06
        -0.67555E-08
        -0.91405E-06
        -0.32419E-07
        -0.32006E-08
        -0.26790E-08
        -0.55416E-07
        -0.19634E-08
        -0.41767E-07
        -0.20779E-07
        -0.69744E-08
        -0.49065E-08
        -0.83575E-07
        -0.48399E-08
        -0.34409E-09
        -0.11380E-08
        -0.25617E-08
        -0.81562E-07
        -0.37662E-07
        -0.25433E-08
        -0.16001E-07
        -0.12007E-07
        -0.24954E-08
        -0.25173E-07
        -0.91241E-07
        -0.52908E-06
        -0.41353E-06
        -0.31871E-06
        -0.17156E-06
        -0.10110E-07
        -0.44425E-07
        -0.69328E-07
        -0.11437E-06
        -0.47656E-06
        -0.16148E-06
        -0.70198E-07
        -0.11023E-06
        -0.15360E-06
        -0.16613E-06
        -0.82850E-09
        -0.25731E-06
        -0.53069E-06
        -0.28771E-05
        -0.47982E-05
        -0.79851E-05
        -0.11480E-04
        -0.11006E-04
        -0.84002E-05
        -0.77203E-05
        -0.75541E-05
        -0.29808E-05
        -0.32576E-06
        -0.51476E-07
        -0.38411E-07
        -0.75839E-08
        -0.58621E-06
        -0.23518E-05
        -0.45465E-05
        -0.76833E-05
        -0.94439E-05
        -0.72810E-05
        -0.65091E-05
        -0.64596E-05
        -0.31906E-05
        -0.85838E-06
        -0.76822E-06
        -0.22668E-06
        -0.89771E-07
        -0.77125E-07
        -0.46437E-08
        -0.12961E-06
        -0.26396E-07
        -0.16670E-07
        -0.20460E-06
        -0.88113E-07
        -0.18458E-06
        -0.50066E-07
        -0.93130E-06
        -0.32797E-06
        -0.67578E-08
        -0.91636E-06
        -0.32427E-07
        -0.32608E-08
        -0.26707E-08
        -0.55501E-07
        -0.19375E-08
        -0.41982E-07
        -0.20809E-07
        -0.69955E-08
        -0.48913E-08
        -0.84245E-07
        -0.48042E-08
        -0.35435E-09
        -0.11617E-08
        -0.25012E-08
        -0.81816E-07
        -0.37658E-07
        -0.25165E-08
        -0.16072E-07
        -0.12048E-07
        -0.24463E-08
        -0.25209E-07
        -0.91239E-07
        -0.53074E-06
        -0.41540E-06
        -0.31958E-06
        -0.17193E-06
        -0.10009E-07
        -0.44471E-07
        -0.69529E-07
        -0.11451E-06
        -0.47672E-06
        -0.16156E-06
        -0.70135E-07
        -0.10996E-06
        -0.15319E-06
        -0.16599E-06
        -0.80204E-09
        -0.25682E-06
        -0.53075E-06
        -0.28782E-05
        -0.47982E-05
        -0.79831E-05
        -0.11472E-04
        -0.10997E-04
        -0.83951E-05
        -0.77170E-05
        -0.75499E-05
        -0.29798E-05
        -0.32624E-06
        -0.51490E-07
        -0.38562E-07
        -0.74548E-08
        -0.58698E-06
        -0.23548E-05
        -0.45493E-05
        -0.76831E-05
        -0.94427E-05
        -0.72800E-05
        -0.65086E-05
        -0.64562E-05
        -0.31860E-05
        -0.85650E-06
        -0.76619E-06
        -0.22692E-06
        -0.89765E-07
        -0.77200E-07
        -0.47128E-08
        -0.12964E-06
        -0.26439E-07
        -0.16699E-07
        -0.20519E-06
        -0.88438E-07
        -0.18580E-06
        -0.50148E-07
        -0.93122E-06
        -0.32819E-06
        -0.67683E-08
        -0.91872E-06
        -0.32438E-07
        -0.33230E-08
        -0.26625E-08
        -0.55587E-07
        -0.19117E-08
        -0.42198E-07
        -0.20839E-07
        -0.70169E-08
        -0.48766E-08
        -0.84902E-07
        -0.47684E-08
        -0.36664E-09
        -0.11871E-08
        -0.24404E-08
        -0.82063E-07
        -0.37652E-07
        -0.24880E-08
        -0.16146E-07
        -0.12090E-07
        -0.23974E-08
        -0.25248E-07
        -0.91244E-07
        -0.53242E-06
        -0.41728E-06
        -0.32045E-06
        -0.17232E-06
        -0.99071E-08
        -0.44515E-07
        -0.69731E-07
        -0.11466E-06
        -0.47692E-06
        -0.16169E-06
        -0.70112E-07
        -0.10973E-06
        -0.15280E-06
        -0.16585E-06
        -0.77568E-09
        -0.25634E-06
        -0.53081E-06
        -0.28792E-05
        -0.47983E-05
        -0.79812E-05
        -0.11464E-04
        -0.10987E-04
        -0.83900E-05
        -0.77138E-05
        -0.75456E-05
        -0.29789E-05
        -0.32672E-06
        -0.51505E-07
        -0.38715E-07
        -0.73267E-08
        -0.58774E-06
        -0.23578E-05
        -0.45521E-05
        -0.76827E-05
        -0.94415E-05
        -0.72793E-05
        -0.65083E-05
        -0.64529E-05
        -0.31815E-05
        -0.85462E-06
        -0.76416E-06
        -0.22715E-06
        -0.89754E-07
        -0.77274E-07
        -0.47834E-08
        -0.12967E-06
        -0.26482E-07
        -0.16721E-07
        -0.20574E-06
        -0.88767E-07
        -0.18701E-06
        -0.50238E-07
        -0.93111E-06
        -0.32840E-06
        -0.67804E-08
        -0.92108E-06
        -0.32451E-07
        -0.33865E-08
        -0.26540E-08
        -0.55673E-07
        -0.18861E-08
        -0.42415E-07
        -0.20870E-07
        -0.70377E-08
        -0.48623E-08
        -0.85554E-07
        -0.47329E-08
        -0.37964E-09
        -0.12135E-08
        -0.23801E-08
        -0.82308E-07
        -0.37644E-07
        -0.24585E-08
        -0.16221E-07
        -0.12135E-07
        -0.23487E-08
        -0.25290E-07
        -0.91258E-07
        -0.53413E-06
        -0.41918E-06
        -0.32133E-06
        -0.17271E-06
        -0.98055E-08
        -0.44559E-07
        -0.69935E-07
        -0.11482E-06
        -0.47713E-06
        -0.16184E-06
        -0.70102E-07
        -0.10952E-06
        -0.15242E-06
        -0.16572E-06
        -0.74978E-09
        -0.25586E-06
        -0.53087E-06
        -0.28802E-05
        -0.47984E-05
        -0.79793E-05
        -0.11456E-04
        -0.10978E-04
        -0.83849E-05
        -0.77106E-05
        -0.75413E-05
        -0.29779E-05
        -0.32720E-06
        -0.51519E-07
        -0.38870E-07
        -0.71995E-08
        -0.58851E-06
        -0.23608E-05
        -0.45548E-05
        -0.76823E-05
        -0.94402E-05
        -0.72786E-05
        -0.65080E-05
        -0.64495E-05
        -0.31769E-05
        -0.85274E-06
        -0.76214E-06
        -0.22739E-06
        -0.89743E-07
        -0.77348E-07
        -0.48545E-08
        -0.12971E-06
        -0.26524E-07
        -0.16744E-07
        -0.20630E-06
        -0.89097E-07
        -0.18820E-06
        -0.50324E-07
        -0.93102E-06
        -0.32862E-06
        -0.67943E-08
        -0.92346E-06
        -0.32463E-07
        -0.34510E-08
        -0.26456E-08
        -0.55758E-07
        -0.18604E-08
        -0.42632E-07
        -0.20902E-07
        -0.70588E-08
        -0.48481E-08
        -0.86207E-07
        -0.46978E-08
        -0.39319E-09
        -0.12399E-08
        -0.23207E-08
        -0.82554E-07
        -0.37635E-07
        -0.24294E-08
        -0.16297E-07
        -0.12179E-07
        -0.23001E-08
        -0.25328E-07
        -0.91269E-07
        -0.53584E-06
        -0.42108E-06
        -0.32220E-06
        -0.17310E-06
        -0.97049E-08
        -0.44602E-07
        -0.70140E-07
        -0.11498E-06
        -0.47735E-06
        -0.16198E-06
        -0.70093E-07
        -0.10931E-06
        -0.15204E-06
        -0.16559E-06
        -0.72420E-09
        -0.25538E-06
        -0.53092E-06
        -0.28812E-05
        -0.47984E-05
        -0.79773E-05
        -0.11448E-04
        -0.10969E-04
        -0.83798E-05
        -0.77075E-05
        -0.75370E-05
        -0.29770E-05
        -0.32768E-06
        -0.51536E-07
        -0.39028E-07
        -0.70738E-08
        -0.58927E-06
        -0.23638E-05
        -0.45575E-05
        -0.76819E-05
        -0.94390E-05
        -0.72779E-05
        -0.65077E-05
        -0.64461E-05
        -0.31723E-05
        -0.85087E-06
        -0.76012E-06
        -0.22762E-06
        -0.89728E-07
        -0.77421E-07
        -0.49257E-08
        -0.12974E-06
        -0.26565E-07
        -0.16766E-07
        -0.20686E-06
        -0.89427E-07
        -0.18941E-06
        -0.50414E-07
        -0.93093E-06
        -0.32885E-06
        -0.68062E-08
        -0.92583E-06
        -0.32476E-07
        -0.35164E-08
        -0.26371E-08
        -0.55843E-07
        -0.18348E-08
        -0.42849E-07
        -0.20932E-07
        -0.70789E-08
        -0.48340E-08
        -0.86862E-07
        -0.46629E-08
        -0.40661E-09
        -0.12663E-08
        -0.22622E-08
        -0.82801E-07
        -0.37626E-07
        -0.24004E-08
        -0.16371E-07
        -0.12223E-07
        -0.22522E-08
        -0.25370E-07
        -0.91283E-07
        -0.53756E-06
        -0.42299E-06
        -0.32308E-06
        -0.17349E-06
        -0.96051E-08
        -0.44646E-07
        -0.70343E-07
        -0.11514E-06
        -0.47756E-06
        -0.16213E-06
        -0.70089E-07
        -0.10910E-06
        -0.15165E-06
        -0.16545E-06
        -0.69916E-09
        -0.25489E-06
        -0.53098E-06
        -0.28822E-05
        -0.47985E-05
        -0.79754E-05
        -0.11440E-04
        -0.10959E-04
        -0.83747E-05
        -0.77043E-05
        -0.75326E-05
        -0.29760E-05
        -0.32815E-06
        -0.51553E-07
        -0.39185E-07
        -0.69494E-08
        -0.59004E-06
        -0.23668E-05
        -0.45603E-05
        -0.76814E-05
        -0.94377E-05
        -0.72772E-05
        -0.65074E-05
        -0.64427E-05
        -0.31678E-05
        -0.84902E-06
        -0.75809E-06
        -0.22784E-06
        -0.89713E-07
        -0.77495E-07
        -0.49974E-08
        -0.12977E-06
        -0.26608E-07
        -0.16791E-07
        -0.20741E-06
        -0.89759E-07
        -0.19061E-06
        -0.50504E-07
        -0.93083E-06
        -0.32907E-06
        -0.68194E-08
        -0.92822E-06
        -0.32488E-07
        -0.35826E-08
        -0.26287E-08
        -0.55928E-07
        -0.18092E-08
        -0.43067E-07
        -0.20962E-07
        -0.71000E-08
        -0.48201E-08
        -0.87518E-07
        -0.46281E-08
        -0.42049E-09
        -0.12926E-08
        -0.22045E-08
        -0.83047E-07
        -0.37618E-07
        -0.23717E-08
        -0.16447E-07
        -0.12268E-07
        -0.22046E-08
        -0.25410E-07
        -0.91297E-07
        -0.53928E-06
        -0.42491E-06
        -0.32395E-06
        -0.17387E-06
        -0.95058E-08
        -0.44690E-07
        -0.70544E-07
        -0.11529E-06
        -0.47778E-06
        -0.16229E-06
        -0.70079E-07
        -0.10890E-06
        -0.15127E-06
        -0.16532E-06
        -0.67449E-09
        -0.25440E-06
        -0.53103E-06
        -0.28832E-05
        -0.47986E-05
        -0.79735E-05
        -0.11433E-04
        -0.10950E-04
        -0.83695E-05
        -0.77011E-05
        -0.75283E-05
        -0.29750E-05
        -0.32862E-06
        -0.51569E-07
        -0.39340E-07
        -0.68257E-08
        -0.59081E-06
        -0.23698E-05
        -0.45630E-05
        -0.76810E-05
        -0.94365E-05
        -0.72765E-05
        -0.65071E-05
        -0.64392E-05
        -0.31632E-05
        -0.84717E-06
        -0.75607E-06
        -0.22807E-06
        -0.89700E-07
        -0.77569E-07
        -0.50703E-08
        -0.12980E-06
        -0.26650E-07
        -0.16814E-07
        -0.20797E-06
        -0.90093E-07
        -0.19182E-06
        -0.50594E-07
        -0.93074E-06
        -0.32928E-06
        -0.68326E-08
        -0.93059E-06
        -0.32501E-07
        -0.36494E-08
        -0.26201E-08
        -0.56013E-07
        -0.17840E-08
        -0.43286E-07
        -0.20991E-07
        -0.71211E-08
        -0.48063E-08
        -0.88176E-07
        -0.45937E-08
        -0.43429E-09
        -0.13190E-08
        -0.21476E-08
        -0.83292E-07
        -0.37609E-07
        -0.23430E-08
        -0.16522E-07
        -0.12313E-07
        -0.21572E-08
        -0.25451E-07
        -0.91307E-07
        -0.54101E-06
        -0.42683E-06
        -0.32483E-06
        -0.17426E-06
        -0.94080E-08
        -0.44733E-07
        -0.70748E-07
        -0.11545E-06
        -0.47801E-06
        -0.16243E-06
        -0.70075E-07
        -0.10869E-06
        -0.15090E-06
        -0.16519E-06
        -0.65030E-09
        -0.25392E-06
        -0.53108E-06
        -0.28841E-05
        -0.47987E-05
        -0.79716E-05
        -0.11425E-04
        -0.10940E-04
        -0.83644E-05
        -0.76980E-05
        -0.75239E-05
        -0.29740E-05
        -0.32910E-06
        -0.51585E-07
        -0.39496E-07
        -0.67026E-08
        -0.59158E-06
        -0.23728E-05
        -0.45657E-05
        -0.76806E-05
        -0.94352E-05
        -0.72758E-05
        -0.65068E-05
        -0.64358E-05
        -0.31587E-05
        -0.84533E-06
        -0.75406E-06
        -0.22830E-06
        -0.89686E-07
        -0.77643E-07
        -0.51439E-08
        -0.12984E-06
        -0.26692E-07
        -0.16836E-07
        -0.20852E-06
        -0.90427E-07
        -0.19302E-06
        -0.50685E-07
        -0.93065E-06
        -0.32951E-06
        -0.68441E-08
        -0.93299E-06
        -0.32513E-07
        -0.37169E-08
        -0.26114E-08
        -0.56099E-07
        -0.17591E-08
        -0.43505E-07
        -0.21021E-07
        -0.71418E-08
        -0.47926E-08
        -0.88834E-07
        -0.45591E-08
        -0.44872E-09
        -0.13454E-08
        -0.20915E-08
        -0.83537E-07
        -0.37600E-07
        -0.23143E-08
        -0.16597E-07
        -0.12357E-07
        -0.21104E-08
        -0.25493E-07
        -0.91320E-07
        -0.54273E-06
        -0.42876E-06
        -0.32570E-06
        -0.17465E-06
        -0.93096E-08
        -0.44776E-07
        -0.70954E-07
        -0.11561E-06
        -0.47820E-06
        -0.16258E-06
        -0.70068E-07
        -0.10848E-06
        -0.15052E-06
        -0.16504E-06
        -0.62661E-09
        -0.25343E-06
        -0.53113E-06
        -0.28851E-05
        -0.47987E-05
        -0.79696E-05
        -0.11417E-04
        -0.10931E-04
        -0.83593E-05
        -0.76948E-05
        -0.75195E-05
        -0.29730E-05
        -0.32958E-06
        -0.51600E-07
        -0.39653E-07
        -0.65811E-08
        -0.59234E-06
        -0.23758E-05
        -0.45685E-05
        -0.76802E-05
        -0.94340E-05
        -0.72751E-05
        -0.65066E-05
        -0.64323E-05
        -0.31541E-05
        -0.84350E-06
        -0.75206E-06
        -0.22853E-06
        -0.89674E-07
        -0.77717E-07
        -0.52180E-08
        -0.12987E-06
        -0.26734E-07
        -0.16862E-07
        -0.20907E-06
        -0.90762E-07
        -0.19423E-06
        -0.50775E-07
        -0.93055E-06
        -0.32973E-06
        -0.68573E-08
        -0.93537E-06
        -0.32526E-07
        -0.37853E-08
        -0.26030E-08
        -0.56183E-07
        -0.17344E-08
        -0.43725E-07
        -0.21051E-07
        -0.71628E-08
        -0.47790E-08
        -0.89496E-07
        -0.45246E-08
        -0.46300E-09
        -0.13717E-08
        -0.20365E-08
        -0.83783E-07
        -0.37591E-07
        -0.22861E-08
        -0.16672E-07
        -0.12402E-07
        -0.20638E-08
        -0.25533E-07
        -0.91330E-07
        -0.54448E-06
        -0.43069E-06
        -0.32657E-06
        -0.17504E-06
        -0.92119E-08
        -0.44819E-07
        -0.71157E-07
        -0.11577E-06
        -0.47842E-06
        -0.16274E-06
        -0.70060E-07
        -0.10827E-06
        -0.15014E-06
        -0.16492E-06
        -0.60351E-09
        -0.25295E-06
        -0.53117E-06
        -0.28861E-05
        -0.47988E-05
        -0.79677E-05
        -0.11409E-04
        -0.10921E-04
        -0.83541E-05
        -0.76916E-05
        -0.75150E-05
        -0.29720E-05
        -0.33005E-06
        -0.51616E-07
        -0.39811E-07
        -0.64611E-08
        -0.59310E-06
        -0.23788E-05
        -0.45712E-05
        -0.76798E-05
        -0.94328E-05
        -0.72745E-05
        -0.65062E-05
        -0.64289E-05
        -0.31496E-05
        -0.84167E-06
        -0.75004E-06
        -0.22876E-06
        -0.89661E-07
        -0.77791E-07
        -0.52924E-08
        -0.12990E-06
        -0.26776E-07
        -0.16885E-07
        -0.20963E-06
        -0.91098E-07
        -0.19544E-06
        -0.50866E-07
        -0.93047E-06
        -0.32995E-06
        -0.68685E-08
        -0.93777E-06
        -0.32538E-07
        -0.38547E-08
        -0.25945E-08
        -0.56268E-07
        -0.17096E-08
        -0.43946E-07
        -0.21080E-07
        -0.71833E-08
        -0.47657E-08
        -0.90161E-07
        -0.44903E-08
        -0.47776E-09
        -0.13977E-08
        -0.19823E-08
        -0.84030E-07
        -0.37582E-07
        -0.22577E-08
        -0.16747E-07
        -0.12447E-07
        -0.20178E-08
        -0.25575E-07
        -0.91342E-07
        -0.54623E-06
        -0.43263E-06
        -0.32744E-06
        -0.17543E-06
        -0.91150E-08
        -0.44863E-07
        -0.71360E-07
        -0.11593E-06
        -0.47864E-06
        -0.16288E-06
        -0.70056E-07
        -0.10807E-06
        -0.14976E-06
        -0.16478E-06
        -0.58068E-09
        -0.25246E-06
        -0.53121E-06
        -0.28870E-05
        -0.47989E-05
        -0.79658E-05
        -0.11401E-04
        -0.10912E-04
        -0.83490E-05
        -0.76884E-05
        -0.75106E-05
        -0.29711E-05
        -0.33053E-06
        -0.51631E-07
        -0.39969E-07
        -0.63419E-08
        -0.59387E-06
        -0.23818E-05
        -0.45740E-05
        -0.76794E-05
        -0.94316E-05
        -0.72738E-05
        -0.65060E-05
        -0.64254E-05
        -0.31450E-05
        -0.83985E-06
        -0.74803E-06
        -0.22898E-06
        -0.89643E-07
        -0.77864E-07
        -0.53672E-08
        -0.12994E-06
        -0.26819E-07
        -0.16909E-07
        -0.21018E-06
        -0.91437E-07
        -0.19665E-06
        -0.50957E-07
        -0.93038E-06
        -0.33018E-06
        -0.68812E-08
        -0.94015E-06
        -0.32551E-07
        -0.39250E-08
        -0.25860E-08
        -0.56354E-07
        -0.16851E-08
        -0.44167E-07
        -0.21108E-07
        -0.72041E-08
        -0.47526E-08
        -0.90828E-07
        -0.44560E-08
        -0.49235E-09
        -0.14238E-08
        -0.19291E-08
        -0.84276E-07
        -0.37573E-07
        -0.22298E-08
        -0.16823E-07
        -0.12493E-07
        -0.19719E-08
        -0.25615E-07
        -0.91354E-07
        -0.54799E-06
        -0.43457E-06
        -0.32830E-06
        -0.17582E-06
        -0.90187E-08
        -0.44907E-07
        -0.71561E-07
        -0.11610E-06
        -0.47886E-06
        -0.16303E-06
        -0.70048E-07
        -0.10786E-06
        -0.14938E-06
        -0.16465E-06
        -0.55829E-09
        -0.25197E-06
        -0.53126E-06
        -0.28880E-05
        -0.47990E-05
        -0.79639E-05
        -0.11393E-04
        -0.10902E-04
        -0.83438E-05
        -0.76853E-05
        -0.75061E-05
        -0.29701E-05
        -0.33101E-06
        -0.51646E-07
        -0.40124E-07
        -0.62237E-08
        -0.59462E-06
        -0.23849E-05
        -0.45767E-05
        -0.76790E-05
        -0.94303E-05
        -0.72731E-05
        -0.65057E-05
        -0.64220E-05
        -0.31405E-05
        -0.83804E-06
        -0.74603E-06
        -0.22920E-06
        -0.89629E-07
        -0.77938E-07
        -0.54427E-08
        -0.12997E-06
        -0.26860E-07
        -0.16933E-07
        -0.21073E-06
        -0.91777E-07
        -0.19787E-06
        -0.51048E-07
        -0.93029E-06
        -0.33040E-06
        -0.68920E-08
        -0.94256E-06
        -0.32563E-07
        -0.39964E-08
        -0.25773E-08
        -0.56439E-07
        -0.16611E-08
        -0.44388E-07
        -0.21136E-07
        -0.72248E-08
        -0.47394E-08
        -0.91496E-07
        -0.44217E-08
        -0.50756E-09
        -0.14497E-08
        -0.18765E-08
        -0.84517E-07
        -0.37563E-07
        -0.22019E-08
        -0.16898E-07
        -0.12538E-07
        -0.19265E-08
        -0.25656E-07
        -0.91363E-07
        -0.54976E-06
        -0.43652E-06
        -0.32916E-06
        -0.17621E-06
        -0.89238E-08
        -0.44952E-07
        -0.71768E-07
        -0.11626E-06
        -0.47908E-06
        -0.16318E-06
        -0.70045E-07
        -0.10766E-06
        -0.14900E-06
        -0.16452E-06
        -0.53652E-09
        -0.25149E-06
        -0.53130E-06
        -0.28889E-05
        -0.47990E-05
        -0.79619E-05
        -0.11385E-04
        -0.10892E-04
        -0.83386E-05
        -0.76821E-05
        -0.75015E-05
        -0.29692E-05
        -0.33149E-06
        -0.51657E-07
        -0.40280E-07
        -0.61071E-08
        -0.59538E-06
        -0.23879E-05
        -0.45794E-05
        -0.76786E-05
        -0.94291E-05
        -0.72724E-05
        -0.65054E-05
        -0.64185E-05
        -0.31360E-05
        -0.83624E-06
        -0.74403E-06
        -0.22943E-06
        -0.89616E-07
        -0.78012E-07
        -0.55192E-08
        -0.13000E-06
        -0.26902E-07
        -0.16957E-07
        -0.21127E-06
        -0.92121E-07
        -0.19909E-06
        -0.51139E-07
        -0.93019E-06
        -0.33061E-06
        -0.69043E-08
        -0.94495E-06
        -0.32576E-07
        -0.40692E-08
        -0.25686E-08
        -0.56524E-07
        -0.16383E-08
        -0.44609E-07
        -0.21162E-07
        -0.72460E-08
        -0.47260E-08
        -0.92167E-07
        -0.43880E-08
        -0.52286E-09
        -0.14757E-08
        -0.18248E-08
        -0.84744E-07
        -0.37554E-07
        -0.21738E-08
        -0.16973E-07
        -0.12584E-07
        -0.18816E-08
        -0.25699E-07
        -0.91377E-07
        -0.55155E-06
        -0.43846E-06
        -0.32997E-06
        -0.17659E-06
        -0.88281E-08
        -0.44998E-07
        -0.71972E-07
        -0.11642E-06
        -0.47930E-06
        -0.16333E-06
        -0.70038E-07
        -0.10745E-06
        -0.14863E-06
        -0.16439E-06
        -0.51516E-09
        -0.25100E-06
        -0.53134E-06
        -0.28899E-05
        -0.47991E-05
        -0.79600E-05
        -0.11377E-04
        -0.10883E-04
        -0.83335E-05
        -0.76789E-05
        -0.74967E-05
        -0.29683E-05
        -0.33198E-06
        -0.51661E-07
        -0.40435E-07
        -0.59919E-08
        -0.59614E-06
        -0.23909E-05
        -0.45821E-05
        -0.76782E-05
        -0.94278E-05
        -0.72718E-05
        -0.65051E-05
        -0.64150E-05
        -0.31315E-05
        -0.83445E-06
        -0.74203E-06
        -0.22965E-06
        -0.89603E-07
        -0.78085E-07
        -0.55960E-08
        -0.13003E-06
        -0.26943E-07
        -0.16981E-07
        -0.21182E-06
        -0.92468E-07
        -0.20031E-06
        -0.51229E-07
        -0.93010E-06
        -0.33084E-06
        -0.69165E-08
        -0.94737E-06
        -0.32588E-07
        -0.41438E-08
        -0.25599E-08
        -0.56610E-07
        -0.16167E-08
        -0.44831E-07
        -0.21188E-07
        -0.72668E-08
        -0.47131E-08
        -0.92841E-07
        -0.43540E-08
        -0.53905E-09
        -0.15017E-08
        -0.17740E-08
        -0.84957E-07
        -0.37544E-07
        -0.21463E-08
        -0.17048E-07
        -0.12630E-07
        -0.18369E-08
        -0.25739E-07
        -0.91387E-07
        -0.55337E-06
        -0.44039E-06
        -0.33076E-06
        -0.17697E-06
        -0.87333E-08
        -0.45047E-07
        -0.72175E-07
        -0.11658E-06
        -0.47953E-06
        -0.16348E-06
        -0.70030E-07
        -0.10725E-06
        -0.14825E-06
        -0.16425E-06
        -0.49408E-09
        -0.25052E-06
        -0.53138E-06
        -0.28908E-05
        -0.47992E-05
        -0.79581E-05
        -0.11370E-04
        -0.10873E-04
        -0.83284E-05
        -0.76757E-05
        -0.74917E-05
        -0.29676E-05
        -0.33248E-06
        -0.51658E-07
        -0.40592E-07
        -0.58771E-08
        -0.59690E-06
        -0.23939E-05
        -0.45849E-05
        -0.76778E-05
        -0.94266E-05
        -0.72711E-05
        -0.65048E-05
        -0.64115E-05
        -0.31270E-05
        -0.83267E-06
        -0.74003E-06
        -0.22988E-06
        -0.89590E-07
        -0.78164E-07
        -0.56731E-08
        -0.13007E-06
        -0.26985E-07
        -0.17007E-07
        -0.21236E-06
        -0.92818E-07
        -0.20153E-06
        -0.51321E-07
        -0.93002E-06
        -0.33106E-06
        -0.69271E-08
        -0.94977E-06
        -0.32601E-07
        -0.42195E-08
        -0.25513E-08
        -0.56697E-07
        -0.15957E-08
        -0.45055E-07
        -0.21214E-07
        -0.72864E-08
        -0.47010E-08
        -0.93517E-07
        -0.43213E-08
        -0.55506E-09
        -0.15267E-08
        -0.17245E-08
        -0.85167E-07
        -0.37535E-07
        -0.21195E-08
        -0.17124E-07
        -0.12677E-07
        -0.17932E-08
        -0.25779E-07
        -0.91393E-07
        -0.55519E-06
        -0.44232E-06
        -0.33153E-06
        -0.17734E-06
        -0.86408E-08
        -0.45100E-07
        -0.72376E-07
        -0.11674E-06
        -0.47975E-06
        -0.16363E-06
        -0.70025E-07
        -0.10704E-06
        -0.14787E-06
        -0.16413E-06
        -0.47358E-09
        -0.25002E-06
        -0.53143E-06
        -0.28917E-05
        -0.47993E-05
        -0.79562E-05
        -0.11362E-04
        -0.10864E-04
        -0.83233E-05
        -0.76724E-05
        -0.74866E-05
        -0.29669E-05
        -0.33295E-06
        -0.51647E-07
        -0.40747E-07
        -0.57635E-08
        -0.59765E-06
        -0.23969E-05
        -0.45876E-05
        -0.76774E-05
        -0.94254E-05
        -0.72704E-05
        -0.65044E-05
        -0.64080E-05
        -0.31225E-05
        -0.83090E-06
        -0.73805E-06
        -0.23148E-06
        -0.90137E-07
        -0.78733E-07
        -0.57830E-08
        -0.13084E-06
        -0.27178E-07
        -0.17136E-07
        -0.21408E-06
        -0.93707E-07
        -0.20381E-06
        -0.51687E-07
        -0.93440E-06
        -0.33294E-06
        -0.69749E-08
        -0.95674E-06
        -0.32818E-07
        -0.43167E-08
        -0.25585E-08
        -0.57109E-07
        -0.15863E-08
        -0.45500E-07
        -0.21351E-07
        -0.73329E-08
        -0.47230E-08
        -0.94701E-07
        -0.43254E-08
        -0.57299E-09
        -0.15546E-08
        -0.16943E-08
        -0.85874E-07
        -0.37768E-07
        -0.21133E-08
        -0.17301E-07
        -0.12799E-07
        -0.17633E-08
        -0.25938E-07
        -0.91857E-07
        -0.55969E-06
        -0.44645E-06
        -0.33401E-06
        -0.17858E-06
        -0.86161E-08
        -0.45415E-07
        -0.72893E-07
        -0.11744E-06
        -0.48214E-06
        -0.16455E-06
        -0.70356E-07
        -0.10742E-06
        -0.14832E-06
        -0.16485E-06
        -0.45629E-09
        -0.25024E-06
        -0.53327E-06
        -0.29014E-05
        -0.48144E-05
        -0.79797E-05
        -0.11391E-04
        -0.10891E-04
        -0.83468E-05
        -0.76952E-05
        -0.75068E-05
        -0.29761E-05
        -0.33438E-06
        -0.51788E-07
        -0.41031E-07
        -0.56754E-08
        -0.60008E-06
        -0.24068E-05
        -0.46038E-05
        -0.77006E-05
        -0.94531E-05
        -0.72925E-05
        -0.65246E-05
        -0.64246E-05
        -0.31283E-05
        -0.83189E-06
        -0.73851E-06
        -0.50520E-06
        -0.19816E-06
        -0.17121E-06
        -0.12812E-07
        -0.26459E-06
        -0.56123E-07
        -0.37478E-07
        -0.46215E-06
        -0.20394E-06
        -0.43830E-06
        -0.10902E-06
        -0.18149E-05
        -0.66763E-06
        -0.14586E-07
        -0.18788E-05
        -0.71815E-07
        -0.94962E-08
        -0.55953E-08
        -0.12149E-06
        -0.33697E-08
        -0.91567E-07
        -0.43948E-07
        -0.14783E-07
        -0.10203E-07
        -0.20769E-06
        -0.94995E-08
        -0.12386E-08
        -0.34066E-08
        -0.36767E-08
        -0.18751E-06
        -0.82646E-07
        -0.45888E-08
        -0.38128E-07
        -0.28106E-07
        -0.33362E-08
        -0.53322E-07
        -0.18883E-06
        -0.11490E-05
        -0.94359E-06
        -0.71088E-06
        -0.36965E-06
        -0.18043E-07
        -0.95577E-07
        -0.14934E-06
        -0.23877E-06
        -0.92326E-06
        -0.33209E-06
        -0.14556E-06
        -0.22453E-06
        -0.30708E-06
        -0.32492E-06
        -0.90611E-09
        -0.37843E-06
        -0.80628E-06
        -0.43859E-05
        -0.73243E-05
        -0.12115E-04
        -0.17358E-04
        -0.16959E-04
        -0.13216E-04
        -0.12137E-04
        -0.11695E-04
        -0.46513E-05
        -0.52165E-06
        -0.82671E-07
        -0.66205E-07
        -0.87915E-08
        -0.92041E-06
        -0.36691E-05
        -0.69285E-05
        -0.11551E-04
        -0.14213E-04
        -0.11212E-04
        -0.10127E-04
        -0.98927E-05
        -0.48487E-05
        -0.12814E-05
        -0.11290E-05
  
SCALARS                      strain_zz  double 1
LOOKUP_TABLE default
        -0.21567E+00
        -0.21472E+00
        -0.21532E+00
        -0.21640E+00
        -0.14368E-09
        -0.16111E-09
        -0.15427E-09
        -0.14015E-09
        -0.21468E+00
        -0.21501E+00
        -0.14488E-09
        -0.14021E-09
        -0.21332E+00
        -0.21327E+00
        -0.17215E-09
        -0.16186E-09
        -0.21624E+00
        -0.21335E+00
        -0.12720E-09
        -0.14108E-09
        -0.21226E+00
        -0.21141E+00
        -0.21276E+00
        -0.17062E-09
        -0.14900E-09
        -0.15386E-09
        -0.21145E+00
        -0.21019E+00
        -0.16368E-09
        -0.13804E-09
        -0.21619E+00
        -0.21494E+00
        -0.21738E+00
        -0.13968E-09
        -0.12985E-09
        -0.12625E-09
        -0.21547E+00
        -0.21386E+00
        -0.14778E-09
        -0.13485E-09
        -0.21483E+00
        -0.21359E+00
        -0.12772E-09
        -0.11307E-09
        -0.21587E+00
        -0.21633E+00
        -0.13996E-09
        -0.15639E-09
        -0.21258E+00
        -0.13673E-09
        -0.21624E+00
        -0.16067E-09
        -0.21109E+00
        -0.14439E-09
        -0.21069E+00
        -0.13850E-09
        -0.21070E+00
        -0.21209E+00
        -0.14112E-09
        -0.13743E-09
        -0.21616E+00
        -0.21568E+00
        -0.14151E-09
        -0.15997E-09
        -0.21646E+00
        -0.13654E-09
        -0.21589E+00
        -0.14902E-09
        -0.21438E+00
        -0.21423E+00
        -0.14345E-09
        -0.15031E-09
        -0.21389E+00
        -0.15157E-09
        -0.20974E+00
        -0.11975E-09
        -0.20952E+00
        -0.11623E-09
        -0.20963E+00
        -0.12256E-09
        -0.21023E+00
        -0.21087E+00
        -0.11677E-09
        -0.12174E-09
        -0.21213E+00
        -0.11338E-09
        -0.21585E+00
        -0.14869E-09
        -0.21528E+00
        -0.15218E-09
        -0.21480E+00
        -0.21455E+00
        -0.14614E-09
        -0.14785E-09
        -0.21487E+00
        -0.13429E-09
        -0.21510E+00
        -0.13237E-09
        -0.21489E+00
        -0.14171E-09
        -0.21481E+00
        -0.21502E+00
        -0.13896E-09
        -0.14304E-09
        -0.21365E+00
        -0.21419E+00
        -0.10789E-09
        -0.10148E-09
        -0.21354E+00
        -0.10302E-09
        -0.21417E+00
        -0.98781E-10
        -0.21354E+00
        -0.97405E-10
        -0.21213E+00
        -0.92049E-10
        -0.21074E+00
        -0.81775E-10
        -0.20991E+00
        -0.73634E-10
        -0.20982E+00
        -0.73122E-10
        -0.20985E+00
        -0.79297E-10
        -0.21076E+00
        -0.83339E-10
        -0.21243E+00
        -0.76097E-10
        -0.21423E+00
        -0.68594E-10
        -0.21528E+00
        -0.68515E-10
        -0.21630E+00
        -0.76583E-10
        -0.21697E+00
        -0.87322E-10
        -0.21695E+00
        -0.93811E-10
        -0.21532E+00
        -0.10132E-09
        -0.21418E+00
        -0.10854E-09
        -0.21377E+00
        -0.99434E-10
        -0.21438E+00
        -0.87231E-10
        -0.21471E+00
        -0.86961E-10
        -0.21418E+00
        -0.95145E-10
        -0.21419E+00
        -0.10143E-09
        -0.21459E+00
        -0.96258E-10
        -0.21512E+00
        -0.93059E-10
        -0.45917E-01
        -0.46799E-01
        -0.46680E-01
        -0.45536E-01
        -0.47641E-01
        -0.46580E-01
        -0.47894E-01
        -0.47210E-01
        -0.45717E-01
        -0.46649E-01
        -0.48620E-01
        -0.48839E-01
        -0.48251E-01
        -0.48211E-01
        -0.48591E-01
        -0.45591E-01
        -0.45805E-01
        -0.45204E-01
        -0.46894E-01
        -0.46588E-01
        -0.47024E-01
        -0.46735E-01
        -0.47268E-01
        -0.47131E-01
        -0.46614E-01
        -0.46651E-01
        -0.47531E-01
        -0.47452E-01
        -0.48100E-01
        -0.47118E-01
        -0.45696E-01
        -0.46811E-01
        -0.45704E-01
        -0.46437E-01
        -0.48991E-01
        -0.48181E-01
        -0.47793E-01
        -0.48249E-01
        -0.48308E-01
        -0.49049E-01
        -0.49582E-01
        -0.48274E-01
        -0.47006E-01
        -0.47179E-01
        -0.47831E-01
        -0.48961E-01
        -0.47998E-01
        -0.46952E-01
        -0.47025E-01
        -0.47835E-01
        -0.48654E-01
        -0.47548E-01
        -0.50856E-01
        -0.49893E-01
        -0.50053E-01
        -0.49826E-01
        -0.49883E-01
        -0.50400E-01
        -0.50931E-01
        -0.51105E-01
        -0.51032E-01
        -0.51084E-01
        -0.51309E-01
        -0.49934E-01
        -0.49415E-01
        -0.49214E-01
        -0.48867E-01
        -0.48603E-01
        -0.48615E-01
        -0.49061E-01
        -0.50535E-01
        -0.50185E-01
        -0.49681E-01
        -0.49687E-01
        -0.49775E-01
        -0.50260E-01
        -0.49544E-01
        -0.49278E-01
         0.11481E-05
         0.49411E-06
         0.61587E-06
         0.10199E-05
         0.91441E-06
         0.12087E-05
        -0.22587E-06
        -0.28710E-06
         0.12651E-05
        -0.38398E-06
        -0.85910E-06
         0.94008E-06
         0.80552E-06
        -0.17937E-05
         0.42696E-06
         0.43774E-06
         0.66454E-06
         0.83830E-06
         0.91158E-07
         0.14501E-06
         0.47148E-06
         0.85050E-06
         0.45318E-07
        -0.14906E-06
        -0.70534E-06
        -0.75382E-07
        -0.25256E-05
        -0.21265E-05
        -0.10697E-05
        -0.57210E-06
         0.36793E-06
         0.78734E-08
         0.87172E-06
         0.13127E-05
         0.50043E-06
         0.22282E-06
         0.51788E-06
        -0.40764E-07
        -0.19774E-06
         0.50179E-07
         0.77921E-06
         0.40710E-06
         0.51595E-06
        -0.31920E-07
        -0.31246E-07
         0.29931E-06
         0.29052E-06
         0.37898E-06
         0.58992E-06
         0.92188E-06
         0.11454E-05
         0.12616E-05
         0.71568E-05
         0.90313E-05
         0.88786E-05
         0.98949E-05
         0.12071E-04
         0.14304E-04
         0.12926E-04
         0.10806E-04
         0.99811E-05
         0.10569E-04
         0.99936E-05
         0.95149E-05
         0.62304E-05
         0.62417E-05
         0.63594E-05
         0.66080E-05
         0.73110E-05
         0.89236E-05
         0.84581E-05
         0.99445E-05
         0.81804E-05
         0.70684E-05
         0.74999E-05
         0.71483E-05
         0.82285E-05
         0.86860E-05
         0.10979E-05
         0.44165E-06
         0.56406E-06
         0.97338E-06
         0.85396E-06
         0.11523E-05
        -0.28309E-06
        -0.34488E-06
         0.12115E-05
        -0.44631E-06
        -0.92355E-06
         0.86470E-06
         0.73992E-06
        -0.18582E-05
         0.35435E-06
         0.38301E-06
         0.60444E-06
         0.79181E-06
         0.29758E-07
         0.80572E-07
         0.40610E-06
         0.78647E-06
        -0.22332E-07
        -0.21174E-06
        -0.77437E-06
        -0.13513E-06
        -0.25873E-05
        -0.21913E-05
        -0.11387E-05
        -0.64370E-06
         0.31498E-06
        -0.48722E-07
         0.82352E-06
         0.12652E-05
         0.43354E-06
         0.16345E-06
         0.45840E-06
        -0.11459E-06
        -0.26749E-06
        -0.19542E-07
         0.70531E-06
         0.33430E-06
         0.44626E-06
        -0.97470E-07
        -0.93658E-07
         0.23162E-06
         0.22761E-06
         0.31939E-06
         0.53500E-06
         0.86681E-06
         0.10826E-05
         0.12035E-05
         0.70334E-05
         0.89126E-05
         0.87658E-05
         0.97871E-05
         0.11954E-04
         0.14169E-04
         0.12791E-04
         0.10673E-04
         0.98469E-05
         0.10430E-04
         0.98584E-05
         0.93934E-05
         0.61269E-05
         0.61455E-05
         0.62608E-05
         0.65048E-05
         0.72061E-05
         0.88140E-05
         0.83428E-05
         0.98226E-05
         0.80645E-05
         0.69643E-05
         0.73912E-05
         0.70326E-05
         0.81127E-05
         0.85688E-05
         0.11101E-05
         0.45202E-06
         0.57520E-06
         0.98606E-06
         0.86953E-06
         0.11674E-05
        -0.27116E-06
        -0.33132E-06
         0.12208E-05
        -0.44259E-06
        -0.91047E-06
         0.87904E-06
         0.75291E-06
        -0.18430E-05
         0.37476E-06
         0.37214E-06
         0.60145E-06
         0.80426E-06
         0.14684E-07
         0.68275E-07
         0.39538E-06
         0.78226E-06
        -0.66716E-07
        -0.25696E-06
        -0.80360E-06
        -0.17698E-06
        -0.25750E-05
        -0.21998E-05
        -0.11663E-05
        -0.69363E-06
         0.31521E-06
        -0.61572E-07
         0.83632E-06
         0.12809E-05
         0.45146E-06
         0.17834E-06
         0.47145E-06
        -0.99427E-07
        -0.25425E-06
        -0.14676E-07
         0.70437E-06
         0.30822E-06
         0.40880E-06
        -0.14133E-06
        -0.10441E-06
         0.24089E-06
         0.23902E-06
         0.33282E-06
         0.54967E-06
         0.88330E-06
         0.10999E-05
         0.12193E-05
         0.70625E-05
         0.89399E-05
         0.88004E-05
         0.98140E-05
         0.11970E-04
         0.14181E-04
         0.12806E-04
         0.10694E-04
         0.98683E-05
         0.10451E-04
         0.98709E-05
         0.93935E-05
         0.61274E-05
         0.61627E-05
         0.62741E-05
         0.64870E-05
         0.71870E-05
         0.88243E-05
         0.83731E-05
         0.98579E-05
         0.80954E-05
         0.69963E-05
         0.74226E-05
         0.70537E-05
         0.81289E-05
         0.85848E-05
         0.11033E-05
         0.44762E-06
         0.57097E-06
         0.97884E-06
         0.86365E-06
         0.11625E-05
        -0.27591E-06
        -0.33852E-06
         0.12055E-05
        -0.46872E-06
        -0.91711E-06
         0.87120E-06
         0.74806E-06
        -0.18511E-05
         0.36759E-06
         0.32865E-06
         0.56614E-06
         0.79586E-06
        -0.38958E-07
         0.14029E-07
         0.34583E-06
         0.73803E-06
        -0.16987E-06
        -0.35810E-06
        -0.88568E-06
        -0.27233E-06
        -0.25917E-05
        -0.22522E-05
        -0.12511E-05
        -0.81386E-06
         0.28957E-06
        -0.11256E-06
         0.82879E-06
         0.12733E-05
         0.44314E-06
         0.17231E-06
         0.46660E-06
        -0.11138E-06
        -0.27004E-06
        -0.45769E-07
         0.66299E-06
         0.22574E-06
         0.30703E-06
        -0.24469E-06
        -0.15604E-06
         0.21363E-06
         0.21882E-06
         0.32175E-06
         0.54011E-06
         0.87260E-06
         0.10901E-05
         0.12125E-05
         0.70402E-05
         0.89245E-05
         0.87825E-05
         0.97986E-05
         0.11956E-04
         0.14161E-04
         0.12777E-04
         0.10667E-04
         0.98429E-05
         0.10420E-04
         0.98272E-05
         0.93287E-05
         0.60646E-05
         0.61329E-05
         0.62428E-05
         0.64006E-05
         0.70958E-05
         0.87839E-05
         0.83508E-05
         0.98364E-05
         0.80782E-05
         0.69770E-05
         0.73980E-05
         0.70308E-05
         0.81101E-05
         0.85667E-05
         0.10906E-05
         0.43864E-06
         0.56352E-06
         0.97139E-06
         0.85691E-06
         0.11557E-05
        -0.28343E-06
        -0.35071E-06
         0.11872E-05
        -0.49600E-06
        -0.92420E-06
         0.86629E-06
         0.74259E-06
        -0.18600E-05
         0.36526E-06
         0.29931E-06
         0.53823E-06
         0.78806E-06
        -0.74242E-07
        -0.25065E-07
         0.31402E-06
         0.70626E-06
        -0.23321E-06
        -0.42076E-06
        -0.94460E-06
        -0.33336E-06
        -0.26063E-05
        -0.22899E-05
        -0.13096E-05
        -0.89365E-06
         0.26280E-06
        -0.14958E-06
         0.81416E-06
         0.12626E-05
         0.43456E-06
         0.16461E-06
         0.45938E-06
        -0.11974E-06
        -0.28278E-06
        -0.69060E-07
         0.63417E-06
         0.17052E-06
         0.24039E-06
        -0.31028E-06
        -0.19005E-06
         0.19570E-06
         0.20092E-06
         0.30401E-06
         0.52366E-06
         0.85694E-06
         0.10750E-05
         0.12017E-05
         0.70196E-05
         0.89106E-05
         0.87672E-05
         0.97866E-05
         0.11948E-04
         0.14149E-04
         0.12759E-04
         0.10648E-04
         0.98207E-05
         0.10398E-04
         0.97995E-05
         0.92843E-05
         0.60217E-05
         0.61099E-05
         0.62215E-05
         0.63466E-05
         0.70337E-05
         0.87565E-05
         0.83401E-05
         0.98168E-05
         0.80559E-05
         0.69550E-05
         0.73679E-05
         0.69998E-05
         0.80880E-05
         0.85485E-05
         0.10593E-05
         0.42137E-06
         0.55615E-06
         0.97803E-06
         0.86487E-06
         0.11662E-05
        -0.28861E-06
        -0.37238E-06
         0.11614E-05
        -0.53323E-06
        -0.91869E-06
         0.88309E-06
         0.74960E-06
        -0.18579E-05
         0.38839E-06
         0.30487E-06
         0.53185E-06
         0.80081E-06
        -0.66945E-07
        -0.19452E-07
         0.32347E-06
         0.71742E-06
        -0.23171E-06
        -0.42198E-06
        -0.96935E-06
        -0.34186E-06
        -0.26096E-05
        -0.22941E-05
        -0.13060E-05
        -0.89624E-06
         0.23078E-06
        -0.16907E-06
         0.78975E-06
         0.12601E-05
         0.44267E-06
         0.16537E-06
         0.45798E-06
        -0.10436E-06
        -0.26924E-06
        -0.54924E-07
         0.64983E-06
         0.17999E-06
         0.24781E-06
        -0.31431E-06
        -0.19440E-06
         0.19281E-06
         0.18544E-06
         0.26826E-06
         0.48373E-06
         0.83577E-06
         0.10698E-05
         0.12060E-05
         0.70425E-05
         0.89363E-05
         0.87913E-05
         0.98029E-05
         0.11962E-04
         0.14164E-04
         0.12776E-04
         0.10668E-04
         0.98453E-05
         0.10431E-04
         0.98299E-05
         0.93056E-05
         0.60437E-05
         0.61329E-05
         0.62459E-05
         0.63696E-05
         0.70523E-05
         0.87741E-05
         0.83546E-05
         0.98264E-05
         0.80519E-05
         0.69395E-05
         0.73528E-05
         0.69949E-05
         0.80935E-05
         0.85609E-05
         0.10114E-05
         0.39075E-06
         0.53835E-06
         0.97359E-06
         0.85820E-06
         0.11655E-05
        -0.31164E-06
        -0.41505E-06
         0.11176E-05
        -0.58867E-06
        -0.93411E-06
         0.87666E-06
         0.73940E-06
        -0.18789E-05
         0.38598E-06
         0.29620E-06
         0.50896E-06
         0.79839E-06
        -0.73076E-07
        -0.28561E-07
         0.31917E-06
         0.71431E-06
        -0.23661E-06
        -0.42956E-06
        -0.10047E-05
        -0.35722E-06
        -0.26345E-05
        -0.23133E-05
        -0.13121E-05
        -0.90556E-06
         0.18592E-06
        -0.20106E-06
         0.75258E-06
         0.12457E-05
         0.43256E-06
         0.15293E-06
         0.44392E-06
        -0.11320E-06
        -0.27792E-06
        -0.59576E-07
         0.64838E-06
         0.17944E-06
         0.24744E-06
        -0.32420E-06
        -0.21319E-06
         0.16751E-06
         0.14971E-06
         0.21453E-06
         0.42690E-06
         0.79908E-06
         0.10498E-05
         0.11986E-05
         0.70246E-05
         0.89229E-05
         0.87839E-05
         0.97948E-05
         0.11946E-04
         0.14142E-04
         0.12755E-04
         0.10654E-04
         0.98310E-05
         0.10417E-04
         0.98209E-05
         0.92995E-05
         0.60419E-05
         0.61309E-05
         0.62430E-05
         0.63719E-05
         0.70522E-05
         0.87584E-05
         0.83232E-05
         0.97919E-05
         0.80129E-05
         0.68924E-05
         0.73066E-05
         0.69635E-05
         0.80730E-05
         0.85435E-05
         0.99761E-06
         0.37939E-06
         0.53109E-06
         0.96751E-06
         0.85106E-06
         0.11589E-05
        -0.32328E-06
        -0.42959E-06
         0.11050E-05
        -0.60467E-06
        -0.94509E-06
         0.86761E-06
         0.72936E-06
        -0.18907E-05
         0.38037E-06
         0.28842E-06
         0.49979E-06
         0.79232E-06
        -0.78696E-07
        -0.35698E-07
         0.31230E-06
         0.70698E-06
        -0.24311E-06
        -0.43534E-06
        -0.10169E-05
        -0.36592E-06
        -0.26451E-05
        -0.23235E-05
        -0.13227E-05
        -0.91442E-06
         0.17137E-06
        -0.21371E-06
         0.74054E-06
         0.12377E-05
         0.42411E-06
         0.14619E-06
         0.43533E-06
        -0.12486E-06
        -0.28822E-06
        -0.70723E-07
         0.63693E-06
         0.17016E-06
         0.24133E-06
        -0.33301E-06
        -0.22440E-06
         0.15577E-06
         0.13796E-06
         0.20121E-06
         0.41267E-06
         0.78615E-06
         0.10373E-05
         0.11894E-05
         0.70022E-05
         0.89026E-05
         0.87726E-05
         0.97836E-05
         0.11929E-04
         0.14122E-04
         0.12733E-04
         0.10632E-04
         0.98043E-05
         0.10388E-04
         0.97964E-05
         0.92909E-05
         0.60337E-05
         0.61141E-05
         0.62276E-05
         0.63604E-05
         0.70364E-05
         0.87424E-05
         0.83047E-05
         0.97768E-05
         0.80001E-05
         0.68763E-05
         0.72807E-05
         0.69346E-05
         0.80481E-05
         0.85193E-05
         0.10069E-05
         0.38709E-06
         0.53680E-06
         0.96972E-06
         0.85841E-06
         0.11608E-05
        -0.31521E-06
        -0.41839E-06
         0.11137E-05
        -0.59305E-06
        -0.93733E-06
         0.87675E-06
         0.73660E-06
        -0.18795E-05
         0.39692E-06
         0.29896E-06
         0.50882E-06
         0.79813E-06
        -0.67998E-07
        -0.26510E-07
         0.32195E-06
         0.71593E-06
        -0.23335E-06
        -0.42497E-06
        -0.10070E-05
        -0.35616E-06
        -0.26296E-05
        -0.23113E-05
        -0.13137E-05
        -0.90545E-06
         0.18008E-06
        -0.20639E-06
         0.74641E-06
         0.12406E-05
         0.43456E-06
         0.15386E-06
         0.44189E-06
        -0.11283E-06
        -0.27838E-06
        -0.62506E-07
         0.64663E-06
         0.18023E-06
         0.25122E-06
        -0.32410E-06
        -0.21705E-06
         0.16352E-06
         0.14574E-06
         0.21053E-06
         0.42171E-06
         0.79292E-06
         0.10421E-05
         0.11910E-05
         0.70209E-05
         0.89228E-05
         0.87868E-05
         0.97896E-05
         0.11938E-04
         0.14132E-04
         0.12745E-04
         0.10642E-04
         0.98059E-05
         0.10391E-04
         0.98093E-05
         0.93145E-05
         0.60530E-05
         0.61267E-05
         0.62417E-05
         0.63794E-05
         0.70561E-05
         0.87643E-05
         0.83200E-05
         0.97950E-05
         0.80187E-05
         0.68936E-05
         0.72902E-05
         0.69382E-05
         0.80525E-05
         0.85254E-05
         0.10049E-05
         0.38643E-06
         0.53541E-06
         0.96575E-06
         0.85678E-06
         0.11573E-05
        -0.31659E-06
        -0.42201E-06
         0.11076E-05
        -0.59867E-06
        -0.94200E-06
         0.87127E-06
         0.73548E-06
        -0.18856E-05
         0.39093E-06
         0.29421E-06
         0.50295E-06
         0.79164E-06
        -0.72631E-07
        -0.32078E-07
         0.31849E-06
         0.71125E-06
        -0.23667E-06
        -0.42876E-06
        -0.10102E-05
        -0.35971E-06
        -0.26329E-05
        -0.23123E-05
        -0.13164E-05
        -0.90945E-06
         0.17564E-06
        -0.21024E-06
         0.73983E-06
         0.12348E-05
         0.43171E-06
         0.15081E-06
         0.43985E-06
        -0.12262E-06
        -0.28331E-06
        -0.67591E-07
         0.64164E-06
         0.17707E-06
         0.24604E-06
        -0.32649E-06
        -0.21964E-06
         0.15987E-06
         0.14031E-06
         0.20447E-06
         0.41599E-06
         0.78767E-06
         0.10370E-05
         0.11855E-05
         0.70078E-05
         0.89131E-05
         0.87750E-05
         0.97799E-05
         0.11933E-04
         0.14117E-04
         0.12719E-04
         0.10619E-04
         0.97912E-05
         0.10369E-04
         0.97891E-05
         0.93071E-05
         0.60424E-05
         0.61209E-05
         0.62385E-05
         0.63796E-05
         0.70610E-05
         0.87655E-05
         0.83138E-05
         0.97807E-05
         0.80010E-05
         0.68803E-05
         0.72783E-05
         0.69253E-05
         0.80365E-05
         0.85070E-05
         0.99872E-06
         0.38064E-06
         0.53128E-06
         0.96358E-06
         0.85171E-06
         0.11550E-05
        -0.32131E-06
        -0.42756E-06
         0.11021E-05
        -0.60427E-06
        -0.94725E-06
         0.86400E-06
         0.73118E-06
        -0.18904E-05
         0.38479E-06
         0.28754E-06
         0.49834E-06
         0.78788E-06
        -0.78329E-07
        -0.36295E-07
         0.31396E-06
         0.70651E-06
        -0.24175E-06
        -0.43469E-06
        -0.10132E-05
        -0.36649E-06
        -0.26352E-05
        -0.23147E-05
        -0.13195E-05
        -0.91232E-06
         0.16919E-06
        -0.21657E-06
         0.73607E-06
         0.12338E-05
         0.42431E-06
         0.14551E-06
         0.43520E-06
        -0.13202E-06
        -0.28905E-06
        -0.71911E-07
         0.63926E-06
         0.17448E-06
         0.24135E-06
        -0.33115E-06
        -0.22428E-06
         0.15492E-06
         0.13526E-06
         0.19923E-06
         0.41051E-06
         0.78303E-06
         0.10322E-05
         0.11827E-05
         0.69877E-05
         0.88972E-05
         0.87659E-05
         0.97770E-05
         0.11926E-04
         0.14095E-04
         0.12690E-04
         0.10599E-04
         0.97762E-05
         0.10352E-04
         0.97790E-05
         0.92998E-05
         0.60296E-05
         0.61123E-05
         0.62317E-05
         0.63745E-05
         0.70599E-05
         0.87621E-05
         0.83029E-05
         0.97687E-05
         0.79872E-05
         0.68668E-05
         0.72635E-05
         0.69068E-05
         0.80167E-05
         0.84871E-05
         0.10033E-05
         0.38305E-06
         0.53342E-06
         0.96740E-06
         0.85662E-06
         0.11598E-05
        -0.31609E-06
        -0.41966E-06
         0.11064E-05
        -0.59883E-06
        -0.93991E-06
         0.87025E-06
         0.73371E-06
        -0.18802E-05
         0.40026E-06
         0.29352E-06
         0.50203E-06
         0.79367E-06
        -0.71866E-07
        -0.28950E-07
         0.32171E-06
         0.71450E-06
        -0.23512E-06
        -0.42830E-06
        -0.10083E-05
        -0.36026E-06
        -0.26253E-05
        -0.23069E-05
        -0.13094E-05
        -0.90254E-06
         0.17610E-06
        -0.21157E-06
         0.74319E-06
         0.12408E-05
         0.43093E-06
         0.15042E-06
         0.43791E-06
        -0.12192E-06
        -0.27923E-06
        -0.60357E-07
         0.64995E-06
         0.18231E-06
         0.24935E-06
        -0.32564E-06
        -0.21982E-06
         0.15930E-06
         0.14001E-06
         0.20490E-06
         0.41640E-06
         0.78876E-06
         0.10372E-05
         0.11881E-05
         0.69998E-05
         0.89127E-05
         0.87839E-05
         0.97860E-05
         0.11919E-04
         0.14088E-04
         0.12695E-04
         0.10610E-04
         0.97828E-05
         0.10362E-04
         0.97916E-05
         0.93083E-05
         0.60424E-05
         0.61255E-05
         0.62459E-05
         0.63890E-05
         0.70718E-05
         0.87745E-05
         0.83092E-05
         0.97792E-05
         0.79996E-05
         0.68794E-05
         0.72696E-05
         0.69068E-05
         0.80224E-05
         0.84958E-05
         0.10006E-05
         0.37841E-06
         0.52942E-06
         0.96290E-06
         0.85145E-06
         0.11547E-05
        -0.32208E-06
        -0.42464E-06
         0.11020E-05
        -0.60591E-06
        -0.94747E-06
         0.86120E-06
         0.72454E-06
        -0.18880E-05
         0.39652E-06
         0.28817E-06
         0.49604E-06
         0.78674E-06
        -0.78867E-07
        -0.35501E-07
         0.31339E-06
         0.70594E-06
        -0.24390E-06
        -0.43516E-06
        -0.10152E-05
        -0.36620E-06
        -0.26343E-05
        -0.23165E-05
        -0.13173E-05
        -0.90783E-06
         0.17011E-06
        -0.21755E-06
         0.73524E-06
         0.12355E-05
         0.42386E-06
         0.14424E-06
         0.43030E-06
        -0.13235E-06
        -0.28956E-06
        -0.69826E-07
         0.63935E-06
         0.17207E-06
         0.24115E-06
        -0.33530E-06
        -0.22834E-06
         0.15199E-06
         0.13277E-06
         0.19664E-06
         0.40939E-06
         0.78358E-06
         0.10308E-05
         0.11819E-05
         0.69798E-05
         0.88965E-05
         0.87698E-05
         0.97701E-05
         0.11897E-04
         0.14062E-04
         0.12675E-04
         0.10591E-04
         0.97603E-05
         0.10338E-04
         0.97664E-05
         0.92875E-05
         0.60273E-05
         0.61102E-05
         0.62349E-05
         0.63791E-05
         0.70544E-05
         0.87585E-05
         0.82977E-05
         0.97637E-05
         0.79835E-05
         0.68712E-05
         0.72589E-05
         0.68863E-05
         0.79988E-05
         0.84728E-05
         0.10004E-05
         0.37689E-06
         0.52827E-06
         0.96167E-06
         0.85068E-06
         0.11532E-05
        -0.32305E-06
        -0.42468E-06
         0.11027E-05
        -0.60522E-06
        -0.94862E-06
         0.85999E-06
         0.72347E-06
        -0.18877E-05
         0.39911E-06
         0.28730E-06
         0.49646E-06
         0.78524E-06
        -0.79484E-07
        -0.36087E-07
         0.31176E-06
         0.70461E-06
        -0.24576E-06
        -0.43641E-06
        -0.10153E-05
        -0.36785E-06
        -0.26322E-05
        -0.23177E-05
        -0.13192E-05
        -0.90879E-06
         0.16699E-06
        -0.21989E-06
         0.73199E-06
         0.12345E-05
         0.42253E-06
         0.14226E-06
         0.42797E-06
        -0.13623E-06
        -0.29464E-06
        -0.72983E-07
         0.63917E-06
         0.17180E-06
         0.24027E-06
        -0.33679E-06
        -0.22988E-06
         0.15039E-06
         0.13048E-06
         0.19344E-06
         0.40653E-06
         0.78226E-06
         0.10293E-05
         0.11800E-05
         0.69735E-05
         0.88928E-05
         0.87657E-05
         0.97641E-05
         0.11893E-04
         0.14053E-04
         0.12661E-04
         0.10575E-04
         0.97428E-05
         0.10325E-04
         0.97627E-05
         0.92865E-05
         0.60231E-05
         0.61040E-05
         0.62302E-05
         0.63794E-05
         0.70570E-05
         0.87603E-05
         0.82935E-05
         0.97574E-05
         0.79756E-05
         0.68664E-05
         0.72529E-05
         0.68751E-05
         0.79834E-05
         0.84586E-05
         0.10140E-05
         0.39153E-06
         0.54061E-06
         0.97125E-06
         0.86546E-06
         0.11644E-05
        -0.30586E-06
        -0.40846E-06
         0.11131E-05
        -0.59197E-06
        -0.93107E-06
         0.87975E-06
         0.74129E-06
        -0.18699E-05
         0.42115E-06
         0.30002E-06
         0.50875E-06
         0.79611E-06
        -0.65400E-07
        -0.20909E-07
         0.32871E-06
         0.72042E-06
        -0.22969E-06
        -0.42261E-06
        -0.99952E-06
        -0.35411E-06
        -0.26127E-05
        -0.22970E-05
        -0.12996E-05
        -0.89097E-06
         0.18077E-06
        -0.20592E-06
         0.74303E-06
         0.12437E-05
         0.43955E-06
         0.15656E-06
         0.44248E-06
        -0.12154E-06
        -0.27702E-06
        -0.54860E-07
         0.65629E-06
         0.18865E-06
         0.25492E-06
        -0.32009E-06
        -0.21324E-06
         0.16726E-06
         0.14556E-06
         0.20775E-06
         0.41864E-06
         0.79284E-06
         0.10402E-05
         0.11898E-05
         0.70003E-05
         0.89213E-05
         0.87928E-05
         0.97840E-05
         0.11914E-04
         0.14076E-04
         0.12677E-04
         0.10589E-04
         0.97606E-05
         0.10343E-04
         0.97814E-05
         0.93131E-05
         0.60428E-05
         0.61263E-05
         0.62577E-05
         0.64111E-05
         0.70926E-05
         0.87970E-05
         0.83200E-05
         0.97851E-05
         0.79989E-05
         0.68841E-05
         0.72677E-05
         0.68895E-05
         0.80008E-05
         0.84767E-05
         0.10088E-05
         0.38735E-06
         0.53690E-06
         0.96564E-06
         0.85900E-06
         0.11593E-05
        -0.31119E-06
        -0.41502E-06
         0.11067E-05
        -0.60101E-06
        -0.93848E-06
         0.87280E-06
         0.73751E-06
        -0.18781E-05
         0.41480E-06
         0.29307E-06
         0.50117E-06
         0.79045E-06
        -0.74662E-07
        -0.28944E-07
         0.32321E-06
         0.71260E-06
        -0.23505E-06
        -0.43090E-06
        -0.10078E-05
        -0.36255E-06
        -0.26208E-05
        -0.23036E-05
        -0.13010E-05
        -0.89463E-06
         0.17643E-06
        -0.21271E-06
         0.73754E-06
         0.12372E-05
         0.43037E-06
         0.15095E-06
         0.43875E-06
        -0.13359E-06
        -0.28508E-06
        -0.58416E-07
         0.65002E-06
         0.18087E-06
         0.24542E-06
        -0.32726E-06
        -0.22066E-06
         0.16041E-06
         0.13955E-06
         0.20315E-06
         0.41273E-06
         0.78520E-06
         0.10326E-05
         0.11834E-05
         0.69736E-05
         0.88998E-05
         0.87765E-05
         0.97756E-05
         0.11908E-04
         0.14060E-04
         0.12650E-04
         0.10564E-04
         0.97361E-05
         0.10318E-04
         0.97570E-05
         0.92897E-05
         0.60250E-05
         0.61174E-05
         0.62557E-05
         0.64136E-05
         0.70898E-05
         0.87869E-05
         0.83080E-05
         0.97711E-05
         0.79857E-05
         0.68701E-05
         0.72479E-05
         0.68708E-05
         0.79836E-05
         0.84546E-05
         0.99980E-06
         0.37668E-06
         0.52657E-06
         0.95805E-06
         0.84880E-06
         0.11495E-05
        -0.32011E-06
        -0.42290E-06
         0.10974E-05
        -0.61779E-06
        -0.94750E-06
         0.86154E-06
         0.72855E-06
        -0.18865E-05
         0.40620E-06
         0.28451E-06
         0.48956E-06
         0.78390E-06
        -0.82243E-07
        -0.32812E-07
         0.31637E-06
         0.70345E-06
        -0.24155E-06
        -0.43801E-06
        -0.10230E-05
        -0.37082E-06
        -0.26396E-05
        -0.23144E-05
        -0.12780E-05
        -0.88188E-06
         0.16848E-06
        -0.22228E-06
         0.73210E-06
         0.12328E-05
         0.41999E-06
         0.14170E-06
         0.42982E-06
        -0.15245E-06
        -0.29296E-06
        -0.41610E-07
         0.65047E-06
         0.17237E-06
         0.23260E-06
        -0.33501E-06
        -0.23012E-06
         0.14937E-06
         0.12901E-06
         0.19489E-06
         0.40593E-06
         0.77900E-06
         0.10259E-05
         0.11757E-05
         0.69539E-05
         0.88830E-05
         0.87652E-05
         0.97661E-05
         0.11891E-04
         0.14030E-04
         0.12616E-04
         0.10535E-04
         0.97114E-05
         0.10307E-04
         0.97167E-05
         0.92323E-05
         0.60001E-05
         0.61036E-05
         0.62455E-05
         0.64077E-05
         0.70821E-05
         0.87762E-05
         0.82890E-05
         0.97497E-05
         0.79707E-05
         0.68567E-05
         0.72278E-05
         0.68503E-05
         0.79583E-05
         0.84278E-05
         0.10128E-05
         0.39014E-06
         0.53996E-06
         0.96964E-06
         0.86451E-06
         0.11616E-05
        -0.30502E-06
        -0.40693E-06
         0.11047E-05
        -0.61978E-06
        -0.93172E-06
         0.87631E-06
         0.74187E-06
        -0.18697E-05
         0.42611E-06
         0.29736E-06
         0.49803E-06
         0.79409E-06
        -0.65987E-07
        -0.78499E-08
         0.33050E-06
         0.71726E-06
        -0.22859E-06
        -0.42312E-06
        -0.10186E-05
        -0.35587E-06
        -0.26425E-05
        -0.23014E-05
        -0.12068E-05
        -0.82748E-06
         0.18026E-06
        -0.20808E-06
         0.74289E-06
         0.12450E-05
         0.43821E-06
         0.15763E-06
         0.44352E-06
        -0.14916E-06
        -0.27303E-06
         0.18554E-07
         0.68228E-06
         0.18936E-06
         0.24123E-06
        -0.32065E-06
        -0.21384E-06
         0.16810E-06
         0.14473E-06
         0.20799E-06
         0.41924E-06
         0.79350E-06
         0.10405E-05
         0.11873E-05
         0.69816E-05
         0.89122E-05
         0.87986E-05
         0.97898E-05
         0.11903E-04
         0.14039E-04
         0.12630E-04
         0.10555E-04
         0.97341E-05
         0.10353E-04
         0.97017E-05
         0.91868E-05
         0.60017E-05
         0.61220E-05
         0.62631E-05
         0.64258E-05
         0.71039E-05
         0.88076E-05
         0.83209E-05
         0.97795E-05
         0.79961E-05
         0.68837E-05
         0.72534E-05
         0.68695E-05
         0.79728E-05
         0.84440E-05
         0.96589E-06
         0.34075E-06
         0.49209E-06
         0.92393E-06
         0.80780E-06
         0.11079E-05
        -0.35914E-06
        -0.46188E-06
         0.10531E-05
        -0.68753E-06
        -0.99255E-06
         0.80631E-06
         0.67648E-06
        -0.19334E-05
         0.35714E-06
         0.24989E-06
         0.44258E-06
         0.74778E-06
        -0.12029E-06
        -0.59300E-07
         0.26919E-06
         0.65675E-06
        -0.28828E-06
        -0.47547E-06
        -0.10833E-05
        -0.40547E-06
        -0.27175E-05
        -0.23635E-05
        -0.12347E-05
        -0.86394E-06
         0.13290E-06
        -0.25960E-06
         0.69438E-06
         0.11941E-05
         0.37316E-06
         0.99128E-07
         0.38266E-06
        -0.22944E-06
        -0.33653E-06
        -0.19025E-07
         0.62295E-06
         0.12462E-06
         0.17589E-06
        -0.37899E-06
        -0.27520E-06
         0.98553E-07
         0.83939E-07
         0.15277E-06
         0.36470E-06
         0.73451E-06
         0.97316E-06
         0.11277E-05
         0.68584E-05
         0.87944E-05
         0.86801E-05
         0.96695E-05
         0.11779E-04
         0.13916E-04
         0.12504E-04
         0.10424E-04
         0.96115E-05
         0.10239E-04
         0.95487E-05
         0.90256E-05
         0.58856E-05
         0.60254E-05
         0.61642E-05
         0.63261E-05
         0.70014E-05
         0.86913E-05
         0.81955E-05
         0.96593E-05
         0.78841E-05
         0.67770E-05
         0.71395E-05
         0.67484E-05
         0.78572E-05
         0.83296E-05
         0.99326E-06
         0.34418E-06
         0.50112E-06
         0.94161E-06
         0.82658E-06
         0.11253E-05
        -0.35127E-06
        -0.42783E-06
         0.10873E-05
        -0.63718E-06
        -0.97583E-06
         0.80767E-06
         0.66014E-06
        -0.18931E-05
         0.39145E-06
         0.28720E-06
         0.47890E-06
         0.77281E-06
        -0.90889E-07
        -0.28812E-07
         0.29722E-06
         0.67750E-06
        -0.24525E-06
        -0.43618E-06
        -0.10256E-05
        -0.36885E-06
        -0.26534E-05
        -0.22918E-05
        -0.11752E-05
        -0.80901E-06
         0.16233E-06
        -0.23685E-06
         0.70798E-06
         0.11867E-05
         0.38352E-06
         0.94681E-07
         0.36536E-06
        -0.18911E-06
        -0.28793E-06
         0.22939E-07
         0.65110E-06
         0.16222E-06
         0.21532E-06
        -0.33904E-06
        -0.25284E-06
         0.10939E-06
         0.93178E-07
         0.17644E-06
         0.38273E-06
         0.73523E-06
         0.97712E-06
         0.11283E-05
         0.68976E-05
         0.88491E-05
         0.86946E-05
         0.96437E-05
         0.11722E-04
         0.13875E-04
         0.12548E-04
         0.10475E-04
         0.96513E-05
         0.10258E-04
         0.95531E-05
         0.90504E-05
         0.59297E-05
         0.60470E-05
         0.62120E-05
         0.63966E-05
         0.70628E-05
         0.87384E-05
         0.82128E-05
         0.96560E-05
         0.79073E-05
         0.68115E-05
         0.71897E-05
         0.68065E-05
         0.79019E-05
         0.83767E-05
         0.18511E-03
         0.19239E-03
         0.19107E-03
         0.17486E-03
         0.22122E-03
         0.20686E-03
         0.20751E-03
         0.21005E-03
         0.18206E-03
         0.21045E-03
         0.23047E-03
         0.26811E-03
         0.24049E-03
         0.23708E-03
         0.27544E-03
         0.17721E-03
         0.19082E-03
         0.16711E-03
         0.19832E-03
         0.20752E-03
         0.22086E-03
         0.22299E-03
         0.21147E-03
         0.18943E-03
         0.21076E-03
         0.18152E-03
         0.23399E-03
         0.22715E-03
         0.22846E-03
         0.21826E-03
         0.17897E-03
         0.18789E-03
         0.17578E-03
         0.18394E-03
         0.24546E-03
         0.21984E-03
         0.22042E-03
         0.26095E-03
         0.25115E-03
         0.24756E-03
         0.25542E-03
         0.24100E-03
         0.22853E-03
         0.20522E-03
         0.21421E-03
         0.24668E-03
         0.22331E-03
         0.20807E-03
         0.20333E-03
         0.21161E-03
         0.23457E-03
         0.21377E-03
         0.43486E-03
         0.42650E-03
         0.43453E-03
         0.42101E-03
         0.43478E-03
         0.45658E-03
         0.45773E-03
         0.45141E-03
         0.45460E-03
         0.46758E-03
         0.45359E-03
         0.42815E-03
         0.37935E-03
         0.35833E-03
         0.36399E-03
         0.37279E-03
         0.37787E-03
         0.41182E-03
         0.43968E-03
         0.44195E-03
         0.40515E-03
         0.39066E-03
         0.40475E-03
         0.40038E-03
         0.39805E-03
         0.39880E-03
         0.19580E-02
         0.20499E-02
         0.20220E-02
         0.18544E-02
         0.22558E-02
         0.21271E-02
         0.22103E-02
         0.22230E-02
         0.19198E-02
         0.22221E-02
         0.24155E-02
         0.26837E-02
         0.24460E-02
         0.24811E-02
         0.27724E-02
         0.18822E-02
         0.20182E-02
         0.17742E-02
         0.20805E-02
         0.21844E-02
         0.22483E-02
         0.22960E-02
         0.21629E-02
         0.20055E-02
         0.22490E-02
         0.19392E-02
         0.24725E-02
         0.24345E-02
         0.24447E-02
         0.23244E-02
         0.19023E-02
         0.19973E-02
         0.18684E-02
         0.19498E-02
         0.24575E-02
         0.22672E-02
         0.22727E-02
         0.26904E-02
         0.26268E-02
         0.25975E-02
         0.26381E-02
         0.25119E-02
         0.23812E-02
         0.21154E-02
         0.21998E-02
         0.24559E-02
         0.22823E-02
         0.21532E-02
         0.21135E-02
         0.21868E-02
         0.23617E-02
         0.21924E-02
         0.38009E-02
         0.37074E-02
         0.37812E-02
         0.36677E-02
         0.37721E-02
         0.39571E-02
         0.40180E-02
         0.40097E-02
         0.40369E-02
         0.41248E-02
         0.40109E-02
         0.37812E-02
         0.34063E-02
         0.32271E-02
         0.32347E-02
         0.32740E-02
         0.33042E-02
         0.35713E-02
         0.38158E-02
         0.38305E-02
         0.35572E-02
         0.34520E-02
         0.35610E-02
         0.35369E-02
         0.34982E-02
         0.34889E-02
  
SCALARS                      strain_yz  double 1
LOOKUP_TABLE default
        -0.28749E-03
         0.95305E-04
         0.24816E-03
         0.12812E-03
        -0.11114E-10
        -0.30634E-11
        -0.13774E-10
        -0.10506E-10
         0.92808E-03
        -0.61109E-03
        -0.20499E-10
        -0.18047E-10
         0.81013E-03
         0.41186E-04
         0.14670E-10
        -0.94055E-12
        -0.28144E-03
        -0.10382E-02
         0.21583E-12
         0.22084E-11
         0.53664E-03
         0.20138E-02
         0.21037E-02
         0.33628E-10
         0.58076E-10
         0.48543E-10
         0.19852E-03
         0.20326E-02
         0.24190E-10
         0.46928E-10
        -0.32158E-03
        -0.27907E-03
         0.23910E-03
         0.12540E-10
         0.12802E-10
        -0.26577E-12
        -0.95328E-03
        -0.91337E-03
         0.23077E-10
         0.17954E-10
        -0.93499E-03
        -0.59252E-03
         0.17440E-10
         0.15938E-10
        -0.85110E-03
        -0.29390E-03
        -0.57852E-12
         0.89484E-11
        -0.78100E-03
         0.42132E-11
        -0.77986E-04
        -0.34124E-12
        -0.45764E-04
         0.16297E-10
         0.30286E-03
         0.94803E-11
         0.98778E-03
        -0.17628E-03
         0.25719E-12
        -0.52201E-12
        -0.38995E-03
        -0.14204E-02
        -0.35042E-11
        -0.13107E-10
        -0.23572E-03
        -0.70734E-11
        -0.10100E-02
        -0.86170E-11
         0.81595E-03
         0.43193E-03
        -0.10649E-11
         0.14060E-10
         0.15083E-02
         0.30875E-10
         0.25759E-02
         0.29894E-10
         0.25975E-02
         0.22693E-10
         0.21406E-02
         0.19021E-10
         0.31468E-02
         0.24206E-02
         0.12202E-10
        -0.27053E-11
         0.34007E-03
        -0.30271E-12
        -0.13300E-02
        -0.18963E-10
        -0.31371E-02
        -0.33197E-10
        -0.43768E-02
        -0.27103E-02
        -0.49237E-10
        -0.39853E-10
        -0.19083E-02
        -0.30936E-10
        -0.17136E-02
        -0.31650E-10
        -0.16664E-02
        -0.34030E-10
        -0.27724E-02
        -0.23056E-02
        -0.31646E-10
        -0.15163E-10
         0.18528E-02
        -0.70275E-03
         0.11127E-10
        -0.13828E-10
         0.45537E-02
         0.37018E-10
         0.65341E-02
         0.54149E-10
         0.79818E-02
         0.66874E-10
         0.93146E-02
         0.66334E-10
         0.10912E-01
         0.52494E-10
         0.11121E-01
         0.40624E-10
         0.10468E-01
         0.37784E-10
         0.93160E-02
         0.35949E-10
         0.68162E-02
         0.22974E-10
         0.46315E-02
         0.75851E-11
         0.23386E-02
         0.49012E-11
        -0.16883E-03
         0.73669E-11
        -0.22474E-02
         0.38049E-11
        -0.40411E-02
        -0.11507E-10
        -0.62537E-02
        -0.32479E-10
        -0.69956E-02
        -0.50717E-10
        -0.76200E-02
        -0.66489E-10
        -0.97225E-02
        -0.66432E-10
        -0.10094E-01
        -0.57992E-10
        -0.93377E-02
        -0.56519E-10
        -0.75789E-02
        -0.56871E-10
        -0.51523E-02
        -0.44972E-10
        -0.36550E-02
        -0.26594E-10
        -0.26336E-02
        -0.20562E-10
        -0.63053E-03
        -0.33208E-03
        -0.28919E-03
        -0.87716E-04
        -0.30203E-03
        -0.31445E-03
        -0.34022E-04
        -0.51596E-03
        -0.42959E-03
        -0.64230E-03
         0.34858E-03
         0.14937E-02
         0.10091E-02
         0.11693E-03
         0.15019E-02
         0.16589E-03
        -0.14762E-03
         0.93873E-04
         0.12682E-03
        -0.95281E-04
         0.88267E-04
         0.72367E-04
        -0.24572E-03
         0.20651E-04
        -0.43820E-03
         0.64829E-04
         0.34156E-05
         0.59625E-04
         0.73265E-04
        -0.34696E-03
         0.16228E-03
        -0.18003E-03
         0.11803E-03
        -0.29177E-04
         0.50608E-04
         0.27013E-03
         0.60132E-03
         0.13113E-02
         0.11995E-02
         0.10277E-02
         0.97740E-03
         0.23692E-03
        -0.18918E-03
        -0.52061E-03
        -0.87101E-03
        -0.14533E-02
        -0.93644E-03
        -0.65824E-03
        -0.70328E-03
        -0.75884E-03
        -0.90401E-03
        -0.40458E-03
         0.81182E-03
        -0.95939E-03
         0.26064E-02
         0.35869E-02
         0.45786E-02
         0.54905E-02
         0.55723E-02
         0.50575E-02
         0.48055E-02
         0.45469E-02
         0.29487E-02
         0.12632E-02
         0.55022E-03
         0.24162E-03
        -0.36776E-03
        -0.14470E-02
        -0.26606E-02
        -0.35016E-02
        -0.43516E-02
        -0.49598E-02
        -0.46283E-02
        -0.43748E-02
        -0.40767E-02
        -0.28597E-02
        -0.16492E-02
        -0.14412E-02
        -0.69190E-03
        -0.43639E-03
        -0.40382E-03
        -0.95783E-04
        -0.52449E-03
        -0.23589E-03
        -0.18706E-03
        -0.65394E-03
        -0.42883E-03
        -0.61505E-03
         0.32517E-03
         0.14074E-02
         0.83375E-03
         0.11981E-03
         0.13866E-02
         0.26239E-03
        -0.79517E-04
         0.75916E-04
         0.34218E-03
         0.66155E-04
         0.29494E-03
         0.20940E-03
        -0.12140E-03
         0.10246E-03
        -0.41417E-03
         0.10244E-03
         0.25707E-04
         0.47788E-04
        -0.76334E-04
        -0.41315E-03
         0.28278E-03
         0.74490E-04
         0.18278E-03
         0.15870E-03
        -0.75674E-04
         0.23067E-03
         0.44042E-03
         0.10538E-02
         0.92927E-03
         0.81894E-03
         0.60164E-03
        -0.14866E-03
        -0.30621E-03
        -0.38249E-03
        -0.49253E-03
        -0.10061E-02
        -0.58544E-03
        -0.38714E-03
        -0.48657E-03
        -0.57441E-03
        -0.59518E-03
        -0.44657E-04
         0.74222E-03
        -0.10617E-02
         0.24708E-02
         0.31930E-02
         0.41212E-02
         0.49457E-02
         0.48443E-02
         0.42301E-02
         0.40538E-02
         0.40110E-02
         0.25187E-02
         0.83013E-03
         0.33074E-03
         0.28339E-03
        -0.13126E-03
        -0.11135E-02
        -0.22309E-02
        -0.31050E-02
        -0.40409E-02
        -0.44809E-02
        -0.39345E-02
        -0.37197E-02
        -0.37087E-02
        -0.26113E-02
        -0.13565E-02
        -0.12844E-02
        -0.69233E-03
        -0.43647E-03
        -0.40402E-03
        -0.96486E-04
        -0.52455E-03
        -0.23608E-03
        -0.18729E-03
        -0.65505E-03
        -0.42960E-03
        -0.61735E-03
         0.32537E-03
         0.14072E-02
         0.83396E-03
         0.11982E-03
         0.13884E-02
         0.26241E-03
        -0.80240E-04
         0.75802E-04
         0.34241E-03
         0.65786E-04
         0.29567E-03
         0.20960E-03
        -0.12143E-03
         0.10242E-03
        -0.41605E-03
         0.10226E-03
         0.26010E-04
         0.48056E-04
        -0.75830E-04
        -0.41403E-03
         0.28283E-03
         0.74327E-04
         0.18318E-03
         0.15896E-03
        -0.74963E-04
         0.23082E-03
         0.44040E-03
         0.10554E-02
         0.93128E-03
         0.81989E-03
         0.60210E-03
        -0.14826E-03
        -0.30653E-03
        -0.38269E-03
        -0.49254E-03
        -0.10061E-02
        -0.58550E-03
        -0.38691E-03
        -0.48591E-03
        -0.57364E-03
        -0.59493E-03
        -0.43980E-04
         0.74153E-03
        -0.10618E-02
         0.24713E-02
         0.31930E-02
         0.41207E-02
         0.49441E-02
         0.48422E-02
         0.42288E-02
         0.40529E-02
         0.40099E-02
         0.25182E-02
         0.83052E-03
         0.33072E-03
         0.28398E-03
        -0.13019E-03
        -0.11141E-02
        -0.22319E-02
        -0.31057E-02
        -0.40408E-02
        -0.44806E-02
        -0.39343E-02
        -0.37196E-02
        -0.37078E-02
        -0.26094E-02
        -0.13550E-02
        -0.12827E-02
        -0.69277E-03
        -0.43655E-03
        -0.40423E-03
        -0.97196E-04
        -0.52461E-03
        -0.23627E-03
        -0.18752E-03
        -0.65615E-03
        -0.43038E-03
        -0.61963E-03
         0.32556E-03
         0.14071E-02
         0.83417E-03
         0.11980E-03
         0.13901E-02
         0.26243E-03
        -0.80971E-04
         0.75687E-04
         0.34264E-03
         0.65410E-04
         0.29640E-03
         0.20980E-03
        -0.12147E-03
         0.10235E-03
        -0.41790E-03
         0.10204E-03
         0.26334E-04
         0.48340E-04
        -0.75281E-04
        -0.41487E-03
         0.28288E-03
         0.74131E-04
         0.18359E-03
         0.15922E-03
        -0.74248E-04
         0.23098E-03
         0.44037E-03
         0.10570E-02
         0.93329E-03
         0.82085E-03
         0.60259E-03
        -0.14782E-03
        -0.30682E-03
        -0.38294E-03
        -0.49260E-03
        -0.10062E-02
        -0.58555E-03
        -0.38667E-03
        -0.48527E-03
        -0.57286E-03
        -0.59468E-03
        -0.43307E-04
         0.74084E-03
        -0.10618E-02
         0.24717E-02
         0.31931E-02
         0.41203E-02
         0.49424E-02
         0.48402E-02
         0.42275E-02
         0.40521E-02
         0.40088E-02
         0.25177E-02
         0.83093E-03
         0.33070E-03
         0.28456E-03
        -0.12912E-03
        -0.11147E-02
        -0.22329E-02
        -0.31065E-02
        -0.40408E-02
        -0.44803E-02
        -0.39340E-02
        -0.37194E-02
        -0.37068E-02
        -0.26076E-02
        -0.13535E-02
        -0.12811E-02
        -0.69320E-03
        -0.43663E-03
        -0.40443E-03
        -0.97909E-04
        -0.52467E-03
        -0.23646E-03
        -0.18777E-03
        -0.65724E-03
        -0.43115E-03
        -0.62189E-03
         0.32576E-03
         0.14070E-02
         0.83440E-03
         0.11981E-03
         0.13919E-02
         0.26245E-03
        -0.81715E-04
         0.75569E-04
         0.34290E-03
         0.65013E-04
         0.29716E-03
         0.20998E-03
        -0.12158E-03
         0.10225E-03
        -0.41970E-03
         0.10177E-03
         0.26668E-04
         0.48716E-04
        -0.74599E-04
        -0.41563E-03
         0.28290E-03
         0.73864E-04
         0.18399E-03
         0.15948E-03
        -0.73537E-04
         0.23113E-03
         0.44035E-03
         0.10587E-02
         0.93534E-03
         0.82187E-03
         0.60315E-03
        -0.14726E-03
        -0.30707E-03
        -0.38331E-03
        -0.49275E-03
        -0.10062E-02
        -0.58565E-03
        -0.38644E-03
        -0.48463E-03
        -0.57209E-03
        -0.59441E-03
        -0.42635E-04
         0.74014E-03
        -0.10619E-02
         0.24722E-02
         0.31931E-02
         0.41198E-02
         0.49407E-02
         0.48382E-02
         0.42262E-02
         0.40512E-02
         0.40077E-02
         0.25172E-02
         0.83142E-03
         0.33070E-03
         0.28513E-03
        -0.12803E-03
        -0.11154E-02
        -0.22341E-02
        -0.31073E-02
        -0.40407E-02
        -0.44800E-02
        -0.39337E-02
        -0.37192E-02
        -0.37059E-02
        -0.26057E-02
        -0.13521E-02
        -0.12794E-02
        -0.69363E-03
        -0.43671E-03
        -0.40463E-03
        -0.98619E-04
        -0.52474E-03
        -0.23665E-03
        -0.18800E-03
        -0.65833E-03
        -0.43193E-03
        -0.62412E-03
         0.32595E-03
         0.14069E-02
         0.83461E-03
         0.11981E-03
         0.13937E-02
         0.26247E-03
        -0.82470E-04
         0.75451E-04
         0.34316E-03
         0.64593E-04
         0.29792E-03
         0.21013E-03
        -0.12174E-03
         0.10211E-03
        -0.42142E-03
         0.10141E-03
         0.27040E-04
         0.49176E-04
        -0.73781E-04
        -0.41632E-03
         0.28290E-03
         0.73515E-04
         0.18439E-03
         0.15973E-03
        -0.72820E-04
         0.23128E-03
         0.44033E-03
         0.10603E-02
         0.93742E-03
         0.82296E-03
         0.60379E-03
        -0.14657E-03
        -0.30725E-03
        -0.38382E-03
        -0.49299E-03
        -0.10063E-02
        -0.58578E-03
        -0.38623E-03
        -0.48399E-03
        -0.57131E-03
        -0.59417E-03
        -0.41959E-04
         0.73945E-03
        -0.10619E-02
         0.24726E-02
         0.31931E-02
         0.41192E-02
         0.49390E-02
         0.48361E-02
         0.42250E-02
         0.40504E-02
         0.40065E-02
         0.25168E-02
         0.83200E-03
         0.33074E-03
         0.28570E-03
        -0.12695E-03
        -0.11161E-02
        -0.22355E-02
        -0.31082E-02
        -0.40407E-02
        -0.44798E-02
        -0.39334E-02
        -0.37191E-02
        -0.37049E-02
        -0.26038E-02
        -0.13506E-02
        -0.12777E-02
        -0.69404E-03
        -0.43676E-03
        -0.40483E-03
        -0.99337E-04
        -0.52480E-03
        -0.23684E-03
        -0.18821E-03
        -0.65937E-03
        -0.43271E-03
        -0.62628E-03
         0.32617E-03
         0.14068E-02
         0.83483E-03
         0.11983E-03
         0.13954E-02
         0.26250E-03
        -0.83241E-04
         0.75335E-04
         0.34342E-03
         0.64165E-04
         0.29868E-03
         0.21028E-03
        -0.12192E-03
         0.10195E-03
        -0.42311E-03
         0.10104E-03
         0.27441E-04
         0.49685E-04
        -0.72905E-04
        -0.41696E-03
         0.28289E-03
         0.73127E-04
         0.18481E-03
         0.16001E-03
        -0.72099E-04
         0.23145E-03
         0.44032E-03
         0.10620E-02
         0.93953E-03
         0.82408E-03
         0.60445E-03
        -0.14584E-03
        -0.30741E-03
        -0.38438E-03
        -0.49330E-03
        -0.10065E-02
        -0.58593E-03
        -0.38605E-03
        -0.48339E-03
        -0.57056E-03
        -0.59391E-03
        -0.41283E-04
         0.73875E-03
        -0.10620E-02
         0.24731E-02
         0.31931E-02
         0.41187E-02
         0.49373E-02
         0.48340E-02
         0.42237E-02
         0.40495E-02
         0.40054E-02
         0.25164E-02
         0.83262E-03
         0.33078E-03
         0.28626E-03
        -0.12586E-03
        -0.11168E-02
        -0.22369E-02
        -0.31092E-02
        -0.40406E-02
        -0.44795E-02
        -0.39332E-02
        -0.37190E-02
        -0.37040E-02
        -0.26020E-02
        -0.13491E-02
        -0.12760E-02
        -0.69441E-03
        -0.43675E-03
        -0.40503E-03
        -0.10007E-03
        -0.52487E-03
        -0.23703E-03
        -0.18837E-03
        -0.66032E-03
        -0.43351E-03
        -0.62836E-03
         0.32644E-03
         0.14067E-02
         0.83511E-03
         0.11993E-03
         0.13972E-02
         0.26255E-03
        -0.84031E-04
         0.75218E-04
         0.34369E-03
         0.63736E-04
         0.29945E-03
         0.21044E-03
        -0.12211E-03
         0.10180E-03
        -0.42475E-03
         0.10066E-03
         0.27913E-04
         0.50226E-04
        -0.72013E-04
        -0.41759E-03
         0.28286E-03
         0.72712E-04
         0.18523E-03
         0.16029E-03
        -0.71376E-04
         0.23163E-03
         0.44033E-03
         0.10637E-02
         0.94166E-03
         0.82520E-03
         0.60513E-03
        -0.14510E-03
        -0.30756E-03
        -0.38494E-03
        -0.49362E-03
        -0.10067E-02
        -0.58617E-03
        -0.38599E-03
        -0.48288E-03
        -0.56983E-03
        -0.59366E-03
        -0.40599E-04
         0.73805E-03
        -0.10621E-02
         0.24735E-02
         0.31932E-02
         0.41183E-02
         0.49357E-02
         0.48320E-02
         0.42224E-02
         0.40487E-02
         0.40043E-02
         0.25160E-02
         0.83323E-03
         0.33083E-03
         0.28683E-03
        -0.12478E-03
        -0.11176E-02
        -0.22384E-02
        -0.31102E-02
        -0.40405E-02
        -0.44792E-02
        -0.39330E-02
        -0.37189E-02
        -0.37030E-02
        -0.26001E-02
        -0.13476E-02
        -0.12743E-02
        -0.69477E-03
        -0.43672E-03
        -0.40523E-03
        -0.10082E-03
        -0.52494E-03
        -0.23722E-03
        -0.18850E-03
        -0.66121E-03
        -0.43431E-03
        -0.63039E-03
         0.32673E-03
         0.14066E-02
         0.83538E-03
         0.12003E-03
         0.13990E-02
         0.26260E-03
        -0.84831E-04
         0.75099E-04
         0.34395E-03
         0.63308E-04
         0.30022E-03
         0.21059E-03
        -0.12229E-03
         0.10165E-03
        -0.42638E-03
         0.10029E-03
         0.28403E-04
         0.50781E-04
        -0.71117E-04
        -0.41822E-03
         0.28283E-03
         0.72279E-04
         0.18566E-03
         0.16058E-03
        -0.70646E-04
         0.23182E-03
         0.44037E-03
         0.10654E-02
         0.94379E-03
         0.82634E-03
         0.60581E-03
        -0.14435E-03
        -0.30771E-03
        -0.38550E-03
        -0.49396E-03
        -0.10069E-02
        -0.58644E-03
        -0.38596E-03
        -0.48242E-03
        -0.56911E-03
        -0.59342E-03
        -0.39916E-04
         0.73736E-03
        -0.10621E-02
         0.24739E-02
         0.31932E-02
         0.41177E-02
         0.49340E-02
         0.48299E-02
         0.42211E-02
         0.40478E-02
         0.40031E-02
         0.25156E-02
         0.83384E-03
         0.33087E-03
         0.28740E-03
        -0.12369E-03
        -0.11183E-02
        -0.22398E-02
        -0.31111E-02
        -0.40404E-02
        -0.44789E-02
        -0.39328E-02
        -0.37188E-02
        -0.37020E-02
        -0.25982E-02
        -0.13461E-02
        -0.12726E-02
        -0.69512E-03
        -0.43670E-03
        -0.40542E-03
        -0.10157E-03
        -0.52500E-03
        -0.23741E-03
        -0.18863E-03
        -0.66211E-03
        -0.43512E-03
        -0.63240E-03
         0.32701E-03
         0.14066E-02
         0.83566E-03
         0.12016E-03
         0.14008E-02
         0.26265E-03
        -0.85636E-04
         0.74979E-04
         0.34422E-03
         0.62876E-04
         0.30099E-03
         0.21075E-03
        -0.12247E-03
         0.10150E-03
        -0.42801E-03
         0.99914E-04
         0.28906E-04
         0.51330E-04
        -0.70224E-04
        -0.41884E-03
         0.28280E-03
         0.71851E-04
         0.18609E-03
         0.16087E-03
        -0.69913E-04
         0.23200E-03
         0.44039E-03
         0.10671E-02
         0.94594E-03
         0.82745E-03
         0.60649E-03
        -0.14361E-03
        -0.30786E-03
        -0.38607E-03
        -0.49430E-03
        -0.10072E-02
        -0.58670E-03
        -0.38594E-03
        -0.48197E-03
        -0.56841E-03
        -0.59319E-03
        -0.39229E-04
         0.73666E-03
        -0.10622E-02
         0.24744E-02
         0.31932E-02
         0.41173E-02
         0.49323E-02
         0.48278E-02
         0.42198E-02
         0.40470E-02
         0.40020E-02
         0.25152E-02
         0.83445E-03
         0.33093E-03
         0.28798E-03
        -0.12260E-03
        -0.11190E-02
        -0.22412E-02
        -0.31120E-02
        -0.40403E-02
        -0.44786E-02
        -0.39326E-02
        -0.37187E-02
        -0.37011E-02
        -0.25964E-02
        -0.13447E-02
        -0.12709E-02
        -0.69547E-03
        -0.43666E-03
        -0.40561E-03
        -0.10231E-03
        -0.52507E-03
        -0.23760E-03
        -0.18875E-03
        -0.66300E-03
        -0.43593E-03
        -0.63442E-03
         0.32731E-03
         0.14065E-02
         0.83595E-03
         0.12026E-03
         0.14026E-02
         0.26270E-03
        -0.86443E-04
         0.74859E-04
         0.34448E-03
         0.62442E-04
         0.30175E-03
         0.21091E-03
        -0.12265E-03
         0.10135E-03
        -0.42963E-03
         0.99542E-04
         0.29395E-04
         0.51874E-04
        -0.69334E-04
        -0.41947E-03
         0.28277E-03
         0.71420E-04
         0.18652E-03
         0.16117E-03
        -0.69181E-04
         0.23219E-03
         0.44043E-03
         0.10688E-02
         0.94808E-03
         0.82858E-03
         0.60717E-03
        -0.14287E-03
        -0.30802E-03
        -0.38663E-03
        -0.49464E-03
        -0.10074E-02
        -0.58697E-03
        -0.38593E-03
        -0.48150E-03
        -0.56768E-03
        -0.59294E-03
        -0.38545E-04
         0.73596E-03
        -0.10622E-02
         0.24748E-02
         0.31932E-02
         0.41168E-02
         0.49306E-02
         0.48257E-02
         0.42185E-02
         0.40462E-02
         0.40008E-02
         0.25147E-02
         0.83505E-03
         0.33098E-03
         0.28856E-03
        -0.12152E-03
        -0.11197E-02
        -0.22426E-02
        -0.31130E-02
        -0.40402E-02
        -0.44783E-02
        -0.39324E-02
        -0.37186E-02
        -0.37001E-02
        -0.25945E-02
        -0.13432E-02
        -0.12692E-02
        -0.69582E-03
        -0.43662E-03
        -0.40580E-03
        -0.10305E-03
        -0.52513E-03
        -0.23778E-03
        -0.18890E-03
        -0.66389E-03
        -0.43674E-03
        -0.63643E-03
         0.32760E-03
         0.14064E-02
         0.83622E-03
         0.12038E-03
         0.14044E-02
         0.26275E-03
        -0.87252E-04
         0.74739E-04
         0.34474E-03
         0.62005E-04
         0.30252E-03
         0.21105E-03
        -0.12283E-03
         0.10121E-03
        -0.43125E-03
         0.99170E-04
         0.29892E-04
         0.52409E-04
        -0.68444E-04
        -0.42009E-03
         0.28273E-03
         0.70992E-04
         0.18695E-03
         0.16146E-03
        -0.68445E-04
         0.23237E-03
         0.44046E-03
         0.10705E-02
         0.95023E-03
         0.82969E-03
         0.60785E-03
        -0.14213E-03
        -0.30817E-03
        -0.38718E-03
        -0.49497E-03
        -0.10076E-02
        -0.58725E-03
        -0.38590E-03
        -0.48104E-03
        -0.56697E-03
        -0.59271E-03
        -0.37859E-04
         0.73526E-03
        -0.10623E-02
         0.24752E-02
         0.31933E-02
         0.41163E-02
         0.49289E-02
         0.48237E-02
         0.42172E-02
         0.40453E-02
         0.39997E-02
         0.25143E-02
         0.83566E-03
         0.33103E-03
         0.28913E-03
        -0.12044E-03
        -0.11205E-02
        -0.22440E-02
        -0.31139E-02
        -0.40401E-02
        -0.44780E-02
        -0.39322E-02
        -0.37185E-02
        -0.36991E-02
        -0.25926E-02
        -0.13417E-02
        -0.12675E-02
        -0.69617E-03
        -0.43659E-03
        -0.40600E-03
        -0.10380E-03
        -0.52520E-03
        -0.23797E-03
        -0.18902E-03
        -0.66478E-03
        -0.43755E-03
        -0.63844E-03
         0.32789E-03
         0.14063E-02
         0.83650E-03
         0.12050E-03
         0.14062E-02
         0.26280E-03
        -0.88062E-04
         0.74617E-04
         0.34501E-03
         0.61572E-04
         0.30329E-03
         0.21120E-03
        -0.12301E-03
         0.10106E-03
        -0.43287E-03
         0.98801E-04
         0.30379E-04
         0.52942E-04
        -0.67554E-04
        -0.42071E-03
         0.28270E-03
         0.70562E-04
         0.18737E-03
         0.16175E-03
        -0.67706E-04
         0.23256E-03
         0.44049E-03
         0.10722E-02
         0.95237E-03
         0.83082E-03
         0.60853E-03
        -0.14139E-03
        -0.30831E-03
        -0.38774E-03
        -0.49531E-03
        -0.10079E-02
        -0.58750E-03
        -0.38589E-03
        -0.48059E-03
        -0.56626E-03
        -0.59247E-03
        -0.37174E-04
         0.73456E-03
        -0.10623E-02
         0.24756E-02
         0.31933E-02
         0.41158E-02
         0.49272E-02
         0.48216E-02
         0.42160E-02
         0.40445E-02
         0.39985E-02
         0.25139E-02
         0.83626E-03
         0.33109E-03
         0.28970E-03
        -0.11934E-03
        -0.11212E-02
        -0.22455E-02
        -0.31148E-02
        -0.40399E-02
        -0.44777E-02
        -0.39321E-02
        -0.37185E-02
        -0.36981E-02
        -0.25908E-02
        -0.13403E-02
        -0.12659E-02
        -0.69652E-03
        -0.43656E-03
        -0.40619E-03
        -0.10455E-03
        -0.52527E-03
        -0.23816E-03
        -0.18915E-03
        -0.66566E-03
        -0.43836E-03
        -0.64044E-03
         0.32818E-03
         0.14063E-02
         0.83679E-03
         0.12060E-03
         0.14080E-02
         0.26285E-03
        -0.88873E-04
         0.74494E-04
         0.34527E-03
         0.61141E-04
         0.30405E-03
         0.21135E-03
        -0.12319E-03
         0.10092E-03
        -0.43448E-03
         0.98428E-04
         0.30879E-04
         0.53469E-04
        -0.66667E-04
        -0.42133E-03
         0.28267E-03
         0.70128E-04
         0.18780E-03
         0.16205E-03
        -0.66967E-04
         0.23275E-03
         0.44052E-03
         0.10739E-02
         0.95452E-03
         0.83194E-03
         0.60921E-03
        -0.14065E-03
        -0.30846E-03
        -0.38830E-03
        -0.49566E-03
        -0.10081E-02
        -0.58778E-03
        -0.38587E-03
        -0.48013E-03
        -0.56555E-03
        -0.59222E-03
        -0.36490E-04
         0.73386E-03
        -0.10624E-02
         0.24761E-02
         0.31933E-02
         0.41153E-02
         0.49255E-02
         0.48195E-02
         0.42147E-02
         0.40437E-02
         0.39974E-02
         0.25135E-02
         0.83687E-03
         0.33113E-03
         0.29028E-03
        -0.11826E-03
        -0.11219E-02
        -0.22469E-02
        -0.31158E-02
        -0.40398E-02
        -0.44774E-02
        -0.39319E-02
        -0.37184E-02
        -0.36971E-02
        -0.25889E-02
        -0.13388E-02
        -0.12642E-02
        -0.69687E-03
        -0.43653E-03
        -0.40638E-03
        -0.10530E-03
        -0.52534E-03
        -0.23835E-03
        -0.18929E-03
        -0.66654E-03
        -0.43917E-03
        -0.64245E-03
         0.32848E-03
         0.14062E-02
         0.83706E-03
         0.12071E-03
         0.14098E-02
         0.26290E-03
        -0.89687E-04
         0.74373E-04
         0.34553E-03
         0.60709E-04
         0.30482E-03
         0.21150E-03
        -0.12337E-03
         0.10077E-03
        -0.43610E-03
         0.98054E-04
         0.31367E-04
         0.53989E-04
        -0.65783E-04
        -0.42195E-03
         0.28263E-03
         0.69698E-04
         0.18822E-03
         0.16234E-03
        -0.66224E-04
         0.23293E-03
         0.44054E-03
         0.10757E-02
         0.95667E-03
         0.83304E-03
         0.60989E-03
        -0.13991E-03
        -0.30861E-03
        -0.38886E-03
        -0.49600E-03
        -0.10083E-02
        -0.58806E-03
        -0.38585E-03
        -0.47967E-03
        -0.56484E-03
        -0.59199E-03
        -0.35811E-04
         0.73315E-03
        -0.10624E-02
         0.24765E-02
         0.31933E-02
         0.41148E-02
         0.49238E-02
         0.48174E-02
         0.42134E-02
         0.40428E-02
         0.39962E-02
         0.25131E-02
         0.83747E-03
         0.33118E-03
         0.29086E-03
        -0.11717E-03
        -0.11226E-02
        -0.22483E-02
        -0.31167E-02
        -0.40397E-02
        -0.44771E-02
        -0.39317E-02
        -0.37183E-02
        -0.36961E-02
        -0.25871E-02
        -0.13374E-02
        -0.12625E-02
        -0.69721E-03
        -0.43650E-03
        -0.40658E-03
        -0.10605E-03
        -0.52540E-03
        -0.23854E-03
        -0.18942E-03
        -0.66742E-03
        -0.43998E-03
        -0.64445E-03
         0.32877E-03
         0.14061E-02
         0.83734E-03
         0.12081E-03
         0.14117E-02
         0.26295E-03
        -0.90505E-04
         0.74252E-04
         0.34579E-03
         0.60274E-04
         0.30559E-03
         0.21165E-03
        -0.12355E-03
         0.10063E-03
        -0.43771E-03
         0.97682E-04
         0.31863E-04
         0.54499E-04
        -0.64903E-04
        -0.42257E-03
         0.28260E-03
         0.69265E-04
         0.18865E-03
         0.16264E-03
        -0.65482E-04
         0.23313E-03
         0.44057E-03
         0.10774E-02
         0.95883E-03
         0.83415E-03
         0.61057E-03
        -0.13917E-03
        -0.30876E-03
        -0.38941E-03
        -0.49634E-03
        -0.10085E-02
        -0.58832E-03
        -0.38584E-03
        -0.47921E-03
        -0.56412E-03
        -0.59175E-03
        -0.35128E-04
         0.73245E-03
        -0.10625E-02
         0.24769E-02
         0.31934E-02
         0.41143E-02
         0.49221E-02
         0.48153E-02
         0.42121E-02
         0.40420E-02
         0.39950E-02
         0.25127E-02
         0.83808E-03
         0.33123E-03
         0.29143E-03
        -0.11609E-03
        -0.11234E-02
        -0.22498E-02
        -0.31176E-02
        -0.40396E-02
        -0.44768E-02
        -0.39315E-02
        -0.37182E-02
        -0.36951E-02
        -0.25852E-02
        -0.13359E-02
        -0.12608E-02
        -0.69756E-03
        -0.43645E-03
        -0.40677E-03
        -0.10680E-03
        -0.52547E-03
        -0.23872E-03
        -0.18955E-03
        -0.66830E-03
        -0.44080E-03
        -0.64644E-03
         0.32906E-03
         0.14061E-02
         0.83763E-03
         0.12092E-03
         0.14134E-02
         0.26300E-03
        -0.91327E-04
         0.74130E-04
         0.34605E-03
         0.59841E-04
         0.30636E-03
         0.21179E-03
        -0.12373E-03
         0.10049E-03
        -0.43933E-03
         0.97309E-04
         0.32346E-04
         0.55004E-04
        -0.64026E-04
        -0.42319E-03
         0.28257E-03
         0.68836E-04
         0.18907E-03
         0.16293E-03
        -0.64733E-04
         0.23331E-03
         0.44060E-03
         0.10791E-02
         0.96097E-03
         0.83524E-03
         0.61125E-03
        -0.13844E-03
        -0.30891E-03
        -0.38996E-03
        -0.49669E-03
        -0.10088E-02
        -0.58859E-03
        -0.38581E-03
        -0.47876E-03
        -0.56341E-03
        -0.59150E-03
        -0.34444E-04
         0.73174E-03
        -0.10625E-02
         0.24773E-02
         0.31934E-02
         0.41138E-02
         0.49204E-02
         0.48132E-02
         0.42108E-02
         0.40412E-02
         0.39938E-02
         0.25123E-02
         0.83868E-03
         0.33128E-03
         0.29200E-03
        -0.11500E-03
        -0.11241E-02
        -0.22512E-02
        -0.31186E-02
        -0.40395E-02
        -0.44765E-02
        -0.39313E-02
        -0.37181E-02
        -0.36941E-02
        -0.25833E-02
        -0.13345E-02
        -0.12591E-02
        -0.69790E-03
        -0.43642E-03
        -0.40696E-03
        -0.10754E-03
        -0.52553E-03
        -0.23891E-03
        -0.18969E-03
        -0.66918E-03
        -0.44162E-03
        -0.64844E-03
         0.32936E-03
         0.14060E-02
         0.83791E-03
         0.12102E-03
         0.14153E-02
         0.26305E-03
        -0.92154E-04
         0.74006E-04
         0.34631E-03
         0.59413E-04
         0.30712E-03
         0.21193E-03
        -0.12391E-03
         0.10036E-03
        -0.44094E-03
         0.96934E-04
         0.32842E-04
         0.55503E-04
        -0.63148E-04
        -0.42379E-03
         0.28253E-03
         0.68404E-04
         0.18950E-03
         0.16323E-03
        -0.63983E-04
         0.23349E-03
         0.44062E-03
         0.10809E-02
         0.96312E-03
         0.83633E-03
         0.61192E-03
        -0.13771E-03
        -0.30907E-03
        -0.39052E-03
        -0.49704E-03
        -0.10090E-02
        -0.58887E-03
        -0.38580E-03
        -0.47830E-03
        -0.56270E-03
        -0.59127E-03
        -0.33765E-04
         0.73103E-03
        -0.10625E-02
         0.24777E-02
         0.31934E-02
         0.41133E-02
         0.49187E-02
         0.48110E-02
         0.42095E-02
         0.40404E-02
         0.39926E-02
         0.25119E-02
         0.83930E-03
         0.33132E-03
         0.29256E-03
        -0.11392E-03
        -0.11248E-02
        -0.22526E-02
        -0.31195E-02
        -0.40394E-02
        -0.44762E-02
        -0.39311E-02
        -0.37180E-02
        -0.36931E-02
        -0.25815E-02
        -0.13330E-02
        -0.12574E-02
        -0.69824E-03
        -0.43639E-03
        -0.40715E-03
        -0.10830E-03
        -0.52560E-03
        -0.23910E-03
        -0.18983E-03
        -0.67004E-03
        -0.44244E-03
        -0.65043E-03
         0.32965E-03
         0.14059E-02
         0.83818E-03
         0.12113E-03
         0.14170E-02
         0.26310E-03
        -0.92989E-04
         0.73881E-04
         0.34658E-03
         0.59004E-04
         0.30789E-03
         0.21206E-03
        -0.12409E-03
         0.10021E-03
        -0.44256E-03
         0.96563E-04
         0.33333E-04
         0.55999E-04
        -0.62272E-04
        -0.42436E-03
         0.28249E-03
         0.67966E-04
         0.18992E-03
         0.16353E-03
        -0.63234E-04
         0.23369E-03
         0.44065E-03
         0.10826E-02
         0.96526E-03
         0.83737E-03
         0.61259E-03
        -0.13697E-03
        -0.30923E-03
        -0.39108E-03
        -0.49738E-03
        -0.10092E-02
        -0.58913E-03
        -0.38579E-03
        -0.47784E-03
        -0.56199E-03
        -0.59104E-03
        -0.33086E-04
         0.73033E-03
        -0.10626E-02
         0.24781E-02
         0.31934E-02
         0.41128E-02
         0.49170E-02
         0.48089E-02
         0.42082E-02
         0.40395E-02
         0.39913E-02
         0.25115E-02
         0.83992E-03
         0.33133E-03
         0.29313E-03
        -0.11284E-03
        -0.11255E-02
        -0.22540E-02
        -0.31204E-02
        -0.40393E-02
        -0.44759E-02
        -0.39310E-02
        -0.37180E-02
        -0.36921E-02
        -0.25796E-02
        -0.13316E-02
        -0.12557E-02
        -0.69858E-03
        -0.43636E-03
        -0.40735E-03
        -0.10905E-03
        -0.52566E-03
        -0.23928E-03
        -0.18996E-03
        -0.67091E-03
        -0.44328E-03
        -0.65242E-03
         0.32994E-03
         0.14059E-02
         0.83847E-03
         0.12123E-03
         0.14189E-02
         0.26315E-03
        -0.93838E-04
         0.73755E-04
         0.34684E-03
         0.58613E-04
         0.30865E-03
         0.21219E-03
        -0.12427E-03
         0.10008E-03
        -0.44417E-03
         0.96188E-04
         0.33845E-04
         0.56489E-04
        -0.61399E-04
        -0.42489E-03
         0.28245E-03
         0.67534E-04
         0.19034E-03
         0.16382E-03
        -0.62478E-04
         0.23387E-03
         0.44068E-03
         0.10844E-02
         0.96738E-03
         0.83838E-03
         0.61324E-03
        -0.13623E-03
        -0.30940E-03
        -0.39163E-03
        -0.49773E-03
        -0.10095E-02
        -0.58941E-03
        -0.38577E-03
        -0.47739E-03
        -0.56127E-03
        -0.59079E-03
        -0.32402E-04
         0.72962E-03
        -0.10626E-02
         0.24785E-02
         0.31935E-02
         0.41123E-02
         0.49153E-02
         0.48068E-02
         0.42069E-02
         0.40387E-02
         0.39900E-02
         0.25112E-02
         0.84054E-03
         0.33132E-03
         0.29369E-03
        -0.11175E-03
        -0.11262E-02
        -0.22555E-02
        -0.31214E-02
        -0.40392E-02
        -0.44756E-02
        -0.39308E-02
        -0.37179E-02
        -0.36911E-02
        -0.25777E-02
        -0.13302E-02
        -0.12540E-02
        -0.69893E-03
        -0.43632E-03
        -0.40755E-03
        -0.10980E-03
        -0.52574E-03
        -0.23947E-03
        -0.19010E-03
        -0.67177E-03
        -0.44411E-03
        -0.65441E-03
         0.33024E-03
         0.14058E-02
         0.83875E-03
         0.12133E-03
         0.14207E-02
         0.26321E-03
        -0.94691E-04
         0.73631E-04
         0.34710E-03
         0.58232E-04
         0.30942E-03
         0.21232E-03
        -0.12443E-03
         0.99948E-04
        -0.44579E-03
         0.95827E-04
         0.34344E-04
         0.56959E-04
        -0.60536E-04
        -0.42542E-03
         0.28242E-03
         0.67111E-04
         0.19076E-03
         0.16413E-03
        -0.61730E-04
         0.23405E-03
         0.44069E-03
         0.10862E-02
         0.96950E-03
         0.83934E-03
         0.61388E-03
        -0.13551E-03
        -0.30958E-03
        -0.39217E-03
        -0.49807E-03
        -0.10097E-02
        -0.58967E-03
        -0.38575E-03
        -0.47693E-03
        -0.56056E-03
        -0.59056E-03
        -0.31723E-04
         0.72890E-03
        -0.10627E-02
         0.24789E-02
         0.31935E-02
         0.41118E-02
         0.49136E-02
         0.48047E-02
         0.42056E-02
         0.40378E-02
         0.39886E-02
         0.25109E-02
         0.84114E-03
         0.33129E-03
         0.29426E-03
        -0.11067E-03
        -0.11269E-02
        -0.22569E-02
        -0.31223E-02
        -0.40391E-02
        -0.44754E-02
        -0.39306E-02
        -0.37178E-02
        -0.36901E-02
        -0.25759E-02
        -0.13288E-02
        -0.12523E-02
        -0.70134E-03
        -0.43764E-03
        -0.40902E-03
        -0.11085E-03
        -0.52728E-03
        -0.24031E-03
        -0.19082E-03
        -0.67445E-03
        -0.44622E-03
        -0.65807E-03
         0.33140E-03
         0.14091E-02
         0.84110E-03
         0.12174E-03
         0.14258E-02
         0.26407E-03
        -0.95773E-04
         0.73733E-04
         0.34835E-03
         0.58057E-04
         0.31093E-03
         0.21300E-03
        -0.12483E-03
         0.10018E-03
        -0.44858E-03
         0.95869E-04
         0.34893E-04
         0.57473E-04
        -0.60002E-04
        -0.42716E-03
         0.28329E-03
         0.67011E-04
         0.19174E-03
         0.16491E-03
        -0.61211E-04
         0.23476E-03
         0.44180E-03
         0.10905E-02
         0.97398E-03
         0.84245E-03
         0.61600E-03
        -0.13531E-03
        -0.31064E-03
        -0.39356E-03
        -0.49954E-03
        -0.10122E-02
        -0.59132E-03
        -0.38665E-03
        -0.47776E-03
        -0.56139E-03
        -0.59185E-03
        -0.31138E-04
         0.72917E-03
        -0.10644E-02
         0.24829E-02
         0.31983E-02
         0.41176E-02
         0.49195E-02
         0.48103E-02
         0.42112E-02
         0.40435E-02
         0.39937E-02
         0.25146E-02
         0.84289E-03
         0.33172E-03
         0.29526E-03
        -0.10981E-03
        -0.11292E-02
        -0.22614E-02
        -0.31276E-02
        -0.40449E-02
        -0.44816E-02
        -0.39363E-02
        -0.37233E-02
        -0.36947E-02
        -0.25781E-02
        -0.13295E-02
        -0.12527E-02
        -0.10358E-02
        -0.64871E-03
        -0.60298E-03
        -0.16495E-03
        -0.74957E-03
        -0.34523E-03
        -0.28211E-03
        -0.99065E-03
        -0.65811E-03
        -0.96475E-03
         0.48115E-03
         0.19630E-02
         0.11906E-02
         0.17598E-03
         0.19973E-02
         0.39054E-03
        -0.14201E-03
         0.10901E-03
         0.50794E-03
         0.84592E-04
         0.44096E-03
         0.30549E-03
        -0.17718E-03
         0.14720E-03
        -0.66410E-03
         0.14204E-03
         0.51283E-04
         0.85050E-04
        -0.88357E-04
        -0.63101E-03
         0.41895E-03
         0.98718E-04
         0.28456E-03
         0.24431E-03
        -0.84167E-04
         0.33650E-03
         0.63324E-03
         0.15619E-02
         0.14154E-02
         0.12286E-02
         0.88593E-03
        -0.19573E-03
        -0.45050E-03
        -0.56315E-03
        -0.71206E-03
        -0.14002E-02
        -0.83975E-03
        -0.55597E-03
        -0.69052E-03
        -0.80753E-03
        -0.83064E-03
        -0.43865E-04
         0.89622E-03
        -0.13082E-02
         0.30511E-02
         0.39429E-02
         0.50709E-02
         0.60697E-02
         0.59994E-02
         0.52962E-02
         0.50753E-02
         0.49820E-02
         0.31419E-02
         0.10522E-02
         0.41892E-03
         0.37489E-03
        -0.13661E-03
        -0.13978E-02
        -0.27908E-02
        -0.38350E-02
        -0.49515E-02
        -0.54924E-02
        -0.48785E-02
        -0.46366E-02
        -0.45824E-02
        -0.32082E-02
        -0.16492E-02
        -0.15481E-02
  
SCALARS                      strain_xz  double 1
LOOKUP_TABLE default
        -0.47441E-04
         0.33344E-03
         0.11032E-02
        -0.76074E-04
        -0.11504E-10
         0.40790E-11
         0.13639E-10
         0.27240E-11
         0.30972E-02
         0.20716E-02
         0.40796E-10
         0.36746E-10
        -0.13140E-03
         0.53609E-03
        -0.50315E-11
        -0.23570E-10
         0.11116E-03
         0.51461E-03
        -0.17026E-10
        -0.25357E-10
         0.75122E-03
         0.12619E-02
         0.12009E-02
        -0.16932E-10
        -0.78078E-11
         0.13641E-10
         0.13331E-02
         0.10775E-02
        -0.31695E-10
        -0.25142E-10
        -0.26006E-03
         0.57512E-03
        -0.55519E-04
         0.32269E-11
        -0.12470E-10
        -0.76825E-11
        -0.76960E-03
        -0.36882E-03
        -0.18514E-10
        -0.19713E-10
        -0.15305E-02
        -0.21590E-02
        -0.41762E-10
        -0.30798E-10
        -0.16436E-02
        -0.87674E-03
        -0.45862E-10
        -0.22075E-10
         0.46625E-03
        -0.13856E-10
        -0.11251E-02
        -0.38571E-11
         0.48372E-03
        -0.27075E-10
        -0.36083E-03
        -0.71621E-11
        -0.15788E-02
        -0.43531E-03
        -0.61354E-11
        -0.14830E-10
         0.27766E-04
        -0.76470E-03
         0.12271E-10
         0.84150E-11
         0.19915E-03
        -0.12343E-11
         0.66531E-03
         0.81189E-11
         0.43541E-02
         0.29819E-02
         0.50746E-10
         0.36804E-10
         0.19154E-02
         0.26798E-10
        -0.44470E-03
        -0.18538E-10
        -0.13905E-02
        -0.36383E-11
        -0.29491E-02
        -0.56446E-11
        -0.39111E-02
        -0.27835E-02
        -0.20686E-10
        -0.23658E-10
        -0.24698E-02
        -0.25443E-10
        -0.19930E-02
        -0.36632E-10
        -0.12387E-02
        -0.23365E-10
        -0.19468E-02
        -0.14304E-02
        -0.99719E-11
         0.13675E-10
         0.32734E-03
         0.16040E-10
         0.89926E-03
         0.67351E-11
         0.21577E-02
         0.16632E-10
         0.31889E-02
         0.21901E-02
         0.38349E-10
         0.40017E-10
         0.77805E-02
         0.86328E-02
         0.70860E-10
         0.69831E-10
         0.77038E-02
         0.60536E-10
         0.70378E-02
         0.45239E-10
         0.50377E-02
         0.24861E-10
         0.36421E-02
         0.26585E-11
         0.13448E-02
        -0.94686E-11
        -0.17274E-02
        -0.75755E-11
        -0.41210E-02
        -0.74458E-11
        -0.61237E-02
        -0.16791E-10
        -0.82640E-02
        -0.31945E-10
        -0.10104E-01
        -0.38120E-10
        -0.10810E-01
        -0.35967E-10
        -0.10334E-01
        -0.39112E-10
        -0.95044E-02
        -0.50761E-10
        -0.85678E-02
        -0.59858E-10
        -0.75563E-02
        -0.55644E-10
        -0.59739E-02
        -0.45222E-10
        -0.34904E-02
        -0.21349E-10
        -0.29885E-03
         0.40766E-11
         0.19540E-02
         0.98973E-11
         0.30616E-02
         0.16184E-10
         0.45952E-02
         0.31674E-10
         0.60582E-02
         0.51974E-10
         0.79750E-02
         0.62444E-10
         0.91805E-02
         0.63869E-10
        -0.19526E-03
         0.10352E-03
         0.12115E-03
        -0.23824E-03
         0.96296E-03
         0.72905E-03
         0.11301E-03
        -0.16376E-03
        -0.81937E-04
        -0.14863E-03
         0.84852E-04
         0.36908E-03
         0.76203E-03
        -0.24352E-03
        -0.29525E-03
         0.31742E-03
         0.26755E-03
        -0.12251E-03
        -0.19737E-03
        -0.21100E-03
        -0.11639E-02
        -0.12320E-02
        -0.11248E-02
        -0.34854E-03
         0.13829E-03
        -0.10313E-03
        -0.33726E-03
        -0.37756E-04
        -0.39135E-03
        -0.26386E-03
         0.28401E-03
         0.57031E-04
        -0.13385E-03
        -0.43942E-04
         0.14628E-02
         0.91719E-03
         0.82371E-03
        -0.58190E-03
        -0.33183E-03
        -0.72015E-03
        -0.14975E-02
        -0.13606E-02
        -0.13098E-02
        -0.96611E-03
        -0.70211E-03
        -0.56167E-03
         0.10350E-03
         0.42332E-03
         0.12260E-03
         0.39500E-03
         0.10725E-02
         0.88373E-03
         0.44353E-02
         0.45744E-02
         0.41018E-02
         0.34754E-02
         0.25914E-02
         0.13335E-02
        -0.79889E-04
        -0.96166E-03
        -0.14631E-02
        -0.25147E-02
        -0.41152E-02
        -0.48821E-02
        -0.44256E-02
        -0.42272E-02
        -0.44370E-02
        -0.44145E-02
        -0.40120E-02
        -0.35439E-02
        -0.18451E-02
         0.28987E-03
         0.11033E-02
         0.12298E-02
         0.20860E-02
         0.33609E-02
         0.43027E-02
         0.45001E-02
        -0.23494E-03
         0.48228E-04
        -0.91815E-04
        -0.26734E-03
         0.54838E-03
         0.46863E-03
         0.13654E-03
        -0.29806E-03
        -0.13695E-03
        -0.28336E-03
        -0.57244E-04
         0.20886E-03
         0.68709E-03
        -0.52690E-03
        -0.54579E-03
         0.46157E-03
         0.25696E-03
        -0.15390E-03
        -0.10357E-03
        -0.18189E-03
        -0.10793E-02
        -0.10286E-02
        -0.10150E-02
        -0.24549E-03
         0.13944E-03
         0.93886E-04
        -0.50916E-03
         0.67605E-04
        -0.17040E-03
        -0.23237E-03
         0.35462E-03
         0.22947E-03
        -0.23000E-03
        -0.19850E-03
         0.97800E-03
         0.53977E-03
         0.61916E-03
        -0.60525E-03
        -0.10133E-03
        -0.29379E-03
        -0.10794E-02
        -0.11103E-02
        -0.10853E-02
        -0.78470E-03
        -0.60428E-03
        -0.35357E-03
         0.38212E-03
         0.45112E-03
        -0.59632E-04
         0.71799E-04
         0.73596E-03
         0.64830E-03
         0.40900E-02
         0.41217E-02
         0.37001E-02
         0.30517E-02
         0.22772E-02
         0.10489E-02
        -0.26041E-03
        -0.84367E-03
        -0.11114E-02
        -0.20373E-02
        -0.36187E-02
        -0.42690E-02
        -0.35795E-02
        -0.34053E-02
        -0.37518E-02
        -0.38641E-02
        -0.35269E-02
        -0.33363E-02
        -0.16998E-02
         0.44181E-03
         0.97709E-03
         0.98989E-03
         0.17600E-02
         0.30473E-02
         0.39005E-02
         0.38882E-02
        -0.23539E-03
         0.48407E-04
        -0.91989E-04
        -0.26752E-03
         0.54786E-03
         0.46820E-03
         0.13740E-03
        -0.29731E-03
        -0.13710E-03
        -0.28314E-03
        -0.56085E-04
         0.20937E-03
         0.68751E-03
        -0.52560E-03
        -0.54550E-03
         0.46205E-03
         0.25752E-03
        -0.15348E-03
        -0.10352E-03
        -0.18157E-03
        -0.10792E-02
        -0.10285E-02
        -0.10149E-02
        -0.24551E-03
         0.13975E-03
         0.94042E-04
        -0.50931E-03
         0.66334E-04
        -0.17160E-03
        -0.23252E-03
         0.35514E-03
         0.22944E-03
        -0.22904E-03
        -0.19859E-03
         0.97850E-03
         0.53953E-03
         0.61896E-03
        -0.60622E-03
        -0.10230E-03
        -0.29472E-03
        -0.10800E-02
        -0.11109E-02
        -0.10853E-02
        -0.78458E-03
        -0.60406E-03
        -0.35339E-03
         0.38205E-03
         0.45127E-03
        -0.59196E-04
         0.71554E-04
         0.73549E-03
         0.64734E-03
         0.40886E-02
         0.41206E-02
         0.36997E-02
         0.30518E-02
         0.22765E-02
         0.10486E-02
        -0.26070E-03
        -0.84419E-03
        -0.11104E-02
        -0.20365E-02
        -0.36182E-02
        -0.42690E-02
        -0.35791E-02
        -0.34051E-02
        -0.37523E-02
        -0.38649E-02
        -0.35275E-02
        -0.33370E-02
        -0.16994E-02
         0.44202E-03
         0.97637E-03
         0.98949E-03
         0.17587E-02
         0.30454E-02
         0.38986E-02
         0.38864E-02
        -0.23583E-03
         0.48583E-04
        -0.92161E-04
        -0.26770E-03
         0.54731E-03
         0.46777E-03
         0.13828E-03
        -0.29655E-03
        -0.13724E-03
        -0.28290E-03
        -0.54929E-04
         0.20988E-03
         0.68792E-03
        -0.52431E-03
        -0.54521E-03
         0.46254E-03
         0.25810E-03
        -0.15305E-03
        -0.10347E-03
        -0.18126E-03
        -0.10791E-02
        -0.10284E-02
        -0.10149E-02
        -0.24552E-03
         0.14009E-03
         0.94212E-04
        -0.50946E-03
         0.65079E-04
        -0.17280E-03
        -0.23266E-03
         0.35567E-03
         0.22942E-03
        -0.22808E-03
        -0.19868E-03
         0.97899E-03
         0.53929E-03
         0.61876E-03
        -0.60718E-03
        -0.10327E-03
        -0.29565E-03
        -0.10807E-02
        -0.11116E-02
        -0.10854E-02
        -0.78449E-03
        -0.60385E-03
        -0.35322E-03
         0.38198E-03
         0.45142E-03
        -0.58750E-04
         0.71300E-04
         0.73503E-03
         0.64639E-03
         0.40872E-02
         0.41196E-02
         0.36994E-02
         0.30518E-02
         0.22758E-02
         0.10482E-02
        -0.26100E-03
        -0.84471E-03
        -0.11095E-02
        -0.20357E-02
        -0.36176E-02
        -0.42691E-02
        -0.35788E-02
        -0.34049E-02
        -0.37528E-02
        -0.38658E-02
        -0.35281E-02
        -0.33376E-02
        -0.16989E-02
         0.44222E-03
         0.97566E-03
         0.98910E-03
         0.17574E-02
         0.30435E-02
         0.38966E-02
         0.38847E-02
        -0.23628E-03
         0.48766E-04
        -0.92331E-04
        -0.26787E-03
         0.54677E-03
         0.46734E-03
         0.13914E-03
        -0.29579E-03
        -0.13737E-03
        -0.28262E-03
        -0.53776E-04
         0.21040E-03
         0.68834E-03
        -0.52301E-03
        -0.54491E-03
         0.46308E-03
         0.25870E-03
        -0.15262E-03
        -0.10343E-03
        -0.18094E-03
        -0.10790E-02
        -0.10283E-02
        -0.10149E-02
        -0.24553E-03
         0.14049E-03
         0.94421E-04
        -0.50958E-03
         0.63862E-04
        -0.17400E-03
        -0.23280E-03
         0.35624E-03
         0.22944E-03
        -0.22711E-03
        -0.19877E-03
         0.97947E-03
         0.53905E-03
         0.61856E-03
        -0.60815E-03
        -0.10424E-03
        -0.29658E-03
        -0.10814E-02
        -0.11123E-02
        -0.10855E-02
        -0.78441E-03
        -0.60362E-03
        -0.35303E-03
         0.38192E-03
         0.45157E-03
        -0.58303E-04
         0.71047E-04
         0.73455E-03
         0.64543E-03
         0.40858E-02
         0.41185E-02
         0.36991E-02
         0.30518E-02
         0.22751E-02
         0.10479E-02
        -0.26130E-03
        -0.84523E-03
        -0.11086E-02
        -0.20349E-02
        -0.36171E-02
        -0.42693E-02
        -0.35786E-02
        -0.34048E-02
        -0.37534E-02
        -0.38668E-02
        -0.35288E-02
        -0.33383E-02
        -0.16984E-02
         0.44242E-03
         0.97494E-03
         0.98872E-03
         0.17561E-02
         0.30417E-02
         0.38947E-02
         0.38830E-02
        -0.23672E-03
         0.48948E-04
        -0.92502E-04
        -0.26805E-03
         0.54625E-03
         0.46691E-03
         0.14001E-03
        -0.29503E-03
        -0.13747E-03
        -0.28230E-03
        -0.52620E-04
         0.21091E-03
         0.68876E-03
        -0.52171E-03
        -0.54462E-03
         0.46365E-03
         0.25932E-03
        -0.15218E-03
        -0.10337E-03
        -0.18061E-03
        -0.10790E-02
        -0.10282E-02
        -0.10149E-02
        -0.24555E-03
         0.14095E-03
         0.94659E-04
        -0.50969E-03
         0.62685E-04
        -0.17520E-03
        -0.23293E-03
         0.35685E-03
         0.22950E-03
        -0.22614E-03
        -0.19886E-03
         0.97997E-03
         0.53881E-03
         0.61837E-03
        -0.60912E-03
        -0.10520E-03
        -0.29751E-03
        -0.10822E-02
        -0.11130E-02
        -0.10858E-02
        -0.78437E-03
        -0.60338E-03
        -0.35283E-03
         0.38188E-03
         0.45174E-03
        -0.57859E-04
         0.70797E-04
         0.73409E-03
         0.64447E-03
         0.40844E-02
         0.41174E-02
         0.36987E-02
         0.30518E-02
         0.22744E-02
         0.10476E-02
        -0.26159E-03
        -0.84576E-03
        -0.11076E-02
        -0.20341E-02
        -0.36165E-02
        -0.42694E-02
        -0.35784E-02
        -0.34047E-02
        -0.37539E-02
        -0.38679E-02
        -0.35296E-02
        -0.33389E-02
        -0.16979E-02
         0.44262E-03
         0.97423E-03
         0.98833E-03
         0.17548E-02
         0.30398E-02
         0.38927E-02
         0.38812E-02
        -0.23714E-03
         0.49145E-04
        -0.92653E-04
        -0.26822E-03
         0.54571E-03
         0.46648E-03
         0.14088E-03
        -0.29425E-03
        -0.13757E-03
        -0.28197E-03
        -0.51463E-04
         0.21141E-03
         0.68917E-03
        -0.52041E-03
        -0.54432E-03
         0.46423E-03
         0.25995E-03
        -0.15175E-03
        -0.10331E-03
        -0.18030E-03
        -0.10790E-02
        -0.10282E-02
        -0.10150E-02
        -0.24557E-03
         0.14141E-03
         0.94906E-04
        -0.50978E-03
         0.61514E-04
        -0.17640E-03
        -0.23308E-03
         0.35746E-03
         0.22955E-03
        -0.22515E-03
        -0.19894E-03
         0.98048E-03
         0.53859E-03
         0.61819E-03
        -0.61008E-03
        -0.10617E-03
        -0.29845E-03
        -0.10829E-02
        -0.11138E-02
        -0.10860E-02
        -0.78433E-03
        -0.60316E-03
        -0.35265E-03
         0.38183E-03
         0.45190E-03
        -0.57402E-04
         0.70568E-04
         0.73364E-03
         0.64354E-03
         0.40830E-02
         0.41164E-02
         0.36984E-02
         0.30518E-02
         0.22737E-02
         0.10473E-02
        -0.26188E-03
        -0.84628E-03
        -0.11067E-02
        -0.20333E-02
        -0.36159E-02
        -0.42696E-02
        -0.35783E-02
        -0.34046E-02
        -0.37545E-02
        -0.38691E-02
        -0.35304E-02
        -0.33395E-02
        -0.16975E-02
         0.44280E-03
         0.97350E-03
         0.98794E-03
         0.17535E-02
         0.30379E-02
         0.38908E-02
         0.38795E-02
        -0.23753E-03
         0.49382E-04
        -0.92771E-04
        -0.26839E-03
         0.54519E-03
         0.46606E-03
         0.14177E-03
        -0.29346E-03
        -0.13768E-03
        -0.28165E-03
        -0.50301E-04
         0.21193E-03
         0.68960E-03
        -0.51911E-03
        -0.54402E-03
         0.46482E-03
         0.26055E-03
        -0.15131E-03
        -0.10326E-03
        -0.18000E-03
        -0.10790E-02
        -0.10282E-02
        -0.10151E-02
        -0.24560E-03
         0.14182E-03
         0.95123E-04
        -0.50989E-03
         0.60317E-04
        -0.17762E-03
        -0.23325E-03
         0.35803E-03
         0.22956E-03
        -0.22415E-03
        -0.19899E-03
         0.98098E-03
         0.53839E-03
         0.61802E-03
        -0.61103E-03
        -0.10714E-03
        -0.29941E-03
        -0.10836E-02
        -0.11146E-02
        -0.10863E-02
        -0.78431E-03
        -0.60296E-03
        -0.35249E-03
         0.38174E-03
         0.45206E-03
        -0.56906E-04
         0.70390E-04
         0.73324E-03
         0.64260E-03
         0.40816E-02
         0.41153E-02
         0.36981E-02
         0.30518E-02
         0.22730E-02
         0.10470E-02
        -0.26217E-03
        -0.84680E-03
        -0.11058E-02
        -0.20325E-02
        -0.36153E-02
        -0.42698E-02
        -0.35781E-02
        -0.34044E-02
        -0.37551E-02
        -0.38703E-02
        -0.35312E-02
        -0.33401E-02
        -0.16970E-02
         0.44295E-03
         0.97275E-03
         0.98756E-03
         0.17523E-02
         0.30361E-02
         0.38889E-02
         0.38778E-02
        -0.23790E-03
         0.49632E-04
        -0.92872E-04
        -0.26855E-03
         0.54469E-03
         0.46562E-03
         0.14267E-03
        -0.29265E-03
        -0.13779E-03
        -0.28135E-03
        -0.49136E-04
         0.21244E-03
         0.69003E-03
        -0.51781E-03
        -0.54372E-03
         0.46540E-03
         0.26114E-03
        -0.15087E-03
        -0.10321E-03
        -0.17971E-03
        -0.10790E-02
        -0.10281E-02
        -0.10152E-02
        -0.24562E-03
         0.14220E-03
         0.95326E-04
        -0.51000E-03
         0.59112E-04
        -0.17885E-03
        -0.23344E-03
         0.35859E-03
         0.22954E-03
        -0.22314E-03
        -0.19904E-03
         0.98152E-03
         0.53822E-03
         0.61787E-03
        -0.61199E-03
        -0.10811E-03
        -0.30036E-03
        -0.10844E-02
        -0.11154E-02
        -0.10865E-02
        -0.78431E-03
        -0.60278E-03
        -0.35236E-03
         0.38164E-03
         0.45220E-03
        -0.56394E-04
         0.70236E-04
         0.73286E-03
         0.64169E-03
         0.40802E-02
         0.41143E-02
         0.36977E-02
         0.30519E-02
         0.22723E-02
         0.10466E-02
        -0.26246E-03
        -0.84731E-03
        -0.11048E-02
        -0.20317E-02
        -0.36147E-02
        -0.42699E-02
        -0.35780E-02
        -0.34043E-02
        -0.37557E-02
        -0.38715E-02
        -0.35320E-02
        -0.33407E-02
        -0.16965E-02
         0.44309E-03
         0.97199E-03
         0.98718E-03
         0.17510E-02
         0.30343E-02
         0.38869E-02
         0.38760E-02
        -0.23828E-03
         0.49884E-04
        -0.92970E-04
        -0.26871E-03
         0.54417E-03
         0.46519E-03
         0.14356E-03
        -0.29185E-03
        -0.13791E-03
        -0.28106E-03
        -0.47975E-04
         0.21295E-03
         0.69047E-03
        -0.51651E-03
        -0.54342E-03
         0.46598E-03
         0.26173E-03
        -0.15043E-03
        -0.10315E-03
        -0.17941E-03
        -0.10789E-02
        -0.10281E-02
        -0.10153E-02
        -0.24566E-03
         0.14257E-03
         0.95528E-04
        -0.51012E-03
         0.57910E-04
        -0.18008E-03
        -0.23362E-03
         0.35915E-03
         0.22953E-03
        -0.22212E-03
        -0.19909E-03
         0.98206E-03
         0.53803E-03
         0.61772E-03
        -0.61294E-03
        -0.10909E-03
        -0.30131E-03
        -0.10851E-02
        -0.11161E-02
        -0.10868E-02
        -0.78431E-03
        -0.60261E-03
        -0.35223E-03
         0.38154E-03
         0.45234E-03
        -0.55882E-04
         0.70089E-04
         0.73249E-03
         0.64076E-03
         0.40788E-02
         0.41132E-02
         0.36974E-02
         0.30519E-02
         0.22716E-02
         0.10463E-02
        -0.26275E-03
        -0.84782E-03
        -0.11039E-02
        -0.20309E-02
        -0.36141E-02
        -0.42701E-02
        -0.35778E-02
        -0.34042E-02
        -0.37564E-02
        -0.38726E-02
        -0.35328E-02
        -0.33413E-02
        -0.16960E-02
         0.44323E-03
         0.97123E-03
         0.98680E-03
         0.17498E-02
         0.30324E-02
         0.38850E-02
         0.38743E-02
        -0.23865E-03
         0.50140E-04
        -0.93069E-04
        -0.26887E-03
         0.54366E-03
         0.46476E-03
         0.14446E-03
        -0.29105E-03
        -0.13802E-03
        -0.28076E-03
        -0.46814E-04
         0.21346E-03
         0.69090E-03
        -0.51522E-03
        -0.54311E-03
         0.46656E-03
         0.26232E-03
        -0.15000E-03
        -0.10310E-03
        -0.17913E-03
        -0.10789E-02
        -0.10281E-02
        -0.10154E-02
        -0.24569E-03
         0.14295E-03
         0.95729E-04
        -0.51024E-03
         0.56714E-04
        -0.18131E-03
        -0.23381E-03
         0.35970E-03
         0.22951E-03
        -0.22111E-03
        -0.19914E-03
         0.98258E-03
         0.53785E-03
         0.61758E-03
        -0.61389E-03
        -0.11007E-03
        -0.30227E-03
        -0.10859E-02
        -0.11169E-02
        -0.10871E-02
        -0.78431E-03
        -0.60243E-03
        -0.35208E-03
         0.38144E-03
         0.45248E-03
        -0.55374E-04
         0.69930E-04
         0.73210E-03
         0.63984E-03
         0.40773E-02
         0.41122E-02
         0.36970E-02
         0.30519E-02
         0.22709E-02
         0.10460E-02
        -0.26304E-03
        -0.84833E-03
        -0.11030E-02
        -0.20301E-02
        -0.36135E-02
        -0.42703E-02
        -0.35777E-02
        -0.34041E-02
        -0.37570E-02
        -0.38738E-02
        -0.35336E-02
        -0.33419E-02
        -0.16955E-02
         0.44337E-03
         0.97046E-03
         0.98641E-03
         0.17485E-02
         0.30306E-02
         0.38831E-02
         0.38726E-02
        -0.23902E-03
         0.50392E-04
        -0.93172E-04
        -0.26903E-03
         0.54316E-03
         0.46434E-03
         0.14535E-03
        -0.29025E-03
        -0.13814E-03
        -0.28046E-03
        -0.45651E-04
         0.21398E-03
         0.69134E-03
        -0.51393E-03
        -0.54281E-03
         0.46714E-03
         0.26291E-03
        -0.14957E-03
        -0.10305E-03
        -0.17882E-03
        -0.10789E-02
        -0.10280E-02
        -0.10154E-02
        -0.24572E-03
         0.14333E-03
         0.95928E-04
        -0.51037E-03
         0.55517E-04
        -0.18254E-03
        -0.23399E-03
         0.36026E-03
         0.22950E-03
        -0.22010E-03
        -0.19918E-03
         0.98312E-03
         0.53767E-03
         0.61743E-03
        -0.61484E-03
        -0.11104E-03
        -0.30322E-03
        -0.10866E-02
        -0.11177E-02
        -0.10873E-02
        -0.78430E-03
        -0.60225E-03
        -0.35196E-03
         0.38134E-03
         0.45263E-03
        -0.54860E-04
         0.69775E-04
         0.73173E-03
         0.63892E-03
         0.40759E-02
         0.41111E-02
         0.36966E-02
         0.30519E-02
         0.22702E-02
         0.10457E-02
        -0.26331E-03
        -0.84884E-03
        -0.11020E-02
        -0.20293E-02
        -0.36130E-02
        -0.42705E-02
        -0.35776E-02
        -0.34040E-02
        -0.37576E-02
        -0.38750E-02
        -0.35344E-02
        -0.33424E-02
        -0.16950E-02
         0.44350E-03
         0.96970E-03
         0.98603E-03
         0.17473E-02
         0.30287E-02
         0.38812E-02
         0.38708E-02
        -0.23939E-03
         0.50644E-04
        -0.93268E-04
        -0.26919E-03
         0.54265E-03
         0.46391E-03
         0.14625E-03
        -0.28945E-03
        -0.13825E-03
        -0.28017E-03
        -0.44491E-04
         0.21449E-03
         0.69176E-03
        -0.51264E-03
        -0.54250E-03
         0.46771E-03
         0.26349E-03
        -0.14913E-03
        -0.10300E-03
        -0.17854E-03
        -0.10789E-02
        -0.10280E-02
        -0.10155E-02
        -0.24576E-03
         0.14370E-03
         0.96134E-04
        -0.51048E-03
         0.54326E-04
        -0.18375E-03
        -0.23418E-03
         0.36082E-03
         0.22948E-03
        -0.21909E-03
        -0.19923E-03
         0.98367E-03
         0.53749E-03
         0.61728E-03
        -0.61579E-03
        -0.11202E-03
        -0.30418E-03
        -0.10874E-02
        -0.11185E-02
        -0.10876E-02
        -0.78430E-03
        -0.60208E-03
        -0.35183E-03
         0.38124E-03
         0.45278E-03
        -0.54346E-04
         0.69628E-04
         0.73134E-03
         0.63799E-03
         0.40745E-02
         0.41101E-02
         0.36963E-02
         0.30519E-02
         0.22695E-02
         0.10454E-02
        -0.26360E-03
        -0.84936E-03
        -0.11011E-02
        -0.20285E-02
        -0.36124E-02
        -0.42706E-02
        -0.35774E-02
        -0.34039E-02
        -0.37582E-02
        -0.38762E-02
        -0.35352E-02
        -0.33430E-02
        -0.16945E-02
         0.44364E-03
         0.96893E-03
         0.98565E-03
         0.17460E-02
         0.30269E-02
         0.38793E-02
         0.38691E-02
        -0.23977E-03
         0.50899E-04
        -0.93364E-04
        -0.26935E-03
         0.54214E-03
         0.46348E-03
         0.14714E-03
        -0.28865E-03
        -0.13836E-03
        -0.27986E-03
        -0.43334E-04
         0.21500E-03
         0.69220E-03
        -0.51135E-03
        -0.54219E-03
         0.46829E-03
         0.26408E-03
        -0.14869E-03
        -0.10295E-03
        -0.17824E-03
        -0.10789E-02
        -0.10280E-02
        -0.10156E-02
        -0.24580E-03
         0.14407E-03
         0.96334E-04
        -0.51060E-03
         0.53132E-04
        -0.18497E-03
        -0.23436E-03
         0.36137E-03
         0.22946E-03
        -0.21807E-03
        -0.19928E-03
         0.98419E-03
         0.53732E-03
         0.61714E-03
        -0.61673E-03
        -0.11301E-03
        -0.30514E-03
        -0.10882E-02
        -0.11193E-02
        -0.10878E-02
        -0.78431E-03
        -0.60191E-03
        -0.35168E-03
         0.38114E-03
         0.45292E-03
        -0.53830E-04
         0.69473E-04
         0.73095E-03
         0.63707E-03
         0.40731E-02
         0.41090E-02
         0.36959E-02
         0.30519E-02
         0.22688E-02
         0.10450E-02
        -0.26388E-03
        -0.84986E-03
        -0.11002E-02
        -0.20276E-02
        -0.36118E-02
        -0.42708E-02
        -0.35773E-02
        -0.34038E-02
        -0.37588E-02
        -0.38774E-02
        -0.35360E-02
        -0.33436E-02
        -0.16940E-02
         0.44377E-03
         0.96817E-03
         0.98527E-03
         0.17448E-02
         0.30251E-02
         0.38774E-02
         0.38674E-02
        -0.24014E-03
         0.51150E-04
        -0.93460E-04
        -0.26951E-03
         0.54164E-03
         0.46304E-03
         0.14803E-03
        -0.28784E-03
        -0.13847E-03
        -0.27956E-03
        -0.42180E-04
         0.21551E-03
         0.69263E-03
        -0.51006E-03
        -0.54188E-03
         0.46887E-03
         0.26467E-03
        -0.14826E-03
        -0.10291E-03
        -0.17795E-03
        -0.10789E-02
        -0.10279E-02
        -0.10157E-02
        -0.24583E-03
         0.14444E-03
         0.96534E-04
        -0.51071E-03
         0.51946E-04
        -0.18620E-03
        -0.23454E-03
         0.36193E-03
         0.22945E-03
        -0.21705E-03
        -0.19933E-03
         0.98474E-03
         0.53714E-03
         0.61699E-03
        -0.61767E-03
        -0.11399E-03
        -0.30610E-03
        -0.10889E-02
        -0.11200E-02
        -0.10881E-02
        -0.78430E-03
        -0.60173E-03
        -0.35155E-03
         0.38104E-03
         0.45306E-03
        -0.53315E-04
         0.69318E-04
         0.73058E-03
         0.63615E-03
         0.40717E-02
         0.41080E-02
         0.36956E-02
         0.30519E-02
         0.22681E-02
         0.10447E-02
        -0.26417E-03
        -0.85035E-03
        -0.10992E-02
        -0.20268E-02
        -0.36112E-02
        -0.42710E-02
        -0.35771E-02
        -0.34037E-02
        -0.37594E-02
        -0.38786E-02
        -0.35368E-02
        -0.33442E-02
        -0.16935E-02
         0.44390E-03
         0.96740E-03
         0.98490E-03
         0.17435E-02
         0.30232E-02
         0.38754E-02
         0.38657E-02
        -0.24051E-03
         0.51399E-04
        -0.93557E-04
        -0.26967E-03
         0.54113E-03
         0.46261E-03
         0.14892E-03
        -0.28704E-03
        -0.13858E-03
        -0.27926E-03
        -0.41026E-04
         0.21603E-03
         0.69306E-03
        -0.50877E-03
        -0.54157E-03
         0.46944E-03
         0.26525E-03
        -0.14782E-03
        -0.10286E-03
        -0.17765E-03
        -0.10788E-02
        -0.10279E-02
        -0.10158E-02
        -0.24587E-03
         0.14480E-03
         0.96734E-04
        -0.51082E-03
         0.50760E-04
        -0.18742E-03
        -0.23471E-03
         0.36248E-03
         0.22942E-03
        -0.21603E-03
        -0.19938E-03
         0.98526E-03
         0.53697E-03
         0.61685E-03
        -0.61860E-03
        -0.11498E-03
        -0.30706E-03
        -0.10897E-02
        -0.11208E-02
        -0.10884E-02
        -0.78430E-03
        -0.60155E-03
        -0.35142E-03
         0.38094E-03
         0.45321E-03
        -0.52793E-04
         0.69168E-04
         0.73019E-03
         0.63522E-03
         0.40703E-02
         0.41069E-02
         0.36952E-02
         0.30519E-02
         0.22674E-02
         0.10444E-02
        -0.26444E-03
        -0.85084E-03
        -0.10983E-02
        -0.20260E-02
        -0.36106E-02
        -0.42712E-02
        -0.35770E-02
        -0.34035E-02
        -0.37600E-02
        -0.38798E-02
        -0.35377E-02
        -0.33447E-02
        -0.16930E-02
         0.44403E-03
         0.96664E-03
         0.98452E-03
         0.17423E-02
         0.30214E-02
         0.38735E-02
         0.38639E-02
        -0.24089E-03
         0.51654E-04
        -0.93653E-04
        -0.26982E-03
         0.54062E-03
         0.46219E-03
         0.14980E-03
        -0.28624E-03
        -0.13869E-03
        -0.27896E-03
        -0.39871E-04
         0.21655E-03
         0.69350E-03
        -0.50749E-03
        -0.54125E-03
         0.47002E-03
         0.26584E-03
        -0.14739E-03
        -0.10281E-03
        -0.17736E-03
        -0.10788E-02
        -0.10279E-02
        -0.10159E-02
        -0.24591E-03
         0.14516E-03
         0.96935E-04
        -0.51094E-03
         0.49575E-04
        -0.18864E-03
        -0.23489E-03
         0.36303E-03
         0.22941E-03
        -0.21502E-03
        -0.19942E-03
         0.98581E-03
         0.53679E-03
         0.61670E-03
        -0.61953E-03
        -0.11596E-03
        -0.30801E-03
        -0.10904E-02
        -0.11216E-02
        -0.10886E-02
        -0.78429E-03
        -0.60138E-03
        -0.35128E-03
         0.38084E-03
         0.45335E-03
        -0.52276E-04
         0.69011E-04
         0.72982E-03
         0.63429E-03
         0.40689E-02
         0.41059E-02
         0.36949E-02
         0.30519E-02
         0.22667E-02
         0.10441E-02
        -0.26472E-03
        -0.85133E-03
        -0.10974E-02
        -0.20252E-02
        -0.36100E-02
        -0.42713E-02
        -0.35768E-02
        -0.34034E-02
        -0.37606E-02
        -0.38810E-02
        -0.35385E-02
        -0.33453E-02
        -0.16925E-02
         0.44416E-03
         0.96587E-03
         0.98415E-03
         0.17410E-02
         0.30196E-02
         0.38716E-02
         0.38622E-02
        -0.24126E-03
         0.51906E-04
        -0.93751E-04
        -0.26998E-03
         0.54013E-03
         0.46176E-03
         0.15069E-03
        -0.28543E-03
        -0.13879E-03
        -0.27865E-03
        -0.38717E-04
         0.21706E-03
         0.69393E-03
        -0.50620E-03
        -0.54093E-03
         0.47060E-03
         0.26642E-03
        -0.14696E-03
        -0.10276E-03
        -0.17707E-03
        -0.10788E-02
        -0.10278E-02
        -0.10160E-02
        -0.24595E-03
         0.14552E-03
         0.97134E-04
        -0.51104E-03
         0.48379E-04
        -0.18984E-03
        -0.23507E-03
         0.36359E-03
         0.22939E-03
        -0.21400E-03
        -0.19948E-03
         0.98636E-03
         0.53661E-03
         0.61655E-03
        -0.62046E-03
        -0.11696E-03
        -0.30898E-03
        -0.10911E-02
        -0.11223E-02
        -0.10889E-02
        -0.78429E-03
        -0.60120E-03
        -0.35115E-03
         0.38074E-03
         0.45350E-03
        -0.51760E-04
         0.68856E-04
         0.72943E-03
         0.63338E-03
         0.40675E-02
         0.41049E-02
         0.36945E-02
         0.30519E-02
         0.22659E-02
         0.10437E-02
        -0.26498E-03
        -0.85182E-03
        -0.10964E-02
        -0.20244E-02
        -0.36094E-02
        -0.42716E-02
        -0.35767E-02
        -0.34033E-02
        -0.37612E-02
        -0.38821E-02
        -0.35393E-02
        -0.33459E-02
        -0.16920E-02
         0.44429E-03
         0.96511E-03
         0.98376E-03
         0.17398E-02
         0.30177E-02
         0.38697E-02
         0.38605E-02
        -0.24164E-03
         0.52157E-04
        -0.93845E-04
        -0.27014E-03
         0.53962E-03
         0.46133E-03
         0.15158E-03
        -0.28463E-03
        -0.13889E-03
        -0.27830E-03
        -0.37564E-04
         0.21758E-03
         0.69436E-03
        -0.50491E-03
        -0.54060E-03
         0.47117E-03
         0.26701E-03
        -0.14653E-03
        -0.10272E-03
        -0.17678E-03
        -0.10788E-02
        -0.10278E-02
        -0.10161E-02
        -0.24598E-03
         0.14585E-03
         0.97341E-04
        -0.51110E-03
         0.47153E-04
        -0.19106E-03
        -0.23526E-03
         0.36415E-03
         0.22937E-03
        -0.21298E-03
        -0.19953E-03
         0.98689E-03
         0.53644E-03
         0.61641E-03
        -0.62136E-03
        -0.11799E-03
        -0.30993E-03
        -0.10918E-02
        -0.11230E-02
        -0.10891E-02
        -0.78430E-03
        -0.60103E-03
        -0.35101E-03
         0.38064E-03
         0.45364E-03
        -0.51247E-04
         0.68701E-04
         0.72906E-03
         0.63245E-03
         0.40660E-02
         0.41038E-02
         0.36941E-02
         0.30519E-02
         0.22652E-02
         0.10434E-02
        -0.26526E-03
        -0.85231E-03
        -0.10955E-02
        -0.20236E-02
        -0.36088E-02
        -0.42719E-02
        -0.35767E-02
        -0.34032E-02
        -0.37618E-02
        -0.38833E-02
        -0.35401E-02
        -0.33464E-02
        -0.16915E-02
         0.44442E-03
         0.96435E-03
         0.98338E-03
         0.17386E-02
         0.30159E-02
         0.38678E-02
         0.38588E-02
        -0.24201E-03
         0.52406E-04
        -0.93939E-04
        -0.27029E-03
         0.53911E-03
         0.46090E-03
         0.15246E-03
        -0.28383E-03
        -0.13897E-03
        -0.27792E-03
        -0.36415E-04
         0.21809E-03
         0.69480E-03
        -0.50360E-03
        -0.54027E-03
         0.47175E-03
         0.26758E-03
        -0.14610E-03
        -0.10268E-03
        -0.17649E-03
        -0.10788E-02
        -0.10277E-02
        -0.10162E-02
        -0.24602E-03
         0.14615E-03
         0.97539E-04
        -0.51112E-03
         0.45889E-04
        -0.19227E-03
        -0.23544E-03
         0.36470E-03
         0.22935E-03
        -0.21196E-03
        -0.19957E-03
         0.98744E-03
         0.53627E-03
         0.61627E-03
        -0.62225E-03
        -0.11905E-03
        -0.31088E-03
        -0.10924E-02
        -0.11237E-02
        -0.10893E-02
        -0.78429E-03
        -0.60086E-03
        -0.35088E-03
         0.38054E-03
         0.45379E-03
        -0.50726E-04
         0.68548E-04
         0.72867E-03
         0.63152E-03
         0.40646E-02
         0.41028E-02
         0.36938E-02
         0.30519E-02
         0.22645E-02
         0.10431E-02
        -0.26552E-03
        -0.85280E-03
        -0.10946E-02
        -0.20227E-02
        -0.36082E-02
        -0.42723E-02
        -0.35767E-02
        -0.34031E-02
        -0.37624E-02
        -0.38845E-02
        -0.35409E-02
        -0.33470E-02
        -0.16910E-02
         0.44455E-03
         0.96359E-03
         0.98300E-03
         0.17373E-02
         0.30141E-02
         0.38659E-02
         0.38570E-02
        -0.24238E-03
         0.52657E-04
        -0.94036E-04
        -0.27045E-03
         0.53861E-03
         0.46048E-03
         0.15334E-03
        -0.28303E-03
        -0.13905E-03
        -0.27753E-03
        -0.35274E-04
         0.21860E-03
         0.69522E-03
        -0.50230E-03
        -0.53993E-03
         0.47232E-03
         0.26816E-03
        -0.14567E-03
        -0.10263E-03
        -0.17620E-03
        -0.10788E-02
        -0.10277E-02
        -0.10162E-02
        -0.24606E-03
         0.14644E-03
         0.97736E-04
        -0.51113E-03
         0.44622E-04
        -0.19348E-03
        -0.23562E-03
         0.36526E-03
         0.22934E-03
        -0.21095E-03
        -0.19963E-03
         0.98799E-03
         0.53610E-03
         0.61612E-03
        -0.62312E-03
        -0.12011E-03
        -0.31181E-03
        -0.10930E-02
        -0.11243E-02
        -0.10895E-02
        -0.78429E-03
        -0.60068E-03
        -0.35075E-03
         0.38045E-03
         0.45395E-03
        -0.50212E-04
         0.68388E-04
         0.72830E-03
         0.63061E-03
         0.40632E-02
         0.41018E-02
         0.36934E-02
         0.30519E-02
         0.22638E-02
         0.10428E-02
        -0.26579E-03
        -0.85326E-03
        -0.10937E-02
        -0.20218E-02
        -0.36076E-02
        -0.42728E-02
        -0.35767E-02
        -0.34030E-02
        -0.37630E-02
        -0.38857E-02
        -0.35417E-02
        -0.33476E-02
        -0.16905E-02
         0.44469E-03
         0.96284E-03
         0.98262E-03
         0.17361E-02
         0.30122E-02
         0.38640E-02
         0.38553E-02
        -0.24346E-03
         0.53010E-04
        -0.94415E-04
        -0.27139E-03
         0.53950E-03
         0.46132E-03
         0.15455E-03
        -0.28312E-03
        -0.13953E-03
        -0.27800E-03
        -0.34375E-04
         0.21950E-03
         0.69731E-03
        -0.50246E-03
        -0.54097E-03
         0.47423E-03
         0.26948E-03
        -0.14571E-03
        -0.10284E-03
        -0.17637E-03
        -0.10814E-02
        -0.10303E-02
        -0.10188E-02
        -0.24678E-03
         0.14712E-03
         0.98195E-04
        -0.51257E-03
         0.43556E-04
        -0.19511E-03
        -0.23642E-03
         0.36685E-03
         0.22996E-03
        -0.21064E-03
        -0.20027E-03
         0.99092E-03
         0.53735E-03
         0.61757E-03
        -0.62555E-03
        -0.12139E-03
        -0.31346E-03
        -0.10963E-02
        -0.11278E-02
        -0.10925E-02
        -0.78626E-03
        -0.60203E-03
        -0.35142E-03
         0.38136E-03
         0.45536E-03
        -0.49893E-04
         0.68413E-04
         0.72979E-03
         0.63142E-03
         0.40679E-02
         0.41068E-02
         0.36986E-02
         0.30565E-02
         0.22666E-02
         0.10439E-02
        -0.26654E-03
        -0.85497E-03
        -0.10946E-02
        -0.20241E-02
        -0.36128E-02
        -0.42800E-02
        -0.35826E-02
        -0.34086E-02
        -0.37695E-02
        -0.38925E-02
        -0.35476E-02
        -0.33529E-02
        -0.16925E-02
         0.44558E-03
         0.96373E-03
         0.98378E-03
         0.17376E-02
         0.30152E-02
         0.38681E-02
         0.38595E-02
        -0.35974E-03
         0.78823E-04
        -0.13919E-03
        -0.40181E-03
         0.76609E-03
         0.66166E-03
         0.22902E-03
        -0.41509E-03
        -0.20555E-03
        -0.40690E-03
        -0.49179E-04
         0.30589E-03
         0.98708E-03
        -0.72504E-03
        -0.75714E-03
         0.70151E-03
         0.39736E-03
        -0.21538E-03
        -0.14988E-03
        -0.25750E-03
        -0.15308E-02
        -0.14768E-02
        -0.14468E-02
        -0.36262E-03
         0.21748E-03
         0.14562E-03
        -0.74623E-03
         0.63190E-04
        -0.28989E-03
        -0.34892E-03
         0.54288E-03
         0.33909E-03
        -0.31112E-03
        -0.29642E-03
         0.13805E-02
         0.76987E-03
         0.88521E-03
        -0.89635E-03
        -0.17703E-03
        -0.45754E-03
        -0.15765E-02
        -0.16344E-02
        -0.15828E-02
        -0.11247E-02
        -0.85797E-03
        -0.48604E-03
         0.54147E-03
         0.65556E-03
        -0.71705E-04
         0.98360E-04
         0.10239E-02
         0.90261E-03
         0.50038E-02
         0.50449E-02
         0.45447E-02
         0.37682E-02
         0.27911E-02
         0.12876E-02
        -0.33294E-03
        -0.10755E-02
        -0.13732E-02
        -0.25246E-02
        -0.45140E-02
        -0.53427E-02
        -0.45267E-02
        -0.43230E-02
        -0.47199E-02
        -0.48183E-02
        -0.43776E-02
        -0.41110E-02
        -0.20715E-02
         0.54645E-03
         0.11942E-02
         0.12249E-02
         0.21548E-02
         0.37525E-02
         0.48000E-02
         0.47723E-02
  
SCALARS                      strain_xy  double 1
LOOKUP_TABLE default
        -0.60129E-08
        -0.14014E-07
        -0.12070E-06
         0.42959E-08
        -0.60169E-22
         0.58801E-23
         0.88408E-22
         0.13467E-22
        -0.12676E-05
         0.55821E-06
         0.39353E-21
         0.31207E-21
         0.46964E-07
        -0.97409E-08
         0.34735E-22
        -0.10432E-22
         0.13790E-07
         0.23571E-06
         0.17293E-23
         0.26352E-22
        -0.17791E-06
        -0.11218E-05
        -0.11148E-05
         0.26795E-21
         0.21339E-21
        -0.31161E-21
        -0.11682E-06
        -0.96717E-06
         0.36079E-21
         0.55523E-21
        -0.36863E-07
         0.70774E-07
         0.58492E-08
        -0.19043E-22
         0.75123E-22
        -0.96086E-24
        -0.32345E-06
        -0.14859E-06
         0.20106E-21
         0.16656E-21
        -0.63103E-06
        -0.56431E-06
         0.34274E-21
         0.23099E-21
        -0.61667E-06
        -0.11358E-06
        -0.12486E-22
         0.92957E-22
         0.16068E-06
         0.27472E-22
        -0.38674E-07
        -0.61938E-24
         0.97727E-08
         0.20765E-21
         0.48249E-07
         0.31953E-22
         0.68854E-06
        -0.33867E-07
         0.74258E-24
        -0.36430E-23
         0.47726E-08
        -0.47886E-06
         0.20236E-22
         0.51906E-22
         0.20690E-07
        -0.41087E-23
         0.29621E-06
         0.32923E-22
        -0.15669E-05
        -0.56807E-06
         0.25430E-22
        -0.24352E-21
        -0.12744E-05
        -0.38936E-21
         0.50590E-06
         0.26079E-21
         0.15952E-05
         0.38854E-22
         0.27881E-05
         0.50525E-22
         0.54347E-05
         0.29746E-05
         0.11878E-21
        -0.30119E-22
         0.37067E-06
        -0.36245E-23
        -0.11685E-05
        -0.32690E-21
        -0.17134E-05
        -0.36501E-21
        -0.37574E-05
        -0.17096E-05
        -0.23105E-21
         0.25647E-21
         0.27545E-06
         0.23352E-21
         0.67948E-06
         0.10031E-21
         0.15855E-05
         0.26635E-21
         0.38986E-05
         0.22265E-05
         0.57111E-21
         0.28555E-21
        -0.63591E-05
         0.26757E-05
        -0.37106E-21
         0.45441E-21
        -0.15476E-04
        -0.10546E-20
        -0.20283E-04
        -0.11528E-20
        -0.17738E-04
        -0.78237E-21
        -0.14972E-04
        -0.82987E-22
        -0.64792E-05
         0.23391E-21
         0.84839E-05
         0.14482E-21
         0.19053E-04
         0.13239E-21
         0.25194E-04
         0.28405E-21
         0.24870E-04
         0.34536E-21
         0.20651E-04
         0.13607E-21
         0.11150E-04
         0.82957E-22
        -0.76926E-06
         0.13559E-21
        -0.94152E-05
         0.90889E-22
        -0.15258E-04
        -0.32412E-21
        -0.20825E-04
        -0.85048E-21
        -0.18426E-04
        -0.10793E-20
        -0.11731E-04
        -0.66798E-21
        -0.12817E-05
         0.12744E-21
         0.86984E-05
         0.27010E-21
         0.12607E-04
         0.43046E-21
         0.15360E-04
         0.84767E-21
         0.13767E-04
         0.10999E-20
         0.12855E-04
         0.78146E-21
         0.10661E-04
         0.61802E-21
        -0.57126E-07
         0.15946E-07
         0.16252E-07
        -0.96974E-08
         0.13488E-06
         0.10635E-06
         0.17830E-08
        -0.39190E-07
        -0.16333E-07
        -0.44286E-07
        -0.13713E-07
        -0.25557E-06
        -0.35654E-06
         0.13203E-07
         0.20558E-06
        -0.24435E-07
         0.18327E-07
         0.53372E-08
         0.11611E-07
        -0.93262E-08
         0.47652E-07
         0.41359E-07
        -0.12819E-06
         0.33385E-08
         0.28111E-07
         0.31014E-08
         0.53422E-09
         0.10441E-08
         0.13295E-07
        -0.42463E-07
        -0.21387E-07
         0.47628E-08
         0.73312E-08
        -0.59480E-09
        -0.34316E-07
        -0.11488E-06
        -0.22969E-06
         0.35380E-06
         0.18454E-06
         0.34306E-06
         0.67835E-06
         0.14946E-06
        -0.11493E-06
        -0.23329E-06
        -0.28359E-06
        -0.37839E-06
         0.44941E-07
         0.12925E-06
         0.39992E-07
         0.13900E-06
         0.44947E-06
         0.16581E-06
        -0.16682E-05
         0.20338E-05
        -0.49542E-05
        -0.57772E-05
        -0.54987E-05
        -0.33925E-05
         0.20624E-06
         0.22531E-05
         0.32571E-05
         0.52970E-05
         0.56212E-05
         0.28579E-05
         0.11287E-05
         0.47343E-06
        -0.75645E-06
        -0.29615E-05
        -0.49487E-05
        -0.57524E-05
        -0.37203E-05
         0.66621E-06
         0.23667E-05
         0.24934E-05
         0.39411E-05
         0.44537E-05
         0.32889E-05
         0.30061E-05
        -0.76497E-07
         0.99041E-08
        -0.17448E-07
        -0.12050E-07
         0.13535E-06
         0.52022E-07
         0.12019E-07
        -0.91724E-07
        -0.27637E-07
        -0.82016E-07
         0.87597E-08
        -0.13833E-06
        -0.26958E-06
         0.29708E-07
         0.35614E-06
        -0.56994E-07
         0.96153E-08
         0.54982E-08
         0.16678E-07
         0.56626E-08
         0.14980E-06
         0.10136E-06
        -0.57987E-07
         0.11837E-07
         0.27177E-07
        -0.45261E-08
         0.61595E-08
        -0.15203E-08
        -0.61210E-08
        -0.45178E-07
        -0.47191E-07
        -0.80438E-08
         0.19783E-07
         0.14825E-07
         0.34828E-07
        -0.58593E-07
        -0.12833E-06
         0.30014E-06
         0.44313E-07
         0.11322E-06
         0.30559E-06
        -0.77675E-07
        -0.15639E-06
        -0.14124E-06
        -0.14006E-06
        -0.16741E-06
         0.10527E-06
         0.82186E-07
        -0.13654E-07
         0.19408E-07
         0.20613E-06
         0.13624E-07
        -0.14286E-05
         0.20593E-05
        -0.43022E-05
        -0.45856E-05
        -0.44164E-05
        -0.24411E-05
         0.59364E-06
         0.16794E-05
         0.21201E-05
         0.38455E-05
         0.42892E-05
         0.16677E-05
         0.55712E-06
         0.45414E-06
        -0.23175E-06
        -0.20249E-05
        -0.37026E-05
        -0.48749E-05
        -0.32324E-05
         0.93163E-06
         0.18091E-05
         0.17327E-05
         0.30717E-05
         0.37446E-05
         0.24899E-05
         0.23502E-05
        -0.76690E-07
         0.99426E-08
        -0.17490E-07
        -0.12147E-07
         0.13524E-06
         0.52014E-07
         0.12110E-07
        -0.91647E-07
        -0.27717E-07
        -0.82257E-07
         0.85875E-08
        -0.13865E-06
        -0.26981E-06
         0.29636E-07
         0.35640E-06
        -0.57057E-07
         0.97240E-08
         0.54748E-08
         0.16681E-07
         0.56211E-08
         0.15015E-06
         0.10144E-06
        -0.57996E-07
         0.11832E-07
         0.27362E-07
        -0.45254E-08
         0.62340E-08
        -0.15001E-08
        -0.61234E-08
        -0.45303E-07
        -0.47268E-07
        -0.80252E-08
         0.19744E-07
         0.14856E-07
         0.34518E-07
        -0.58605E-07
        -0.12828E-06
         0.30109E-06
         0.44834E-07
         0.11371E-06
         0.30602E-06
        -0.77511E-07
        -0.15656E-06
        -0.14129E-06
        -0.14001E-06
        -0.16732E-06
         0.10526E-06
         0.82164E-07
        -0.13536E-07
         0.19316E-07
         0.20591E-06
         0.13398E-07
        -0.14267E-05
         0.20589E-05
        -0.43026E-05
        -0.45856E-05
        -0.44145E-05
        -0.24396E-05
         0.59406E-06
         0.16800E-05
         0.21179E-05
         0.38430E-05
         0.42877E-05
         0.16685E-05
         0.55703E-06
         0.45505E-06
        -0.22989E-06
        -0.20264E-05
        -0.37049E-05
        -0.48770E-05
        -0.32315E-05
         0.93200E-06
         0.18077E-05
         0.17320E-05
         0.30686E-05
         0.37396E-05
         0.24860E-05
         0.23460E-05
        -0.76883E-07
         0.99808E-08
        -0.17531E-07
        -0.12244E-07
         0.13512E-06
         0.52010E-07
         0.12202E-07
        -0.91568E-07
        -0.27796E-07
        -0.82491E-07
         0.84155E-08
        -0.13898E-06
        -0.27004E-06
         0.29560E-07
         0.35666E-06
        -0.57121E-07
         0.98345E-08
         0.54512E-08
         0.16684E-07
         0.55795E-08
         0.15052E-06
         0.10153E-06
        -0.58015E-07
         0.11826E-07
         0.27550E-07
        -0.45241E-08
         0.63134E-08
        -0.14804E-08
        -0.61217E-08
        -0.45424E-07
        -0.47346E-07
        -0.80033E-08
         0.19705E-07
         0.14886E-07
         0.34207E-07
        -0.58620E-07
        -0.12823E-06
         0.30203E-06
         0.45357E-07
         0.11420E-06
         0.30646E-06
        -0.77326E-07
        -0.15672E-06
        -0.14137E-06
        -0.13998E-06
        -0.16724E-06
         0.10526E-06
         0.82140E-07
        -0.13416E-07
         0.19221E-07
         0.20570E-06
         0.13173E-07
        -0.14249E-05
         0.20585E-05
        -0.43030E-05
        -0.45857E-05
        -0.44127E-05
        -0.24380E-05
         0.59449E-06
         0.16805E-05
         0.21157E-05
         0.38404E-05
         0.42861E-05
         0.16694E-05
         0.55694E-06
         0.45596E-06
        -0.22802E-06
        -0.20279E-05
        -0.37073E-05
        -0.48792E-05
        -0.32305E-05
         0.93237E-06
         0.18062E-05
         0.17312E-05
         0.30656E-05
         0.37347E-05
         0.24820E-05
         0.23419E-05
        -0.77077E-07
         0.10020E-07
        -0.17572E-07
        -0.12342E-07
         0.13500E-06
         0.52004E-07
         0.12295E-07
        -0.91486E-07
        -0.27871E-07
        -0.82710E-07
         0.82437E-08
        -0.13931E-06
        -0.27028E-06
         0.29487E-07
         0.35693E-06
        -0.57192E-07
         0.99479E-08
         0.54273E-08
         0.16689E-07
         0.55357E-08
         0.15089E-06
         0.10161E-06
        -0.58065E-07
         0.11815E-07
         0.27747E-07
        -0.45218E-08
         0.63951E-08
        -0.14640E-08
        -0.61084E-08
        -0.45534E-07
        -0.47426E-07
        -0.79753E-08
         0.19664E-07
         0.14917E-07
         0.33895E-07
        -0.58632E-07
        -0.12818E-06
         0.30298E-06
         0.45883E-07
         0.11471E-06
         0.30695E-06
        -0.77080E-07
        -0.15686E-06
        -0.14149E-06
        -0.13997E-06
        -0.16716E-06
         0.10526E-06
         0.82119E-07
        -0.13297E-07
         0.19127E-07
         0.20547E-06
         0.12950E-07
        -0.14231E-05
         0.20581E-05
        -0.43034E-05
        -0.45858E-05
        -0.44108E-05
        -0.24365E-05
         0.59492E-06
         0.16810E-05
         0.21134E-05
         0.38378E-05
         0.42847E-05
         0.16704E-05
         0.55692E-06
         0.45686E-06
        -0.22614E-06
        -0.20296E-05
        -0.37101E-05
        -0.48814E-05
        -0.32296E-05
         0.93274E-06
         0.18048E-05
         0.17305E-05
         0.30626E-05
         0.37297E-05
         0.24781E-05
         0.23378E-05
        -0.77268E-07
         0.10059E-07
        -0.17614E-07
        -0.12440E-07
         0.13489E-06
         0.51997E-07
         0.12387E-07
        -0.91401E-07
        -0.27943E-07
        -0.82912E-07
         0.80714E-08
        -0.13963E-06
        -0.27052E-06
         0.29416E-07
         0.35719E-06
        -0.57268E-07
         0.10064E-07
         0.54034E-08
         0.16693E-07
         0.54901E-08
         0.15127E-06
         0.10168E-06
        -0.58144E-07
         0.11799E-07
         0.27953E-07
        -0.45175E-08
         0.64857E-08
        -0.14506E-08
        -0.60830E-08
        -0.45634E-07
        -0.47507E-07
        -0.79396E-08
         0.19623E-07
         0.14948E-07
         0.33582E-07
        -0.58643E-07
        -0.12813E-06
         0.30394E-06
         0.46410E-07
         0.11522E-06
         0.30748E-06
        -0.76771E-07
        -0.15699E-06
        -0.14168E-06
        -0.13998E-06
        -0.16709E-06
         0.10527E-06
         0.82106E-07
        -0.13178E-07
         0.19034E-07
         0.20526E-06
         0.12725E-07
        -0.14213E-05
         0.20576E-05
        -0.43038E-05
        -0.45858E-05
        -0.44089E-05
        -0.24349E-05
         0.59534E-06
         0.16816E-05
         0.21112E-05
         0.38352E-05
         0.42833E-05
         0.16716E-05
         0.55694E-06
         0.45774E-06
        -0.22426E-06
        -0.20315E-05
        -0.37132E-05
        -0.48838E-05
        -0.32286E-05
         0.93310E-06
         0.18033E-05
         0.17297E-05
         0.30595E-05
         0.37248E-05
         0.24741E-05
         0.23336E-05
        -0.77452E-07
         0.10101E-07
        -0.17651E-07
        -0.12538E-07
         0.13477E-06
         0.51990E-07
         0.12478E-07
        -0.91304E-07
        -0.28014E-07
        -0.83102E-07
         0.78993E-08
        -0.13996E-06
        -0.27075E-06
         0.29348E-07
         0.35745E-06
        -0.57347E-07
         0.10183E-07
         0.53797E-08
         0.16696E-07
         0.54443E-08
         0.15166E-06
         0.10175E-06
        -0.58237E-07
         0.11782E-07
         0.28156E-07
        -0.45126E-08
         0.65830E-08
        -0.14383E-08
        -0.60521E-08
        -0.45734E-07
        -0.47586E-07
        -0.78994E-08
         0.19581E-07
         0.14979E-07
         0.33267E-07
        -0.58662E-07
        -0.12809E-06
         0.30489E-06
         0.46941E-07
         0.11574E-06
         0.30803E-06
        -0.76441E-07
        -0.15711E-06
        -0.14187E-06
        -0.14002E-06
        -0.16703E-06
         0.10528E-06
         0.82099E-07
        -0.13058E-07
         0.18947E-07
         0.20504E-06
         0.12502E-07
        -0.14194E-05
         0.20572E-05
        -0.43042E-05
        -0.45859E-05
        -0.44070E-05
        -0.24333E-05
         0.59574E-06
         0.16821E-05
         0.21090E-05
         0.38326E-05
         0.42819E-05
         0.16729E-05
         0.55700E-06
         0.45863E-06
        -0.22238E-06
        -0.20335E-05
        -0.37164E-05
        -0.48863E-05
        -0.32277E-05
         0.93342E-06
         0.18019E-05
         0.17290E-05
         0.30565E-05
         0.37199E-05
         0.24702E-05
         0.23295E-05
        -0.77621E-07
         0.10150E-07
        -0.17682E-07
        -0.12639E-07
         0.13466E-06
         0.51986E-07
         0.12567E-07
        -0.91188E-07
        -0.28088E-07
        -0.83284E-07
         0.77273E-08
        -0.14029E-06
        -0.27101E-06
         0.29297E-07
         0.35771E-06
        -0.57429E-07
         0.10303E-07
         0.53559E-08
         0.16702E-07
         0.53988E-08
         0.15205E-06
         0.10182E-06
        -0.58331E-07
         0.11765E-07
         0.28347E-07
        -0.45060E-08
         0.66976E-08
        -0.14256E-08
        -0.60192E-08
        -0.45837E-07
        -0.47658E-07
        -0.78549E-08
         0.19539E-07
         0.15010E-07
         0.32950E-07
        -0.58686E-07
        -0.12806E-06
         0.30585E-06
         0.47478E-07
         0.11627E-06
         0.30859E-06
        -0.76103E-07
        -0.15722E-06
        -0.14208E-06
        -0.14006E-06
        -0.16699E-06
         0.10530E-06
         0.82112E-07
        -0.12931E-07
         0.18875E-07
         0.20485E-06
         0.12277E-07
        -0.14176E-05
         0.20568E-05
        -0.43046E-05
        -0.45859E-05
        -0.44051E-05
        -0.24318E-05
         0.59615E-06
         0.16826E-05
         0.21068E-05
         0.38300E-05
         0.42805E-05
         0.16742E-05
         0.55706E-06
         0.45952E-06
        -0.22050E-06
        -0.20354E-05
        -0.37196E-05
        -0.48886E-05
        -0.32267E-05
         0.93367E-06
         0.18004E-05
         0.17283E-05
         0.30535E-05
         0.37149E-05
         0.24662E-05
         0.23254E-05
        -0.77783E-07
         0.10200E-07
        -0.17710E-07
        -0.12741E-07
         0.13455E-06
         0.51979E-07
         0.12656E-07
        -0.91062E-07
        -0.28163E-07
        -0.83464E-07
         0.75551E-08
        -0.14062E-06
        -0.27127E-06
         0.29249E-07
         0.35797E-06
        -0.57512E-07
         0.10425E-07
         0.53319E-08
         0.16706E-07
         0.53540E-08
         0.15244E-06
         0.10189E-06
        -0.58423E-07
         0.11749E-07
         0.28532E-07
        -0.44988E-08
         0.68168E-08
        -0.14126E-08
        -0.59857E-08
        -0.45942E-07
        -0.47727E-07
        -0.78076E-08
         0.19496E-07
         0.15041E-07
         0.32631E-07
        -0.58715E-07
        -0.12804E-06
         0.30682E-06
         0.48017E-07
         0.11680E-06
         0.30915E-06
        -0.75766E-07
        -0.15734E-06
        -0.14228E-06
        -0.14012E-06
        -0.16697E-06
         0.10532E-06
         0.82132E-07
        -0.12803E-07
         0.18811E-07
         0.20466E-06
         0.12053E-07
        -0.14158E-05
         0.20564E-05
        -0.43049E-05
        -0.45860E-05
        -0.44032E-05
        -0.24302E-05
         0.59655E-06
         0.16831E-05
         0.21046E-05
         0.38274E-05
         0.42791E-05
         0.16755E-05
         0.55712E-06
         0.46043E-06
        -0.21861E-06
        -0.20374E-05
        -0.37228E-05
        -0.48909E-05
        -0.32256E-05
         0.93391E-06
         0.17989E-05
         0.17276E-05
         0.30506E-05
         0.37100E-05
         0.24623E-05
         0.23213E-05
        -0.77945E-07
         0.10251E-07
        -0.17737E-07
        -0.12843E-07
         0.13444E-06
         0.51972E-07
         0.12744E-07
        -0.90936E-07
        -0.28239E-07
        -0.83643E-07
         0.73829E-08
        -0.14095E-06
        -0.27153E-06
         0.29206E-07
         0.35823E-06
        -0.57595E-07
         0.10547E-07
         0.53079E-08
         0.16710E-07
         0.53087E-08
         0.15282E-06
         0.10196E-06
        -0.58516E-07
         0.11734E-07
         0.28717E-07
        -0.44916E-08
         0.69390E-08
        -0.13988E-08
        -0.59512E-08
        -0.46048E-07
        -0.47796E-07
        -0.77609E-08
         0.19452E-07
         0.15072E-07
         0.32310E-07
        -0.58739E-07
        -0.12802E-06
         0.30779E-06
         0.48561E-07
         0.11733E-06
         0.30971E-06
        -0.75429E-07
        -0.15745E-06
        -0.14249E-06
        -0.14017E-06
        -0.16694E-06
         0.10534E-06
         0.82153E-07
        -0.12674E-07
         0.18748E-07
         0.20447E-06
         0.11829E-07
        -0.14140E-05
         0.20560E-05
        -0.43053E-05
        -0.45860E-05
        -0.44013E-05
        -0.24286E-05
         0.59695E-06
         0.16836E-05
         0.21024E-05
         0.38248E-05
         0.42777E-05
         0.16768E-05
         0.55719E-06
         0.46134E-06
        -0.21673E-06
        -0.20393E-05
        -0.37260E-05
        -0.48933E-05
        -0.32246E-05
         0.93415E-06
         0.17974E-05
         0.17269E-05
         0.30476E-05
         0.37051E-05
         0.24584E-05
         0.23171E-05
        -0.78106E-07
         0.10303E-07
        -0.17765E-07
        -0.12945E-07
         0.13433E-06
         0.51965E-07
         0.12832E-07
        -0.90809E-07
        -0.28314E-07
        -0.83820E-07
         0.72106E-08
        -0.14128E-06
        -0.27179E-06
         0.29158E-07
         0.35849E-06
        -0.57677E-07
         0.10671E-07
         0.52841E-08
         0.16713E-07
         0.52635E-08
         0.15321E-06
         0.10204E-06
        -0.58603E-07
         0.11718E-07
         0.28902E-07
        -0.44843E-08
         0.70580E-08
        -0.13845E-08
        -0.59157E-08
        -0.46152E-07
        -0.47864E-07
        -0.77138E-08
         0.19408E-07
         0.15103E-07
         0.31989E-07
        -0.58769E-07
        -0.12800E-06
         0.30876E-06
         0.49106E-07
         0.11786E-06
         0.31027E-06
        -0.75093E-07
        -0.15757E-06
        -0.14270E-06
        -0.14023E-06
        -0.16691E-06
         0.10536E-06
         0.82177E-07
        -0.12547E-07
         0.18681E-07
         0.20428E-06
         0.11606E-07
        -0.14121E-05
         0.20556E-05
        -0.43056E-05
        -0.45861E-05
        -0.43994E-05
        -0.24270E-05
         0.59734E-06
         0.16841E-05
         0.21001E-05
         0.38222E-05
         0.42763E-05
         0.16781E-05
         0.55725E-06
         0.46226E-06
        -0.21485E-06
        -0.20413E-05
        -0.37292E-05
        -0.48956E-05
        -0.32236E-05
         0.93438E-06
         0.17959E-05
         0.17262E-05
         0.30446E-05
         0.37002E-05
         0.24545E-05
         0.23130E-05
        -0.78266E-07
         0.10354E-07
        -0.17793E-07
        -0.13047E-07
         0.13423E-06
         0.51959E-07
         0.12921E-07
        -0.90679E-07
        -0.28390E-07
        -0.83998E-07
         0.70377E-08
        -0.14162E-06
        -0.27205E-06
         0.29114E-07
         0.35875E-06
        -0.57760E-07
         0.10795E-07
         0.52605E-08
         0.16719E-07
         0.52179E-08
         0.15360E-06
         0.10210E-06
        -0.58696E-07
         0.11703E-07
         0.29087E-07
        -0.44768E-08
         0.71793E-08
        -0.13692E-08
        -0.58793E-08
        -0.46256E-07
        -0.47933E-07
        -0.76669E-08
         0.19363E-07
         0.15134E-07
         0.31666E-07
        -0.58795E-07
        -0.12798E-06
         0.30974E-06
         0.49655E-07
         0.11839E-06
         0.31083E-06
        -0.74756E-07
        -0.15768E-06
        -0.14290E-06
        -0.14028E-06
        -0.16689E-06
         0.10538E-06
         0.82197E-07
        -0.12419E-07
         0.18617E-07
         0.20409E-06
         0.11383E-07
        -0.14103E-05
         0.20551E-05
        -0.43059E-05
        -0.45861E-05
        -0.43975E-05
        -0.24254E-05
         0.59771E-06
         0.16846E-05
         0.20979E-05
         0.38195E-05
         0.42749E-05
         0.16794E-05
         0.55732E-06
         0.46316E-06
        -0.21296E-06
        -0.20432E-05
        -0.37325E-05
        -0.48979E-05
        -0.32225E-05
         0.93459E-06
         0.17944E-05
         0.17255E-05
         0.30416E-05
         0.36953E-05
         0.24506E-05
         0.23089E-05
        -0.78427E-07
         0.10405E-07
        -0.17820E-07
        -0.13149E-07
         0.13412E-06
         0.51952E-07
         0.13009E-07
        -0.90550E-07
        -0.28466E-07
        -0.84174E-07
         0.68651E-08
        -0.14195E-06
        -0.27231E-06
         0.29069E-07
         0.35900E-06
        -0.57843E-07
         0.10919E-07
         0.52365E-08
         0.16723E-07
         0.51731E-08
         0.15398E-06
         0.10217E-06
        -0.58789E-07
         0.11688E-07
         0.29272E-07
        -0.44697E-08
         0.72978E-08
        -0.13535E-08
        -0.58414E-08
        -0.46362E-07
        -0.48002E-07
        -0.76200E-08
         0.19318E-07
         0.15166E-07
         0.31341E-07
        -0.58822E-07
        -0.12795E-06
         0.31071E-06
         0.50207E-07
         0.11893E-06
         0.31139E-06
        -0.74422E-07
        -0.15779E-06
        -0.14311E-06
        -0.14034E-06
        -0.16687E-06
         0.10540E-06
         0.82222E-07
        -0.12291E-07
         0.18554E-07
         0.20391E-06
         0.11161E-07
        -0.14085E-05
         0.20547E-05
        -0.43062E-05
        -0.45861E-05
        -0.43956E-05
        -0.24239E-05
         0.59810E-06
         0.16851E-05
         0.20957E-05
         0.38169E-05
         0.42735E-05
         0.16807E-05
         0.55738E-06
         0.46406E-06
        -0.21107E-06
        -0.20452E-05
        -0.37357E-05
        -0.49002E-05
        -0.32215E-05
         0.93482E-06
         0.17929E-05
         0.17248E-05
         0.30386E-05
         0.36904E-05
         0.24467E-05
         0.23048E-05
        -0.78589E-07
         0.10457E-07
        -0.17846E-07
        -0.13252E-07
         0.13401E-06
         0.51945E-07
         0.13097E-07
        -0.90419E-07
        -0.28541E-07
        -0.84347E-07
         0.66926E-08
        -0.14228E-06
        -0.27258E-06
         0.29020E-07
         0.35926E-06
        -0.57925E-07
         0.11045E-07
         0.52125E-08
         0.16727E-07
         0.51283E-08
         0.15437E-06
         0.10224E-06
        -0.58879E-07
         0.11673E-07
         0.29457E-07
        -0.44621E-08
         0.74198E-08
        -0.13369E-08
        -0.58031E-08
        -0.46466E-07
        -0.48070E-07
        -0.75725E-08
         0.19272E-07
         0.15197E-07
         0.31016E-07
        -0.58852E-07
        -0.12793E-06
         0.31168E-06
         0.50762E-07
         0.11946E-06
         0.31196E-06
        -0.74083E-07
        -0.15791E-06
        -0.14332E-06
        -0.14040E-06
        -0.16683E-06
         0.10543E-06
         0.82243E-07
        -0.12163E-07
         0.18490E-07
         0.20371E-06
         0.10940E-07
        -0.14066E-05
         0.20543E-05
        -0.43065E-05
        -0.45862E-05
        -0.43937E-05
        -0.24223E-05
         0.59849E-06
         0.16856E-05
         0.20935E-05
         0.38142E-05
         0.42721E-05
         0.16819E-05
         0.55744E-06
         0.46496E-06
        -0.20918E-06
        -0.20471E-05
        -0.37389E-05
        -0.49025E-05
        -0.32205E-05
         0.93505E-06
         0.17914E-05
         0.17241E-05
         0.30356E-05
         0.36855E-05
         0.24429E-05
         0.23007E-05
        -0.78751E-07
         0.10507E-07
        -0.17873E-07
        -0.13355E-07
         0.13390E-06
         0.51937E-07
         0.13186E-07
        -0.90287E-07
        -0.28617E-07
        -0.84519E-07
         0.65201E-08
        -0.14261E-06
        -0.27284E-06
         0.28975E-07
         0.35951E-06
        -0.58007E-07
         0.11170E-07
         0.51889E-08
         0.16733E-07
         0.50839E-08
         0.15476E-06
         0.10231E-06
        -0.58971E-07
         0.11658E-07
         0.29642E-07
        -0.44544E-08
         0.75385E-08
        -0.13198E-08
        -0.57640E-08
        -0.46570E-07
        -0.48138E-07
        -0.75256E-08
         0.19225E-07
         0.15228E-07
         0.30688E-07
        -0.58879E-07
        -0.12791E-06
         0.31266E-06
         0.51319E-07
         0.12000E-06
         0.31252E-06
        -0.73744E-07
        -0.15802E-06
        -0.14352E-06
        -0.14045E-06
        -0.16681E-06
         0.10545E-06
         0.82264E-07
        -0.12035E-07
         0.18425E-07
         0.20353E-06
         0.10721E-07
        -0.14048E-05
         0.20538E-05
        -0.43068E-05
        -0.45862E-05
        -0.43918E-05
        -0.24207E-05
         0.59887E-06
         0.16860E-05
         0.20913E-05
         0.38116E-05
         0.42707E-05
         0.16832E-05
         0.55750E-06
         0.46587E-06
        -0.20730E-06
        -0.20491E-05
        -0.37421E-05
        -0.49048E-05
        -0.32195E-05
         0.93525E-06
         0.17899E-05
         0.17234E-05
         0.30326E-05
         0.36806E-05
         0.24390E-05
         0.22966E-05
        -0.78913E-07
         0.10558E-07
        -0.17900E-07
        -0.13458E-07
         0.13379E-06
         0.51929E-07
         0.13274E-07
        -0.90154E-07
        -0.28692E-07
        -0.84692E-07
         0.63473E-08
        -0.14295E-06
        -0.27310E-06
         0.28925E-07
         0.35977E-06
        -0.58090E-07
         0.11297E-07
         0.51653E-08
         0.16737E-07
         0.50390E-08
         0.15515E-06
         0.10238E-06
        -0.59060E-07
         0.11644E-07
         0.29827E-07
        -0.44467E-08
         0.76594E-08
        -0.13018E-08
        -0.57242E-08
        -0.46674E-07
        -0.48206E-07
        -0.74782E-08
         0.19178E-07
         0.15259E-07
         0.30361E-07
        -0.58909E-07
        -0.12789E-06
         0.31363E-06
         0.51878E-07
         0.12053E-06
         0.31309E-06
        -0.73406E-07
        -0.15814E-06
        -0.14372E-06
        -0.14051E-06
        -0.16679E-06
         0.10547E-06
         0.82289E-07
        -0.11905E-07
         0.18362E-07
         0.20334E-06
         0.10501E-07
        -0.14030E-05
         0.20534E-05
        -0.43071E-05
        -0.45863E-05
        -0.43899E-05
        -0.24191E-05
         0.59924E-06
         0.16865E-05
         0.20891E-05
         0.38089E-05
         0.42693E-05
         0.16845E-05
         0.55756E-06
         0.46678E-06
        -0.20541E-06
        -0.20510E-05
        -0.37454E-05
        -0.49072E-05
        -0.32184E-05
         0.93546E-06
         0.17884E-05
         0.17227E-05
         0.30297E-05
         0.36757E-05
         0.24352E-05
         0.22925E-05
        -0.79074E-07
         0.10609E-07
        -0.17927E-07
        -0.13560E-07
         0.13368E-06
         0.51923E-07
         0.13363E-07
        -0.90020E-07
        -0.28769E-07
        -0.84863E-07
         0.61741E-08
        -0.14328E-06
        -0.27336E-06
         0.28879E-07
         0.36001E-06
        -0.58172E-07
         0.11425E-07
         0.51418E-08
         0.16742E-07
         0.49947E-08
         0.15553E-06
         0.10244E-06
        -0.59151E-07
         0.11629E-07
         0.30011E-07
        -0.44389E-08
         0.77772E-08
        -0.12832E-08
        -0.56836E-08
        -0.46778E-07
        -0.48273E-07
        -0.74313E-08
         0.19131E-07
         0.15291E-07
         0.30030E-07
        -0.58935E-07
        -0.12787E-06
         0.31461E-06
         0.52442E-07
         0.12107E-06
         0.31365E-06
        -0.73067E-07
        -0.15825E-06
        -0.14392E-06
        -0.14057E-06
        -0.16675E-06
         0.10549E-06
         0.82310E-07
        -0.11778E-07
         0.18297E-07
         0.20315E-06
         0.10281E-07
        -0.14011E-05
         0.20530E-05
        -0.43074E-05
        -0.45863E-05
        -0.43880E-05
        -0.24175E-05
         0.59959E-06
         0.16869E-05
         0.20869E-05
         0.38063E-05
         0.42679E-05
         0.16858E-05
         0.55762E-06
         0.46767E-06
        -0.20352E-06
        -0.20530E-05
        -0.37486E-05
        -0.49095E-05
        -0.32174E-05
         0.93567E-06
         0.17869E-05
         0.17220E-05
         0.30267E-05
         0.36708E-05
         0.24313E-05
         0.22884E-05
        -0.79235E-07
         0.10660E-07
        -0.17954E-07
        -0.13663E-07
         0.13358E-06
         0.51915E-07
         0.13452E-07
        -0.89885E-07
        -0.28844E-07
        -0.85029E-07
         0.60008E-08
        -0.14362E-06
        -0.27362E-06
         0.28828E-07
         0.36026E-06
        -0.58255E-07
         0.11554E-07
         0.51182E-08
         0.16747E-07
         0.49506E-08
         0.15592E-06
         0.10251E-06
        -0.59241E-07
         0.11615E-07
         0.30195E-07
        -0.44308E-08
         0.78980E-08
        -0.12636E-08
        -0.56415E-08
        -0.46880E-07
        -0.48341E-07
        -0.73842E-08
         0.19083E-07
         0.15323E-07
         0.29699E-07
        -0.58962E-07
        -0.12784E-06
         0.31559E-06
         0.53012E-07
         0.12161E-06
         0.31420E-06
        -0.72731E-07
        -0.15837E-06
        -0.14413E-06
        -0.14062E-06
        -0.16673E-06
         0.10551E-06
         0.82335E-07
        -0.11650E-07
         0.18233E-07
         0.20296E-06
         0.10064E-07
        -0.13993E-05
         0.20525E-05
        -0.43077E-05
        -0.45863E-05
        -0.43861E-05
        -0.24160E-05
         0.59993E-06
         0.16874E-05
         0.20847E-05
         0.38036E-05
         0.42666E-05
         0.16871E-05
         0.55766E-06
         0.46856E-06
        -0.20163E-06
        -0.20549E-05
        -0.37518E-05
        -0.49117E-05
        -0.32164E-05
         0.93589E-06
         0.17854E-05
         0.17213E-05
         0.30237E-05
         0.36660E-05
         0.24275E-05
         0.22843E-05
        -0.79397E-07
         0.10711E-07
        -0.17981E-07
        -0.13767E-07
         0.13347E-06
         0.51907E-07
         0.13540E-07
        -0.89748E-07
        -0.28918E-07
        -0.85184E-07
         0.58274E-08
        -0.14395E-06
        -0.27388E-06
         0.28780E-07
         0.36050E-06
        -0.58337E-07
         0.11684E-07
         0.50944E-08
         0.16753E-07
         0.49087E-08
         0.15630E-06
         0.10257E-06
        -0.59333E-07
         0.11600E-07
         0.30374E-07
        -0.44233E-08
         0.80170E-08
        -0.12426E-08
        -0.55989E-08
        -0.46980E-07
        -0.48409E-07
        -0.73363E-08
         0.19035E-07
         0.15354E-07
         0.29367E-07
        -0.58993E-07
        -0.12782E-06
         0.31656E-06
         0.53596E-07
         0.12213E-06
         0.31474E-06
        -0.72385E-07
        -0.15848E-06
        -0.14434E-06
        -0.14068E-06
        -0.16670E-06
         0.10553E-06
         0.82357E-07
        -0.11524E-07
         0.18169E-07
         0.20278E-06
         0.98473E-08
        -0.13974E-05
         0.20521E-05
        -0.43080E-05
        -0.45863E-05
        -0.43842E-05
        -0.24144E-05
         0.60028E-06
         0.16879E-05
         0.20825E-05
         0.38008E-05
         0.42653E-05
         0.16885E-05
         0.55768E-06
         0.46945E-06
        -0.19976E-06
        -0.20568E-05
        -0.37550E-05
        -0.49140E-05
        -0.32153E-05
         0.93610E-06
         0.17839E-05
         0.17206E-05
         0.30207E-05
         0.36611E-05
         0.24237E-05
         0.22802E-05
        -0.79559E-07
         0.10761E-07
        -0.18007E-07
        -0.13870E-07
         0.13336E-06
         0.51898E-07
         0.13629E-07
        -0.89610E-07
        -0.28990E-07
        -0.85328E-07
         0.56541E-08
        -0.14429E-06
        -0.27415E-06
         0.28731E-07
         0.36074E-06
        -0.58419E-07
         0.11816E-07
         0.50708E-08
         0.16759E-07
         0.48680E-08
         0.15669E-06
         0.10262E-06
        -0.59424E-07
         0.11586E-07
         0.30548E-07
        -0.44151E-08
         0.81406E-08
        -0.12199E-08
        -0.55555E-08
        -0.47076E-07
        -0.48476E-07
        -0.72891E-08
         0.18985E-07
         0.15386E-07
         0.29032E-07
        -0.59020E-07
        -0.12780E-06
         0.31753E-06
         0.54194E-07
         0.12265E-06
         0.31525E-06
        -0.72037E-07
        -0.15860E-06
        -0.14454E-06
        -0.14074E-06
        -0.16668E-06
         0.10555E-06
         0.82380E-07
        -0.11396E-07
         0.18105E-07
         0.20258E-06
         0.96295E-08
        -0.13956E-05
         0.20517E-05
        -0.43083E-05
        -0.45864E-05
        -0.43823E-05
        -0.24128E-05
         0.60062E-06
         0.16883E-05
         0.20804E-05
         0.37979E-05
         0.42640E-05
         0.16899E-05
         0.55766E-06
         0.47034E-06
        -0.19786E-06
        -0.20588E-05
        -0.37583E-05
        -0.49163E-05
        -0.32143E-05
         0.93630E-06
         0.17824E-05
         0.17199E-05
         0.30177E-05
         0.36562E-05
         0.24199E-05
         0.22762E-05
        -0.79721E-07
         0.10812E-07
        -0.18035E-07
        -0.13974E-07
         0.13326E-06
         0.51892E-07
         0.13718E-07
        -0.89472E-07
        -0.29062E-07
        -0.85468E-07
         0.54819E-08
        -0.14462E-06
        -0.27441E-06
         0.28679E-07
         0.36097E-06
        -0.58502E-07
         0.11949E-07
         0.50474E-08
         0.16763E-07
         0.48286E-08
         0.15708E-06
         0.10268E-06
        -0.59508E-07
         0.11573E-07
         0.30721E-07
        -0.44074E-08
         0.82608E-08
        -0.11960E-08
        -0.55117E-08
        -0.47169E-07
        -0.48545E-07
        -0.72428E-08
         0.18937E-07
         0.15418E-07
         0.28700E-07
        -0.59048E-07
        -0.12777E-06
         0.31850E-06
         0.54800E-07
         0.12316E-06
         0.31575E-06
        -0.71693E-07
        -0.15872E-06
        -0.14474E-06
        -0.14079E-06
        -0.16666E-06
         0.10557E-06
         0.82405E-07
        -0.11270E-07
         0.18040E-07
         0.20240E-06
         0.94140E-08
        -0.13937E-05
         0.20512E-05
        -0.43086E-05
        -0.45864E-05
        -0.43805E-05
        -0.24112E-05
         0.60096E-06
         0.16887E-05
         0.20782E-05
         0.37949E-05
         0.42627E-05
         0.16913E-05
         0.55761E-06
         0.47123E-06
        -0.19597E-06
        -0.20607E-05
        -0.37615E-05
        -0.49186E-05
        -0.32133E-05
         0.93654E-06
         0.17810E-05
         0.17191E-05
         0.30147E-05
         0.36514E-05
         0.24162E-05
         0.22721E-05
        -0.80356E-07
         0.10918E-07
        -0.18174E-07
        -0.14158E-07
         0.13388E-06
         0.52173E-07
         0.13879E-07
        -0.89863E-07
        -0.29301E-07
        -0.86096E-07
         0.53612E-08
        -0.14556E-06
        -0.27603E-06
         0.28788E-07
         0.36300E-06
        -0.58935E-07
         0.12146E-07
         0.50560E-08
         0.16860E-07
         0.48189E-08
         0.15824E-06
         0.10327E-06
        -0.59852E-07
         0.11635E-07
         0.31058E-07
        -0.44303E-08
         0.84172E-08
        -0.11781E-08
        -0.55095E-08
        -0.47528E-07
        -0.48909E-07
        -0.72520E-08
         0.19007E-07
         0.15543E-07
         0.28546E-07
        -0.59369E-07
        -0.12840E-06
         0.32105E-06
         0.55645E-07
         0.12428E-06
         0.31784E-06
        -0.71817E-07
        -0.15971E-06
        -0.14563E-06
        -0.14153E-06
        -0.16740E-06
         0.10613E-06
         0.82859E-07
        -0.11218E-07
         0.18075E-07
         0.20327E-06
         0.92527E-08
        -0.13961E-05
         0.20575E-05
        -0.43221E-05
        -0.46010E-05
        -0.43926E-05
        -0.24170E-05
         0.60345E-06
         0.16946E-05
         0.20831E-05
         0.38046E-05
         0.42757E-05
         0.16979E-05
         0.55932E-06
         0.47367E-06
        -0.19481E-06
        -0.20686E-05
        -0.37757E-05
        -0.49354E-05
        -0.32221E-05
         0.93985E-06
         0.17854E-05
         0.17239E-05
         0.30215E-05
         0.36587E-05
         0.24203E-05
         0.22754E-05
        -0.17546E-06
         0.24078E-07
        -0.39522E-07
        -0.31208E-07
         0.27042E-06
         0.10756E-06
         0.30424E-07
        -0.19364E-06
        -0.63696E-07
        -0.18486E-06
         0.11144E-07
        -0.28281E-06
        -0.55349E-06
         0.60091E-07
         0.71223E-06
        -0.12900E-06
         0.26571E-07
         0.11055E-07
         0.35848E-07
         0.10257E-07
         0.31788E-06
         0.21246E-06
        -0.12071E-06
         0.25134E-07
         0.68013E-07
        -0.97392E-08
         0.18022E-07
        -0.25310E-08
        -0.12063E-07
        -0.10368E-06
        -0.10709E-06
        -0.15762E-07
         0.41686E-07
         0.34101E-07
         0.54722E-07
        -0.12199E-06
        -0.26397E-06
         0.65937E-06
         0.11801E-06
         0.26474E-06
         0.65777E-06
        -0.15067E-06
        -0.33581E-06
        -0.29826E-06
        -0.28769E-06
        -0.32049E-06
         0.21413E-06
         0.17163E-06
        -0.23316E-07
         0.37404E-07
         0.40054E-06
         0.18645E-07
        -0.21128E-05
         0.31093E-05
        -0.65330E-05
        -0.69997E-05
        -0.66682E-05
        -0.36823E-05
         0.94113E-06
         0.26839E-05
         0.32839E-05
         0.59264E-05
         0.66826E-05
         0.26487E-05
         0.89332E-06
         0.76343E-06
        -0.30374E-06
        -0.31727E-05
        -0.57551E-05
        -0.74273E-05
        -0.48325E-05
         0.14141E-05
         0.27447E-05
         0.26754E-05
         0.46518E-05
         0.56715E-05
         0.37293E-05
         0.34804E-05
  
SCALARS                      strain_eq  double 1
LOOKUP_TABLE default
         0.17609E+00
         0.17532E+00
         0.17581E+00
         0.17669E+00
         0.11876E-09
         0.13168E-09
         0.12793E-09
         0.11511E-09
         0.17533E+00
         0.17557E+00
         0.12951E-09
         0.12385E-09
         0.17418E+00
         0.17414E+00
         0.14169E-09
         0.13494E-09
         0.17656E+00
         0.17420E+00
         0.10570E-09
         0.11888E-09
         0.17332E+00
         0.17264E+00
         0.17374E+00
         0.14594E-09
         0.13921E-09
         0.13847E-09
         0.17265E+00
         0.17164E+00
         0.14135E-09
         0.12838E-09
         0.17652E+00
         0.17550E+00
         0.17749E+00
         0.11502E-09
         0.10801E-09
         0.10347E-09
         0.17593E+00
         0.17462E+00
         0.12540E-09
         0.11433E-09
         0.17542E+00
         0.17441E+00
         0.11664E-09
         0.10063E-09
         0.17627E+00
         0.17664E+00
         0.12596E-09
         0.13062E-09
         0.17358E+00
         0.11289E-09
         0.17657E+00
         0.13126E-09
         0.17235E+00
         0.12342E-09
         0.17203E+00
         0.11392E-09
         0.17205E+00
         0.17317E+00
         0.11544E-09
         0.11352E-09
         0.17650E+00
         0.17611E+00
         0.11648E-09
         0.13185E-09
         0.17674E+00
         0.11180E-09
         0.17628E+00
         0.12244E-09
         0.17511E+00
         0.17495E+00
         0.13097E-09
         0.13089E-09
         0.17466E+00
         0.13245E-09
         0.17128E+00
         0.10588E-09
         0.17111E+00
         0.98546E-10
         0.17121E+00
         0.10266E-09
         0.17175E+00
         0.17223E+00
         0.99294E-10
         0.10313E-09
         0.17323E+00
         0.97128E-10
         0.17626E+00
         0.13041E-09
         0.17582E+00
         0.13280E-09
         0.17547E+00
         0.17521E+00
         0.13268E-09
         0.13015E-09
         0.17545E+00
         0.11680E-09
         0.17564E+00
         0.11436E-09
         0.17549E+00
         0.12369E-09
         0.17546E+00
         0.17560E+00
         0.12716E-09
         0.12682E-09
         0.17469E+00
         0.17517E+00
         0.12091E-09
         0.11671E-09
         0.17466E+00
         0.11743E-09
         0.17522E+00
         0.11464E-09
         0.17470E+00
         0.11451E-09
         0.17359E+00
         0.10735E-09
         0.17254E+00
         0.90840E-10
         0.17188E+00
         0.76757E-10
         0.17181E+00
         0.74445E-10
         0.17182E+00
         0.79316E-10
         0.17253E+00
         0.81820E-10
         0.17392E+00
         0.76647E-10
         0.17538E+00
         0.69954E-10
         0.17618E+00
         0.72399E-10
         0.17697E+00
         0.85819E-10
         0.17750E+00
         0.10019E-09
         0.17750E+00
         0.10678E-09
         0.17613E+00
         0.11402E-09
         0.17514E+00
         0.11982E-09
         0.17490E+00
         0.11179E-09
         0.17545E+00
         0.98425E-10
         0.17568E+00
         0.98234E-10
         0.17517E+00
         0.10810E-09
         0.17513E+00
         0.11471E-09
         0.17551E+00
         0.11099E-09
         0.17599E+00
         0.10852E-09
         0.37499E-01
         0.38213E-01
         0.38116E-01
         0.37181E-01
         0.38916E-01
         0.38044E-01
         0.39106E-01
         0.38552E-01
         0.37331E-01
         0.38097E-01
         0.39700E-01
         0.39916E-01
         0.39424E-01
         0.39365E-01
         0.39714E-01
         0.37227E-01
         0.37401E-01
         0.36909E-01
         0.38290E-01
         0.38040E-01
         0.38419E-01
         0.38186E-01
         0.38617E-01
         0.38484E-01
         0.38064E-01
         0.38090E-01
         0.38811E-01
         0.38744E-01
         0.39276E-01
         0.38475E-01
         0.37313E-01
         0.38222E-01
         0.37318E-01
         0.37916E-01
         0.40037E-01
         0.39355E-01
         0.39041E-01
         0.39430E-01
         0.39470E-01
         0.40074E-01
         0.40536E-01
         0.39448E-01
         0.38411E-01
         0.38543E-01
         0.39075E-01
         0.40017E-01
         0.39206E-01
         0.38347E-01
         0.38405E-01
         0.39070E-01
         0.39759E-01
         0.38839E-01
         0.41848E-01
         0.41094E-01
         0.41251E-01
         0.41090E-01
         0.41179E-01
         0.41666E-01
         0.42080E-01
         0.42149E-01
         0.42069E-01
         0.42139E-01
         0.42299E-01
         0.41184E-01
         0.40674E-01
         0.40479E-01
         0.40230E-01
         0.40045E-01
         0.40081E-01
         0.40469E-01
         0.41621E-01
         0.41376E-01
         0.40934E-01
         0.40907E-01
         0.40984E-01
         0.41352E-01
         0.40801E-01
         0.40603E-01
         0.84374E-03
         0.50697E-03
         0.47819E-03
         0.32791E-03
         0.87622E-03
         0.60581E-03
         0.26741E-03
         0.82984E-03
         0.51981E-03
         0.78195E-03
         0.38125E-03
         0.16429E-02
         0.12475E-02
         0.62395E-03
         0.17207E-02
         0.61308E-03
         0.31059E-03
         0.19816E-03
         0.41281E-03
         0.22349E-03
         0.12919E-02
         0.12121E-02
         0.11804E-02
         0.30717E-03
         0.50462E-03
         0.16045E-03
         0.58868E-03
         0.95613E-04
         0.21560E-03
         0.54734E-03
         0.52373E-03
         0.27858E-03
         0.33923E-03
         0.29346E-03
         0.11327E-02
         0.67780E-03
         0.87737E-03
         0.14032E-02
         0.10794E-02
         0.10046E-02
         0.14269E-02
         0.12935E-02
         0.13021E-02
         0.10080E-02
         0.90018E-03
         0.12314E-02
         0.80726E-03
         0.68642E-03
         0.56604E-03
         0.66843E-03
         0.10929E-02
         0.75036E-03
         0.47999E-02
         0.49147E-02
         0.51375E-02
         0.51001E-02
         0.54370E-02
         0.58379E-02
         0.56018E-02
         0.49807E-02
         0.48536E-02
         0.51947E-02
         0.50911E-02
         0.50217E-02
         0.41508E-02
         0.39457E-02
         0.43349E-02
         0.46434E-02
         0.48188E-02
         0.52627E-02
         0.50621E-02
         0.51992E-02
         0.46812E-02
         0.44446E-02
         0.47402E-02
         0.46339E-02
         0.47685E-02
         0.47283E-02
         0.84438E-03
         0.50708E-03
         0.47847E-03
         0.32838E-03
         0.87583E-03
         0.60546E-03
         0.26822E-03
         0.83064E-03
         0.52071E-03
         0.78425E-03
         0.38124E-03
         0.16428E-02
         0.12480E-02
         0.62249E-03
         0.17225E-02
         0.61357E-03
         0.31146E-03
         0.19766E-03
         0.41305E-03
         0.22300E-03
         0.12921E-02
         0.12120E-02
         0.11803E-02
         0.30716E-03
         0.50679E-03
         0.16042E-03
         0.58887E-03
         0.94601E-04
         0.21663E-03
         0.54831E-03
         0.52423E-03
         0.27849E-03
         0.33866E-03
         0.29373E-03
         0.11332E-02
         0.67761E-03
         0.87717E-03
         0.14054E-02
         0.10818E-02
         0.10060E-02
         0.14278E-02
         0.12942E-02
         0.13022E-02
         0.10080E-02
         0.89999E-03
         0.12314E-02
         0.80727E-03
         0.68638E-03
         0.56523E-03
         0.66751E-03
         0.10923E-02
         0.74921E-03
         0.47981E-02
         0.49135E-02
         0.51375E-02
         0.51002E-02
         0.54361E-02
         0.58359E-02
         0.55994E-02
         0.49793E-02
         0.48524E-02
         0.51932E-02
         0.50902E-02
         0.50219E-02
         0.41504E-02
         0.39456E-02
         0.43354E-02
         0.46445E-02
         0.48200E-02
         0.52638E-02
         0.50618E-02
         0.51989E-02
         0.46807E-02
         0.44444E-02
         0.47386E-02
         0.46309E-02
         0.47658E-02
         0.47258E-02
         0.84502E-03
         0.50720E-03
         0.47874E-03
         0.32885E-03
         0.87542E-03
         0.60513E-03
         0.26904E-03
         0.83145E-03
         0.52161E-03
         0.78653E-03
         0.38124E-03
         0.16428E-02
         0.12485E-02
         0.62102E-03
         0.17242E-02
         0.61407E-03
         0.31235E-03
         0.19715E-03
         0.41330E-03
         0.22251E-03
         0.12922E-02
         0.12119E-02
         0.11802E-02
         0.30715E-03
         0.50895E-03
         0.16037E-03
         0.58906E-03
         0.93626E-04
         0.21765E-03
         0.54924E-03
         0.52475E-03
         0.27840E-03
         0.33808E-03
         0.29399E-03
         0.11337E-02
         0.67744E-03
         0.87696E-03
         0.14076E-02
         0.10842E-02
         0.10074E-02
         0.14288E-02
         0.12948E-02
         0.13024E-02
         0.10080E-02
         0.89985E-03
         0.12313E-02
         0.80728E-03
         0.68633E-03
         0.56443E-03
         0.66659E-03
         0.10917E-02
         0.74806E-03
         0.47964E-02
         0.49123E-02
         0.51375E-02
         0.51002E-02
         0.54352E-02
         0.58339E-02
         0.55971E-02
         0.49780E-02
         0.48511E-02
         0.51916E-02
         0.50893E-02
         0.50221E-02
         0.41501E-02
         0.39454E-02
         0.43359E-02
         0.46457E-02
         0.48213E-02
         0.52650E-02
         0.50615E-02
         0.51986E-02
         0.46802E-02
         0.44441E-02
         0.47369E-02
         0.46278E-02
         0.47632E-02
         0.47233E-02
         0.84566E-03
         0.50731E-03
         0.47901E-03
         0.32933E-03
         0.87502E-03
         0.60478E-03
         0.26986E-03
         0.83224E-03
         0.52251E-03
         0.78877E-03
         0.38124E-03
         0.16427E-02
         0.12490E-02
         0.61957E-03
         0.17260E-02
         0.61462E-03
         0.31326E-03
         0.19665E-03
         0.41356E-03
         0.22201E-03
         0.12923E-02
         0.12119E-02
         0.11803E-02
         0.30712E-03
         0.51105E-03
         0.16030E-03
         0.58923E-03
         0.92766E-04
         0.21861E-03
         0.55009E-03
         0.52528E-03
         0.27833E-03
         0.33750E-03
         0.29426E-03
         0.11342E-02
         0.67725E-03
         0.87675E-03
         0.14098E-02
         0.10867E-02
         0.10089E-02
         0.14298E-02
         0.12956E-02
         0.13027E-02
         0.10081E-02
         0.89975E-03
         0.12313E-02
         0.80734E-03
         0.68629E-03
         0.56363E-03
         0.66567E-03
         0.10911E-02
         0.74690E-03
         0.47947E-02
         0.49112E-02
         0.51374E-02
         0.51003E-02
         0.54343E-02
         0.58320E-02
         0.55948E-02
         0.49767E-02
         0.48499E-02
         0.51900E-02
         0.50885E-02
         0.50223E-02
         0.41498E-02
         0.39453E-02
         0.43365E-02
         0.46470E-02
         0.48227E-02
         0.52662E-02
         0.50612E-02
         0.51983E-02
         0.46797E-02
         0.44438E-02
         0.47353E-02
         0.46248E-02
         0.47605E-02
         0.47208E-02
         0.84629E-03
         0.50743E-03
         0.47929E-03
         0.32980E-03
         0.87463E-03
         0.60444E-03
         0.27067E-03
         0.83302E-03
         0.52340E-03
         0.79096E-03
         0.38125E-03
         0.16427E-02
         0.12495E-02
         0.61811E-03
         0.17278E-02
         0.61521E-03
         0.31422E-03
         0.19614E-03
         0.41383E-03
         0.22149E-03
         0.12925E-02
         0.12118E-02
         0.11803E-02
         0.30707E-03
         0.51311E-03
         0.16019E-03
         0.58937E-03
         0.92017E-04
         0.21951E-03
         0.55085E-03
         0.52583E-03
         0.27827E-03
         0.33693E-03
         0.29453E-03
         0.11347E-02
         0.67706E-03
         0.87656E-03
         0.14120E-02
         0.10892E-02
         0.10105E-02
         0.14309E-02
         0.12963E-02
         0.13030E-02
         0.10083E-02
         0.89971E-03
         0.12314E-02
         0.80744E-03
         0.68629E-03
         0.56284E-03
         0.66474E-03
         0.10905E-02
         0.74575E-03
         0.47929E-02
         0.49100E-02
         0.51374E-02
         0.51003E-02
         0.54334E-02
         0.58300E-02
         0.55924E-02
         0.49754E-02
         0.48487E-02
         0.51885E-02
         0.50877E-02
         0.50227E-02
         0.41496E-02
         0.39452E-02
         0.43372E-02
         0.46485E-02
         0.48243E-02
         0.52675E-02
         0.50610E-02
         0.51980E-02
         0.46792E-02
         0.44435E-02
         0.47337E-02
         0.46218E-02
         0.47578E-02
         0.47183E-02
         0.84690E-03
         0.50751E-03
         0.47955E-03
         0.33027E-03
         0.87424E-03
         0.60409E-03
         0.27147E-03
         0.83375E-03
         0.52430E-03
         0.79309E-03
         0.38129E-03
         0.16426E-02
         0.12500E-02
         0.61665E-03
         0.17296E-02
         0.61582E-03
         0.31518E-03
         0.19563E-03
         0.41410E-03
         0.22099E-03
         0.12928E-02
         0.12118E-02
         0.11805E-02
         0.30703E-03
         0.51513E-03
         0.16007E-03
         0.58950E-03
         0.91325E-04
         0.22041E-03
         0.55158E-03
         0.52637E-03
         0.27819E-03
         0.33635E-03
         0.29479E-03
         0.11352E-02
         0.67691E-03
         0.87638E-03
         0.14142E-02
         0.10918E-02
         0.10121E-02
         0.14320E-02
         0.12971E-02
         0.13033E-02
         0.10086E-02
         0.89973E-03
         0.12315E-02
         0.80756E-03
         0.68630E-03
         0.56209E-03
         0.66384E-03
         0.10899E-02
         0.74462E-03
         0.47912E-02
         0.49088E-02
         0.51374E-02
         0.51003E-02
         0.54325E-02
         0.58280E-02
         0.55901E-02
         0.49740E-02
         0.48475E-02
         0.51869E-02
         0.50869E-02
         0.50230E-02
         0.41494E-02
         0.39451E-02
         0.43378E-02
         0.46500E-02
         0.48260E-02
         0.52687E-02
         0.50607E-02
         0.51977E-02
         0.46787E-02
         0.44432E-02
         0.47321E-02
         0.46187E-02
         0.47551E-02
         0.47157E-02
         0.84745E-03
         0.50753E-03
         0.47980E-03
         0.33075E-03
         0.87386E-03
         0.60376E-03
         0.27223E-03
         0.83438E-03
         0.52521E-03
         0.79512E-03
         0.38139E-03
         0.16427E-02
         0.12506E-02
         0.61521E-03
         0.17314E-02
         0.61643E-03
         0.31612E-03
         0.19512E-03
         0.41438E-03
         0.22049E-03
         0.12930E-02
         0.12118E-02
         0.11806E-02
         0.30699E-03
         0.51708E-03
         0.15992E-03
         0.58966E-03
         0.90653E-04
         0.22132E-03
         0.55232E-03
         0.52687E-03
         0.27805E-03
         0.33577E-03
         0.29505E-03
         0.11357E-02
         0.67678E-03
         0.87623E-03
         0.14165E-02
         0.10944E-02
         0.10136E-02
         0.14332E-02
         0.12979E-02
         0.13036E-02
         0.10088E-02
         0.89979E-03
         0.12316E-02
         0.80773E-03
         0.68638E-03
         0.56145E-03
         0.66298E-03
         0.10894E-02
         0.74349E-03
         0.47894E-02
         0.49077E-02
         0.51373E-02
         0.51004E-02
         0.54316E-02
         0.58260E-02
         0.55877E-02
         0.49727E-02
         0.48462E-02
         0.51853E-02
         0.50860E-02
         0.50233E-02
         0.41493E-02
         0.39450E-02
         0.43385E-02
         0.46516E-02
         0.48277E-02
         0.52700E-02
         0.50604E-02
         0.51973E-02
         0.46783E-02
         0.44430E-02
         0.47305E-02
         0.46157E-02
         0.47525E-02
         0.47132E-02
         0.84798E-03
         0.50753E-03
         0.48005E-03
         0.33122E-03
         0.87350E-03
         0.60341E-03
         0.27298E-03
         0.83494E-03
         0.52614E-03
         0.79712E-03
         0.38152E-03
         0.16427E-02
         0.12511E-02
         0.61377E-03
         0.17332E-02
         0.61704E-03
         0.31705E-03
         0.19460E-03
         0.41466E-03
         0.22001E-03
         0.12932E-02
         0.12118E-02
         0.11807E-02
         0.30695E-03
         0.51900E-03
         0.15977E-03
         0.58982E-03
         0.90005E-04
         0.22225E-03
         0.55305E-03
         0.52736E-03
         0.27788E-03
         0.33518E-03
         0.29531E-03
         0.11363E-02
         0.67668E-03
         0.87612E-03
         0.14187E-02
         0.10969E-02
         0.10153E-02
         0.14343E-02
         0.12987E-02
         0.13040E-02
         0.10091E-02
         0.89988E-03
         0.12318E-02
         0.80793E-03
         0.68649E-03
         0.56085E-03
         0.66214E-03
         0.10889E-02
         0.74239E-03
         0.47877E-02
         0.49065E-02
         0.51373E-02
         0.51004E-02
         0.54307E-02
         0.58241E-02
         0.55854E-02
         0.49714E-02
         0.48450E-02
         0.51837E-02
         0.50852E-02
         0.50237E-02
         0.41491E-02
         0.39450E-02
         0.43391E-02
         0.46531E-02
         0.48293E-02
         0.52712E-02
         0.50600E-02
         0.51970E-02
         0.46779E-02
         0.44428E-02
         0.47288E-02
         0.46127E-02
         0.47498E-02
         0.47107E-02
         0.84851E-03
         0.50753E-03
         0.48029E-03
         0.33170E-03
         0.87312E-03
         0.60307E-03
         0.27372E-03
         0.83552E-03
         0.52707E-03
         0.79911E-03
         0.38164E-03
         0.16427E-02
         0.12517E-02
         0.61235E-03
         0.17350E-02
         0.61765E-03
         0.31798E-03
         0.19409E-03
         0.41493E-03
         0.21952E-03
         0.12934E-02
         0.12118E-02
         0.11808E-02
         0.30692E-03
         0.52092E-03
         0.15962E-03
         0.58999E-03
         0.89376E-04
         0.22320E-03
         0.55378E-03
         0.52784E-03
         0.27772E-03
         0.33460E-03
         0.29556E-03
         0.11369E-02
         0.67655E-03
         0.87600E-03
         0.14210E-02
         0.10995E-02
         0.10168E-02
         0.14354E-02
         0.12994E-02
         0.13043E-02
         0.10094E-02
         0.89998E-03
         0.12320E-02
         0.80812E-03
         0.68659E-03
         0.56025E-03
         0.66131E-03
         0.10884E-02
         0.74127E-03
         0.47859E-02
         0.49053E-02
         0.51372E-02
         0.51004E-02
         0.54298E-02
         0.58221E-02
         0.55830E-02
         0.49700E-02
         0.48438E-02
         0.51821E-02
         0.50844E-02
         0.50240E-02
         0.41490E-02
         0.39449E-02
         0.43398E-02
         0.46547E-02
         0.48310E-02
         0.52724E-02
         0.50597E-02
         0.51967E-02
         0.46774E-02
         0.44426E-02
         0.47272E-02
         0.46097E-02
         0.47472E-02
         0.47082E-02
         0.84903E-03
         0.50753E-03
         0.48053E-03
         0.33218E-03
         0.87275E-03
         0.60272E-03
         0.27446E-03
         0.83609E-03
         0.52799E-03
         0.80109E-03
         0.38179E-03
         0.16427E-02
         0.12523E-02
         0.61092E-03
         0.17368E-02
         0.61826E-03
         0.31892E-03
         0.19358E-03
         0.41520E-03
         0.21904E-03
         0.12937E-02
         0.12118E-02
         0.11810E-02
         0.30689E-03
         0.52284E-03
         0.15947E-03
         0.59016E-03
         0.88770E-04
         0.22415E-03
         0.55452E-03
         0.52832E-03
         0.27755E-03
         0.33403E-03
         0.29582E-03
         0.11374E-02
         0.67646E-03
         0.87588E-03
         0.14232E-02
         0.11021E-02
         0.10184E-02
         0.14366E-02
         0.13002E-02
         0.13046E-02
         0.10097E-02
         0.90007E-03
         0.12322E-02
         0.80832E-03
         0.68671E-03
         0.55965E-03
         0.66046E-03
         0.10878E-02
         0.74016E-03
         0.47842E-02
         0.49042E-02
         0.51371E-02
         0.51004E-02
         0.54289E-02
         0.58201E-02
         0.55806E-02
         0.49687E-02
         0.48426E-02
         0.51805E-02
         0.50835E-02
         0.50243E-02
         0.41488E-02
         0.39448E-02
         0.43404E-02
         0.46562E-02
         0.48327E-02
         0.52737E-02
         0.50593E-02
         0.51964E-02
         0.46770E-02
         0.44424E-02
         0.47255E-02
         0.46067E-02
         0.47445E-02
         0.47057E-02
         0.84955E-03
         0.50752E-03
         0.48077E-03
         0.33266E-03
         0.87238E-03
         0.60239E-03
         0.27522E-03
         0.83665E-03
         0.52892E-03
         0.80308E-03
         0.38193E-03
         0.16427E-02
         0.12528E-02
         0.60950E-03
         0.17386E-02
         0.61887E-03
         0.31986E-03
         0.19307E-03
         0.41548E-03
         0.21855E-03
         0.12939E-02
         0.12118E-02
         0.11811E-02
         0.30686E-03
         0.52475E-03
         0.15932E-03
         0.59033E-03
         0.88178E-04
         0.22511E-03
         0.55525E-03
         0.52880E-03
         0.27739E-03
         0.33346E-03
         0.29607E-03
         0.11380E-02
         0.67635E-03
         0.87577E-03
         0.14255E-02
         0.11047E-02
         0.10200E-02
         0.14377E-02
         0.13010E-02
         0.13050E-02
         0.10100E-02
         0.90015E-03
         0.12324E-02
         0.80852E-03
         0.68682E-03
         0.55906E-03
         0.65962E-03
         0.10873E-02
         0.73906E-03
         0.47824E-02
         0.49030E-02
         0.51370E-02
         0.51004E-02
         0.54280E-02
         0.58181E-02
         0.55782E-02
         0.49673E-02
         0.48414E-02
         0.51789E-02
         0.50827E-02
         0.50246E-02
         0.41487E-02
         0.39447E-02
         0.43411E-02
         0.46578E-02
         0.48343E-02
         0.52749E-02
         0.50590E-02
         0.51960E-02
         0.46766E-02
         0.44422E-02
         0.47239E-02
         0.46036E-02
         0.47419E-02
         0.47032E-02
         0.85007E-03
         0.50751E-03
         0.48102E-03
         0.33314E-03
         0.87201E-03
         0.60204E-03
         0.27597E-03
         0.83722E-03
         0.52986E-03
         0.80507E-03
         0.38209E-03
         0.16427E-02
         0.12534E-02
         0.60808E-03
         0.17404E-02
         0.61949E-03
         0.32080E-03
         0.19255E-03
         0.41575E-03
         0.21807E-03
         0.12941E-02
         0.12118E-02
         0.11812E-02
         0.30684E-03
         0.52666E-03
         0.15918E-03
         0.59050E-03
         0.87611E-04
         0.22606E-03
         0.55598E-03
         0.52929E-03
         0.27722E-03
         0.33288E-03
         0.29633E-03
         0.11385E-02
         0.67624E-03
         0.87564E-03
         0.14277E-02
         0.11073E-02
         0.10216E-02
         0.14389E-02
         0.13018E-02
         0.13053E-02
         0.10103E-02
         0.90025E-03
         0.12326E-02
         0.80871E-03
         0.68694E-03
         0.55847E-03
         0.65879E-03
         0.10868E-02
         0.73794E-03
         0.47807E-02
         0.49019E-02
         0.51370E-02
         0.51005E-02
         0.54271E-02
         0.58161E-02
         0.55758E-02
         0.49660E-02
         0.48402E-02
         0.51773E-02
         0.50819E-02
         0.50250E-02
         0.41485E-02
         0.39447E-02
         0.43418E-02
         0.46593E-02
         0.48360E-02
         0.52761E-02
         0.50587E-02
         0.51957E-02
         0.46762E-02
         0.44420E-02
         0.47222E-02
         0.46006E-02
         0.47392E-02
         0.47007E-02
         0.85059E-03
         0.50751E-03
         0.48126E-03
         0.33363E-03
         0.87164E-03
         0.60170E-03
         0.27671E-03
         0.83779E-03
         0.53079E-03
         0.80705E-03
         0.38225E-03
         0.16427E-02
         0.12540E-02
         0.60665E-03
         0.17422E-02
         0.62009E-03
         0.32174E-03
         0.19204E-03
         0.41603E-03
         0.21759E-03
         0.12943E-02
         0.12118E-02
         0.11813E-02
         0.30681E-03
         0.52856E-03
         0.15903E-03
         0.59067E-03
         0.87060E-04
         0.22704E-03
         0.55670E-03
         0.52977E-03
         0.27706E-03
         0.33231E-03
         0.29659E-03
         0.11391E-02
         0.67615E-03
         0.87553E-03
         0.14300E-02
         0.11099E-02
         0.10232E-02
         0.14400E-02
         0.13026E-02
         0.13057E-02
         0.10106E-02
         0.90035E-03
         0.12328E-02
         0.80892E-03
         0.68705E-03
         0.55788E-03
         0.65795E-03
         0.10863E-02
         0.73683E-03
         0.47790E-02
         0.49007E-02
         0.51369E-02
         0.51005E-02
         0.54262E-02
         0.58141E-02
         0.55734E-02
         0.49646E-02
         0.48390E-02
         0.51756E-02
         0.50810E-02
         0.50253E-02
         0.41483E-02
         0.39446E-02
         0.43424E-02
         0.46609E-02
         0.48377E-02
         0.52773E-02
         0.50583E-02
         0.51954E-02
         0.46758E-02
         0.44418E-02
         0.47206E-02
         0.45976E-02
         0.47366E-02
         0.46982E-02
         0.85111E-03
         0.50751E-03
         0.48150E-03
         0.33411E-03
         0.87129E-03
         0.60135E-03
         0.27747E-03
         0.83836E-03
         0.53172E-03
         0.80903E-03
         0.38241E-03
         0.16427E-02
         0.12545E-02
         0.60524E-03
         0.17441E-02
         0.62070E-03
         0.32268E-03
         0.19153E-03
         0.41630E-03
         0.21711E-03
         0.12945E-02
         0.12118E-02
         0.11815E-02
         0.30679E-03
         0.53046E-03
         0.15889E-03
         0.59083E-03
         0.86532E-04
         0.22803E-03
         0.55743E-03
         0.53025E-03
         0.27689E-03
         0.33174E-03
         0.29684E-03
         0.11396E-02
         0.67604E-03
         0.87541E-03
         0.14323E-02
         0.11125E-02
         0.10248E-02
         0.14411E-02
         0.13034E-02
         0.13060E-02
         0.10108E-02
         0.90044E-03
         0.12330E-02
         0.80912E-03
         0.68716E-03
         0.55728E-03
         0.65712E-03
         0.10858E-02
         0.73573E-03
         0.47772E-02
         0.48996E-02
         0.51368E-02
         0.51005E-02
         0.54253E-02
         0.58121E-02
         0.55710E-02
         0.49633E-02
         0.48378E-02
         0.51740E-02
         0.50802E-02
         0.50256E-02
         0.41482E-02
         0.39445E-02
         0.43431E-02
         0.46624E-02
         0.48393E-02
         0.52785E-02
         0.50580E-02
         0.51951E-02
         0.46753E-02
         0.44416E-02
         0.47189E-02
         0.45946E-02
         0.47339E-02
         0.46957E-02
         0.85163E-03
         0.50751E-03
         0.48174E-03
         0.33460E-03
         0.87091E-03
         0.60101E-03
         0.27823E-03
         0.83893E-03
         0.53265E-03
         0.81101E-03
         0.38258E-03
         0.16427E-02
         0.12551E-02
         0.60382E-03
         0.17459E-02
         0.62131E-03
         0.32363E-03
         0.19102E-03
         0.41657E-03
         0.21662E-03
         0.12948E-02
         0.12118E-02
         0.11816E-02
         0.30677E-03
         0.53237E-03
         0.15874E-03
         0.59100E-03
         0.86019E-04
         0.22902E-03
         0.55816E-03
         0.53073E-03
         0.27673E-03
         0.33118E-03
         0.29710E-03
         0.11402E-02
         0.67595E-03
         0.87529E-03
         0.14345E-02
         0.11151E-02
         0.10264E-02
         0.14423E-02
         0.13041E-02
         0.13063E-02
         0.10111E-02
         0.90053E-03
         0.12332E-02
         0.80931E-03
         0.68728E-03
         0.55669E-03
         0.65627E-03
         0.10853E-02
         0.73461E-03
         0.47755E-02
         0.48984E-02
         0.51368E-02
         0.51005E-02
         0.54244E-02
         0.58101E-02
         0.55686E-02
         0.49619E-02
         0.48366E-02
         0.51723E-02
         0.50794E-02
         0.50260E-02
         0.41480E-02
         0.39445E-02
         0.43437E-02
         0.46640E-02
         0.48410E-02
         0.52798E-02
         0.50577E-02
         0.51948E-02
         0.46749E-02
         0.44414E-02
         0.47173E-02
         0.45916E-02
         0.47313E-02
         0.46932E-02
         0.85214E-03
         0.50749E-03
         0.48198E-03
         0.33508E-03
         0.87054E-03
         0.60068E-03
         0.27898E-03
         0.83949E-03
         0.53359E-03
         0.81298E-03
         0.38275E-03
         0.16427E-02
         0.12557E-02
         0.60240E-03
         0.17477E-02
         0.62192E-03
         0.32457E-03
         0.19051E-03
         0.41685E-03
         0.21615E-03
         0.12950E-02
         0.12118E-02
         0.11817E-02
         0.30674E-03
         0.53427E-03
         0.15860E-03
         0.59116E-03
         0.85524E-04
         0.23002E-03
         0.55888E-03
         0.53121E-03
         0.27657E-03
         0.33062E-03
         0.29736E-03
         0.11408E-02
         0.67585E-03
         0.87518E-03
         0.14368E-02
         0.11177E-02
         0.10279E-02
         0.14434E-02
         0.13049E-02
         0.13067E-02
         0.10114E-02
         0.90064E-03
         0.12334E-02
         0.80951E-03
         0.68739E-03
         0.55610E-03
         0.65544E-03
         0.10847E-02
         0.73350E-03
         0.47737E-02
         0.48973E-02
         0.51367E-02
         0.51006E-02
         0.54235E-02
         0.58081E-02
         0.55662E-02
         0.49606E-02
         0.48354E-02
         0.51707E-02
         0.50786E-02
         0.50263E-02
         0.41479E-02
         0.39444E-02
         0.43444E-02
         0.46655E-02
         0.48427E-02
         0.52810E-02
         0.50573E-02
         0.51944E-02
         0.46745E-02
         0.44412E-02
         0.47156E-02
         0.45886E-02
         0.47287E-02
         0.46907E-02
         0.85266E-03
         0.50749E-03
         0.48223E-03
         0.33557E-03
         0.87019E-03
         0.60034E-03
         0.27974E-03
         0.84006E-03
         0.53453E-03
         0.81496E-03
         0.38293E-03
         0.16428E-02
         0.12563E-02
         0.60098E-03
         0.17495E-02
         0.62253E-03
         0.32552E-03
         0.19000E-03
         0.41712E-03
         0.21566E-03
         0.12952E-02
         0.12118E-02
         0.11818E-02
         0.30673E-03
         0.53616E-03
         0.15846E-03
         0.59132E-03
         0.85040E-04
         0.23102E-03
         0.55959E-03
         0.53169E-03
         0.27641E-03
         0.33006E-03
         0.29763E-03
         0.11413E-02
         0.67574E-03
         0.87505E-03
         0.14391E-02
         0.11203E-02
         0.10295E-02
         0.14445E-02
         0.13057E-02
         0.13070E-02
         0.10117E-02
         0.90073E-03
         0.12336E-02
         0.80972E-03
         0.68751E-03
         0.55552E-03
         0.65460E-03
         0.10842E-02
         0.73241E-03
         0.47719E-02
         0.48961E-02
         0.51366E-02
         0.51006E-02
         0.54226E-02
         0.58061E-02
         0.55637E-02
         0.49592E-02
         0.48341E-02
         0.51690E-02
         0.50777E-02
         0.50267E-02
         0.41477E-02
         0.39443E-02
         0.43450E-02
         0.46671E-02
         0.48443E-02
         0.52822E-02
         0.50570E-02
         0.51941E-02
         0.46741E-02
         0.44410E-02
         0.47140E-02
         0.45856E-02
         0.47260E-02
         0.46882E-02
         0.85317E-03
         0.50748E-03
         0.48247E-03
         0.33606E-03
         0.86982E-03
         0.59999E-03
         0.28050E-03
         0.84061E-03
         0.53547E-03
         0.81691E-03
         0.38311E-03
         0.16428E-02
         0.12568E-02
         0.59956E-03
         0.17513E-02
         0.62314E-03
         0.32647E-03
         0.18949E-03
         0.41740E-03
         0.21520E-03
         0.12954E-02
         0.12118E-02
         0.11820E-02
         0.30670E-03
         0.53805E-03
         0.15832E-03
         0.59142E-03
         0.84553E-04
         0.23204E-03
         0.56027E-03
         0.53217E-03
         0.27624E-03
         0.32950E-03
         0.29789E-03
         0.11419E-02
         0.67566E-03
         0.87494E-03
         0.14414E-02
         0.11229E-02
         0.10310E-02
         0.14456E-02
         0.13064E-02
         0.13073E-02
         0.10120E-02
         0.90083E-03
         0.12338E-02
         0.80991E-03
         0.68763E-03
         0.55492E-03
         0.65376E-03
         0.10837E-02
         0.73129E-03
         0.47702E-02
         0.48950E-02
         0.51365E-02
         0.51006E-02
         0.54217E-02
         0.58041E-02
         0.55613E-02
         0.49578E-02
         0.48329E-02
         0.51673E-02
         0.50769E-02
         0.50272E-02
         0.41477E-02
         0.39442E-02
         0.43457E-02
         0.46686E-02
         0.48460E-02
         0.52834E-02
         0.50567E-02
         0.51938E-02
         0.46737E-02
         0.44408E-02
         0.47123E-02
         0.45826E-02
         0.47234E-02
         0.46857E-02
         0.85368E-03
         0.50748E-03
         0.48271E-03
         0.33655E-03
         0.86945E-03
         0.59965E-03
         0.28126E-03
         0.84117E-03
         0.53642E-03
         0.81885E-03
         0.38330E-03
         0.16428E-02
         0.12574E-02
         0.59812E-03
         0.17531E-02
         0.62374E-03
         0.32743E-03
         0.18898E-03
         0.41767E-03
         0.21474E-03
         0.12957E-02
         0.12118E-02
         0.11821E-02
         0.30668E-03
         0.53993E-03
         0.15818E-03
         0.59149E-03
         0.84061E-04
         0.23307E-03
         0.56091E-03
         0.53265E-03
         0.27608E-03
         0.32895E-03
         0.29815E-03
         0.11425E-02
         0.67555E-03
         0.87482E-03
         0.14437E-02
         0.11255E-02
         0.10325E-02
         0.14466E-02
         0.13070E-02
         0.13075E-02
         0.10122E-02
         0.90094E-03
         0.12340E-02
         0.81011E-03
         0.68774E-03
         0.55434E-03
         0.65291E-03
         0.10832E-02
         0.73017E-03
         0.47684E-02
         0.48938E-02
         0.51364E-02
         0.51006E-02
         0.54208E-02
         0.58021E-02
         0.55589E-02
         0.49565E-02
         0.48317E-02
         0.51654E-02
         0.50761E-02
         0.50278E-02
         0.41477E-02
         0.39442E-02
         0.43464E-02
         0.46701E-02
         0.48477E-02
         0.52846E-02
         0.50563E-02
         0.51935E-02
         0.46733E-02
         0.44406E-02
         0.47107E-02
         0.45796E-02
         0.47208E-02
         0.46832E-02
         0.85420E-03
         0.50748E-03
         0.48296E-03
         0.33704E-03
         0.86911E-03
         0.59932E-03
         0.28202E-03
         0.84173E-03
         0.53737E-03
         0.82079E-03
         0.38350E-03
         0.16428E-02
         0.12580E-02
         0.59669E-03
         0.17549E-02
         0.62435E-03
         0.32838E-03
         0.18847E-03
         0.41795E-03
         0.21429E-03
         0.12959E-02
         0.12117E-02
         0.11822E-02
         0.30667E-03
         0.54181E-03
         0.15805E-03
         0.59154E-03
         0.83571E-04
         0.23409E-03
         0.56154E-03
         0.53314E-03
         0.27592E-03
         0.32841E-03
         0.29842E-03
         0.11431E-02
         0.67546E-03
         0.87469E-03
         0.14459E-02
         0.11280E-02
         0.10339E-02
         0.14475E-02
         0.13076E-02
         0.13078E-02
         0.10125E-02
         0.90102E-03
         0.12342E-02
         0.81032E-03
         0.68787E-03
         0.55376E-03
         0.65208E-03
         0.10827E-02
         0.72908E-03
         0.47667E-02
         0.48927E-02
         0.51363E-02
         0.51006E-02
         0.54200E-02
         0.58001E-02
         0.55565E-02
         0.49551E-02
         0.48305E-02
         0.51636E-02
         0.50753E-02
         0.50285E-02
         0.41477E-02
         0.39441E-02
         0.43470E-02
         0.46717E-02
         0.48493E-02
         0.52858E-02
         0.50560E-02
         0.51932E-02
         0.46729E-02
         0.44403E-02
         0.47090E-02
         0.45766E-02
         0.47182E-02
         0.46807E-02
         0.87046E-03
         0.53272E-03
         0.50920E-03
         0.36738E-03
         0.88961E-03
         0.62393E-03
         0.33030E-03
         0.86186E-03
         0.55995E-03
         0.84261E-03
         0.42828E-03
         0.16611E-02
         0.12768E-02
         0.62758E-03
         0.17752E-02
         0.64325E-03
         0.36514E-03
         0.23275E-03
         0.44958E-03
         0.27327E-03
         0.13117E-02
         0.12284E-02
         0.11978E-02
         0.34424E-03
         0.57164E-03
         0.21697E-03
         0.62324E-03
         0.20331E-03
         0.30059E-03
         0.59125E-03
         0.55480E-03
         0.31627E-03
         0.35886E-03
         0.33510E-03
         0.11638E-02
         0.70050E-03
         0.89508E-03
         0.14672E-02
         0.11518E-02
         0.10574E-02
         0.14670E-02
         0.13263E-02
         0.13247E-02
         0.10290E-02
         0.92009E-03
         0.12535E-02
         0.83268E-03
         0.71040E-03
         0.57898E-03
         0.67550E-03
         0.11017E-02
         0.75056E-03
         0.47853E-02
         0.49112E-02
         0.51561E-02
         0.51199E-02
         0.54390E-02
         0.58190E-02
         0.55756E-02
         0.49756E-02
         0.48513E-02
         0.51841E-02
         0.50962E-02
         0.50491E-02
         0.41661E-02
         0.39615E-02
         0.43646E-02
         0.46899E-02
         0.48677E-02
         0.53051E-02
         0.50758E-02
         0.52130E-02
         0.46912E-02
         0.44583E-02
         0.47261E-02
         0.45925E-02
         0.47341E-02
         0.46967E-02
         0.20393E-02
         0.18359E-02
         0.17989E-02
         0.15950E-02
         0.22190E-02
         0.19388E-02
         0.18529E-02
         0.21984E-02
         0.17581E-02
         0.21803E-02
         0.20498E-02
         0.31724E-02
         0.26792E-02
         0.22014E-02
         0.33477E-02
         0.17948E-02
         0.17184E-02
         0.14752E-02
         0.18055E-02
         0.18108E-02
         0.25988E-02
         0.25587E-02
         0.24396E-02
         0.16987E-02
         0.20057E-02
         0.16007E-02
         0.21958E-02
         0.19916E-02
         0.20265E-02
         0.20725E-02
         0.17434E-02
         0.16810E-02
         0.16014E-02
         0.16526E-02
         0.25645E-02
         0.20900E-02
         0.22412E-02
         0.30248E-02
         0.27043E-02
         0.26057E-02
         0.30000E-02
         0.27963E-02
         0.27187E-02
         0.22567E-02
         0.22099E-02
         0.26362E-02
         0.21918E-02
         0.20189E-02
         0.19028E-02
         0.20176E-02
         0.24569E-02
         0.20720E-02
         0.66397E-02
         0.67364E-02
         0.70344E-02
         0.69735E-02
         0.73593E-02
         0.78595E-02
         0.76747E-02
         0.70470E-02
         0.69082E-02
         0.72756E-02
         0.71453E-02
         0.70048E-02
         0.59406E-02
         0.56611E-02
         0.60583E-02
         0.63801E-02
         0.65738E-02
         0.71166E-02
         0.69367E-02
         0.70994E-02
         0.64862E-02
         0.62136E-02
         0.65302E-02
         0.63905E-02
         0.65195E-02
         0.64557E-02
  
SCALARS                     nodal_mass  double 1
LOOKUP_TABLE default
         0.24608E-05
         0.19551E-05
         0.20945E-05
         0.35953E-05
         0.12304E-05
         0.97770E-06
         0.10472E-05
         0.17973E-05
         0.19315E-05
         0.24627E-05
         0.96570E-06
         0.12312E-05
         0.13823E-05
         0.16614E-05
         0.69133E-06
         0.83095E-06
         0.27274E-05
         0.20125E-05
         0.13635E-05
         0.10066E-05
         0.81737E-06
         0.15393E-05
         0.16929E-05
         0.40889E-06
         0.76975E-06
         0.84649E-06
         0.13859E-05
         0.17532E-05
         0.69345E-06
         0.87672E-06
         0.32470E-05
         0.25355E-05
         0.32225E-05
         0.16233E-05
         0.12675E-05
         0.16109E-05
         0.18980E-05
         0.21673E-05
         0.94902E-06
         0.10836E-05
         0.20482E-05
         0.22683E-05
         0.10242E-05
         0.11342E-05
         0.17426E-05
         0.10823E-05
         0.87140E-06
         0.54121E-06
         0.20598E-05
         0.10301E-05
         0.17103E-05
         0.85523E-06
         0.17977E-05
         0.89958E-06
         0.18362E-05
         0.91859E-06
         0.15911E-05
         0.19369E-05
         0.79575E-06
         0.96860E-06
         0.24553E-05
         0.17361E-05
         0.12277E-05
         0.86816E-06
         0.27409E-05
         0.13702E-05
         0.23792E-05
         0.11891E-05
         0.10821E-05
         0.16705E-05
         0.54106E-06
         0.83538E-06
         0.18955E-05
         0.94787E-06
         0.20026E-05
         0.10014E-05
         0.19316E-05
         0.96578E-06
         0.15181E-05
         0.75906E-06
         0.95443E-06
         0.15782E-05
         0.47723E-06
         0.78918E-06
         0.20886E-05
         0.10443E-05
         0.16867E-05
         0.84342E-06
         0.14838E-05
         0.74203E-06
         0.97224E-06
         0.16569E-05
         0.48620E-06
         0.82849E-06
         0.22482E-05
         0.11241E-05
         0.23568E-05
         0.11783E-05
         0.19018E-05
         0.95085E-06
         0.11709E-05
         0.20091E-05
         0.58544E-06
         0.10044E-05
         0.74681E-06
         0.94889E-06
         0.37348E-06
         0.47447E-06
         0.88885E-06
         0.44455E-06
         0.10466E-05
         0.52333E-06
         0.10205E-05
         0.51021E-06
         0.99108E-06
         0.49550E-06
         0.10560E-05
         0.52791E-06
         0.11142E-05
         0.55694E-06
         0.10497E-05
         0.52469E-06
         0.82085E-06
         0.41039E-06
         0.66950E-06
         0.33475E-06
         0.86397E-06
         0.43199E-06
         0.11504E-05
         0.57519E-06
         0.12637E-05
         0.63182E-06
         0.12132E-05
         0.60658E-06
         0.10948E-05
         0.54745E-06
         0.99429E-06
         0.49718E-06
         0.80759E-06
         0.40382E-06
         0.67982E-06
         0.33995E-06
         0.88797E-06
         0.44401E-06
         0.11753E-05
         0.58766E-06
         0.12140E-05
         0.60702E-06
         0.98236E-06
         0.49125E-06
         0.79766E-06
         0.39889E-06
         0.97540E-06
         0.48769E-06
         0.11548E-05
         0.57743E-06
         0.24609E-05
         0.19547E-05
         0.20946E-05
         0.35969E-05
         0.19318E-05
         0.24634E-05
         0.13815E-05
         0.16603E-05
         0.27283E-05
         0.20111E-05
         0.81658E-06
         0.15390E-05
         0.16927E-05
         0.13839E-05
         0.17528E-05
         0.32479E-05
         0.25367E-05
         0.32241E-05
         0.18980E-05
         0.21675E-05
         0.20481E-05
         0.22684E-05
         0.17424E-05
         0.10822E-05
         0.20589E-05
         0.17102E-05
         0.17950E-05
         0.18344E-05
         0.15904E-05
         0.19365E-05
         0.24555E-05
         0.17359E-05
         0.27423E-05
         0.23814E-05
         0.10820E-05
         0.16702E-05
         0.18953E-05
         0.20025E-05
         0.19317E-05
         0.15181E-05
         0.95442E-06
         0.15780E-05
         0.20884E-05
         0.16864E-05
         0.14835E-05
         0.97197E-06
         0.16567E-05
         0.22482E-05
         0.23571E-05
         0.19022E-05
         0.11709E-05
         0.20101E-05
         0.74658E-06
         0.94886E-06
         0.88841E-06
         0.10467E-05
         0.10207E-05
         0.99128E-06
         0.10565E-05
         0.11150E-05
         0.10503E-05
         0.82102E-06
         0.66954E-06
         0.86398E-06
         0.11506E-05
         0.12640E-05
         0.12133E-05
         0.10948E-05
         0.99421E-06
         0.80751E-06
         0.67970E-06
         0.88789E-06
         0.11752E-05
         0.12140E-05
         0.98215E-06
         0.79747E-06
         0.97551E-06
         0.11548E-05
         0.24611E-05
         0.19543E-05
         0.20949E-05
         0.35987E-05
         0.19321E-05
         0.24642E-05
         0.13808E-05
         0.16594E-05
         0.27293E-05
         0.20098E-05
         0.81582E-06
         0.15388E-05
         0.16927E-05
         0.13821E-05
         0.17525E-05
         0.32489E-05
         0.25379E-05
         0.32257E-05
         0.18982E-05
         0.21678E-05
         0.20480E-05
         0.22685E-05
         0.17423E-05
         0.10821E-05
         0.20580E-05
         0.17101E-05
         0.17924E-05
         0.18326E-05
         0.15898E-05
         0.19361E-05
         0.24558E-05
         0.17357E-05
         0.27438E-05
         0.23836E-05
         0.10821E-05
         0.16699E-05
         0.18951E-05
         0.20024E-05
         0.19318E-05
         0.15183E-05
         0.95445E-06
         0.15778E-05
         0.20884E-05
         0.16862E-05
         0.14831E-05
         0.97174E-06
         0.16566E-05
         0.22483E-05
         0.23575E-05
         0.19026E-05
         0.11709E-05
         0.20112E-05
         0.74636E-06
         0.94886E-06
         0.88800E-06
         0.10467E-05
         0.10210E-05
         0.99152E-06
         0.10570E-05
         0.11159E-05
         0.10509E-05
         0.82122E-06
         0.66961E-06
         0.86402E-06
         0.11507E-05
         0.12643E-05
         0.12135E-05
         0.10948E-05
         0.99417E-06
         0.80747E-06
         0.67961E-06
         0.88784E-06
         0.11752E-05
         0.12140E-05
         0.98197E-06
         0.79731E-06
         0.97565E-06
         0.11548E-05
         0.24612E-05
         0.19539E-05
         0.20950E-05
         0.36004E-05
         0.19324E-05
         0.24650E-05
         0.13801E-05
         0.16584E-05
         0.27303E-05
         0.20085E-05
         0.81504E-06
         0.15385E-05
         0.16925E-05
         0.13801E-05
         0.17521E-05
         0.32498E-05
         0.25390E-05
         0.32274E-05
         0.18982E-05
         0.21681E-05
         0.20479E-05
         0.22686E-05
         0.17421E-05
         0.10820E-05
         0.20571E-05
         0.17099E-05
         0.17897E-05
         0.18308E-05
         0.15891E-05
         0.19356E-05
         0.24561E-05
         0.17355E-05
         0.27453E-05
         0.23857E-05
         0.10820E-05
         0.16696E-05
         0.18948E-05
         0.20022E-05
         0.19320E-05
         0.15183E-05
         0.95445E-06
         0.15776E-05
         0.20883E-05
         0.16859E-05
         0.14828E-05
         0.97149E-06
         0.16564E-05
         0.22483E-05
         0.23578E-05
         0.19030E-05
         0.11710E-05
         0.20122E-05
         0.74613E-06
         0.94884E-06
         0.88756E-06
         0.10467E-05
         0.10212E-05
         0.99173E-06
         0.10574E-05
         0.11167E-05
         0.10515E-05
         0.82140E-06
         0.66966E-06
         0.86404E-06
         0.11509E-05
         0.12646E-05
         0.12136E-05
         0.10947E-05
         0.99410E-06
         0.80740E-06
         0.67950E-06
         0.88777E-06
         0.11752E-05
         0.12140E-05
         0.98177E-06
         0.79713E-06
         0.97576E-06
         0.11547E-05
         0.24613E-05
         0.19535E-05
         0.20952E-05
         0.36022E-05
         0.19327E-05
         0.24657E-05
         0.13794E-05
         0.16574E-05
         0.27313E-05
         0.20072E-05
         0.81426E-06
         0.15382E-05
         0.16924E-05
         0.13782E-05
         0.17517E-05
         0.32508E-05
         0.25402E-05
         0.32290E-05
         0.18983E-05
         0.21684E-05
         0.20479E-05
         0.22687E-05
         0.17420E-05
         0.10819E-05
         0.20563E-05
         0.17098E-05
         0.17870E-05
         0.18290E-05
         0.15884E-05
         0.19352E-05
         0.24563E-05
         0.17353E-05
         0.27467E-05
         0.23879E-05
         0.10820E-05
         0.16693E-05
         0.18946E-05
         0.20021E-05
         0.19321E-05
         0.15184E-05
         0.95445E-06
         0.15773E-05
         0.20882E-05
         0.16857E-05
         0.14824E-05
         0.97124E-06
         0.16563E-05
         0.22484E-05
         0.23582E-05
         0.19034E-05
         0.11710E-05
         0.20132E-05
         0.74590E-06
         0.94883E-06
         0.88713E-06
         0.10468E-05
         0.10215E-05
         0.99194E-06
         0.10579E-05
         0.11175E-05
         0.10521E-05
         0.82159E-06
         0.66972E-06
         0.86406E-06
         0.11510E-05
         0.12649E-05
         0.12138E-05
         0.10947E-05
         0.99404E-06
         0.80734E-06
         0.67940E-06
         0.88771E-06
         0.11752E-05
         0.12140E-05
         0.98157E-06
         0.79696E-06
         0.97588E-06
         0.11547E-05
         0.24615E-05
         0.19531E-05
         0.20954E-05
         0.36039E-05
         0.19331E-05
         0.24665E-05
         0.13787E-05
         0.16564E-05
         0.27322E-05
         0.20059E-05
         0.81349E-06
         0.15380E-05
         0.16923E-05
         0.13763E-05
         0.17514E-05
         0.32518E-05
         0.25414E-05
         0.32306E-05
         0.18984E-05
         0.21687E-05
         0.20478E-05
         0.22688E-05
         0.17418E-05
         0.10818E-05
         0.20554E-05
         0.17096E-05
         0.17843E-05
         0.18272E-05
         0.15878E-05
         0.19347E-05
         0.24566E-05
         0.17351E-05
         0.27482E-05
         0.23901E-05
         0.10820E-05
         0.16690E-05
         0.18943E-05
         0.20019E-05
         0.19322E-05
         0.15185E-05
         0.95446E-06
         0.15771E-05
         0.20881E-05
         0.16855E-05
         0.14821E-05
         0.97100E-06
         0.16562E-05
         0.22484E-05
         0.23586E-05
         0.19038E-05
         0.11710E-05
         0.20142E-05
         0.74568E-06
         0.94882E-06
         0.88671E-06
         0.10468E-05
         0.10217E-05
         0.99216E-06
         0.10583E-05
         0.11183E-05
         0.10528E-05
         0.82178E-06
         0.66977E-06
         0.86408E-06
         0.11512E-05
         0.12652E-05
         0.12139E-05
         0.10947E-05
         0.99398E-06
         0.80728E-06
         0.67930E-06
         0.88766E-06
         0.11752E-05
         0.12140E-05
         0.98138E-06
         0.79679E-06
         0.97601E-06
         0.11547E-05
         0.24616E-05
         0.19527E-05
         0.20956E-05
         0.36056E-05
         0.19334E-05
         0.24672E-05
         0.13779E-05
         0.16554E-05
         0.27332E-05
         0.20046E-05
         0.81271E-06
         0.15377E-05
         0.16922E-05
         0.13744E-05
         0.17510E-05
         0.32527E-05
         0.25425E-05
         0.32322E-05
         0.18984E-05
         0.21689E-05
         0.20477E-05
         0.22689E-05
         0.17416E-05
         0.10816E-05
         0.20545E-05
         0.17095E-05
         0.17817E-05
         0.18254E-05
         0.15871E-05
         0.19343E-05
         0.24568E-05
         0.17349E-05
         0.27496E-05
         0.23922E-05
         0.10820E-05
         0.16686E-05
         0.18941E-05
         0.20018E-05
         0.19324E-05
         0.15186E-05
         0.95446E-06
         0.15769E-05
         0.20880E-05
         0.16852E-05
         0.14817E-05
         0.97074E-06
         0.16560E-05
         0.22484E-05
         0.23589E-05
         0.19042E-05
         0.11710E-05
         0.20152E-05
         0.74544E-06
         0.94880E-06
         0.88627E-06
         0.10469E-05
         0.10219E-05
         0.99237E-06
         0.10588E-05
         0.11191E-05
         0.10534E-05
         0.82196E-06
         0.66982E-06
         0.86410E-06
         0.11513E-05
         0.12654E-05
         0.12140E-05
         0.10947E-05
         0.99391E-06
         0.80721E-06
         0.67919E-06
         0.88759E-06
         0.11751E-05
         0.12140E-05
         0.98118E-06
         0.79661E-06
         0.97612E-06
         0.11546E-05
         0.24618E-05
         0.19523E-05
         0.20957E-05
         0.36073E-05
         0.19337E-05
         0.24680E-05
         0.13772E-05
         0.16545E-05
         0.27341E-05
         0.20033E-05
         0.81194E-06
         0.15374E-05
         0.16921E-05
         0.13725E-05
         0.17506E-05
         0.32537E-05
         0.25437E-05
         0.32339E-05
         0.18985E-05
         0.21692E-05
         0.20476E-05
         0.22690E-05
         0.17414E-05
         0.10815E-05
         0.20536E-05
         0.17093E-05
         0.17790E-05
         0.18236E-05
         0.15864E-05
         0.19339E-05
         0.24571E-05
         0.17347E-05
         0.27511E-05
         0.23944E-05
         0.10820E-05
         0.16683E-05
         0.18938E-05
         0.20016E-05
         0.19325E-05
         0.15186E-05
         0.95446E-06
         0.15767E-05
         0.20878E-05
         0.16850E-05
         0.14814E-05
         0.97050E-06
         0.16559E-05
         0.22484E-05
         0.23593E-05
         0.19046E-05
         0.11711E-05
         0.20162E-05
         0.74522E-06
         0.94878E-06
         0.88584E-06
         0.10469E-05
         0.10222E-05
         0.99258E-06
         0.10593E-05
         0.11199E-05
         0.10540E-05
         0.82215E-06
         0.66988E-06
         0.86413E-06
         0.11515E-05
         0.12657E-05
         0.12142E-05
         0.10946E-05
         0.99385E-06
         0.80715E-06
         0.67909E-06
         0.88752E-06
         0.11751E-05
         0.12140E-05
         0.98098E-06
         0.79643E-06
         0.97624E-06
         0.11546E-05
         0.24619E-05
         0.19519E-05
         0.20959E-05
         0.36091E-05
         0.19340E-05
         0.24688E-05
         0.13765E-05
         0.16535E-05
         0.27351E-05
         0.20020E-05
         0.81117E-06
         0.15372E-05
         0.16920E-05
         0.13706E-05
         0.17503E-05
         0.32546E-05
         0.25448E-05
         0.32355E-05
         0.18986E-05
         0.21695E-05
         0.20475E-05
         0.22691E-05
         0.17413E-05
         0.10814E-05
         0.20527E-05
         0.17092E-05
         0.17763E-05
         0.18219E-05
         0.15858E-05
         0.19334E-05
         0.24573E-05
         0.17345E-05
         0.27525E-05
         0.23966E-05
         0.10820E-05
         0.16680E-05
         0.18936E-05
         0.20015E-05
         0.19326E-05
         0.15187E-05
         0.95447E-06
         0.15765E-05
         0.20878E-05
         0.16848E-05
         0.14810E-05
         0.97025E-06
         0.16557E-05
         0.22485E-05
         0.23597E-05
         0.19050E-05
         0.11711E-05
         0.20172E-05
         0.74499E-06
         0.94877E-06
         0.88541E-06
         0.10469E-05
         0.10224E-05
         0.99280E-06
         0.10597E-05
         0.11207E-05
         0.10546E-05
         0.82234E-06
         0.66994E-06
         0.86415E-06
         0.11517E-05
         0.12660E-05
         0.12143E-05
         0.10946E-05
         0.99379E-06
         0.80709E-06
         0.67898E-06
         0.88746E-06
         0.11751E-05
         0.12140E-05
         0.98079E-06
         0.79626E-06
         0.97636E-06
         0.11546E-05
         0.24621E-05
         0.19515E-05
         0.20961E-05
         0.36108E-05
         0.19343E-05
         0.24695E-05
         0.13758E-05
         0.16525E-05
         0.27361E-05
         0.20006E-05
         0.81039E-06
         0.15369E-05
         0.16919E-05
         0.13686E-05
         0.17499E-05
         0.32556E-05
         0.25460E-05
         0.32371E-05
         0.18986E-05
         0.21697E-05
         0.20474E-05
         0.22692E-05
         0.17411E-05
         0.10813E-05
         0.20519E-05
         0.17091E-05
         0.17736E-05
         0.18201E-05
         0.15851E-05
         0.19330E-05
         0.24575E-05
         0.17342E-05
         0.27540E-05
         0.23987E-05
         0.10820E-05
         0.16677E-05
         0.18933E-05
         0.20014E-05
         0.19328E-05
         0.15188E-05
         0.95448E-06
         0.15763E-05
         0.20876E-05
         0.16845E-05
         0.14807E-05
         0.97000E-06
         0.16556E-05
         0.22485E-05
         0.23600E-05
         0.19053E-05
         0.11711E-05
         0.20182E-05
         0.74476E-06
         0.94875E-06
         0.88498E-06
         0.10470E-05
         0.10227E-05
         0.99301E-06
         0.10602E-05
         0.11215E-05
         0.10553E-05
         0.82252E-06
         0.66999E-06
         0.86417E-06
         0.11518E-05
         0.12663E-05
         0.12145E-05
         0.10946E-05
         0.99373E-06
         0.80702E-06
         0.67888E-06
         0.88740E-06
         0.11751E-05
         0.12140E-05
         0.98058E-06
         0.79608E-06
         0.97648E-06
         0.11546E-05
         0.24622E-05
         0.19511E-05
         0.20963E-05
         0.36125E-05
         0.19346E-05
         0.24703E-05
         0.13751E-05
         0.16515E-05
         0.27370E-05
         0.19993E-05
         0.80962E-06
         0.15366E-05
         0.16917E-05
         0.13667E-05
         0.17495E-05
         0.32565E-05
         0.25471E-05
         0.32388E-05
         0.18987E-05
         0.21700E-05
         0.20473E-05
         0.22693E-05
         0.17409E-05
         0.10812E-05
         0.20510E-05
         0.17089E-05
         0.17710E-05
         0.18183E-05
         0.15844E-05
         0.19325E-05
         0.24578E-05
         0.17340E-05
         0.27554E-05
         0.24009E-05
         0.10820E-05
         0.16674E-05
         0.18931E-05
         0.20012E-05
         0.19329E-05
         0.15189E-05
         0.95448E-06
         0.15760E-05
         0.20875E-05
         0.16843E-05
         0.14803E-05
         0.96975E-06
         0.16555E-05
         0.22485E-05
         0.23604E-05
         0.19057E-05
         0.11712E-05
         0.20192E-05
         0.74453E-06
         0.94874E-06
         0.88455E-06
         0.10470E-05
         0.10229E-05
         0.99322E-06
         0.10606E-05
         0.11223E-05
         0.10559E-05
         0.82270E-06
         0.67004E-06
         0.86419E-06
         0.11520E-05
         0.12666E-05
         0.12146E-05
         0.10945E-05
         0.99366E-06
         0.80696E-06
         0.67877E-06
         0.88733E-06
         0.11751E-05
         0.12140E-05
         0.98038E-06
         0.79590E-06
         0.97660E-06
         0.11545E-05
         0.24623E-05
         0.19507E-05
         0.20964E-05
         0.36142E-05
         0.19349E-05
         0.24710E-05
         0.13743E-05
         0.16505E-05
         0.27380E-05
         0.19980E-05
         0.80885E-06
         0.15364E-05
         0.16916E-05
         0.13648E-05
         0.17492E-05
         0.32575E-05
         0.25483E-05
         0.32404E-05
         0.18988E-05
         0.21703E-05
         0.20473E-05
         0.22694E-05
         0.17407E-05
         0.10811E-05
         0.20501E-05
         0.17088E-05
         0.17683E-05
         0.18165E-05
         0.15837E-05
         0.19321E-05
         0.24580E-05
         0.17338E-05
         0.27569E-05
         0.24031E-05
         0.10820E-05
         0.16670E-05
         0.18928E-05
         0.20011E-05
         0.19330E-05
         0.15189E-05
         0.95448E-06
         0.15758E-05
         0.20874E-05
         0.16840E-05
         0.14800E-05
         0.96950E-06
         0.16553E-05
         0.22485E-05
         0.23608E-05
         0.19061E-05
         0.11712E-05
         0.20202E-05
         0.74430E-06
         0.94872E-06
         0.88412E-06
         0.10470E-05
         0.10231E-05
         0.99344E-06
         0.10611E-05
         0.11231E-05
         0.10565E-05
         0.82289E-06
         0.67009E-06
         0.86422E-06
         0.11521E-05
         0.12669E-05
         0.12147E-05
         0.10945E-05
         0.99360E-06
         0.80690E-06
         0.67867E-06
         0.88727E-06
         0.11750E-05
         0.12140E-05
         0.98019E-06
         0.79573E-06
         0.97672E-06
         0.11545E-05
         0.24625E-05
         0.19503E-05
         0.20966E-05
         0.36160E-05
         0.19352E-05
         0.24718E-05
         0.13736E-05
         0.16496E-05
         0.27389E-05
         0.19967E-05
         0.80807E-06
         0.15361E-05
         0.16915E-05
         0.13629E-05
         0.17488E-05
         0.32584E-05
         0.25495E-05
         0.32420E-05
         0.18988E-05
         0.21705E-05
         0.20472E-05
         0.22695E-05
         0.17406E-05
         0.10810E-05
         0.20492E-05
         0.17086E-05
         0.17656E-05
         0.18147E-05
         0.15831E-05
         0.19317E-05
         0.24583E-05
         0.17336E-05
         0.27583E-05
         0.24053E-05
         0.10820E-05
         0.16667E-05
         0.18926E-05
         0.20009E-05
         0.19331E-05
         0.15190E-05
         0.95449E-06
         0.15756E-05
         0.20873E-05
         0.16838E-05
         0.14796E-05
         0.96925E-06
         0.16552E-05
         0.22486E-05
         0.23611E-05
         0.19065E-05
         0.11712E-05
         0.20212E-05
         0.74407E-06
         0.94870E-06
         0.88368E-06
         0.10471E-05
         0.10234E-05
         0.99365E-06
         0.10616E-05
         0.11239E-05
         0.10571E-05
         0.82307E-06
         0.67014E-06
         0.86424E-06
         0.11523E-05
         0.12672E-05
         0.12149E-05
         0.10945E-05
         0.99354E-06
         0.80683E-06
         0.67856E-06
         0.88721E-06
         0.11750E-05
         0.12140E-05
         0.97999E-06
         0.79555E-06
         0.97684E-06
         0.11545E-05
         0.24626E-05
         0.19499E-05
         0.20968E-05
         0.36177E-05
         0.19355E-05
         0.24725E-05
         0.13729E-05
         0.16486E-05
         0.27399E-05
         0.19954E-05
         0.80730E-06
         0.15358E-05
         0.16914E-05
         0.13610E-05
         0.17484E-05
         0.32594E-05
         0.25506E-05
         0.32437E-05
         0.18989E-05
         0.21708E-05
         0.20471E-05
         0.22696E-05
         0.17404E-05
         0.10808E-05
         0.20483E-05
         0.17085E-05
         0.17629E-05
         0.18129E-05
         0.15824E-05
         0.19312E-05
         0.24585E-05
         0.17334E-05
         0.27598E-05
         0.24074E-05
         0.10820E-05
         0.16664E-05
         0.18923E-05
         0.20008E-05
         0.19333E-05
         0.15191E-05
         0.95449E-06
         0.15754E-05
         0.20872E-05
         0.16835E-05
         0.14793E-05
         0.96901E-06
         0.16550E-05
         0.22486E-05
         0.23615E-05
         0.19069E-05
         0.11713E-05
         0.20222E-05
         0.74384E-06
         0.94869E-06
         0.88325E-06
         0.10471E-05
         0.10236E-05
         0.99386E-06
         0.10620E-05
         0.11247E-05
         0.10577E-05
         0.82326E-06
         0.67020E-06
         0.86426E-06
         0.11524E-05
         0.12674E-05
         0.12150E-05
         0.10944E-05
         0.99348E-06
         0.80677E-06
         0.67846E-06
         0.88714E-06
         0.11750E-05
         0.12140E-05
         0.97979E-06
         0.79538E-06
         0.97696E-06
         0.11544E-05
         0.24628E-05
         0.19495E-05
         0.20970E-05
         0.36194E-05
         0.19358E-05
         0.24733E-05
         0.13722E-05
         0.16476E-05
         0.27409E-05
         0.19941E-05
         0.80652E-06
         0.15355E-05
         0.16913E-05
         0.13591E-05
         0.17481E-05
         0.32604E-05
         0.25518E-05
         0.32453E-05
         0.18990E-05
         0.21711E-05
         0.20470E-05
         0.22697E-05
         0.17402E-05
         0.10807E-05
         0.20474E-05
         0.17084E-05
         0.17603E-05
         0.18111E-05
         0.15817E-05
         0.19308E-05
         0.24588E-05
         0.17332E-05
         0.27613E-05
         0.24096E-05
         0.10819E-05
         0.16661E-05
         0.18921E-05
         0.20006E-05
         0.19334E-05
         0.15192E-05
         0.95450E-06
         0.15752E-05
         0.20871E-05
         0.16833E-05
         0.14789E-05
         0.96876E-06
         0.16549E-05
         0.22486E-05
         0.23619E-05
         0.19073E-05
         0.11713E-05
         0.20232E-05
         0.74362E-06
         0.94868E-06
         0.88282E-06
         0.10472E-05
         0.10238E-05
         0.99408E-06
         0.10625E-05
         0.11255E-05
         0.10584E-05
         0.82345E-06
         0.67025E-06
         0.86428E-06
         0.11526E-05
         0.12677E-05
         0.12152E-05
         0.10944E-05
         0.99342E-06
         0.80671E-06
         0.67836E-06
         0.88709E-06
         0.11750E-05
         0.12140E-05
         0.97959E-06
         0.79521E-06
         0.97708E-06
         0.11544E-05
         0.24629E-05
         0.19491E-05
         0.20972E-05
         0.36212E-05
         0.19361E-05
         0.24741E-05
         0.13715E-05
         0.16466E-05
         0.27418E-05
         0.19928E-05
         0.80575E-06
         0.15353E-05
         0.16912E-05
         0.13572E-05
         0.17477E-05
         0.32613E-05
         0.25529E-05
         0.32469E-05
         0.18990E-05
         0.21714E-05
         0.20469E-05
         0.22698E-05
         0.17400E-05
         0.10806E-05
         0.20466E-05
         0.17082E-05
         0.17576E-05
         0.18093E-05
         0.15810E-05
         0.19303E-05
         0.24590E-05
         0.17330E-05
         0.27627E-05
         0.24118E-05
         0.10819E-05
         0.16658E-05
         0.18919E-05
         0.20005E-05
         0.19335E-05
         0.15192E-05
         0.95450E-06
         0.15750E-05
         0.20870E-05
         0.16831E-05
         0.14786E-05
         0.96851E-06
         0.16548E-05
         0.22487E-05
         0.23622E-05
         0.19077E-05
         0.11713E-05
         0.20242E-05
         0.74339E-06
         0.94866E-06
         0.88239E-06
         0.10472E-05
         0.10241E-05
         0.99429E-06
         0.10630E-05
         0.11263E-05
         0.10590E-05
         0.82363E-06
         0.67030E-06
         0.86430E-06
         0.11527E-05
         0.12680E-05
         0.12153E-05
         0.10944E-05
         0.99335E-06
         0.80665E-06
         0.67825E-06
         0.88702E-06
         0.11749E-05
         0.12140E-05
         0.97939E-06
         0.79503E-06
         0.97720E-06
         0.11544E-05
         0.24631E-05
         0.19487E-05
         0.20973E-05
         0.36229E-05
         0.19364E-05
         0.24748E-05
         0.13707E-05
         0.16456E-05
         0.27428E-05
         0.19915E-05
         0.80498E-06
         0.15350E-05
         0.16911E-05
         0.13553E-05
         0.17473E-05
         0.32623E-05
         0.25541E-05
         0.32486E-05
         0.18991E-05
         0.21716E-05
         0.20468E-05
         0.22699E-05
         0.17399E-05
         0.10805E-05
         0.20457E-05
         0.17081E-05
         0.17549E-05
         0.18075E-05
         0.15804E-05
         0.19299E-05
         0.24592E-05
         0.17328E-05
         0.27642E-05
         0.24140E-05
         0.10819E-05
         0.16654E-05
         0.18916E-05
         0.20003E-05
         0.19337E-05
         0.15193E-05
         0.95450E-06
         0.15748E-05
         0.20869E-05
         0.16828E-05
         0.14782E-05
         0.96826E-06
         0.16546E-05
         0.22487E-05
         0.23626E-05
         0.19081E-05
         0.11714E-05
         0.20253E-05
         0.74316E-06
         0.94864E-06
         0.88196E-06
         0.10472E-05
         0.10243E-05
         0.99450E-06
         0.10634E-05
         0.11271E-05
         0.10596E-05
         0.82381E-06
         0.67036E-06
         0.86432E-06
         0.11529E-05
         0.12683E-05
         0.12154E-05
         0.10943E-05
         0.99329E-06
         0.80658E-06
         0.67815E-06
         0.88696E-06
         0.11749E-05
         0.12140E-05
         0.97919E-06
         0.79485E-06
         0.97732E-06
         0.11544E-05
         0.24632E-05
         0.19483E-05
         0.20975E-05
         0.36246E-05
         0.19368E-05
         0.24756E-05
         0.13700E-05
         0.16447E-05
         0.27437E-05
         0.19902E-05
         0.80421E-06
         0.15347E-05
         0.16910E-05
         0.13534E-05
         0.17470E-05
         0.32632E-05
         0.25552E-05
         0.32502E-05
         0.18992E-05
         0.21719E-05
         0.20467E-05
         0.22700E-05
         0.17397E-05
         0.10804E-05
         0.20448E-05
         0.17079E-05
         0.17523E-05
         0.18057E-05
         0.15797E-05
         0.19295E-05
         0.24595E-05
         0.17326E-05
         0.27656E-05
         0.24161E-05
         0.10819E-05
         0.16651E-05
         0.18914E-05
         0.20002E-05
         0.19338E-05
         0.15194E-05
         0.95451E-06
         0.15745E-05
         0.20868E-05
         0.16826E-05
         0.14779E-05
         0.96801E-06
         0.16545E-05
         0.22487E-05
         0.23630E-05
         0.19085E-05
         0.11714E-05
         0.20263E-05
         0.74293E-06
         0.94863E-06
         0.88153E-06
         0.10473E-05
         0.10245E-05
         0.99472E-06
         0.10639E-05
         0.11279E-05
         0.10602E-05
         0.82400E-06
         0.67041E-06
         0.86435E-06
         0.11530E-05
         0.12686E-05
         0.12156E-05
         0.10943E-05
         0.99323E-06
         0.80652E-06
         0.67804E-06
         0.88690E-06
         0.11749E-05
         0.12140E-05
         0.97900E-06
         0.79468E-06
         0.97744E-06
         0.11543E-05
         0.24633E-05
         0.19479E-05
         0.20977E-05
         0.36264E-05
         0.19371E-05
         0.24763E-05
         0.13693E-05
         0.16437E-05
         0.27447E-05
         0.19888E-05
         0.80343E-06
         0.15345E-05
         0.16908E-05
         0.13515E-05
         0.17466E-05
         0.32642E-05
         0.25564E-05
         0.32518E-05
         0.18992E-05
         0.21722E-05
         0.20466E-05
         0.22701E-05
         0.17395E-05
         0.10803E-05
         0.20439E-05
         0.17078E-05
         0.17496E-05
         0.18039E-05
         0.15790E-05
         0.19290E-05
         0.24597E-05
         0.17323E-05
         0.27671E-05
         0.24183E-05
         0.10819E-05
         0.16648E-05
         0.18911E-05
         0.20001E-05
         0.19339E-05
         0.15195E-05
         0.95452E-06
         0.15743E-05
         0.20867E-05
         0.16823E-05
         0.14775E-05
         0.96776E-06
         0.16543E-05
         0.22487E-05
         0.23633E-05
         0.19089E-05
         0.11714E-05
         0.20273E-05
         0.74270E-06
         0.94861E-06
         0.88109E-06
         0.10473E-05
         0.10248E-05
         0.99493E-06
         0.10643E-05
         0.11287E-05
         0.10609E-05
         0.82418E-06
         0.67046E-06
         0.86437E-06
         0.11532E-05
         0.12689E-05
         0.12157E-05
         0.10943E-05
         0.99316E-06
         0.80646E-06
         0.67794E-06
         0.88683E-06
         0.11749E-05
         0.12140E-05
         0.97879E-06
         0.79450E-06
         0.97755E-06
         0.11543E-05
         0.24635E-05
         0.19475E-05
         0.20979E-05
         0.36281E-05
         0.19374E-05
         0.24771E-05
         0.13686E-05
         0.16427E-05
         0.27456E-05
         0.19875E-05
         0.80266E-06
         0.15342E-05
         0.16907E-05
         0.13496E-05
         0.17463E-05
         0.32651E-05
         0.25575E-05
         0.32534E-05
         0.18993E-05
         0.21724E-05
         0.20466E-05
         0.22702E-05
         0.17393E-05
         0.10802E-05
         0.20430E-05
         0.17076E-05
         0.17469E-05
         0.18021E-05
         0.15784E-05
         0.19286E-05
         0.24600E-05
         0.17321E-05
         0.27685E-05
         0.24205E-05
         0.10819E-05
         0.16645E-05
         0.18909E-05
         0.19999E-05
         0.19341E-05
         0.15195E-05
         0.95452E-06
         0.15741E-05
         0.20866E-05
         0.16821E-05
         0.14772E-05
         0.96751E-06
         0.16542E-05
         0.22488E-05
         0.23637E-05
         0.19092E-05
         0.11715E-05
         0.20283E-05
         0.74247E-06
         0.94860E-06
         0.88066E-06
         0.10473E-05
         0.10250E-05
         0.99514E-06
         0.10648E-05
         0.11295E-05
         0.10615E-05
         0.82437E-06
         0.67052E-06
         0.86439E-06
         0.11533E-05
         0.12691E-05
         0.12159E-05
         0.10942E-05
         0.99310E-06
         0.80639E-06
         0.67783E-06
         0.88676E-06
         0.11748E-05
         0.12140E-05
         0.97859E-06
         0.79433E-06
         0.97767E-06
         0.11543E-05
         0.24636E-05
         0.19471E-05
         0.20980E-05
         0.36298E-05
         0.19377E-05
         0.24779E-05
         0.13679E-05
         0.16417E-05
         0.27466E-05
         0.19862E-05
         0.80189E-06
         0.15339E-05
         0.16906E-05
         0.13477E-05
         0.17459E-05
         0.32661E-05
         0.25587E-05
         0.32551E-05
         0.18994E-05
         0.21727E-05
         0.20465E-05
         0.22703E-05
         0.17392E-05
         0.10800E-05
         0.20421E-05
         0.17075E-05
         0.17443E-05
         0.18003E-05
         0.15777E-05
         0.19281E-05
         0.24602E-05
         0.17319E-05
         0.27700E-05
         0.24227E-05
         0.10819E-05
         0.16642E-05
         0.18906E-05
         0.19998E-05
         0.19342E-05
         0.15196E-05
         0.95453E-06
         0.15739E-05
         0.20865E-05
         0.16819E-05
         0.14768E-05
         0.96727E-06
         0.16541E-05
         0.22488E-05
         0.23640E-05
         0.19096E-05
         0.11715E-05
         0.20293E-05
         0.74225E-06
         0.94859E-06
         0.88023E-06
         0.10474E-05
         0.10253E-05
         0.99535E-06
         0.10653E-05
         0.11303E-05
         0.10621E-05
         0.82456E-06
         0.67057E-06
         0.86441E-06
         0.11535E-05
         0.12694E-05
         0.12160E-05
         0.10942E-05
         0.99304E-06
         0.80633E-06
         0.67773E-06
         0.88671E-06
         0.11748E-05
         0.12140E-05
         0.97840E-06
         0.79415E-06
         0.97780E-06
         0.11542E-05
         0.24637E-05
         0.19466E-05
         0.20982E-05
         0.36315E-05
         0.19380E-05
         0.24786E-05
         0.13671E-05
         0.16407E-05
         0.27475E-05
         0.19849E-05
         0.80110E-06
         0.15336E-05
         0.16905E-05
         0.13457E-05
         0.17455E-05
         0.32669E-05
         0.25598E-05
         0.32567E-05
         0.18994E-05
         0.21729E-05
         0.20464E-05
         0.22703E-05
         0.17390E-05
         0.10799E-05
         0.20412E-05
         0.17073E-05
         0.17416E-05
         0.17985E-05
         0.15770E-05
         0.19277E-05
         0.24604E-05
         0.17317E-05
         0.27714E-05
         0.24248E-05
         0.10819E-05
         0.16638E-05
         0.18903E-05
         0.19996E-05
         0.19343E-05
         0.15196E-05
         0.95451E-06
         0.15737E-05
         0.20864E-05
         0.16816E-05
         0.14765E-05
         0.96700E-06
         0.16539E-05
         0.22488E-05
         0.23644E-05
         0.19100E-05
         0.11715E-05
         0.20303E-05
         0.74200E-06
         0.94855E-06
         0.87978E-06
         0.10474E-05
         0.10255E-05
         0.99555E-06
         0.10657E-05
         0.11311E-05
         0.10627E-05
         0.82472E-06
         0.67061E-06
         0.86442E-06
         0.11536E-05
         0.12697E-05
         0.12161E-05
         0.10941E-05
         0.99295E-06
         0.80625E-06
         0.67761E-06
         0.88662E-06
         0.11748E-05
         0.12140E-05
         0.97818E-06
         0.79396E-06
         0.97790E-06
         0.11542E-05
         0.24639E-05
         0.19463E-05
         0.20984E-05
         0.36333E-05
         0.19383E-05
         0.24794E-05
         0.13664E-05
         0.16398E-05
         0.27485E-05
         0.19836E-05
         0.80034E-06
         0.15334E-05
         0.16904E-05
         0.13439E-05
         0.17452E-05
         0.32679E-05
         0.25610E-05
         0.32583E-05
         0.18995E-05
         0.21732E-05
         0.20463E-05
         0.22704E-05
         0.17388E-05
         0.10798E-05
         0.20404E-05
         0.17072E-05
         0.17389E-05
         0.17967E-05
         0.15763E-05
         0.19272E-05
         0.24607E-05
         0.17315E-05
         0.27729E-05
         0.24270E-05
         0.10819E-05
         0.16635E-05
         0.18901E-05
         0.19995E-05
         0.19345E-05
         0.15197E-05
         0.95453E-06
         0.15735E-05
         0.20863E-05
         0.16814E-05
         0.14761E-05
         0.96677E-06
         0.16538E-05
         0.22488E-05
         0.23647E-05
         0.19104E-05
         0.11716E-05
         0.20313E-05
         0.74179E-06
         0.94855E-06
         0.87936E-06
         0.10475E-05
         0.10257E-05
         0.99577E-06
         0.10662E-05
         0.11319E-05
         0.10633E-05
         0.82492E-06
         0.67068E-06
         0.86446E-06
         0.11538E-05
         0.12700E-05
         0.12163E-05
         0.10941E-05
         0.99291E-06
         0.80620E-06
         0.67752E-06
         0.88657E-06
         0.11748E-05
         0.12140E-05
         0.97800E-06
         0.79380E-06
         0.97803E-06
         0.11542E-05
         0.12320E-05
         0.97306E-06
         0.10493E-05
         0.18171E-05
         0.96926E-06
         0.12399E-05
         0.68306E-06
         0.81967E-06
         0.13745E-05
         0.99152E-06
         0.39999E-06
         0.76665E-06
         0.84519E-06
         0.67148E-06
         0.87252E-06
         0.16343E-05
         0.12808E-05
         0.16296E-05
         0.94981E-06
         0.10867E-05
         0.10232E-05
         0.11353E-05
         0.86940E-06
         0.53990E-06
         0.10200E-05
         0.85360E-06
         0.86884E-06
         0.89793E-06
         0.78802E-06
         0.96354E-06
         0.12305E-05
         0.86572E-06
         0.13869E-05
         0.12141E-05
         0.54095E-06
         0.83170E-06
         0.94503E-06
         0.99975E-06
         0.96729E-06
         0.75992E-06
         0.47728E-06
         0.78670E-06
         0.10432E-05
         0.84065E-06
         0.73800E-06
         0.48334E-06
         0.82688E-06
         0.11245E-05
         0.11825E-05
         0.95534E-06
         0.58581E-06
         0.10159E-05
         0.37085E-06
         0.47429E-06
         0.43959E-06
         0.52375E-06
         0.51294E-06
         0.49796E-06
         0.53322E-06
         0.56619E-06
         0.53185E-06
         0.41252E-06
         0.33536E-06
         0.43225E-06
         0.57696E-06
         0.63509E-06
         0.60820E-06
         0.54708E-06
         0.49646E-06
         0.40310E-06
         0.33875E-06
         0.44329E-06
         0.58740E-06
         0.60700E-06
         0.48897E-06
         0.39687E-06
         0.48906E-06
         0.57710E-06
  
SCALARS                 Poissons_ratio  double 1
LOOKUP_TABLE default
         0.30000E+00
         0.30000E+00
         0.30000E+00
         0.30000E+00
         0.30000E+00
         0.30000E+00
         0.30000E+00
         0.30000E+00
         0.30000E+00
         0.30000E+00
         0.30000E+00
         0.30000E+00
         0.30000E+00
         0.30000E+00
         0.30000E+00
         0.30000E+00
         0.30000E+00
         0.30000E+00
         0.30000E+00
         0.30000E+00
         0.30000E+00
         0.30000E+00
         0.30000E+00
         0.30000E+00
         0.30000E+00
         0.30000E+00
         0.30000E+00
         0.30000E+00
         0.30000E+00
         0.30000E+00
         0.30000E+00
         0.30000E+00
         0.30000E+00
         0.30000E+00
         0.30000E+00
         0.30000E+00
         0.30000E+00
         0.30000E+00
         0.30000E+00
         0.30000E+00
         0.30000E+00
         0.30000E+00
         0.30000E+00
         0.30000E+00
         0.30000E+00
         0.30000E+00
         0.30000E+00
         0.30000E+00
         0.30000E+00
         0.30000E+00
         0.30000E+00
         0.30000E+00
         0.30000E+00
         0.30000E+00
         0.30000E+00
         0.30000E+00
         0.30000E+00
         0.30000E+00
         0.30000E+00
         0.30000E+00
         0.30000E+00
         0.30000E+00
         0.30000E+00
         0.30000E+00
         0.30000E+00
         0.30000E+00
         0.30000E+00
         0.30000E+00
         0.30000E+00
         0.30000E+00
         0.30000E+00
         0.30000E+00
         0.30000E+00
         0.30000E+00
         0.30000E+00
         0.30000E+00
         0.30000E+00
         0.30000E+00
         0.30000E+00
         0.30000E+00
         0.30000E+00
         0.30000E+00
         0.30000E+00
         0.30000E+00
         0.30000E+00
         0.30000E+00
         0.30000E+00
         0.30000E+00
         0.30000E+00
         0.30000E+00
         0.30000E+00
         0.30000E+00
         0.30000E+00
         0.30000E+00
         0.30000E+00
         0.30000E+00
         0.30000E+00
         0.30000E+00
         0.30000E+00
         0.30000E+00
         0.30000E+00
         0.30000E+00
         0.30000E+00
         0.30000E+00
         0.30000E+00
         0.30000E+00
         0.30000E+00
         0.30000E+00
         0.30000E+00
         0.30000E+00
         0.30000E+00
         0.30000E+00
         0.30000E+00
         0.30000E+00
         0.30000E+00
         0.30000E+00
         0.30000E+00
         0.30000E+00
         0.30000E+00
         0.30000E+00
         0.30000E+00
         0.30000E+00
         0.30000E+00
         0.30000E+00
         0.30000E+00
         0.30000E+00
         0.30000E+00
         0.30000E+00
         0.30000E+00
         0.30000E+00
         0.30000E+00
         0.30000E+00
         0.30000E+00
         0.30000E+00
         0.30000E+00
         0.30000E+00
         0.30000E+00
         0.30000E+00
         0.30000E+00
         0.30000E+00
         0.30000E+00
         0.30000E+00
         0.30000E+00
         0.30000E+00
         0.30000E+00
         0.30000E+00
         0.30000E+00
         0.30000E+00
         0.30000E+00
         0.30000E+00
         0.30000E+00
         0.30000E+00
         0.30000E+00
         0.30000E+00
         0.30000E+00
         0.30000E+00
         0.30000E+00
         0.30000E+00
         0.30000E+00
         0.30000E+00
         0.30000E+00
         0.30000E+00
         0.30000E+00
         0.30000E+00
         0.30000E+00
         0.30000E+00
         0.30000E+00
         0.30000E+00
         0.30000E+00
         0.30000E+00
         0.30000E+00
         0.30000E+00
         0.30000E+00
         0.30000E+00
         0.30000E+00
         0.30000E+00
         0.30000E+00
         0.30000E+00
         0.30000E+00
         0.30000E+00
         0.30000E+00
         0.30000E+00
         0.30000E+00
         0.30000E+00
         0.30000E+00
         0.30000E+00
         0.30000E+00
         0.30000E+00
         0.30000E+00
         0.30000E+00
         0.30000E+00
         0.30000E+00
         0.30000E+00
         0.30000E+00
         0.30000E+00
         0.30000E+00
         0.30000E+00
         0.30000E+00
         0.30000E+00
         0.30000E+00
         0.30000E+00
         0.30000E+00
         0.30000E+00
         0.30000E+00
         0.30000E+00
         0.30000E+00
         0.30000E+00
         0.30000E+00
         0.30000E+00
         0.30000E+00
         0.30000E+00
         0.30000E+00
         0.30000E+00
         0.30000E+00
         0.30000E+00
         0.30000E+00
         0.30000E+00
         0.30000E+00
         0.30000E+00
         0.30000E+00
         0.30000E+00
         0.30000E+00
         0.30000E+00
         0.30000E+00
         0.30000E+00
         0.30000E+00
         0.30000E+00
         0.30000E+00
         0.30000E+00
         0.30000E+00
         0.30000E+00
         0.30000E+00
         0.30000E+00
         0.30000E+00
         0.30000E+00
         0.30000E+00
         0.30000E+00
         0.30000E+00
         0.30000E+00
         0.30000E+00
         0.30000E+00
         0.30000E+00
         0.30000E+00
         0.30000E+00
         0.30000E+00
         0.30000E+00
         0.30000E+00
         0.30000E+00
         0.30000E+00
         0.30000E+00
         0.30000E+00
         0.30000E+00
         0.30000E+00
         0.30000E+00
         0.30000E+00
         0.30000E+00
         0.30000E+00
         0.30000E+00
         0.30000E+00
         0.30000E+00
         0.30000E+00
         0.30000E+00
         0.30000E+00
         0.30000E+00
         0.30000E+00
         0.30000E+00
         0.30000E+00
         0.30000E+00
         0.30000E+00
         0.30000E+00
         0.30000E+00
         0.30000E+00
         0.30000E+00
         0.30000E+00
         0.30000E+00
         0.30000E+00
         0.30000E+00
         0.30000E+00
         0.30000E+00
         0.30000E+00
         0.30000E+00
         0.30000E+00
         0.30000E+00
         0.30000E+00
         0.30000E+00
         0.30000E+00
         0.30000E+00
         0.30000E+00
         0.30000E+00
         0.30000E+00
         0.30000E+00
         0.30000E+00
         0.30000E+00
         0.30000E+00
         0.30000E+00
         0.30000E+00
         0.30000E+00
         0.30000E+00
         0.30000E+00
         0.30000E+00
         0.30000E+00
         0.30000E+00
         0.30000E+00
         0.30000E+00
         0.30000E+00
         0.30000E+00
         0.30000E+00
         0.30000E+00
         0.30000E+00
         0.30000E+00
         0.30000E+00
         0.30000E+00
         0.30000E+00
         0.30000E+00
         0.30000E+00
         0.30000E+00
         0.30000E+00
         0.30000E+00
         0.30000E+00
         0.30000E+00
         0.30000E+00
         0.30000E+00
         0.30000E+00
         0.30000E+00
         0.30000E+00
         0.30000E+00
         0.30000E+00
         0.30000E+00
         0.30000E+00
         0.30000E+00
         0.30000E+00
         0.30000E+00
         0.30000E+00
         0.30000E+00
         0.30000E+00
         0.30000E+00
         0.30000E+00
         0.30000E+00
         0.30000E+00
         0.30000E+00
         0.30000E+00
         0.30000E+00
         0.30000E+00
         0.30000E+00
         0.30000E+00
         0.30000E+00
         0.30000E+00
         0.30000E+00
         0.30000E+00
         0.30000E+00
         0.30000E+00
         0.30000E+00
         0.30000E+00
         0.30000E+00
         0.30000E+00
         0.30000E+00
         0.30000E+00
         0.30000E+00
         0.30000E+00
         0.30000E+00
         0.30000E+00
         0.30000E+00
         0.30000E+00
         0.30000E+00
         0.30000E+00
         0.30000E+00
         0.30000E+00
         0.30000E+00
         0.30000E+00
         0.30000E+00
         0.30000E+00
         0.30000E+00
         0.30000E+00
         0.30000E+00
         0.30000E+00
         0.30000E+00
         0.30000E+00
         0.30000E+00
         0.30000E+00
         0.30000E+00
         0.30000E+00
         0.30000E+00
         0.30000E+00
         0.30000E+00
         0.30000E+00
         0.30000E+00
         0.30000E+00
         0.30000E+00
         0.30000E+00
         0.30000E+00
         0.30000E+00
         0.30000E+00
         0.30000E+00
         0.30000E+00
         0.30000E+00
         0.30000E+00
         0.30000E+00
         0.30000E+00
         0.30000E+00
         0.30000E+00
         0.30000E+00
         0.30000E+00
         0.30000E+00
         0.30000E+00
         0.30000E+00
         0.30000E+00
         0.30000E+00
         0.30000E+00
         0.30000E+00
         0.30000E+00
         0.30000E+00
         0.30000E+00
         0.30000E+00
         0.30000E+00
         0.30000E+00
         0.30000E+00
         0.30000E+00
         0.30000E+00
         0.30000E+00
         0.30000E+00
         0.30000E+00
         0.30000E+00
         0.30000E+00
         0.30000E+00
         0.30000E+00
         0.30000E+00
         0.30000E+00
         0.30000E+00
         0.30000E+00
         0.30000E+00
         0.30000E+00
         0.30000E+00
         0.30000E+00
         0.30000E+00
         0.30000E+00
         0.30000E+00
         0.30000E+00
         0.30000E+00
         0.30000E+00
         0.30000E+00
         0.30000E+00
         0.30000E+00
         0.30000E+00
         0.30000E+00
         0.30000E+00
         0.30000E+00
         0.30000E+00
         0.30000E+00
         0.30000E+00
         0.30000E+00
         0.30000E+00
         0.30000E+00
         0.30000E+00
         0.30000E+00
         0.30000E+00
         0.30000E+00
         0.30000E+00
         0.30000E+00
         0.30000E+00
         0.30000E+00
         0.30000E+00
         0.30000E+00
         0.30000E+00
         0.30000E+00
         0.30000E+00
         0.30000E+00
         0.30000E+00
         0.30000E+00
         0.30000E+00
         0.30000E+00
         0.30000E+00
         0.30000E+00
         0.30000E+00
         0.30000E+00
         0.30000E+00
         0.30000E+00
         0.30000E+00
         0.30000E+00
         0.30000E+00
         0.30000E+00
         0.30000E+00
         0.30000E+00
         0.30000E+00
         0.30000E+00
         0.30000E+00
         0.30000E+00
         0.30000E+00
         0.30000E+00
         0.30000E+00
         0.30000E+00
         0.30000E+00
         0.30000E+00
         0.30000E+00
         0.30000E+00
         0.30000E+00
         0.30000E+00
         0.30000E+00
         0.30000E+00
         0.30000E+00
         0.30000E+00
         0.30000E+00
         0.30000E+00
         0.30000E+00
         0.30000E+00
         0.30000E+00
         0.30000E+00
         0.30000E+00
         0.30000E+00
         0.30000E+00
         0.30000E+00
         0.30000E+00
         0.30000E+00
         0.30000E+00
         0.30000E+00
         0.30000E+00
         0.30000E+00
         0.30000E+00
         0.30000E+00
         0.30000E+00
         0.30000E+00
         0.30000E+00
         0.30000E+00
         0.30000E+00
         0.30000E+00
         0.30000E+00
         0.30000E+00
         0.30000E+00
         0.30000E+00
         0.30000E+00
         0.30000E+00
         0.30000E+00
         0.30000E+00
         0.30000E+00
         0.30000E+00
         0.30000E+00
         0.30000E+00
         0.30000E+00
         0.30000E+00
         0.30000E+00
         0.30000E+00
         0.30000E+00
         0.30000E+00
         0.30000E+00
         0.30000E+00
         0.30000E+00
         0.30000E+00
         0.30000E+00
         0.30000E+00
         0.30000E+00
         0.30000E+00
         0.30000E+00
         0.30000E+00
         0.30000E+00
         0.30000E+00
         0.30000E+00
         0.30000E+00
         0.30000E+00
         0.30000E+00
         0.30000E+00
         0.30000E+00
         0.30000E+00
         0.30000E+00
         0.30000E+00
         0.30000E+00
         0.30000E+00
         0.30000E+00
         0.30000E+00
         0.30000E+00
         0.30000E+00
         0.30000E+00
         0.30000E+00
         0.30000E+00
         0.30000E+00
         0.30000E+00
         0.30000E+00
         0.30000E+00
         0.30000E+00
         0.30000E+00
         0.30000E+00
         0.30000E+00
         0.30000E+00
         0.30000E+00
         0.30000E+00
         0.30000E+00
         0.30000E+00
         0.30000E+00
         0.30000E+00
         0.30000E+00
         0.30000E+00
         0.30000E+00
         0.30000E+00
         0.30000E+00
         0.30000E+00
         0.30000E+00
         0.30000E+00
         0.30000E+00
         0.30000E+00
         0.30000E+00
         0.30000E+00
         0.30000E+00
         0.30000E+00
         0.30000E+00
         0.30000E+00
         0.30000E+00
         0.30000E+00
         0.30000E+00
         0.30000E+00
         0.30000E+00
         0.30000E+00
         0.30000E+00
         0.30000E+00
         0.30000E+00
         0.30000E+00
         0.30000E+00
         0.30000E+00
         0.30000E+00
         0.30000E+00
         0.30000E+00
         0.30000E+00
         0.30000E+00
         0.30000E+00
         0.30000E+00
         0.30000E+00
         0.30000E+00
         0.30000E+00
         0.30000E+00
         0.30000E+00
         0.30000E+00
         0.30000E+00
         0.30000E+00
         0.30000E+00
         0.30000E+00
         0.30000E+00
         0.30000E+00
         0.30000E+00
         0.30000E+00
         0.30000E+00
         0.30000E+00
         0.30000E+00
         0.30000E+00
         0.30000E+00
         0.30000E+00
         0.30000E+00
         0.30000E+00
         0.30000E+00
         0.30000E+00
         0.30000E+00
         0.30000E+00
         0.30000E+00
         0.30000E+00
         0.30000E+00
         0.30000E+00
         0.30000E+00
         0.30000E+00
         0.30000E+00
         0.30000E+00
         0.30000E+00
         0.30000E+00
         0.30000E+00
         0.30000E+00
         0.30000E+00
         0.30000E+00
         0.30000E+00
         0.30000E+00
         0.30000E+00
         0.30000E+00
         0.30000E+00
         0.30000E+00
         0.30000E+00
         0.30000E+00
         0.30000E+00
         0.30000E+00
         0.30000E+00
         0.30000E+00
         0.30000E+00
         0.30000E+00
         0.30000E+00
         0.30000E+00
         0.30000E+00
         0.30000E+00
         0.30000E+00
         0.30000E+00
         0.30000E+00
         0.30000E+00
         0.30000E+00
         0.30000E+00
         0.30000E+00
         0.30000E+00
         0.30000E+00
         0.30000E+00
         0.30000E+00
         0.30000E+00
         0.30000E+00
         0.30000E+00
         0.30000E+00
         0.30000E+00
         0.30000E+00
         0.30000E+00
         0.30000E+00
         0.30000E+00
         0.30000E+00
         0.30000E+00
         0.30000E+00
         0.30000E+00
         0.30000E+00
         0.30000E+00
         0.30000E+00
         0.30000E+00
         0.30000E+00
         0.30000E+00
         0.30000E+00
         0.30000E+00
         0.30000E+00
         0.30000E+00
         0.30000E+00
         0.30000E+00
         0.30000E+00
         0.30000E+00
         0.30000E+00
         0.30000E+00
         0.30000E+00
         0.30000E+00
         0.30000E+00
         0.30000E+00
         0.30000E+00
         0.30000E+00
         0.30000E+00
         0.30000E+00
         0.30000E+00
         0.30000E+00
         0.30000E+00
         0.30000E+00
         0.30000E+00
         0.30000E+00
         0.30000E+00
         0.30000E+00
         0.30000E+00
         0.30000E+00
         0.30000E+00
         0.30000E+00
         0.30000E+00
         0.30000E+00
         0.30000E+00
         0.30000E+00
         0.30000E+00
         0.30000E+00
         0.30000E+00
         0.30000E+00
         0.30000E+00
         0.30000E+00
         0.30000E+00
         0.30000E+00
         0.30000E+00
         0.30000E+00
         0.30000E+00
         0.30000E+00
         0.30000E+00
         0.30000E+00
         0.30000E+00
         0.30000E+00
         0.30000E+00
         0.30000E+00
         0.30000E+00
         0.30000E+00
         0.30000E+00
         0.30000E+00
         0.30000E+00
         0.30000E+00
         0.30000E+00
         0.30000E+00
         0.30000E+00
         0.30000E+00
         0.30000E+00
         0.30000E+00
         0.30000E+00
         0.30000E+00
         0.30000E+00
         0.30000E+00
         0.30000E+00
         0.30000E+00
         0.30000E+00
         0.30000E+00
         0.30000E+00
         0.30000E+00
         0.30000E+00
         0.30000E+00
         0.30000E+00
         0.30000E+00
         0.30000E+00
         0.30000E+00
         0.30000E+00
         0.30000E+00
         0.30000E+00
         0.30000E+00
         0.30000E+00
         0.30000E+00
         0.30000E+00
         0.30000E+00
         0.30000E+00
         0.30000E+00
         0.30000E+00
         0.30000E+00
         0.30000E+00
         0.30000E+00
         0.30000E+00
         0.30000E+00
         0.30000E+00
         0.30000E+00
         0.30000E+00
         0.30000E+00
         0.30000E+00
         0.30000E+00
         0.30000E+00
         0.30000E+00
         0.30000E+00
         0.30000E+00
         0.30000E+00
         0.30000E+00
         0.30000E+00
         0.30000E+00
         0.30000E+00
         0.30000E+00
         0.30000E+00
         0.30000E+00
         0.30000E+00
         0.30000E+00
         0.30000E+00
         0.30000E+00
         0.30000E+00
         0.30000E+00
         0.30000E+00
         0.30000E+00
         0.30000E+00
         0.30000E+00
         0.30000E+00
         0.30000E+00
         0.30000E+00
         0.30000E+00
         0.30000E+00
         0.30000E+00
         0.30000E+00
         0.30000E+00
         0.30000E+00
         0.30000E+00
         0.30000E+00
         0.30000E+00
         0.30000E+00
         0.30000E+00
         0.30000E+00
         0.30000E+00
         0.30000E+00
         0.30000E+00
         0.30000E+00
         0.30000E+00
         0.30000E+00
         0.30000E+00
         0.30000E+00
         0.30000E+00
         0.30000E+00
         0.30000E+00
         0.30000E+00
         0.30000E+00
         0.30000E+00
         0.30000E+00
         0.30000E+00
         0.30000E+00
         0.30000E+00
         0.30000E+00
         0.30000E+00
         0.30000E+00
         0.30000E+00
         0.30000E+00
         0.30000E+00
         0.30000E+00
         0.30000E+00
         0.30000E+00
         0.30000E+00
         0.30000E+00
         0.30000E+00
         0.30000E+00
         0.30000E+00
         0.30000E+00
         0.30000E+00
         0.30000E+00
         0.30000E+00
         0.30000E+00
         0.30000E+00
         0.30000E+00
         0.30000E+00
         0.30000E+00
         0.30000E+00
         0.30000E+00
         0.30000E+00
         0.30000E+00
         0.30000E+00
         0.30000E+00
         0.30000E+00
         0.30000E+00
         0.30000E+00
         0.30000E+00
         0.30000E+00
         0.30000E+00
         0.30000E+00
         0.30000E+00
         0.30000E+00
         0.30000E+00
         0.30000E+00
         0.30000E+00
         0.30000E+00
         0.30000E+00
         0.30000E+00
         0.30000E+00
         0.30000E+00
         0.30000E+00
         0.30000E+00
         0.30000E+00
         0.30000E+00
         0.30000E+00
         0.30000E+00
         0.30000E+00
         0.30000E+00
         0.30000E+00
         0.30000E+00
         0.30000E+00
         0.30000E+00
         0.30000E+00
         0.30000E+00
         0.30000E+00
         0.30000E+00
         0.30000E+00
         0.30000E+00
         0.30000E+00
         0.30000E+00
         0.30000E+00
         0.30000E+00
         0.30000E+00
         0.30000E+00
         0.30000E+00
         0.30000E+00
         0.30000E+00
         0.30000E+00
         0.30000E+00
         0.30000E+00
         0.30000E+00
         0.30000E+00
         0.30000E+00
         0.30000E+00
         0.30000E+00
         0.30000E+00
         0.30000E+00
         0.30000E+00
         0.30000E+00
         0.30000E+00
         0.30000E+00
         0.30000E+00
         0.30000E+00
         0.30000E+00
         0.30000E+00
         0.30000E+00
         0.30000E+00
         0.30000E+00
         0.30000E+00
         0.30000E+00
         0.30000E+00
         0.30000E+00
         0.30000E+00
         0.30000E+00
         0.30000E+00
         0.30000E+00
         0.30000E+00
         0.30000E+00
         0.30000E+00
         0.30000E+00
         0.30000E+00
         0.30000E+00
         0.30000E+00
         0.30000E+00
         0.30000E+00
         0.30000E+00
         0.30000E+00
         0.30000E+00
         0.30000E+00
         0.30000E+00
         0.30000E+00
         0.30000E+00
         0.30000E+00
         0.30000E+00
         0.30000E+00
         0.30000E+00
         0.30000E+00
         0.30000E+00
         0.30000E+00
         0.30000E+00
         0.30000E+00
         0.30000E+00
         0.30000E+00
         0.30000E+00
         0.30000E+00
         0.30000E+00
         0.30000E+00
         0.30000E+00
         0.30000E+00
         0.30000E+00
         0.30000E+00
         0.30000E+00
         0.30000E+00
         0.30000E+00
         0.30000E+00
         0.30000E+00
         0.30000E+00
         0.30000E+00
         0.30000E+00
         0.30000E+00
         0.30000E+00
         0.30000E+00
         0.30000E+00
         0.30000E+00
         0.30000E+00
         0.30000E+00
         0.30000E+00
         0.30000E+00
         0.30000E+00
         0.30000E+00
         0.30000E+00
         0.30000E+00
         0.30000E+00
         0.30000E+00
         0.30000E+00
         0.30000E+00
         0.30000E+00
         0.30000E+00
         0.30000E+00
         0.30000E+00
         0.30000E+00
         0.30000E+00
         0.30000E+00
         0.30000E+00
         0.30000E+00
         0.30000E+00
         0.30000E+00
         0.30000E+00
         0.30000E+00
         0.30000E+00
         0.30000E+00
         0.30000E+00
         0.30000E+00
         0.30000E+00
         0.30000E+00
         0.30000E+00
         0.30000E+00
         0.30000E+00
         0.30000E+00
         0.30000E+00
         0.30000E+00
         0.30000E+00
         0.30000E+00
         0.30000E+00
         0.30000E+00
         0.30000E+00
         0.30000E+00
         0.30000E+00
         0.30000E+00
         0.30000E+00
         0.30000E+00
         0.30000E+00
         0.30000E+00
         0.30000E+00
         0.30000E+00
         0.30000E+00
         0.30000E+00
         0.30000E+00
         0.30000E+00
         0.30000E+00
         0.30000E+00
         0.30000E+00
         0.30000E+00
         0.30000E+00
         0.30000E+00
         0.30000E+00
         0.30000E+00
         0.30000E+00
         0.30000E+00
         0.30000E+00
         0.30000E+00
         0.30000E+00
         0.30000E+00
         0.30000E+00
         0.30000E+00
         0.30000E+00
         0.30000E+00
         0.30000E+00
         0.30000E+00
         0.30000E+00
         0.30000E+00
         0.30000E+00
         0.30000E+00
         0.30000E+00
         0.30000E+00
         0.30000E+00
         0.30000E+00
         0.30000E+00
         0.30000E+00
         0.30000E+00
         0.30000E+00
         0.30000E+00
         0.30000E+00
         0.30000E+00
         0.30000E+00
         0.30000E+00
         0.30000E+00
         0.30000E+00
         0.30000E+00
         0.30000E+00
         0.30000E+00
         0.30000E+00
         0.30000E+00
         0.30000E+00
         0.30000E+00
         0.30000E+00
         0.30000E+00
         0.30000E+00
         0.30000E+00
         0.30000E+00
         0.30000E+00
         0.30000E+00
         0.30000E+00
         0.30000E+00
         0.30000E+00
         0.30000E+00
         0.30000E+00
         0.30000E+00
         0.30000E+00
         0.30000E+00
         0.30000E+00
         0.30000E+00
         0.30000E+00
         0.30000E+00
         0.30000E+00
         0.30000E+00
         0.30000E+00
         0.30000E+00
         0.30000E+00
         0.30000E+00
         0.30000E+00
         0.30000E+00
         0.30000E+00
         0.30000E+00
         0.30000E+00
         0.30000E+00
         0.30000E+00
         0.30000E+00
         0.30000E+00
         0.30000E+00
         0.30000E+00
         0.30000E+00
         0.30000E+00
         0.30000E+00
         0.30000E+00
         0.30000E+00
         0.30000E+00
         0.30000E+00
         0.30000E+00
         0.30000E+00
         0.30000E+00
         0.30000E+00
         0.30000E+00
         0.30000E+00
         0.30000E+00
         0.30000E+00
         0.30000E+00
         0.30000E+00
         0.30000E+00
         0.30000E+00
         0.30000E+00
         0.30000E+00
         0.30000E+00
         0.30000E+00
         0.30000E+00
         0.30000E+00
         0.30000E+00
         0.30000E+00
         0.30000E+00
         0.30000E+00
         0.30000E+00
         0.30000E+00
         0.30000E+00
         0.30000E+00
         0.30000E+00
         0.30000E+00
         0.30000E+00
         0.30000E+00
         0.30000E+00
         0.30000E+00
         0.30000E+00
         0.30000E+00
         0.30000E+00
         0.30000E+00
         0.30000E+00
         0.30000E+00
         0.30000E+00
         0.30000E+00
         0.30000E+00
         0.30000E+00
         0.30000E+00
         0.30000E+00
         0.30000E+00
         0.30000E+00
         0.30000E+00
         0.30000E+00
         0.30000E+00
         0.30000E+00
         0.30000E+00
         0.30000E+00
         0.30000E+00
         0.30000E+00
         0.30000E+00
         0.30000E+00
         0.30000E+00
         0.30000E+00
         0.30000E+00
         0.30000E+00
         0.30000E+00
         0.30000E+00
         0.30000E+00
         0.30000E+00
         0.30000E+00
         0.30000E+00
         0.30000E+00
         0.30000E+00
         0.30000E+00
         0.30000E+00
         0.30000E+00
         0.30000E+00
         0.30000E+00
         0.30000E+00
         0.30000E+00
         0.30000E+00
         0.30000E+00
         0.30000E+00
         0.30000E+00
         0.30000E+00
         0.30000E+00
         0.30000E+00
         0.30000E+00
         0.30000E+00
         0.30000E+00
         0.30000E+00
         0.30000E+00
         0.30000E+00
         0.30000E+00
         0.30000E+00
         0.30000E+00
         0.30000E+00
         0.30000E+00
         0.30000E+00
         0.30000E+00
         0.30000E+00
         0.30000E+00
         0.30000E+00
         0.30000E+00
         0.30000E+00
         0.30000E+00
         0.30000E+00
         0.30000E+00
         0.30000E+00
         0.30000E+00
         0.30000E+00
         0.30000E+00
         0.30000E+00
         0.30000E+00
         0.30000E+00
         0.30000E+00
         0.30000E+00
         0.30000E+00
         0.30000E+00
         0.30000E+00
         0.30000E+00
         0.30000E+00
         0.30000E+00
         0.30000E+00
         0.30000E+00
         0.30000E+00
         0.30000E+00
         0.30000E+00
         0.30000E+00
         0.30000E+00
         0.30000E+00
         0.30000E+00
         0.30000E+00
         0.30000E+00
         0.30000E+00
         0.30000E+00
         0.30000E+00
         0.30000E+00
         0.30000E+00
         0.30000E+00
         0.30000E+00
         0.30000E+00
         0.30000E+00
         0.30000E+00
         0.30000E+00
         0.30000E+00
         0.30000E+00
         0.30000E+00
         0.30000E+00
         0.30000E+00
         0.30000E+00
         0.30000E+00
         0.30000E+00
         0.30000E+00
         0.30000E+00
         0.30000E+00
         0.30000E+00
         0.30000E+00
         0.30000E+00
         0.30000E+00
         0.30000E+00
         0.30000E+00
         0.30000E+00
         0.30000E+00
         0.30000E+00
         0.30000E+00
         0.30000E+00
         0.30000E+00
         0.30000E+00
         0.30000E+00
         0.30000E+00
         0.30000E+00
         0.30000E+00
         0.30000E+00
         0.30000E+00
         0.30000E+00
         0.30000E+00
         0.30000E+00
         0.30000E+00
         0.30000E+00
         0.30000E+00
         0.30000E+00
         0.30000E+00
         0.30000E+00
         0.30000E+00
         0.30000E+00
         0.30000E+00
         0.30000E+00
         0.30000E+00
         0.30000E+00
         0.30000E+00
         0.30000E+00
         0.30000E+00
         0.30000E+00
         0.30000E+00
         0.30000E+00
         0.30000E+00
         0.30000E+00
         0.30000E+00
         0.30000E+00
         0.30000E+00
         0.30000E+00
         0.30000E+00
         0.30000E+00
         0.30000E+00
         0.30000E+00
         0.30000E+00
         0.30000E+00
         0.30000E+00
         0.30000E+00
         0.30000E+00
         0.30000E+00
         0.30000E+00
         0.30000E+00
         0.30000E+00
         0.30000E+00
         0.30000E+00
         0.30000E+00
         0.30000E+00
         0.30000E+00
         0.30000E+00
         0.30000E+00
         0.30000E+00
         0.30000E+00
         0.30000E+00
         0.30000E+00
         0.30000E+00
         0.30000E+00
         0.30000E+00
         0.30000E+00
         0.30000E+00
         0.30000E+00
         0.30000E+00
         0.30000E+00
         0.30000E+00
         0.30000E+00
         0.30000E+00
         0.30000E+00
         0.30000E+00
         0.30000E+00
         0.30000E+00
         0.30000E+00
         0.30000E+00
         0.30000E+00
         0.30000E+00
         0.30000E+00
         0.30000E+00
         0.30000E+00
         0.30000E+00
         0.30000E+00
         0.30000E+00
         0.30000E+00
         0.30000E+00
         0.30000E+00
         0.30000E+00
         0.30000E+00
         0.30000E+00
         0.30000E+00
         0.30000E+00
         0.30000E+00
         0.30000E+00
         0.30000E+00
         0.30000E+00
         0.30000E+00
         0.30000E+00
         0.30000E+00
         0.30000E+00
         0.30000E+00
         0.30000E+00
         0.30000E+00
         0.30000E+00
         0.30000E+00
         0.30000E+00
         0.30000E+00
         0.30000E+00
         0.30000E+00
         0.30000E+00
         0.30000E+00
         0.30000E+00
         0.30000E+00
         0.30000E+00
         0.30000E+00
         0.30000E+00
         0.30000E+00
         0.30000E+00
         0.30000E+00
         0.30000E+00
         0.30000E+00
         0.30000E+00
         0.30000E+00
         0.30000E+00
         0.30000E+00
         0.30000E+00
         0.30000E+00
         0.30000E+00
         0.30000E+00
         0.30000E+00
         0.30000E+00
         0.30000E+00
         0.30000E+00
         0.30000E+00
         0.30000E+00
         0.30000E+00
         0.30000E+00
         0.30000E+00
         0.30000E+00
         0.30000E+00
         0.30000E+00
         0.30000E+00
         0.30000E+00
         0.30000E+00
         0.30000E+00
         0.30000E+00
         0.30000E+00
         0.30000E+00
         0.30000E+00
         0.30000E+00
         0.30000E+00
         0.30000E+00
         0.30000E+00
         0.30000E+00
         0.30000E+00
         0.30000E+00
         0.30000E+00
         0.30000E+00
         0.30000E+00
         0.30000E+00
         0.30000E+00
         0.30000E+00
         0.30000E+00
         0.30000E+00
         0.30000E+00
         0.30000E+00
         0.30000E+00
         0.30000E+00
         0.30000E+00
         0.30000E+00
         0.30000E+00
         0.30000E+00
         0.30000E+00
         0.30000E+00
         0.30000E+00
         0.30000E+00
         0.30000E+00
         0.30000E+00
         0.30000E+00
         0.30000E+00
         0.30000E+00
         0.30000E+00
         0.30000E+00
         0.30000E+00
         0.30000E+00
         0.30000E+00
         0.30000E+00
         0.30000E+00
         0.30000E+00
         0.30000E+00
         0.30000E+00
         0.30000E+00
         0.30000E+00
         0.30000E+00
         0.30000E+00
         0.30000E+00
         0.30000E+00
         0.30000E+00
         0.30000E+00
         0.30000E+00
         0.30000E+00
         0.30000E+00
         0.30000E+00
         0.30000E+00
         0.30000E+00
         0.30000E+00
         0.30000E+00
         0.30000E+00
         0.30000E+00
         0.30000E+00
         0.30000E+00
         0.30000E+00
         0.30000E+00
         0.30000E+00
         0.30000E+00
         0.30000E+00
         0.30000E+00
         0.30000E+00
         0.30000E+00
         0.30000E+00
         0.30000E+00
         0.30000E+00
         0.30000E+00
         0.30000E+00
         0.30000E+00
         0.30000E+00
         0.30000E+00
         0.30000E+00
         0.30000E+00
         0.30000E+00
         0.30000E+00
         0.30000E+00
         0.30000E+00
         0.30000E+00
         0.30000E+00
         0.30000E+00
         0.30000E+00
         0.30000E+00
         0.30000E+00
         0.30000E+00
         0.30000E+00
         0.30000E+00
         0.30000E+00
         0.30000E+00
         0.30000E+00
         0.30000E+00
         0.30000E+00
         0.30000E+00
         0.30000E+00
         0.30000E+00
         0.30000E+00
         0.30000E+00
         0.30000E+00
         0.30000E+00
         0.30000E+00
         0.30000E+00
         0.30000E+00
         0.30000E+00
         0.30000E+00
         0.30000E+00
         0.30000E+00
         0.30000E+00
         0.30000E+00
         0.30000E+00
         0.30000E+00
         0.30000E+00
         0.30000E+00
         0.30000E+00
         0.30000E+00
         0.30000E+00
         0.30000E+00
         0.30000E+00
         0.30000E+00
         0.30000E+00
         0.30000E+00
         0.30000E+00
         0.30000E+00
         0.30000E+00
         0.30000E+00
         0.30000E+00
         0.30000E+00
         0.30000E+00
         0.30000E+00
         0.30000E+00
         0.30000E+00
         0.30000E+00
         0.30000E+00
         0.30000E+00
         0.30000E+00
         0.30000E+00
         0.30000E+00
         0.30000E+00
         0.30000E+00
         0.30000E+00
         0.30000E+00
         0.30000E+00
         0.30000E+00
         0.30000E+00
         0.30000E+00
         0.30000E+00
         0.30000E+00
         0.30000E+00
         0.30000E+00
         0.30000E+00
         0.30000E+00
         0.30000E+00
         0.30000E+00
         0.30000E+00
         0.30000E+00
         0.30000E+00
         0.30000E+00
         0.30000E+00
         0.30000E+00
         0.30000E+00
         0.30000E+00
         0.30000E+00
         0.30000E+00
         0.30000E+00
         0.30000E+00
         0.30000E+00
         0.30000E+00
         0.30000E+00
         0.30000E+00
         0.30000E+00
         0.30000E+00
         0.30000E+00
         0.30000E+00
         0.30000E+00
         0.30000E+00
         0.30000E+00
         0.30000E+00
         0.30000E+00
         0.30000E+00
         0.30000E+00
         0.30000E+00
         0.30000E+00
         0.30000E+00
         0.30000E+00
         0.30000E+00
         0.30000E+00
         0.30000E+00
         0.30000E+00
         0.30000E+00
         0.30000E+00
         0.30000E+00
         0.30000E+00
         0.30000E+00
         0.30000E+00
         0.30000E+00
         0.30000E+00
         0.30000E+00
         0.30000E+00
         0.30000E+00
         0.30000E+00
         0.30000E+00
         0.30000E+00
         0.30000E+00
         0.30000E+00
         0.30000E+00
         0.30000E+00
         0.30000E+00
         0.30000E+00
         0.30000E+00
         0.30000E+00
         0.30000E+00
         0.30000E+00
         0.30000E+00
         0.30000E+00
         0.30000E+00
         0.30000E+00
         0.30000E+00
         0.30000E+00
         0.30000E+00
         0.30000E+00
         0.30000E+00
         0.30000E+00
         0.30000E+00
         0.30000E+00
         0.30000E+00
         0.30000E+00
         0.30000E+00
         0.30000E+00
         0.30000E+00
         0.30000E+00
         0.30000E+00
         0.30000E+00
         0.30000E+00
         0.30000E+00
         0.30000E+00
         0.30000E+00
         0.30000E+00
         0.30000E+00
         0.30000E+00
         0.30000E+00
         0.30000E+00
         0.30000E+00
         0.30000E+00
         0.30000E+00
         0.30000E+00
         0.30000E+00
         0.30000E+00
         0.30000E+00
         0.30000E+00
         0.30000E+00
         0.30000E+00
         0.30000E+00
         0.30000E+00
         0.30000E+00
         0.30000E+00
         0.30000E+00
         0.30000E+00
         0.30000E+00
         0.30000E+00
         0.30000E+00
         0.30000E+00
         0.30000E+00
         0.30000E+00
         0.30000E+00
         0.30000E+00
         0.30000E+00
         0.30000E+00
         0.30000E+00
         0.30000E+00
         0.30000E+00
         0.30000E+00
         0.30000E+00
         0.30000E+00
         0.30000E+00
         0.30000E+00
         0.30000E+00
         0.30000E+00
         0.30000E+00
         0.30000E+00
         0.30000E+00
         0.30000E+00
         0.30000E+00
         0.30000E+00
         0.30000E+00
         0.30000E+00
         0.30000E+00
         0.30000E+00
         0.30000E+00
         0.30000E+00
         0.30000E+00
         0.30000E+00
         0.30000E+00
         0.30000E+00
         0.30000E+00
         0.30000E+00
         0.30000E+00
         0.30000E+00
         0.30000E+00
         0.30000E+00
         0.30000E+00
         0.30000E+00
         0.30000E+00
         0.30000E+00
         0.30000E+00
         0.30000E+00
         0.30000E+00
         0.30000E+00
         0.30000E+00
         0.30000E+00
         0.30000E+00
         0.30000E+00
         0.30000E+00
         0.30000E+00
         0.30000E+00
         0.30000E+00
         0.30000E+00
         0.30000E+00
         0.30000E+00
         0.30000E+00
         0.30000E+00
         0.30000E+00
         0.30000E+00
         0.30000E+00
         0.30000E+00
         0.30000E+00
         0.30000E+00
         0.30000E+00
         0.30000E+00
         0.30000E+00
         0.30000E+00
         0.30000E+00
         0.30000E+00
         0.30000E+00
         0.30000E+00
         0.30000E+00
         0.30000E+00
         0.30000E+00
         0.30000E+00
         0.30000E+00
         0.30000E+00
         0.30000E+00
         0.30000E+00
         0.30000E+00
         0.30000E+00
         0.30000E+00
         0.30000E+00
         0.30000E+00
         0.30000E+00
         0.30000E+00
         0.30000E+00
         0.30000E+00
         0.30000E+00
         0.30000E+00
         0.30000E+00
         0.30000E+00
         0.30000E+00
         0.30000E+00
         0.30000E+00
         0.30000E+00
         0.30000E+00
         0.30000E+00
         0.30000E+00
         0.30000E+00
         0.30000E+00
         0.30000E+00
         0.30000E+00
         0.30000E+00
         0.30000E+00
         0.30000E+00
         0.30000E+00
         0.30000E+00
         0.30000E+00
         0.30000E+00
         0.30000E+00
         0.30000E+00
         0.30000E+00
         0.30000E+00
         0.30000E+00
         0.30000E+00
         0.30000E+00
         0.30000E+00
         0.30000E+00
         0.30000E+00
         0.30000E+00
         0.30000E+00
         0.30000E+00
         0.30000E+00
         0.30000E+00
         0.30000E+00
         0.30000E+00
         0.30000E+00
         0.30000E+00
         0.30000E+00
         0.30000E+00
         0.30000E+00
         0.30000E+00
         0.30000E+00
         0.30000E+00
         0.30000E+00
         0.30000E+00
         0.30000E+00
         0.30000E+00
         0.30000E+00
         0.30000E+00
         0.30000E+00
         0.30000E+00
         0.30000E+00
         0.30000E+00
         0.30000E+00
         0.30000E+00
         0.30000E+00
         0.30000E+00
         0.30000E+00
         0.30000E+00
         0.30000E+00
         0.30000E+00
         0.30000E+00
         0.30000E+00
         0.30000E+00
         0.30000E+00
         0.30000E+00
         0.30000E+00
         0.30000E+00
         0.30000E+00
         0.30000E+00
         0.30000E+00
         0.30000E+00
         0.30000E+00
         0.30000E+00
         0.30000E+00
         0.30000E+00
         0.30000E+00
         0.30000E+00
         0.30000E+00
         0.30000E+00
         0.30000E+00
         0.30000E+00
         0.30000E+00
         0.30000E+00
         0.30000E+00
         0.30000E+00
         0.30000E+00
         0.30000E+00
         0.30000E+00
         0.30000E+00
         0.30000E+00
         0.30000E+00
         0.30000E+00
         0.30000E+00
         0.30000E+00
         0.30000E+00
         0.30000E+00
         0.30000E+00
         0.30000E+00
         0.30000E+00
         0.30000E+00
         0.30000E+00
         0.30000E+00
         0.30000E+00
         0.30000E+00
         0.30000E+00
         0.30000E+00
         0.30000E+00
         0.30000E+00
         0.30000E+00
         0.30000E+00
         0.30000E+00
         0.30000E+00
         0.30000E+00
         0.30000E+00
         0.30000E+00
         0.30000E+00
         0.30000E+00
  
SCALARS                 Youngs_modulus  double 1
LOOKUP_TABLE default
         0.78200E+11
         0.78200E+11
         0.78200E+11
         0.78200E+11
         0.78200E+11
         0.78200E+11
         0.78200E+11
         0.78200E+11
         0.78200E+11
         0.78200E+11
         0.78200E+11
         0.78200E+11
         0.78200E+11
         0.78200E+11
         0.78200E+11
         0.78200E+11
         0.78200E+11
         0.78200E+11
         0.78200E+11
         0.78200E+11
         0.78200E+11
         0.78200E+11
         0.78200E+11
         0.78200E+11
         0.78200E+11
         0.78200E+11
         0.78200E+11
         0.78200E+11
         0.78200E+11
         0.78200E+11
         0.78200E+11
         0.78200E+11
         0.78200E+11
         0.78200E+11
         0.78200E+11
         0.78200E+11
         0.78200E+11
         0.78200E+11
         0.78200E+11
         0.78200E+11
         0.78200E+11
         0.78200E+11
         0.78200E+11
         0.78200E+11
         0.78200E+11
         0.78200E+11
         0.78200E+11
         0.78200E+11
         0.78200E+11
         0.78200E+11
         0.78200E+11
         0.78200E+11
         0.78200E+11
         0.78200E+11
         0.78200E+11
         0.78200E+11
         0.78200E+11
         0.78200E+11
         0.78200E+11
         0.78200E+11
         0.78200E+11
         0.78200E+11
         0.78200E+11
         0.78200E+11
         0.78200E+11
         0.78200E+11
         0.78200E+11
         0.78200E+11
         0.78200E+11
         0.78200E+11
         0.78200E+11
         0.78200E+11
         0.78200E+11
         0.78200E+11
         0.78200E+11
         0.78200E+11
         0.78200E+11
         0.78200E+11
         0.78200E+11
         0.78200E+11
         0.78200E+11
         0.78200E+11
         0.78200E+11
         0.78200E+11
         0.78200E+11
         0.78200E+11
         0.78200E+11
         0.78200E+11
         0.78200E+11
         0.78200E+11
         0.78200E+11
         0.78200E+11
         0.78200E+11
         0.78200E+11
         0.78200E+11
         0.78200E+11
         0.78200E+11
         0.78200E+11
         0.78200E+11
         0.78200E+11
         0.78200E+11
         0.78200E+11
         0.78200E+11
         0.78200E+11
         0.78200E+11
         0.78200E+11
         0.78200E+11
         0.78200E+11
         0.78200E+11
         0.78200E+11
         0.78200E+11
         0.78200E+11
         0.78200E+11
         0.78200E+11
         0.78200E+11
         0.78200E+11
         0.78200E+11
         0.78200E+11
         0.78200E+11
         0.78200E+11
         0.78200E+11
         0.78200E+11
         0.78200E+11
         0.78200E+11
         0.78200E+11
         0.78200E+11
         0.78200E+11
         0.78200E+11
         0.78200E+11
         0.78200E+11
         0.78200E+11
         0.78200E+11
         0.78200E+11
         0.78200E+11
         0.78200E+11
         0.78200E+11
         0.78200E+11
         0.78200E+11
         0.78200E+11
         0.78200E+11
         0.78200E+11
         0.78200E+11
         0.78200E+11
         0.78200E+11
         0.78200E+11
         0.78200E+11
         0.78200E+11
         0.78200E+11
         0.78200E+11
         0.78200E+11
         0.78200E+11
         0.78200E+11
         0.78200E+11
         0.78200E+11
         0.78200E+11
         0.78200E+11
         0.78200E+11
         0.78200E+11
         0.78200E+11
         0.78200E+11
         0.78200E+11
         0.78200E+11
         0.78200E+11
         0.78200E+11
         0.78200E+11
         0.78200E+11
         0.78200E+11
         0.78200E+11
         0.78200E+11
         0.78200E+11
         0.78200E+11
         0.78200E+11
         0.78200E+11
         0.78200E+11
         0.78200E+11
         0.78200E+11
         0.78200E+11
         0.78200E+11
         0.78200E+11
         0.78200E+11
         0.78200E+11
         0.78200E+11
         0.78200E+11
         0.78200E+11
         0.78200E+11
         0.78200E+11
         0.78200E+11
         0.78200E+11
         0.78200E+11
         0.78200E+11
         0.78200E+11
         0.78200E+11
         0.78200E+11
         0.78200E+11
         0.78200E+11
         0.78200E+11
         0.78200E+11
         0.78200E+11
         0.78200E+11
         0.78200E+11
         0.78200E+11
         0.78200E+11
         0.78200E+11
         0.78200E+11
         0.78200E+11
         0.78200E+11
         0.78200E+11
         0.78200E+11
         0.78200E+11
         0.78200E+11
         0.78200E+11
         0.78200E+11
         0.78200E+11
         0.78200E+11
         0.78200E+11
         0.78200E+11
         0.78200E+11
         0.78200E+11
         0.78200E+11
         0.78200E+11
         0.78200E+11
         0.78200E+11
         0.78200E+11
         0.78200E+11
         0.78200E+11
         0.78200E+11
         0.78200E+11
         0.78200E+11
         0.78200E+11
         0.78200E+11
         0.78200E+11
         0.78200E+11
         0.78200E+11
         0.78200E+11
         0.78200E+11
         0.78200E+11
         0.78200E+11
         0.78200E+11
         0.78200E+11
         0.78200E+11
         0.78200E+11
         0.78200E+11
         0.78200E+11
         0.78200E+11
         0.78200E+11
         0.78200E+11
         0.78200E+11
         0.78200E+11
         0.78200E+11
         0.78200E+11
         0.78200E+11
         0.78200E+11
         0.78200E+11
         0.78200E+11
         0.78200E+11
         0.78200E+11
         0.78200E+11
         0.78200E+11
         0.78200E+11
         0.78200E+11
         0.78200E+11
         0.78200E+11
         0.78200E+11
         0.78200E+11
         0.78200E+11
         0.78200E+11
         0.78200E+11
         0.78200E+11
         0.78200E+11
         0.78200E+11
         0.78200E+11
         0.78200E+11
         0.78200E+11
         0.78200E+11
         0.78200E+11
         0.78200E+11
         0.78200E+11
         0.78200E+11
         0.78200E+11
         0.78200E+11
         0.78200E+11
         0.78200E+11
         0.78200E+11
         0.78200E+11
         0.78200E+11
         0.78200E+11
         0.78200E+11
         0.78200E+11
         0.78200E+11
         0.78200E+11
         0.78200E+11
         0.78200E+11
         0.78200E+11
         0.78200E+11
         0.78200E+11
         0.78200E+11
         0.78200E+11
         0.78200E+11
         0.78200E+11
         0.78200E+11
         0.78200E+11
         0.78200E+11
         0.78200E+11
         0.78200E+11
         0.78200E+11
         0.78200E+11
         0.78200E+11
         0.78200E+11
         0.78200E+11
         0.78200E+11
         0.78200E+11
         0.78200E+11
         0.78200E+11
         0.78200E+11
         0.78200E+11
         0.78200E+11
         0.78200E+11
         0.78200E+11
         0.78200E+11
         0.78200E+11
         0.78200E+11
         0.78200E+11
         0.78200E+11
         0.78200E+11
         0.78200E+11
         0.78200E+11
         0.78200E+11
         0.78200E+11
         0.78200E+11
         0.78200E+11
         0.78200E+11
         0.78200E+11
         0.78200E+11
         0.78200E+11
         0.78200E+11
         0.78200E+11
         0.78200E+11
         0.78200E+11
         0.78200E+11
         0.78200E+11
         0.78200E+11
         0.78200E+11
         0.78200E+11
         0.78200E+11
         0.78200E+11
         0.78200E+11
         0.78200E+11
         0.78200E+11
         0.78200E+11
         0.78200E+11
         0.78200E+11
         0.78200E+11
         0.78200E+11
         0.78200E+11
         0.78200E+11
         0.78200E+11
         0.78200E+11
         0.78200E+11
         0.78200E+11
         0.78200E+11
         0.78200E+11
         0.78200E+11
         0.78200E+11
         0.78200E+11
         0.78200E+11
         0.78200E+11
         0.78200E+11
         0.78200E+11
         0.78200E+11
         0.78200E+11
         0.78200E+11
         0.78200E+11
         0.78200E+11
         0.78200E+11
         0.78200E+11
         0.78200E+11
         0.78200E+11
         0.78200E+11
         0.78200E+11
         0.78200E+11
         0.78200E+11
         0.78200E+11
         0.78200E+11
         0.78200E+11
         0.78200E+11
         0.78200E+11
         0.78200E+11
         0.78200E+11
         0.78200E+11
         0.78200E+11
         0.78200E+11
         0.78200E+11
         0.78200E+11
         0.78200E+11
         0.78200E+11
         0.78200E+11
         0.78200E+11
         0.78200E+11
         0.78200E+11
         0.78200E+11
         0.78200E+11
         0.78200E+11
         0.78200E+11
         0.78200E+11
         0.78200E+11
         0.78200E+11
         0.78200E+11
         0.78200E+11
         0.78200E+11
         0.78200E+11
         0.78200E+11
         0.78200E+11
         0.78200E+11
         0.78200E+11
         0.78200E+11
         0.78200E+11
         0.78200E+11
         0.78200E+11
         0.78200E+11
         0.78200E+11
         0.78200E+11
         0.78200E+11
         0.78200E+11
         0.78200E+11
         0.78200E+11
         0.78200E+11
         0.78200E+11
         0.78200E+11
         0.78200E+11
         0.78200E+11
         0.78200E+11
         0.78200E+11
         0.78200E+11
         0.78200E+11
         0.78200E+11
         0.78200E+11
         0.78200E+11
         0.78200E+11
         0.78200E+11
         0.78200E+11
         0.78200E+11
         0.78200E+11
         0.78200E+11
         0.78200E+11
         0.78200E+11
         0.78200E+11
         0.78200E+11
         0.78200E+11
         0.78200E+11
         0.78200E+11
         0.78200E+11
         0.78200E+11
         0.78200E+11
         0.78200E+11
         0.78200E+11
         0.78200E+11
         0.78200E+11
         0.78200E+11
         0.78200E+11
         0.78200E+11
         0.78200E+11
         0.78200E+11
         0.78200E+11
         0.78200E+11
         0.78200E+11
         0.78200E+11
         0.78200E+11
         0.78200E+11
         0.78200E+11
         0.78200E+11
         0.78200E+11
         0.78200E+11
         0.78200E+11
         0.78200E+11
         0.78200E+11
         0.78200E+11
         0.78200E+11
         0.78200E+11
         0.78200E+11
         0.78200E+11
         0.78200E+11
         0.78200E+11
         0.78200E+11
         0.78200E+11
         0.78200E+11
         0.78200E+11
         0.78200E+11
         0.78200E+11
         0.78200E+11
         0.78200E+11
         0.78200E+11
         0.78200E+11
         0.78200E+11
         0.78200E+11
         0.78200E+11
         0.78200E+11
         0.78200E+11
         0.78200E+11
         0.78200E+11
         0.78200E+11
         0.78200E+11
         0.78200E+11
         0.78200E+11
         0.78200E+11
         0.78200E+11
         0.78200E+11
         0.78200E+11
         0.78200E+11
         0.78200E+11
         0.78200E+11
         0.78200E+11
         0.78200E+11
         0.78200E+11
         0.78200E+11
         0.78200E+11
         0.78200E+11
         0.78200E+11
         0.78200E+11
         0.78200E+11
         0.78200E+11
         0.78200E+11
         0.78200E+11
         0.78200E+11
         0.78200E+11
         0.78200E+11
         0.78200E+11
         0.78200E+11
         0.78200E+11
         0.78200E+11
         0.78200E+11
         0.78200E+11
         0.78200E+11
         0.78200E+11
         0.78200E+11
         0.78200E+11
         0.78200E+11
         0.78200E+11
         0.78200E+11
         0.78200E+11
         0.78200E+11
         0.78200E+11
         0.78200E+11
         0.78200E+11
         0.78200E+11
         0.78200E+11
         0.78200E+11
         0.78200E+11
         0.78200E+11
         0.78200E+11
         0.78200E+11
         0.78200E+11
         0.78200E+11
         0.78200E+11
         0.78200E+11
         0.78200E+11
         0.78200E+11
         0.78200E+11
         0.78200E+11
         0.78200E+11
         0.78200E+11
         0.78200E+11
         0.78200E+11
         0.78200E+11
         0.78200E+11
         0.78200E+11
         0.78200E+11
         0.78200E+11
         0.78200E+11
         0.78200E+11
         0.78200E+11
         0.78200E+11
         0.78200E+11
         0.78200E+11
         0.78200E+11
         0.78200E+11
         0.78200E+11
         0.78200E+11
         0.78200E+11
         0.78200E+11
         0.78200E+11
         0.78200E+11
         0.78200E+11
         0.78200E+11
         0.78200E+11
         0.78200E+11
         0.78200E+11
         0.78200E+11
         0.78200E+11
         0.78200E+11
         0.78200E+11
         0.78200E+11
         0.78200E+11
         0.78200E+11
         0.78200E+11
         0.78200E+11
         0.78200E+11
         0.78200E+11
         0.78200E+11
         0.78200E+11
         0.78200E+11
         0.78200E+11
         0.78200E+11
         0.78200E+11
         0.78200E+11
         0.78200E+11
         0.78200E+11
         0.78200E+11
         0.78200E+11
         0.78200E+11
         0.78200E+11
         0.78200E+11
         0.78200E+11
         0.78200E+11
         0.78200E+11
         0.78200E+11
         0.78200E+11
         0.78200E+11
         0.78200E+11
         0.78200E+11
         0.78200E+11
         0.78200E+11
         0.78200E+11
         0.78200E+11
         0.78200E+11
         0.78200E+11
         0.78200E+11
         0.78200E+11
         0.78200E+11
         0.78200E+11
         0.78200E+11
         0.78200E+11
         0.78200E+11
         0.78200E+11
         0.78200E+11
         0.78200E+11
         0.78200E+11
         0.78200E+11
         0.78200E+11
         0.78200E+11
         0.78200E+11
         0.78200E+11
         0.78200E+11
         0.78200E+11
         0.78200E+11
         0.78200E+11
         0.78200E+11
         0.78200E+11
         0.78200E+11
         0.78200E+11
         0.78200E+11
         0.78200E+11
         0.78200E+11
         0.78200E+11
         0.78200E+11
         0.78200E+11
         0.78200E+11
         0.78200E+11
         0.78200E+11
         0.78200E+11
         0.78200E+11
         0.78200E+11
         0.78200E+11
         0.78200E+11
         0.78200E+11
         0.78200E+11
         0.78200E+11
         0.78200E+11
         0.78200E+11
         0.78200E+11
         0.78200E+11
         0.78200E+11
         0.78200E+11
         0.78200E+11
         0.78200E+11
         0.78200E+11
         0.78200E+11
         0.78200E+11
         0.78200E+11
         0.78200E+11
         0.78200E+11
         0.78200E+11
         0.78200E+11
         0.78200E+11
         0.78200E+11
         0.78200E+11
         0.78200E+11
         0.78200E+11
         0.78200E+11
         0.78200E+11
         0.78200E+11
         0.78200E+11
         0.78200E+11
         0.78200E+11
         0.78200E+11
         0.78200E+11
         0.78200E+11
         0.78200E+11
         0.78200E+11
         0.78200E+11
         0.78200E+11
         0.78200E+11
         0.78200E+11
         0.78200E+11
         0.78200E+11
         0.78200E+11
         0.78200E+11
         0.78200E+11
         0.78200E+11
         0.78200E+11
         0.78200E+11
         0.78200E+11
         0.78200E+11
         0.78200E+11
         0.78200E+11
         0.78200E+11
         0.78200E+11
         0.78200E+11
         0.78200E+11
         0.78200E+11
         0.78200E+11
         0.78200E+11
         0.78200E+11
         0.78200E+11
         0.78200E+11
         0.78200E+11
         0.78200E+11
         0.78200E+11
         0.78200E+11
         0.78200E+11
         0.78200E+11
         0.78200E+11
         0.78200E+11
         0.78200E+11
         0.78200E+11
         0.78200E+11
         0.78200E+11
         0.78200E+11
         0.78200E+11
         0.78200E+11
         0.78200E+11
         0.78200E+11
         0.78200E+11
         0.78200E+11
         0.78200E+11
         0.78200E+11
         0.78200E+11
         0.78200E+11
         0.78200E+11
         0.78200E+11
         0.78200E+11
         0.78200E+11
         0.78200E+11
         0.78200E+11
         0.78200E+11
         0.78200E+11
         0.78200E+11
         0.78200E+11
         0.78200E+11
         0.78200E+11
         0.78200E+11
         0.78200E+11
         0.78200E+11
         0.78200E+11
         0.78200E+11
         0.78200E+11
         0.78200E+11
         0.78200E+11
         0.78200E+11
         0.78200E+11
         0.78200E+11
         0.78200E+11
         0.78200E+11
         0.78200E+11
         0.78200E+11
         0.78200E+11
         0.78200E+11
         0.78200E+11
         0.78200E+11
         0.78200E+11
         0.78200E+11
         0.78200E+11
         0.78200E+11
         0.78200E+11
         0.78200E+11
         0.78200E+11
         0.78200E+11
         0.78200E+11
         0.78200E+11
         0.78200E+11
         0.78200E+11
         0.78200E+11
         0.78200E+11
         0.78200E+11
         0.78200E+11
         0.78200E+11
         0.78200E+11
         0.78200E+11
         0.78200E+11
         0.78200E+11
         0.78200E+11
         0.78200E+11
         0.78200E+11
         0.78200E+11
         0.78200E+11
         0.78200E+11
         0.78200E+11
         0.78200E+11
         0.78200E+11
         0.78200E+11
         0.78200E+11
         0.78200E+11
         0.78200E+11
         0.78200E+11
         0.78200E+11
         0.78200E+11
         0.78200E+11
         0.78200E+11
         0.78200E+11
         0.78200E+11
         0.78200E+11
         0.78200E+11
         0.78200E+11
         0.78200E+11
         0.78200E+11
         0.78200E+11
         0.78200E+11
         0.78200E+11
         0.78200E+11
         0.78200E+11
         0.78200E+11
         0.78200E+11
         0.78200E+11
         0.78200E+11
         0.78200E+11
         0.78200E+11
         0.78200E+11
         0.78200E+11
         0.78200E+11
         0.78200E+11
         0.78200E+11
         0.78200E+11
         0.78200E+11
         0.78200E+11
         0.78200E+11
         0.78200E+11
         0.78200E+11
         0.78200E+11
         0.78200E+11
         0.78200E+11
         0.78200E+11
         0.78200E+11
         0.78200E+11
         0.78200E+11
         0.78200E+11
         0.78200E+11
         0.78200E+11
         0.78200E+11
         0.78200E+11
         0.78200E+11
         0.78200E+11
         0.78200E+11
         0.78200E+11
         0.78200E+11
         0.78200E+11
         0.78200E+11
         0.78200E+11
         0.78200E+11
         0.78200E+11
         0.78200E+11
         0.78200E+11
         0.78200E+11
         0.78200E+11
         0.78200E+11
         0.78200E+11
         0.78200E+11
         0.78200E+11
         0.78200E+11
         0.78200E+11
         0.78200E+11
         0.78200E+11
         0.78200E+11
         0.78200E+11
         0.78200E+11
         0.78200E+11
         0.78200E+11
         0.78200E+11
         0.78200E+11
         0.78200E+11
         0.78200E+11
         0.78200E+11
         0.78200E+11
         0.78200E+11
         0.78200E+11
         0.78200E+11
         0.78200E+11
         0.78200E+11
         0.78200E+11
         0.78200E+11
         0.78200E+11
         0.78200E+11
         0.78200E+11
         0.78200E+11
         0.78200E+11
         0.78200E+11
         0.78200E+11
         0.78200E+11
         0.78200E+11
         0.78200E+11
         0.78200E+11
         0.78200E+11
         0.78200E+11
         0.78200E+11
         0.78200E+11
         0.78200E+11
         0.78200E+11
         0.78200E+11
         0.78200E+11
         0.78200E+11
         0.78200E+11
         0.78200E+11
         0.78200E+11
         0.78200E+11
         0.78200E+11
         0.78200E+11
         0.78200E+11
         0.78200E+11
         0.78200E+11
         0.78200E+11
         0.78200E+11
         0.78200E+11
         0.78200E+11
         0.78200E+11
         0.78200E+11
         0.78200E+11
         0.78200E+11
         0.78200E+11
         0.78200E+11
         0.78200E+11
         0.78200E+11
         0.78200E+11
         0.78200E+11
         0.78200E+11
         0.78200E+11
         0.78200E+11
         0.78200E+11
         0.78200E+11
         0.78200E+11
         0.78200E+11
         0.78200E+11
         0.78200E+11
         0.78200E+11
         0.78200E+11
         0.78200E+11
         0.78200E+11
         0.78200E+11
         0.78200E+11
         0.78200E+11
         0.78200E+11
         0.78200E+11
         0.78200E+11
         0.78200E+11
         0.78200E+11
         0.78200E+11
         0.78200E+11
         0.78200E+11
         0.78200E+11
         0.78200E+11
         0.78200E+11
         0.78200E+11
         0.78200E+11
         0.78200E+11
         0.78200E+11
         0.78200E+11
         0.78200E+11
         0.78200E+11
         0.78200E+11
         0.78200E+11
         0.78200E+11
         0.78200E+11
         0.78200E+11
         0.78200E+11
         0.78200E+11
         0.78200E+11
         0.78200E+11
         0.78200E+11
         0.78200E+11
         0.78200E+11
         0.78200E+11
         0.78200E+11
         0.78200E+11
         0.78200E+11
         0.78200E+11
         0.78200E+11
         0.78200E+11
         0.78200E+11
         0.78200E+11
         0.78200E+11
         0.78200E+11
         0.78200E+11
         0.78200E+11
         0.78200E+11
         0.78200E+11
         0.78200E+11
         0.78200E+11
         0.78200E+11
         0.78200E+11
         0.78200E+11
         0.78200E+11
         0.78200E+11
         0.78200E+11
         0.78200E+11
         0.78200E+11
         0.78200E+11
         0.78200E+11
         0.78200E+11
         0.78200E+11
         0.78200E+11
         0.78200E+11
         0.78200E+11
         0.78200E+11
         0.78200E+11
         0.78200E+11
         0.78200E+11
         0.78200E+11
         0.78200E+11
         0.78200E+11
         0.78200E+11
         0.78200E+11
         0.78200E+11
         0.78200E+11
         0.78200E+11
         0.78200E+11
         0.78200E+11
         0.78200E+11
         0.78200E+11
         0.78200E+11
         0.78200E+11
         0.78200E+11
         0.78200E+11
         0.78200E+11
         0.78200E+11
         0.78200E+11
         0.78200E+11
         0.78200E+11
         0.78200E+11
         0.78200E+11
         0.78200E+11
         0.78200E+11
         0.78200E+11
         0.78200E+11
         0.78200E+11
         0.78200E+11
         0.78200E+11
         0.78200E+11
         0.78200E+11
         0.78200E+11
         0.78200E+11
         0.78200E+11
         0.78200E+11
         0.78200E+11
         0.78200E+11
         0.78200E+11
         0.78200E+11
         0.78200E+11
         0.78200E+11
         0.78200E+11
         0.78200E+11
         0.78200E+11
         0.78200E+11
         0.78200E+11
         0.78200E+11
         0.78200E+11
         0.78200E+11
         0.78200E+11
         0.78200E+11
         0.78200E+11
         0.78200E+11
         0.78200E+11
         0.78200E+11
         0.78200E+11
         0.78200E+11
         0.78200E+11
         0.78200E+11
         0.78200E+11
         0.78200E+11
         0.78200E+11
         0.78200E+11
         0.78200E+11
         0.78200E+11
         0.78200E+11
         0.78200E+11
         0.78200E+11
         0.78200E+11
         0.78200E+11
         0.78200E+11
         0.78200E+11
         0.78200E+11
         0.78200E+11
         0.78200E+11
         0.78200E+11
         0.78200E+11
         0.78200E+11
         0.78200E+11
         0.78200E+11
         0.78200E+11
         0.78200E+11
         0.78200E+11
         0.78200E+11
         0.78200E+11
         0.78200E+11
         0.78200E+11
         0.78200E+11
         0.78200E+11
         0.78200E+11
         0.78200E+11
         0.78200E+11
         0.78200E+11
         0.78200E+11
         0.78200E+11
         0.78200E+11
         0.78200E+11
         0.78200E+11
         0.78200E+11
         0.78200E+11
         0.78200E+11
         0.78200E+11
         0.78200E+11
         0.78200E+11
         0.78200E+11
         0.78200E+11
         0.78200E+11
         0.78200E+11
         0.78200E+11
         0.78200E+11
         0.78200E+11
         0.78200E+11
         0.78200E+11
         0.78200E+11
         0.78200E+11
         0.78200E+11
         0.78200E+11
         0.78200E+11
         0.78200E+11
         0.78200E+11
         0.78200E+11
         0.78200E+11
         0.78200E+11
         0.78200E+11
         0.78200E+11
         0.78200E+11
         0.78200E+11
         0.78200E+11
         0.78200E+11
         0.78200E+11
         0.78200E+11
         0.78200E+11
         0.78200E+11
         0.78200E+11
         0.78200E+11
         0.78200E+11
         0.78200E+11
         0.78200E+11
         0.78200E+11
         0.78200E+11
         0.78200E+11
         0.78200E+11
         0.78200E+11
         0.78200E+11
         0.78200E+11
         0.78200E+11
         0.78200E+11
         0.78200E+11
         0.78200E+11
         0.78200E+11
         0.78200E+11
         0.78200E+11
         0.78200E+11
         0.78200E+11
         0.78200E+11
         0.78200E+11
         0.78200E+11
         0.78200E+11
         0.78200E+11
         0.78200E+11
         0.78200E+11
         0.78200E+11
         0.78200E+11
         0.78200E+11
         0.78200E+11
         0.78200E+11
         0.78200E+11
         0.78200E+11
         0.78200E+11
         0.78200E+11
         0.78200E+11
         0.78200E+11
         0.78200E+11
         0.78200E+11
         0.78200E+11
         0.78200E+11
         0.78200E+11
         0.78200E+11
         0.78200E+11
         0.78200E+11
         0.78200E+11
         0.78200E+11
         0.78200E+11
         0.78200E+11
         0.78200E+11
         0.78200E+11
         0.78200E+11
         0.78200E+11
         0.78200E+11
         0.78200E+11
         0.78200E+11
         0.78200E+11
         0.78200E+11
         0.78200E+11
         0.78200E+11
         0.78200E+11
         0.78200E+11
         0.78200E+11
         0.78200E+11
         0.78200E+11
         0.78200E+11
         0.78200E+11
         0.78200E+11
         0.78200E+11
         0.78200E+11
         0.78200E+11
         0.78200E+11
         0.78200E+11
         0.78200E+11
         0.78200E+11
         0.78200E+11
         0.78200E+11
         0.78200E+11
         0.78200E+11
         0.78200E+11
         0.78200E+11
         0.78200E+11
         0.78200E+11
         0.78200E+11
         0.78200E+11
         0.78200E+11
         0.78200E+11
         0.78200E+11
         0.78200E+11
         0.78200E+11
         0.78200E+11
         0.78200E+11
         0.78200E+11
         0.78200E+11
         0.78200E+11
         0.78200E+11
         0.78200E+11
         0.78200E+11
         0.78200E+11
         0.78200E+11
         0.78200E+11
         0.78200E+11
         0.78200E+11
         0.78200E+11
         0.78200E+11
         0.78200E+11
         0.78200E+11
         0.78200E+11
         0.78200E+11
         0.78200E+11
         0.78200E+11
         0.78200E+11
         0.78200E+11
         0.78200E+11
         0.78200E+11
         0.78200E+11
         0.78200E+11
         0.78200E+11
         0.78200E+11
         0.78200E+11
         0.78200E+11
         0.78200E+11
         0.78200E+11
         0.78200E+11
         0.78200E+11
         0.78200E+11
         0.78200E+11
         0.78200E+11
         0.78200E+11
         0.78200E+11
         0.78200E+11
         0.78200E+11
         0.78200E+11
         0.78200E+11
         0.78200E+11
         0.78200E+11
         0.78200E+11
         0.78200E+11
         0.78200E+11
         0.78200E+11
         0.78200E+11
         0.78200E+11
         0.78200E+11
         0.78200E+11
         0.78200E+11
         0.78200E+11
         0.78200E+11
         0.78200E+11
         0.78200E+11
         0.78200E+11
         0.78200E+11
         0.78200E+11
         0.78200E+11
         0.78200E+11
         0.78200E+11
         0.78200E+11
         0.78200E+11
         0.78200E+11
         0.78200E+11
         0.78200E+11
         0.78200E+11
         0.78200E+11
         0.78200E+11
         0.78200E+11
         0.78200E+11
         0.78200E+11
         0.78200E+11
         0.78200E+11
         0.78200E+11
         0.78200E+11
         0.78200E+11
         0.78200E+11
         0.78200E+11
         0.78200E+11
         0.78200E+11
         0.78200E+11
         0.78200E+11
         0.78200E+11
         0.78200E+11
         0.78200E+11
         0.78200E+11
         0.78200E+11
         0.78200E+11
         0.78200E+11
         0.78200E+11
         0.78200E+11
         0.78200E+11
         0.78200E+11
         0.78200E+11
         0.78200E+11
         0.78200E+11
         0.78200E+11
         0.78200E+11
         0.78200E+11
         0.78200E+11
         0.78200E+11
         0.78200E+11
         0.78200E+11
         0.78200E+11
         0.78200E+11
         0.78200E+11
         0.78200E+11
         0.78200E+11
         0.78200E+11
         0.78200E+11
         0.78200E+11
         0.78200E+11
         0.78200E+11
         0.78200E+11
         0.78200E+11
         0.78200E+11
         0.78200E+11
         0.78200E+11
         0.78200E+11
         0.78200E+11
         0.78200E+11
         0.78200E+11
         0.78200E+11
         0.78200E+11
         0.78200E+11
         0.78200E+11
         0.78200E+11
         0.78200E+11
         0.78200E+11
         0.78200E+11
         0.78200E+11
         0.78200E+11
         0.78200E+11
         0.78200E+11
         0.78200E+11
         0.78200E+11
         0.78200E+11
         0.78200E+11
         0.78200E+11
         0.78200E+11
         0.78200E+11
         0.78200E+11
         0.78200E+11
         0.78200E+11
         0.78200E+11
         0.78200E+11
         0.78200E+11
         0.78200E+11
         0.78200E+11
         0.78200E+11
         0.78200E+11
         0.78200E+11
         0.78200E+11
         0.78200E+11
         0.78200E+11
         0.78200E+11
         0.78200E+11
         0.78200E+11
         0.78200E+11
         0.78200E+11
         0.78200E+11
         0.78200E+11
         0.78200E+11
         0.78200E+11
         0.78200E+11
         0.78200E+11
         0.78200E+11
         0.78200E+11
         0.78200E+11
         0.78200E+11
         0.78200E+11
         0.78200E+11
         0.78200E+11
         0.78200E+11
         0.78200E+11
         0.78200E+11
         0.78200E+11
         0.78200E+11
         0.78200E+11
         0.78200E+11
         0.78200E+11
         0.78200E+11
         0.78200E+11
         0.78200E+11
         0.78200E+11
         0.78200E+11
         0.78200E+11
         0.78200E+11
         0.78200E+11
         0.78200E+11
         0.78200E+11
         0.78200E+11
         0.78200E+11
         0.78200E+11
         0.78200E+11
         0.78200E+11
         0.78200E+11
         0.78200E+11
         0.78200E+11
         0.78200E+11
         0.78200E+11
         0.78200E+11
         0.78200E+11
         0.78200E+11
         0.78200E+11
         0.78200E+11
         0.78200E+11
         0.78200E+11
         0.78200E+11
         0.78200E+11
         0.78200E+11
         0.78200E+11
         0.78200E+11
         0.78200E+11
         0.78200E+11
         0.78200E+11
         0.78200E+11
         0.78200E+11
         0.78200E+11
         0.78200E+11
         0.78200E+11
         0.78200E+11
         0.78200E+11
         0.78200E+11
         0.78200E+11
         0.78200E+11
         0.78200E+11
         0.78200E+11
         0.78200E+11
         0.78200E+11
         0.78200E+11
         0.78200E+11
         0.78200E+11
         0.78200E+11
         0.78200E+11
         0.78200E+11
         0.78200E+11
         0.78200E+11
         0.78200E+11
         0.78200E+11
         0.78200E+11
         0.78200E+11
         0.78200E+11
         0.78200E+11
         0.78200E+11
         0.78200E+11
         0.78200E+11
         0.78200E+11
         0.78200E+11
         0.78200E+11
         0.78200E+11
         0.78200E+11
         0.78200E+11
         0.78200E+11
         0.78200E+11
         0.78200E+11
         0.78200E+11
         0.78200E+11
         0.78200E+11
         0.78200E+11
         0.78200E+11
         0.78200E+11
         0.78200E+11
         0.78200E+11
         0.78200E+11
         0.78200E+11
         0.78200E+11
         0.78200E+11
         0.78200E+11
         0.78200E+11
         0.78200E+11
         0.78200E+11
         0.78200E+11
         0.78200E+11
         0.78200E+11
         0.78200E+11
         0.78200E+11
         0.78200E+11
         0.78200E+11
         0.78200E+11
         0.78200E+11
         0.78200E+11
         0.78200E+11
         0.78200E+11
         0.78200E+11
         0.78200E+11
         0.78200E+11
         0.78200E+11
         0.78200E+11
         0.78200E+11
         0.78200E+11
         0.78200E+11
         0.78200E+11
         0.78200E+11
         0.78200E+11
         0.78200E+11
         0.78200E+11
         0.78200E+11
         0.78200E+11
         0.78200E+11
         0.78200E+11
         0.78200E+11
         0.78200E+11
         0.78200E+11
         0.78200E+11
         0.78200E+11
         0.78200E+11
         0.78200E+11
         0.78200E+11
         0.78200E+11
         0.78200E+11
         0.78200E+11
         0.78200E+11
         0.78200E+11
         0.78200E+11
         0.78200E+11
         0.78200E+11
         0.78200E+11
         0.78200E+11
         0.78200E+11
         0.78200E+11
         0.78200E+11
         0.78200E+11
         0.78200E+11
         0.78200E+11
         0.78200E+11
         0.78200E+11
         0.78200E+11
         0.78200E+11
         0.78200E+11
         0.78200E+11
         0.78200E+11
         0.78200E+11
         0.78200E+11
         0.78200E+11
         0.78200E+11
         0.78200E+11
         0.78200E+11
         0.78200E+11
         0.78200E+11
         0.78200E+11
         0.78200E+11
         0.78200E+11
         0.78200E+11
         0.78200E+11
         0.78200E+11
         0.78200E+11
         0.78200E+11
         0.78200E+11
         0.78200E+11
         0.78200E+11
         0.78200E+11
         0.78200E+11
         0.78200E+11
         0.78200E+11
         0.78200E+11
         0.78200E+11
         0.78200E+11
         0.78200E+11
         0.78200E+11
         0.78200E+11
         0.78200E+11
         0.78200E+11
         0.78200E+11
         0.78200E+11
         0.78200E+11
         0.78200E+11
         0.78200E+11
         0.78200E+11
         0.78200E+11
         0.78200E+11
         0.78200E+11
         0.78200E+11
         0.78200E+11
         0.78200E+11
         0.78200E+11
         0.78200E+11
         0.78200E+11
         0.78200E+11
         0.78200E+11
         0.78200E+11
         0.78200E+11
         0.78200E+11
         0.78200E+11
         0.78200E+11
         0.78200E+11
         0.78200E+11
         0.78200E+11
         0.78200E+11
         0.78200E+11
         0.78200E+11
         0.78200E+11
         0.78200E+11
         0.78200E+11
         0.78200E+11
         0.78200E+11
         0.78200E+11
         0.78200E+11
         0.78200E+11
         0.78200E+11
         0.78200E+11
         0.78200E+11
         0.78200E+11
         0.78200E+11
         0.78200E+11
         0.78200E+11
         0.78200E+11
         0.78200E+11
         0.78200E+11
         0.78200E+11
         0.78200E+11
         0.78200E+11
         0.78200E+11
         0.78200E+11
         0.78200E+11
         0.78200E+11
         0.78200E+11
         0.78200E+11
         0.78200E+11
         0.78200E+11
         0.78200E+11
         0.78200E+11
         0.78200E+11
         0.78200E+11
         0.78200E+11
         0.78200E+11
         0.78200E+11
         0.78200E+11
         0.78200E+11
         0.78200E+11
         0.78200E+11
         0.78200E+11
         0.78200E+11
         0.78200E+11
         0.78200E+11
         0.78200E+11
         0.78200E+11
         0.78200E+11
         0.78200E+11
         0.78200E+11
         0.78200E+11
         0.78200E+11
         0.78200E+11
         0.78200E+11
         0.78200E+11
         0.78200E+11
         0.78200E+11
         0.78200E+11
         0.78200E+11
         0.78200E+11
         0.78200E+11
         0.78200E+11
         0.78200E+11
         0.78200E+11
         0.78200E+11
         0.78200E+11
         0.78200E+11
         0.78200E+11
         0.78200E+11
         0.78200E+11
         0.78200E+11
         0.78200E+11
         0.78200E+11
         0.78200E+11
         0.78200E+11
         0.78200E+11
         0.78200E+11
         0.78200E+11
         0.78200E+11
         0.78200E+11
         0.78200E+11
         0.78200E+11
         0.78200E+11
         0.78200E+11
         0.78200E+11
         0.78200E+11
         0.78200E+11
         0.78200E+11
         0.78200E+11
         0.78200E+11
         0.78200E+11
         0.78200E+11
         0.78200E+11
         0.78200E+11
         0.78200E+11
         0.78200E+11
         0.78200E+11
         0.78200E+11
         0.78200E+11
         0.78200E+11
         0.78200E+11
         0.78200E+11
         0.78200E+11
         0.78200E+11
         0.78200E+11
         0.78200E+11
         0.78200E+11
         0.78200E+11
         0.78200E+11
         0.78200E+11
         0.78200E+11
         0.78200E+11
         0.78200E+11
         0.78200E+11
         0.78200E+11
         0.78200E+11
         0.78200E+11
         0.78200E+11
         0.78200E+11
         0.78200E+11
         0.78200E+11
         0.78200E+11
         0.78200E+11
         0.78200E+11
         0.78200E+11
         0.78200E+11
         0.78200E+11
         0.78200E+11
         0.78200E+11
         0.78200E+11
         0.78200E+11
         0.78200E+11
         0.78200E+11
         0.78200E+11
         0.78200E+11
         0.78200E+11
         0.78200E+11
         0.78200E+11
         0.78200E+11
         0.78200E+11
         0.78200E+11
         0.78200E+11
         0.78200E+11
         0.78200E+11
         0.78200E+11
         0.78200E+11
         0.78200E+11
         0.78200E+11
         0.78200E+11
         0.78200E+11
         0.78200E+11
         0.78200E+11
         0.78200E+11
         0.78200E+11
         0.78200E+11
         0.78200E+11
         0.78200E+11
         0.78200E+11
         0.78200E+11
         0.78200E+11
         0.78200E+11
         0.78200E+11
         0.78200E+11
         0.78200E+11
         0.78200E+11
         0.78200E+11
         0.78200E+11
         0.78200E+11
         0.78200E+11
         0.78200E+11
         0.78200E+11
         0.78200E+11
         0.78200E+11
         0.78200E+11
         0.78200E+11
         0.78200E+11
         0.78200E+11
         0.78200E+11
         0.78200E+11
         0.78200E+11
         0.78200E+11
         0.78200E+11
         0.78200E+11
         0.78200E+11
         0.78200E+11
         0.78200E+11
         0.78200E+11
         0.78200E+11
         0.78200E+11
         0.78200E+11
         0.78200E+11
         0.78200E+11
         0.78200E+11
         0.78200E+11
         0.78200E+11
         0.78200E+11
         0.78200E+11
         0.78200E+11
         0.78200E+11
         0.78200E+11
         0.78200E+11
         0.78200E+11
         0.78200E+11
         0.78200E+11
         0.78200E+11
         0.78200E+11
         0.78200E+11
         0.78200E+11
         0.78200E+11
         0.78200E+11
         0.78200E+11
         0.78200E+11
         0.78200E+11
         0.78200E+11
         0.78200E+11
         0.78200E+11
         0.78200E+11
         0.78200E+11
         0.78200E+11
         0.78200E+11
         0.78200E+11
         0.78200E+11
         0.78200E+11
         0.78200E+11
         0.78200E+11
         0.78200E+11
         0.78200E+11
         0.78200E+11
         0.78200E+11
         0.78200E+11
         0.78200E+11
         0.78200E+11
         0.78200E+11
         0.78200E+11
         0.78200E+11
         0.78200E+11
         0.78200E+11
         0.78200E+11
         0.78200E+11
         0.78200E+11
         0.78200E+11
         0.78200E+11
         0.78200E+11
         0.78200E+11
         0.78200E+11
         0.78200E+11
         0.78200E+11
         0.78200E+11
         0.78200E+11
         0.78200E+11
         0.78200E+11
         0.78200E+11
         0.78200E+11
         0.78200E+11
         0.78200E+11
         0.78200E+11
         0.78200E+11
         0.78200E+11
         0.78200E+11
         0.78200E+11
         0.78200E+11
         0.78200E+11
         0.78200E+11
         0.78200E+11
         0.78200E+11
         0.78200E+11
         0.78200E+11
         0.78200E+11
         0.78200E+11
         0.78200E+11
         0.78200E+11
         0.78200E+11
         0.78200E+11
         0.78200E+11
         0.78200E+11
         0.78200E+11
         0.78200E+11
         0.78200E+11
         0.78200E+11
         0.78200E+11
         0.78200E+11
         0.78200E+11
         0.78200E+11
         0.78200E+11
         0.78200E+11
         0.78200E+11
         0.78200E+11
         0.78200E+11
         0.78200E+11
         0.78200E+11
         0.78200E+11
         0.78200E+11
         0.78200E+11
         0.78200E+11
         0.78200E+11
         0.78200E+11
         0.78200E+11
         0.78200E+11
         0.78200E+11
         0.78200E+11
         0.78200E+11
         0.78200E+11
         0.78200E+11
         0.78200E+11
         0.78200E+11
         0.78200E+11
  
SCALARS                        density  double 1
LOOKUP_TABLE default
         0.27000E+04
         0.27000E+04
         0.27000E+04
         0.27000E+04
         0.27000E+04
         0.27000E+04
         0.27000E+04
         0.27000E+04
         0.27000E+04
         0.27000E+04
         0.27000E+04
         0.27000E+04
         0.27000E+04
         0.27000E+04
         0.27000E+04
         0.27000E+04
         0.27000E+04
         0.27000E+04
         0.27000E+04
         0.27000E+04
         0.27000E+04
         0.27000E+04
         0.27000E+04
         0.27000E+04
         0.27000E+04
         0.27000E+04
         0.27000E+04
         0.27000E+04
         0.27000E+04
         0.27000E+04
         0.27000E+04
         0.27000E+04
         0.27000E+04
         0.27000E+04
         0.27000E+04
         0.27000E+04
         0.27000E+04
         0.27000E+04
         0.27000E+04
         0.27000E+04
         0.27000E+04
         0.27000E+04
         0.27000E+04
         0.27000E+04
         0.27000E+04
         0.27000E+04
         0.27000E+04
         0.27000E+04
         0.27000E+04
         0.27000E+04
         0.27000E+04
         0.27000E+04
         0.27000E+04
         0.27000E+04
         0.27000E+04
         0.27000E+04
         0.27000E+04
         0.27000E+04
         0.27000E+04
         0.27000E+04
         0.27000E+04
         0.27000E+04
         0.27000E+04
         0.27000E+04
         0.27000E+04
         0.27000E+04
         0.27000E+04
         0.27000E+04
         0.27000E+04
         0.27000E+04
         0.27000E+04
         0.27000E+04
         0.27000E+04
         0.27000E+04
         0.27000E+04
         0.27000E+04
         0.27000E+04
         0.27000E+04
         0.27000E+04
         0.27000E+04
         0.27000E+04
         0.27000E+04
         0.27000E+04
         0.27000E+04
         0.27000E+04
         0.27000E+04
         0.27000E+04
         0.27000E+04
         0.27000E+04
         0.27000E+04
         0.27000E+04
         0.27000E+04
         0.27000E+04
         0.27000E+04
         0.27000E+04
         0.27000E+04
         0.27000E+04
         0.27000E+04
         0.27000E+04
         0.27000E+04
         0.27000E+04
         0.27000E+04
         0.27000E+04
         0.27000E+04
         0.27000E+04
         0.27000E+04
         0.27000E+04
         0.27000E+04
         0.27000E+04
         0.27000E+04
         0.27000E+04
         0.27000E+04
         0.27000E+04
         0.27000E+04
         0.27000E+04
         0.27000E+04
         0.27000E+04
         0.27000E+04
         0.27000E+04
         0.27000E+04
         0.27000E+04
         0.27000E+04
         0.27000E+04
         0.27000E+04
         0.27000E+04
         0.27000E+04
         0.27000E+04
         0.27000E+04
         0.27000E+04
         0.27000E+04
         0.27000E+04
         0.27000E+04
         0.27000E+04
         0.27000E+04
         0.27000E+04
         0.27000E+04
         0.27000E+04
         0.27000E+04
         0.27000E+04
         0.27000E+04
         0.27000E+04
         0.27000E+04
         0.27000E+04
         0.27000E+04
         0.27000E+04
         0.27000E+04
         0.27000E+04
         0.27000E+04
         0.27000E+04
         0.27000E+04
         0.27000E+04
         0.27000E+04
         0.27000E+04
         0.27000E+04
         0.27000E+04
         0.27000E+04
         0.27000E+04
         0.27000E+04
         0.27000E+04
         0.27000E+04
         0.27000E+04
         0.27000E+04
         0.27000E+04
         0.27000E+04
         0.27000E+04
         0.27000E+04
         0.27000E+04
         0.27000E+04
         0.27000E+04
         0.27000E+04
         0.27000E+04
         0.27000E+04
         0.27000E+04
         0.27000E+04
         0.27000E+04
         0.27000E+04
         0.27000E+04
         0.27000E+04
         0.27000E+04
         0.27000E+04
         0.27000E+04
         0.27000E+04
         0.27000E+04
         0.27000E+04
         0.27000E+04
         0.27000E+04
         0.27000E+04
         0.27000E+04
         0.27000E+04
         0.27000E+04
         0.27000E+04
         0.27000E+04
         0.27000E+04
         0.27000E+04
         0.27000E+04
         0.27000E+04
         0.27000E+04
         0.27000E+04
         0.27000E+04
         0.27000E+04
         0.27000E+04
         0.27000E+04
         0.27000E+04
         0.27000E+04
         0.27000E+04
         0.27000E+04
         0.27000E+04
         0.27000E+04
         0.27000E+04
         0.27000E+04
         0.27000E+04
         0.27000E+04
         0.27000E+04
         0.27000E+04
         0.27000E+04
         0.27000E+04
         0.27000E+04
         0.27000E+04
         0.27000E+04
         0.27000E+04
         0.27000E+04
         0.27000E+04
         0.27000E+04
         0.27000E+04
         0.27000E+04
         0.27000E+04
         0.27000E+04
         0.27000E+04
         0.27000E+04
         0.27000E+04
         0.27000E+04
         0.27000E+04
         0.27000E+04
         0.27000E+04
         0.27000E+04
         0.27000E+04
         0.27000E+04
         0.27000E+04
         0.27000E+04
         0.27000E+04
         0.27000E+04
         0.27000E+04
         0.27000E+04
         0.27000E+04
         0.27000E+04
         0.27000E+04
         0.27000E+04
         0.27000E+04
         0.27000E+04
         0.27000E+04
         0.27000E+04
         0.27000E+04
         0.27000E+04
         0.27000E+04
         0.27000E+04
         0.27000E+04
         0.27000E+04
         0.27000E+04
         0.27000E+04
         0.27000E+04
         0.27000E+04
         0.27000E+04
         0.27000E+04
         0.27000E+04
         0.27000E+04
         0.27000E+04
         0.27000E+04
         0.27000E+04
         0.27000E+04
         0.27000E+04
         0.27000E+04
         0.27000E+04
         0.27000E+04
         0.27000E+04
         0.27000E+04
         0.27000E+04
         0.27000E+04
         0.27000E+04
         0.27000E+04
         0.27000E+04
         0.27000E+04
         0.27000E+04
         0.27000E+04
         0.27000E+04
         0.27000E+04
         0.27000E+04
         0.27000E+04
         0.27000E+04
         0.27000E+04
         0.27000E+04
         0.27000E+04
         0.27000E+04
         0.27000E+04
         0.27000E+04
         0.27000E+04
         0.27000E+04
         0.27000E+04
         0.27000E+04
         0.27000E+04
         0.27000E+04
         0.27000E+04
         0.27000E+04
         0.27000E+04
         0.27000E+04
         0.27000E+04
         0.27000E+04
         0.27000E+04
         0.27000E+04
         0.27000E+04
         0.27000E+04
         0.27000E+04
         0.27000E+04
         0.27000E+04
         0.27000E+04
         0.27000E+04
         0.27000E+04
         0.27000E+04
         0.27000E+04
         0.27000E+04
         0.27000E+04
         0.27000E+04
         0.27000E+04
         0.27000E+04
         0.27000E+04
         0.27000E+04
         0.27000E+04
         0.27000E+04
         0.27000E+04
         0.27000E+04
         0.27000E+04
         0.27000E+04
         0.27000E+04
         0.27000E+04
         0.27000E+04
         0.27000E+04
         0.27000E+04
         0.27000E+04
         0.27000E+04
         0.27000E+04
         0.27000E+04
         0.27000E+04
         0.27000E+04
         0.27000E+04
         0.27000E+04
         0.27000E+04
         0.27000E+04
         0.27000E+04
         0.27000E+04
         0.27000E+04
         0.27000E+04
         0.27000E+04
         0.27000E+04
         0.27000E+04
         0.27000E+04
         0.27000E+04
         0.27000E+04
         0.27000E+04
         0.27000E+04
         0.27000E+04
         0.27000E+04
         0.27000E+04
         0.27000E+04
         0.27000E+04
         0.27000E+04
         0.27000E+04
         0.27000E+04
         0.27000E+04
         0.27000E+04
         0.27000E+04
         0.27000E+04
         0.27000E+04
         0.27000E+04
         0.27000E+04
         0.27000E+04
         0.27000E+04
         0.27000E+04
         0.27000E+04
         0.27000E+04
         0.27000E+04
         0.27000E+04
         0.27000E+04
         0.27000E+04
         0.27000E+04
         0.27000E+04
         0.27000E+04
         0.27000E+04
         0.27000E+04
         0.27000E+04
         0.27000E+04
         0.27000E+04
         0.27000E+04
         0.27000E+04
         0.27000E+04
         0.27000E+04
         0.27000E+04
         0.27000E+04
         0.27000E+04
         0.27000E+04
         0.27000E+04
         0.27000E+04
         0.27000E+04
         0.27000E+04
         0.27000E+04
         0.27000E+04
         0.27000E+04
         0.27000E+04
         0.27000E+04
         0.27000E+04
         0.27000E+04
         0.27000E+04
         0.27000E+04
         0.27000E+04
         0.27000E+04
         0.27000E+04
         0.27000E+04
         0.27000E+04
         0.27000E+04
         0.27000E+04
         0.27000E+04
         0.27000E+04
         0.27000E+04
         0.27000E+04
         0.27000E+04
         0.27000E+04
         0.27000E+04
         0.27000E+04
         0.27000E+04
         0.27000E+04
         0.27000E+04
         0.27000E+04
         0.27000E+04
         0.27000E+04
         0.27000E+04
         0.27000E+04
         0.27000E+04
         0.27000E+04
         0.27000E+04
         0.27000E+04
         0.27000E+04
         0.27000E+04
         0.27000E+04
         0.27000E+04
         0.27000E+04
         0.27000E+04
         0.27000E+04
         0.27000E+04
         0.27000E+04
         0.27000E+04
         0.27000E+04
         0.27000E+04
         0.27000E+04
         0.27000E+04
         0.27000E+04
         0.27000E+04
         0.27000E+04
         0.27000E+04
         0.27000E+04
         0.27000E+04
         0.27000E+04
         0.27000E+04
         0.27000E+04
         0.27000E+04
         0.27000E+04
         0.27000E+04
         0.27000E+04
         0.27000E+04
         0.27000E+04
         0.27000E+04
         0.27000E+04
         0.27000E+04
         0.27000E+04
         0.27000E+04
         0.27000E+04
         0.27000E+04
         0.27000E+04
         0.27000E+04
         0.27000E+04
         0.27000E+04
         0.27000E+04
         0.27000E+04
         0.27000E+04
         0.27000E+04
         0.27000E+04
         0.27000E+04
         0.27000E+04
         0.27000E+04
         0.27000E+04
         0.27000E+04
         0.27000E+04
         0.27000E+04
         0.27000E+04
         0.27000E+04
         0.27000E+04
         0.27000E+04
         0.27000E+04
         0.27000E+04
         0.27000E+04
         0.27000E+04
         0.27000E+04
         0.27000E+04
         0.27000E+04
         0.27000E+04
         0.27000E+04
         0.27000E+04
         0.27000E+04
         0.27000E+04
         0.27000E+04
         0.27000E+04
         0.27000E+04
         0.27000E+04
         0.27000E+04
         0.27000E+04
         0.27000E+04
         0.27000E+04
         0.27000E+04
         0.27000E+04
         0.27000E+04
         0.27000E+04
         0.27000E+04
         0.27000E+04
         0.27000E+04
         0.27000E+04
         0.27000E+04
         0.27000E+04
         0.27000E+04
         0.27000E+04
         0.27000E+04
         0.27000E+04
         0.27000E+04
         0.27000E+04
         0.27000E+04
         0.27000E+04
         0.27000E+04
         0.27000E+04
         0.27000E+04
         0.27000E+04
         0.27000E+04
         0.27000E+04
         0.27000E+04
         0.27000E+04
         0.27000E+04
         0.27000E+04
         0.27000E+04
         0.27000E+04
         0.27000E+04
         0.27000E+04
         0.27000E+04
         0.27000E+04
         0.27000E+04
         0.27000E+04
         0.27000E+04
         0.27000E+04
         0.27000E+04
         0.27000E+04
         0.27000E+04
         0.27000E+04
         0.27000E+04
         0.27000E+04
         0.27000E+04
         0.27000E+04
         0.27000E+04
         0.27000E+04
         0.27000E+04
         0.27000E+04
         0.27000E+04
         0.27000E+04
         0.27000E+04
         0.27000E+04
         0.27000E+04
         0.27000E+04
         0.27000E+04
         0.27000E+04
         0.27000E+04
         0.27000E+04
         0.27000E+04
         0.27000E+04
         0.27000E+04
         0.27000E+04
         0.27000E+04
         0.27000E+04
         0.27000E+04
         0.27000E+04
         0.27000E+04
         0.27000E+04
         0.27000E+04
         0.27000E+04
         0.27000E+04
         0.27000E+04
         0.27000E+04
         0.27000E+04
         0.27000E+04
         0.27000E+04
         0.27000E+04
         0.27000E+04
         0.27000E+04
         0.27000E+04
         0.27000E+04
         0.27000E+04
         0.27000E+04
         0.27000E+04
         0.27000E+04
         0.27000E+04
         0.27000E+04
         0.27000E+04
         0.27000E+04
         0.27000E+04
         0.27000E+04
         0.27000E+04
         0.27000E+04
         0.27000E+04
         0.27000E+04
         0.27000E+04
         0.27000E+04
         0.27000E+04
         0.27000E+04
         0.27000E+04
         0.27000E+04
         0.27000E+04
         0.27000E+04
         0.27000E+04
         0.27000E+04
         0.27000E+04
         0.27000E+04
         0.27000E+04
         0.27000E+04
         0.27000E+04
         0.27000E+04
         0.27000E+04
         0.27000E+04
         0.27000E+04
         0.27000E+04
         0.27000E+04
         0.27000E+04
         0.27000E+04
         0.27000E+04
         0.27000E+04
         0.27000E+04
         0.27000E+04
         0.27000E+04
         0.27000E+04
         0.27000E+04
         0.27000E+04
         0.27000E+04
         0.27000E+04
         0.27000E+04
         0.27000E+04
         0.27000E+04
         0.27000E+04
         0.27000E+04
         0.27000E+04
         0.27000E+04
         0.27000E+04
         0.27000E+04
         0.27000E+04
         0.27000E+04
         0.27000E+04
         0.27000E+04
         0.27000E+04
         0.27000E+04
         0.27000E+04
         0.27000E+04
         0.27000E+04
         0.27000E+04
         0.27000E+04
         0.27000E+04
         0.27000E+04
         0.27000E+04
         0.27000E+04
         0.27000E+04
         0.27000E+04
         0.27000E+04
         0.27000E+04
         0.27000E+04
         0.27000E+04
         0.27000E+04
         0.27000E+04
         0.27000E+04
         0.27000E+04
         0.27000E+04
         0.27000E+04
         0.27000E+04
         0.27000E+04
         0.27000E+04
         0.27000E+04
         0.27000E+04
         0.27000E+04
         0.27000E+04
         0.27000E+04
         0.27000E+04
         0.27000E+04
         0.27000E+04
         0.27000E+04
         0.27000E+04
         0.27000E+04
         0.27000E+04
         0.27000E+04
         0.27000E+04
         0.27000E+04
         0.27000E+04
         0.27000E+04
         0.27000E+04
         0.27000E+04
         0.27000E+04
         0.27000E+04
         0.27000E+04
         0.27000E+04
         0.27000E+04
         0.27000E+04
         0.27000E+04
         0.27000E+04
         0.27000E+04
         0.27000E+04
         0.27000E+04
         0.27000E+04
         0.27000E+04
         0.27000E+04
         0.27000E+04
         0.27000E+04
         0.27000E+04
         0.27000E+04
         0.27000E+04
         0.27000E+04
         0.27000E+04
         0.27000E+04
         0.27000E+04
         0.27000E+04
         0.27000E+04
         0.27000E+04
         0.27000E+04
         0.27000E+04
         0.27000E+04
         0.27000E+04
         0.27000E+04
         0.27000E+04
         0.27000E+04
         0.27000E+04
         0.27000E+04
         0.27000E+04
         0.27000E+04
         0.27000E+04
         0.27000E+04
         0.27000E+04
         0.27000E+04
         0.27000E+04
         0.27000E+04
         0.27000E+04
         0.27000E+04
         0.27000E+04
         0.27000E+04
         0.27000E+04
         0.27000E+04
         0.27000E+04
         0.27000E+04
         0.27000E+04
         0.27000E+04
         0.27000E+04
         0.27000E+04
         0.27000E+04
         0.27000E+04
         0.27000E+04
         0.27000E+04
         0.27000E+04
         0.27000E+04
         0.27000E+04
         0.27000E+04
         0.27000E+04
         0.27000E+04
         0.27000E+04
         0.27000E+04
         0.27000E+04
         0.27000E+04
         0.27000E+04
         0.27000E+04
         0.27000E+04
         0.27000E+04
         0.27000E+04
         0.27000E+04
         0.27000E+04
         0.27000E+04
         0.27000E+04
         0.27000E+04
         0.27000E+04
         0.27000E+04
         0.27000E+04
         0.27000E+04
         0.27000E+04
         0.27000E+04
         0.27000E+04
         0.27000E+04
         0.27000E+04
         0.27000E+04
         0.27000E+04
         0.27000E+04
         0.27000E+04
         0.27000E+04
         0.27000E+04
         0.27000E+04
         0.27000E+04
         0.27000E+04
         0.27000E+04
         0.27000E+04
         0.27000E+04
         0.27000E+04
         0.27000E+04
         0.27000E+04
         0.27000E+04
         0.27000E+04
         0.27000E+04
         0.27000E+04
         0.27000E+04
         0.27000E+04
         0.27000E+04
         0.27000E+04
         0.27000E+04
         0.27000E+04
         0.27000E+04
         0.27000E+04
         0.27000E+04
         0.27000E+04
         0.27000E+04
         0.27000E+04
         0.27000E+04
         0.27000E+04
         0.27000E+04
         0.27000E+04
         0.27000E+04
         0.27000E+04
         0.27000E+04
         0.27000E+04
         0.27000E+04
         0.27000E+04
         0.27000E+04
         0.27000E+04
         0.27000E+04
         0.27000E+04
         0.27000E+04
         0.27000E+04
         0.27000E+04
         0.27000E+04
         0.27000E+04
         0.27000E+04
         0.27000E+04
         0.27000E+04
         0.27000E+04
         0.27000E+04
         0.27000E+04
         0.27000E+04
         0.27000E+04
         0.27000E+04
         0.27000E+04
         0.27000E+04
         0.27000E+04
         0.27000E+04
         0.27000E+04
         0.27000E+04
         0.27000E+04
         0.27000E+04
         0.27000E+04
         0.27000E+04
         0.27000E+04
         0.27000E+04
         0.27000E+04
         0.27000E+04
         0.27000E+04
         0.27000E+04
         0.27000E+04
         0.27000E+04
         0.27000E+04
         0.27000E+04
         0.27000E+04
         0.27000E+04
         0.27000E+04
         0.27000E+04
         0.27000E+04
         0.27000E+04
         0.27000E+04
         0.27000E+04
         0.27000E+04
         0.27000E+04
         0.27000E+04
         0.27000E+04
         0.27000E+04
         0.27000E+04
         0.27000E+04
         0.27000E+04
         0.27000E+04
         0.27000E+04
         0.27000E+04
         0.27000E+04
         0.27000E+04
         0.27000E+04
         0.27000E+04
         0.27000E+04
         0.27000E+04
         0.27000E+04
         0.27000E+04
         0.27000E+04
         0.27000E+04
         0.27000E+04
         0.27000E+04
         0.27000E+04
         0.27000E+04
         0.27000E+04
         0.27000E+04
         0.27000E+04
         0.27000E+04
         0.27000E+04
         0.27000E+04
         0.27000E+04
         0.27000E+04
         0.27000E+04
         0.27000E+04
         0.27000E+04
         0.27000E+04
         0.27000E+04
         0.27000E+04
         0.27000E+04
         0.27000E+04
         0.27000E+04
         0.27000E+04
         0.27000E+04
         0.27000E+04
         0.27000E+04
         0.27000E+04
         0.27000E+04
         0.27000E+04
         0.27000E+04
         0.27000E+04
         0.27000E+04
         0.27000E+04
         0.27000E+04
         0.27000E+04
         0.27000E+04
         0.27000E+04
         0.27000E+04
         0.27000E+04
         0.27000E+04
         0.27000E+04
         0.27000E+04
         0.27000E+04
         0.27000E+04
         0.27000E+04
         0.27000E+04
         0.27000E+04
         0.27000E+04
         0.27000E+04
         0.27000E+04
         0.27000E+04
         0.27000E+04
         0.27000E+04
         0.27000E+04
         0.27000E+04
         0.27000E+04
         0.27000E+04
         0.27000E+04
         0.27000E+04
         0.27000E+04
         0.27000E+04
         0.27000E+04
         0.27000E+04
         0.27000E+04
         0.27000E+04
         0.27000E+04
         0.27000E+04
         0.27000E+04
         0.27000E+04
         0.27000E+04
         0.27000E+04
         0.27000E+04
         0.27000E+04
         0.27000E+04
         0.27000E+04
         0.27000E+04
         0.27000E+04
         0.27000E+04
         0.27000E+04
         0.27000E+04
         0.27000E+04
         0.27000E+04
         0.27000E+04
         0.27000E+04
         0.27000E+04
         0.27000E+04
         0.27000E+04
         0.27000E+04
         0.27000E+04
         0.27000E+04
         0.27000E+04
         0.27000E+04
         0.27000E+04
         0.27000E+04
         0.27000E+04
         0.27000E+04
         0.27000E+04
         0.27000E+04
         0.27000E+04
         0.27000E+04
         0.27000E+04
         0.27000E+04
         0.27000E+04
         0.27000E+04
         0.27000E+04
         0.27000E+04
         0.27000E+04
         0.27000E+04
         0.27000E+04
         0.27000E+04
         0.27000E+04
         0.27000E+04
         0.27000E+04
         0.27000E+04
         0.27000E+04
         0.27000E+04
         0.27000E+04
         0.27000E+04
         0.27000E+04
         0.27000E+04
         0.27000E+04
         0.27000E+04
         0.27000E+04
         0.27000E+04
         0.27000E+04
         0.27000E+04
         0.27000E+04
         0.27000E+04
         0.27000E+04
         0.27000E+04
         0.27000E+04
         0.27000E+04
         0.27000E+04
         0.27000E+04
         0.27000E+04
         0.27000E+04
         0.27000E+04
         0.27000E+04
         0.27000E+04
         0.27000E+04
         0.27000E+04
         0.27000E+04
         0.27000E+04
         0.27000E+04
         0.27000E+04
         0.27000E+04
         0.27000E+04
         0.27000E+04
         0.27000E+04
         0.27000E+04
         0.27000E+04
         0.27000E+04
         0.27000E+04
         0.27000E+04
         0.27000E+04
         0.27000E+04
         0.27000E+04
         0.27000E+04
         0.27000E+04
         0.27000E+04
         0.27000E+04
         0.27000E+04
         0.27000E+04
         0.27000E+04
         0.27000E+04
         0.27000E+04
         0.27000E+04
         0.27000E+04
         0.27000E+04
         0.27000E+04
         0.27000E+04
         0.27000E+04
         0.27000E+04
         0.27000E+04
         0.27000E+04
         0.27000E+04
         0.27000E+04
         0.27000E+04
         0.27000E+04
         0.27000E+04
         0.27000E+04
         0.27000E+04
         0.27000E+04
         0.27000E+04
         0.27000E+04
         0.27000E+04
         0.27000E+04
         0.27000E+04
         0.27000E+04
         0.27000E+04
         0.27000E+04
         0.27000E+04
         0.27000E+04
         0.27000E+04
         0.27000E+04
         0.27000E+04
         0.27000E+04
         0.27000E+04
         0.27000E+04
         0.27000E+04
         0.27000E+04
         0.27000E+04
         0.27000E+04
         0.27000E+04
         0.27000E+04
         0.27000E+04
         0.27000E+04
         0.27000E+04
         0.27000E+04
         0.27000E+04
         0.27000E+04
         0.27000E+04
         0.27000E+04
         0.27000E+04
         0.27000E+04
         0.27000E+04
         0.27000E+04
         0.27000E+04
         0.27000E+04
         0.27000E+04
         0.27000E+04
         0.27000E+04
         0.27000E+04
         0.27000E+04
         0.27000E+04
         0.27000E+04
         0.27000E+04
         0.27000E+04
         0.27000E+04
         0.27000E+04
         0.27000E+04
         0.27000E+04
         0.27000E+04
         0.27000E+04
         0.27000E+04
         0.27000E+04
         0.27000E+04
         0.27000E+04
         0.27000E+04
         0.27000E+04
         0.27000E+04
         0.27000E+04
         0.27000E+04
         0.27000E+04
         0.27000E+04
         0.27000E+04
         0.27000E+04
         0.27000E+04
         0.27000E+04
         0.27000E+04
         0.27000E+04
         0.27000E+04
         0.27000E+04
         0.27000E+04
         0.27000E+04
         0.27000E+04
         0.27000E+04
         0.27000E+04
         0.27000E+04
         0.27000E+04
         0.27000E+04
         0.27000E+04
         0.27000E+04
         0.27000E+04
         0.27000E+04
         0.27000E+04
         0.27000E+04
         0.27000E+04
         0.27000E+04
         0.27000E+04
         0.27000E+04
         0.27000E+04
         0.27000E+04
         0.27000E+04
         0.27000E+04
         0.27000E+04
         0.27000E+04
         0.27000E+04
         0.27000E+04
         0.27000E+04
         0.27000E+04
         0.27000E+04
         0.27000E+04
         0.27000E+04
         0.27000E+04
         0.27000E+04
         0.27000E+04
         0.27000E+04
         0.27000E+04
         0.27000E+04
         0.27000E+04
         0.27000E+04
         0.27000E+04
         0.27000E+04
         0.27000E+04
         0.27000E+04
         0.27000E+04
         0.27000E+04
         0.27000E+04
         0.27000E+04
         0.27000E+04
         0.27000E+04
         0.27000E+04
         0.27000E+04
         0.27000E+04
         0.27000E+04
         0.27000E+04
         0.27000E+04
         0.27000E+04
         0.27000E+04
         0.27000E+04
         0.27000E+04
         0.27000E+04
         0.27000E+04
         0.27000E+04
         0.27000E+04
         0.27000E+04
         0.27000E+04
         0.27000E+04
         0.27000E+04
         0.27000E+04
         0.27000E+04
         0.27000E+04
         0.27000E+04
         0.27000E+04
         0.27000E+04
         0.27000E+04
         0.27000E+04
         0.27000E+04
         0.27000E+04
         0.27000E+04
         0.27000E+04
         0.27000E+04
         0.27000E+04
         0.27000E+04
         0.27000E+04
         0.27000E+04
         0.27000E+04
         0.27000E+04
         0.27000E+04
         0.27000E+04
         0.27000E+04
         0.27000E+04
         0.27000E+04
         0.27000E+04
         0.27000E+04
         0.27000E+04
         0.27000E+04
         0.27000E+04
         0.27000E+04
         0.27000E+04
         0.27000E+04
         0.27000E+04
         0.27000E+04
         0.27000E+04
         0.27000E+04
         0.27000E+04
         0.27000E+04
         0.27000E+04
         0.27000E+04
         0.27000E+04
         0.27000E+04
         0.27000E+04
         0.27000E+04
         0.27000E+04
         0.27000E+04
         0.27000E+04
         0.27000E+04
         0.27000E+04
         0.27000E+04
         0.27000E+04
         0.27000E+04
         0.27000E+04
         0.27000E+04
         0.27000E+04
         0.27000E+04
         0.27000E+04
         0.27000E+04
         0.27000E+04
         0.27000E+04
         0.27000E+04
         0.27000E+04
         0.27000E+04
         0.27000E+04
         0.27000E+04
         0.27000E+04
         0.27000E+04
         0.27000E+04
         0.27000E+04
         0.27000E+04
         0.27000E+04
         0.27000E+04
         0.27000E+04
         0.27000E+04
         0.27000E+04
         0.27000E+04
         0.27000E+04
         0.27000E+04
         0.27000E+04
         0.27000E+04
         0.27000E+04
         0.27000E+04
         0.27000E+04
         0.27000E+04
         0.27000E+04
         0.27000E+04
         0.27000E+04
         0.27000E+04
         0.27000E+04
         0.27000E+04
         0.27000E+04
         0.27000E+04
         0.27000E+04
         0.27000E+04
         0.27000E+04
         0.27000E+04
         0.27000E+04
         0.27000E+04
         0.27000E+04
         0.27000E+04
         0.27000E+04
         0.27000E+04
         0.27000E+04
         0.27000E+04
         0.27000E+04
         0.27000E+04
         0.27000E+04
         0.27000E+04
         0.27000E+04
         0.27000E+04
         0.27000E+04
         0.27000E+04
         0.27000E+04
         0.27000E+04
         0.27000E+04
         0.27000E+04
         0.27000E+04
         0.27000E+04
         0.27000E+04
         0.27000E+04
         0.27000E+04
         0.27000E+04
         0.27000E+04
         0.27000E+04
         0.27000E+04
         0.27000E+04
         0.27000E+04
         0.27000E+04
         0.27000E+04
         0.27000E+04
         0.27000E+04
         0.27000E+04
         0.27000E+04
         0.27000E+04
         0.27000E+04
         0.27000E+04
         0.27000E+04
         0.27000E+04
         0.27000E+04
         0.27000E+04
         0.27000E+04
         0.27000E+04
         0.27000E+04
         0.27000E+04
         0.27000E+04
         0.27000E+04
         0.27000E+04
         0.27000E+04
         0.27000E+04
         0.27000E+04
         0.27000E+04
         0.27000E+04
         0.27000E+04
         0.27000E+04
         0.27000E+04
         0.27000E+04
         0.27000E+04
         0.27000E+04
         0.27000E+04
         0.27000E+04
         0.27000E+04
         0.27000E+04
         0.27000E+04
         0.27000E+04
         0.27000E+04
         0.27000E+04
         0.27000E+04
         0.27000E+04
         0.27000E+04
         0.27000E+04
         0.27000E+04
         0.27000E+04
         0.27000E+04
         0.27000E+04
         0.27000E+04
         0.27000E+04
         0.27000E+04
         0.27000E+04
         0.27000E+04
         0.27000E+04
         0.27000E+04
         0.27000E+04
         0.27000E+04
         0.27000E+04
         0.27000E+04
         0.27000E+04
         0.27000E+04
         0.27000E+04
         0.27000E+04
         0.27000E+04
         0.27000E+04
         0.27000E+04
         0.27000E+04
         0.27000E+04
         0.27000E+04
         0.27000E+04
         0.27000E+04
         0.27000E+04
         0.27000E+04
         0.27000E+04
         0.27000E+04
         0.27000E+04
         0.27000E+04
         0.27000E+04
         0.27000E+04
         0.27000E+04
         0.27000E+04
         0.27000E+04
         0.27000E+04
         0.27000E+04
         0.27000E+04
         0.27000E+04
         0.27000E+04
         0.27000E+04
         0.27000E+04
         0.27000E+04
         0.27000E+04
         0.27000E+04
         0.27000E+04
         0.27000E+04
         0.27000E+04
         0.27000E+04
         0.27000E+04
         0.27000E+04
         0.27000E+04
         0.27000E+04
         0.27000E+04
         0.27000E+04
         0.27000E+04
         0.27000E+04
         0.27000E+04
         0.27000E+04
         0.27000E+04
         0.27000E+04
         0.27000E+04
         0.27000E+04
         0.27000E+04
         0.27000E+04
         0.27000E+04
         0.27000E+04
         0.27000E+04
         0.27000E+04
         0.27000E+04
         0.27000E+04
         0.27000E+04
         0.27000E+04
         0.27000E+04
         0.27000E+04
         0.27000E+04
         0.27000E+04
         0.27000E+04
         0.27000E+04
         0.27000E+04
         0.27000E+04
         0.27000E+04
         0.27000E+04
         0.27000E+04
         0.27000E+04
         0.27000E+04
         0.27000E+04
         0.27000E+04
         0.27000E+04
         0.27000E+04
         0.27000E+04
         0.27000E+04
         0.27000E+04
         0.27000E+04
         0.27000E+04
         0.27000E+04
         0.27000E+04
         0.27000E+04
         0.27000E+04
         0.27000E+04
         0.27000E+04
         0.27000E+04
         0.27000E+04
         0.27000E+04
         0.27000E+04
         0.27000E+04
         0.27000E+04
         0.27000E+04
         0.27000E+04
         0.27000E+04
         0.27000E+04
         0.27000E+04
         0.27000E+04
         0.27000E+04
         0.27000E+04
         0.27000E+04
         0.27000E+04
         0.27000E+04
         0.27000E+04
         0.27000E+04
         0.27000E+04
         0.27000E+04
         0.27000E+04
         0.27000E+04
         0.27000E+04
         0.27000E+04
         0.27000E+04
         0.27000E+04
         0.27000E+04
         0.27000E+04
         0.27000E+04
         0.27000E+04
         0.27000E+04
         0.27000E+04
         0.27000E+04
         0.27000E+04
         0.27000E+04
         0.27000E+04
         0.27000E+04
         0.27000E+04
         0.27000E+04
         0.27000E+04
         0.27000E+04
         0.27000E+04
         0.27000E+04
         0.27000E+04
         0.27000E+04
         0.27000E+04
         0.27000E+04
         0.27000E+04
         0.27000E+04
         0.27000E+04
         0.27000E+04
         0.27000E+04
         0.27000E+04
         0.27000E+04
         0.27000E+04
         0.27000E+04
         0.27000E+04
         0.27000E+04
         0.27000E+04
         0.27000E+04
         0.27000E+04
         0.27000E+04
         0.27000E+04
         0.27000E+04
         0.27000E+04
         0.27000E+04
         0.27000E+04
         0.27000E+04
         0.27000E+04
         0.27000E+04
         0.27000E+04
         0.27000E+04
         0.27000E+04
         0.27000E+04
         0.27000E+04
         0.27000E+04
         0.27000E+04
         0.27000E+04
         0.27000E+04
         0.27000E+04
         0.27000E+04
         0.27000E+04
         0.27000E+04
         0.27000E+04
         0.27000E+04
         0.27000E+04
         0.27000E+04
         0.27000E+04
         0.27000E+04
         0.27000E+04
         0.27000E+04
         0.27000E+04
         0.27000E+04
         0.27000E+04
         0.27000E+04
         0.27000E+04
         0.27000E+04
         0.27000E+04
         0.27000E+04
         0.27000E+04
         0.27000E+04
         0.27000E+04
         0.27000E+04
         0.27000E+04
         0.27000E+04
         0.27000E+04
         0.27000E+04
         0.27000E+04
         0.27000E+04
         0.27000E+04
         0.27000E+04
         0.27000E+04
         0.27000E+04
         0.27000E+04
         0.27000E+04
         0.27000E+04
         0.27000E+04
         0.27000E+04
         0.27000E+04
         0.27000E+04
         0.27000E+04
         0.27000E+04
         0.27000E+04
         0.27000E+04
         0.27000E+04
         0.27000E+04
         0.27000E+04
         0.27000E+04
         0.27000E+04
         0.27000E+04
         0.27000E+04
         0.27000E+04
         0.27000E+04
         0.27000E+04
         0.27000E+04
         0.27000E+04
         0.27000E+04
         0.27000E+04
         0.27000E+04
         0.27000E+04
         0.27000E+04
         0.27000E+04
         0.27000E+04
         0.27000E+04
         0.27000E+04
         0.27000E+04
         0.27000E+04
         0.27000E+04
         0.27000E+04
         0.27000E+04
         0.27000E+04
         0.27000E+04
         0.27000E+04
         0.27000E+04
         0.27000E+04
         0.27000E+04
         0.27000E+04
         0.27000E+04
         0.27000E+04
         0.27000E+04
         0.27000E+04
         0.27000E+04
         0.27000E+04
         0.27000E+04
         0.27000E+04
         0.27000E+04
         0.27000E+04
         0.27000E+04
         0.27000E+04
         0.27000E+04
         0.27000E+04
         0.27000E+04
         0.27000E+04
         0.27000E+04
         0.27000E+04
         0.27000E+04
         0.27000E+04
         0.27000E+04
         0.27000E+04
         0.27000E+04
         0.27000E+04
         0.27000E+04
         0.27000E+04
         0.27000E+04
         0.27000E+04
         0.27000E+04
         0.27000E+04
         0.27000E+04
         0.27000E+04
         0.27000E+04
         0.27000E+04
         0.27000E+04
         0.27000E+04
         0.27000E+04
         0.27000E+04
         0.27000E+04
         0.27000E+04
         0.27000E+04
         0.27000E+04
         0.27000E+04
         0.27000E+04
         0.27000E+04
         0.27000E+04
         0.27000E+04
         0.27000E+04
         0.27000E+04
         0.27000E+04
         0.27000E+04
         0.27000E+04
         0.27000E+04
         0.27000E+04
         0.27000E+04
         0.27000E+04
         0.27000E+04
         0.27000E+04
         0.27000E+04
         0.27000E+04
         0.27000E+04
         0.27000E+04
         0.27000E+04
         0.27000E+04
         0.27000E+04
         0.27000E+04
         0.27000E+04
         0.27000E+04
         0.27000E+04
         0.27000E+04
         0.27000E+04
         0.27000E+04
         0.27000E+04
         0.27000E+04
         0.27000E+04
         0.27000E+04
         0.27000E+04
         0.27000E+04
         0.27000E+04
         0.27000E+04
         0.27000E+04
         0.27000E+04
         0.27000E+04
         0.27000E+04
         0.27000E+04
         0.27000E+04
         0.27000E+04
         0.27000E+04
         0.27000E+04
         0.27000E+04
         0.27000E+04
         0.27000E+04
         0.27000E+04
         0.27000E+04
         0.27000E+04
         0.27000E+04
         0.27000E+04
         0.27000E+04
         0.27000E+04
         0.27000E+04
         0.27000E+04
         0.27000E+04
         0.27000E+04
         0.27000E+04
         0.27000E+04
         0.27000E+04
         0.27000E+04
         0.27000E+04
         0.27000E+04
         0.27000E+04
         0.27000E+04
         0.27000E+04
         0.27000E+04
         0.27000E+04
         0.27000E+04
         0.27000E+04
         0.27000E+04
         0.27000E+04
         0.27000E+04
         0.27000E+04
         0.27000E+04
         0.27000E+04
         0.27000E+04
         0.27000E+04
         0.27000E+04
         0.27000E+04
         0.27000E+04
         0.27000E+04
         0.27000E+04
         0.27000E+04
         0.27000E+04
         0.27000E+04
         0.27000E+04
         0.27000E+04
         0.27000E+04
         0.27000E+04
         0.27000E+04
         0.27000E+04
         0.27000E+04
         0.27000E+04
         0.27000E+04
         0.27000E+04
         0.27000E+04
         0.27000E+04
         0.27000E+04
         0.27000E+04
         0.27000E+04
         0.27000E+04
         0.27000E+04
         0.27000E+04
         0.27000E+04
         0.27000E+04
         0.27000E+04
         0.27000E+04
         0.27000E+04
         0.27000E+04
         0.27000E+04
         0.27000E+04
         0.27000E+04
         0.27000E+04
         0.27000E+04
         0.27000E+04
         0.27000E+04
         0.27000E+04
         0.27000E+04
         0.27000E+04
         0.27000E+04
         0.27000E+04
         0.27000E+04
         0.27000E+04
         0.27000E+04
         0.27000E+04
         0.27000E+04
         0.27000E+04
         0.27000E+04
         0.27000E+04
         0.27000E+04
         0.27000E+04
         0.27000E+04
         0.27000E+04
         0.27000E+04
         0.27000E+04
         0.27000E+04
         0.27000E+04
         0.27000E+04
         0.27000E+04
         0.27000E+04
         0.27000E+04
         0.27000E+04
         0.27000E+04
         0.27000E+04
         0.27000E+04
         0.27000E+04
         0.27000E+04
         0.27000E+04
         0.27000E+04
         0.27000E+04
         0.27000E+04
         0.27000E+04
         0.27000E+04
         0.27000E+04
         0.27000E+04
         0.27000E+04
         0.27000E+04
         0.27000E+04
         0.27000E+04
         0.27000E+04
         0.27000E+04
         0.27000E+04
         0.27000E+04
         0.27000E+04
         0.27000E+04
         0.27000E+04
         0.27000E+04
         0.27000E+04
         0.27000E+04
         0.27000E+04
         0.27000E+04
         0.27000E+04
         0.27000E+04
         0.27000E+04
         0.27000E+04
         0.27000E+04
         0.27000E+04
         0.27000E+04
         0.27000E+04
         0.27000E+04
         0.27000E+04
         0.27000E+04
         0.27000E+04
         0.27000E+04
         0.27000E+04
         0.27000E+04
         0.27000E+04
         0.27000E+04
         0.27000E+04
         0.27000E+04
         0.27000E+04
         0.27000E+04
         0.27000E+04
         0.27000E+04
         0.27000E+04
         0.27000E+04
         0.27000E+04
         0.27000E+04
         0.27000E+04
         0.27000E+04
         0.27000E+04
         0.27000E+04
         0.27000E+04
         0.27000E+04
         0.27000E+04
         0.27000E+04
         0.27000E+04
         0.27000E+04
         0.27000E+04
         0.27000E+04
         0.27000E+04
         0.27000E+04
         0.27000E+04
         0.27000E+04
         0.27000E+04
         0.27000E+04
         0.27000E+04
         0.27000E+04
         0.27000E+04
         0.27000E+04
         0.27000E+04
         0.27000E+04
         0.27000E+04
         0.27000E+04
         0.27000E+04
         0.27000E+04
         0.27000E+04
         0.27000E+04
         0.27000E+04
         0.27000E+04
         0.27000E+04
         0.27000E+04
         0.27000E+04
         0.27000E+04
         0.27000E+04
         0.27000E+04
         0.27000E+04
         0.27000E+04
         0.27000E+04
         0.27000E+04
         0.27000E+04
         0.27000E+04
         0.27000E+04
         0.27000E+04
         0.27000E+04
         0.27000E+04
         0.27000E+04
         0.27000E+04
         0.27000E+04
         0.27000E+04
         0.27000E+04
         0.27000E+04
         0.27000E+04
         0.27000E+04
